(2, 1, 0)
1.0
7.570718 0.000000 0.000000
0.000000 7.336722 -8.471716
0.000000 0.000000 50.830298
Li P
48 16
Selective dynamics
direct
0.250000 0.500000 0.020833 T T T Li+
0.250000 0.000000 0.062500 F F F Li+
0.750000 0.500000 0.020833 T T T Li+
0.750000 0.000000 0.062500 T T T Li+
0.915881 0.333333 0.034722 T T T Li+
0.915881 0.833333 0.076389 F F F Li+
0.415881 0.166667 0.048611 T T T Li+
0.415881 0.666667 0.006944 T T T Li+
0.084119 0.166667 0.048611 T T T Li+
0.084119 0.666667 0.006944 T T T Li+
0.584119 0.333333 0.034722 T T T Li+
0.584119 0.833333 0.076389 F F F Li+
0.250000 0.500000 0.104167 F F F Li+
0.250000 0.000000 0.145833 F F F Li+
0.750000 0.500000 0.104167 F F F Li+
0.750000 0.000000 0.145833 F F F Li+
0.915881 0.333333 0.118056 F F F Li+
0.915881 0.833333 0.159722 F F F Li+
0.415881 0.166667 0.131944 F F F Li+
0.415881 0.666667 0.090278 F F F Li+
0.084119 0.166667 0.131944 F F F Li+
0.084119 0.666667 0.090278 F F F Li+
0.584119 0.333333 0.118056 F F F Li+
0.584119 0.833333 0.159722 F F F Li+
0.250000 0.500000 0.187500 F F F Li+
0.250000 0.000000 0.229167 F F F Li+
0.750000 0.500000 0.187500 F F F Li+
0.750000 0.000000 0.229167 F F F Li+
0.915881 0.333333 0.201389 F F F Li+
0.915881 0.833333 0.243056 F F F Li+
0.415881 0.166667 0.215278 F F F Li+
0.415881 0.666667 0.173611 F F F Li+
0.084119 0.166667 0.215278 F F F Li+
0.084119 0.666667 0.173611 F F F Li+
0.584119 0.333333 0.201389 F F F Li+
0.584119 0.833333 0.243056 F F F Li+
0.250000 0.500000 0.270833 T T T Li+
0.250000 0.000000 0.312500 T T T Li+
0.750000 0.500000 0.270833 F F F Li+
0.750000 0.000000 0.312500 T T T Li+
0.915881 0.333333 0.284722 T T T Li+
0.915881 0.833333 0.326389 T T T Li+
0.415881 0.166667 0.298611 T T T Li+
0.415881 0.666667 0.256944 F F F Li+
0.084119 0.166667 0.298611 T T T Li+
0.084119 0.666667 0.256944 F F F Li+
0.584119 0.333333 0.284722 T T T Li+
0.584119 0.833333 0.326389 T T T Li+
0.250000 0.333333 0.034722 T T T P3+
0.250000 0.833333 0.076389 F F F P3+
0.750000 0.166667 0.048611 T T T P3+
0.750000 0.666667 0.006944 T T T P3+
0.250000 0.333333 0.118056 F F F P3+
0.250000 0.833333 0.159722 F F F P3+
0.750000 0.166667 0.131944 F F F P3+
0.750000 0.666667 0.090278 F F F P3+
0.250000 0.333333 0.201389 F F F P3+
0.250000 0.833333 0.243056 F F F P3+
0.750000 0.166667 0.215278 F F F P3+
0.750000 0.666667 0.173611 F F F P3+
0.250000 0.333333 0.284722 T T T P3+
0.250000 0.833333 0.326389 T T T P3+
0.750000 0.166667 0.298611 T T T P3+
0.750000 0.666667 0.256944 F F F P3+
