Li73 P24 N1 O95                         
   1.00000000000000     
    14.7021931450875147   -0.0000933838308927   -0.0016919269557505
     0.0000150251909322   10.5711100142451038   -0.0029345812362373
    -0.0013250115636630   -0.0034889994995608   12.3010494206976198
   Li   P    N    O 
    73    24     1    95
Direct
  0.1752171714263044  0.4533851237481201 -0.0013740597470390
  0.1695938034231361  0.4200173024565037  0.4996972423160805
  0.1699006408831679  0.9201456819154636  0.0007241754426909
  0.1694610914347985  0.9208119940006794  0.5008335528722018
  0.5030713282541319  0.4246222937763094  0.0003688674257429
  0.5030622949072562  0.4232587479084580  0.5002836181465958
  0.5023458632205102  0.9224707697283184  0.0004627303243708
  0.5032909497047536  0.9221043662338777  0.5005532423280609
  0.8419993822472016  0.4244133593158424  0.0002367612498681
  0.8348302276888995  0.4235992088839344  0.5006639392089148
  0.8363396218322968  0.9211535615374310  0.0009508841817372
  0.8364060751716650  0.9221842689382072  0.5009739541148280
  0.0025636204985237  0.0773252919716094  0.2521500928497917
  0.0028758110209156  0.0776839668207066  0.7499458782589209
  0.0028840075888404  0.5776438258936836  0.2465971138570338
  0.0029753802398454  0.5777606300847408  0.7543422498809109
  0.3386152883145901  0.0766488919495332  0.2529904000971276
  0.3381037184407364  0.0767973363210041  0.7483948703635880
  0.3366649607765334  0.5780666973662436  0.2490167381272232
  0.3367936150425585  0.5786972053029215  0.7511764927720080
  0.6689780043668404  0.0782819168741993  0.2509677696124474
  0.6690323153869422  0.0782226008025338  0.7507252096074709
  0.6700112548162152  0.5786622140355622  0.2508319176558252
  0.6701419017211824  0.5787552434125233  0.7505320955097196
  0.1769982227227913  0.1543634385246848  0.1375360542155444
  0.1694201164835952  0.1633521450067894  0.6254998226065743
  0.1656087871453285  0.6662761101465176  0.1263697804244300
  0.1691396028752581  0.6602742811950943  0.6269324229042679
  0.5026658750901246  0.1642336267646771  0.1269767192916045
  0.5029394428013569  0.1637611667206794  0.6266153042280601
  0.5061727181674697  0.6644972555226897  0.1272738910806743
  0.5025000341906632  0.6635428953147342  0.6268281305486743
  0.8339689187969627  0.1627356021993034  0.1273336842398060
  0.8353720290005827  0.1637765687923678  0.6269648105838690
  0.8388351761932343  0.6623783313986938  0.1252257513100019
  0.8364474223878948  0.6635025210895910  0.6271034731033804
 -0.0067395446034535  0.3456073012610319  0.1307847546840274
  0.0011004762567905  0.3370230814490593  0.6228571946852053
  0.0023760410806293  0.8327744084035062  0.1238628021015999
  0.0027504793322304  0.8356502066798202  0.6246357586958731
  0.3351578441364272  0.3394589485544439  0.1227178746783871
  0.3370318767315386  0.3365707559417787  0.6245184686506063
  0.3363823871973337  0.8377213649330809  0.1247839820486763
  0.3360352268064111  0.8355912409338228  0.6236950101815629
  0.6702715321064139  0.3381302856597987  0.1238729425047396
  0.6682889779766440  0.3370732324603172  0.6236838473364735
  0.6703927828631587  0.8371453937152060  0.1243669462193481
  0.6697981744210767  0.8372060258318271  0.6245492026510825
  0.0008632513709440  0.3366036763649948  0.3782011900729618
 -0.0044272131603675  0.3452472266703732  0.8711686325948440
  0.0026831180343287  0.8356162727054931  0.3770096784589914
  0.0021468410509486  0.8326153321553764  0.8778671924470017
  0.3372779680836338  0.3360742190396963  0.3753481874339519
  0.3353482839145328  0.3395309320282026  0.8771526495200926
  0.3360996582282412  0.8353683404893372  0.3770357949199385
  0.3364093161318071  0.8378875517944694  0.8761237770543125
  0.6680700427300115  0.3368304305061489  0.3780576279397590
  0.6700663609342038  0.3380640548185931  0.8774226726539506
  0.6697545710410905  0.8371318615323619  0.3771293235678881
  0.6703737008718605  0.8372783479285997  0.8770066833401432
  0.1694467768095351  0.1625025060673906  0.3757033475345822
  0.1760256266693975  0.1567034833136954  0.8646558506093067
  0.1688518496731155  0.6588982217841045  0.3727370219604468
  0.1657099301963149  0.6670087459127956  0.8739167056507124
  0.5030523752996384  0.1635111626762880  0.3747007902527748
  0.5023895291300675  0.1642189678860535  0.8740504231285611
  0.5025492654329499  0.6635374375640798  0.3738702573992053
  0.5063542327215776  0.6645749130991511  0.8737332952369996
  0.8352854634144450  0.1631904157114560  0.3750681902446898
  0.8345304993272015  0.1634503689374812  0.8746237830126493
  0.8363286295864946  0.6633153814448841  0.3738743417695218
  0.8387873131532350  0.6626189340635884  0.8760555898687257
  0.1020272484741256  0.2809820848766772  0.0048573520919631
  0.1658808448369173  0.4095295018094440  0.2474231527732614
  0.1663046448410016  0.4108968419003999  0.7518348942890662
  0.1673815250530675  0.9100613565787323  0.2526454579594221
  0.1672621025351876  0.9110527751857180  0.7490822712211276
  0.5002162086703138  0.4127601966206372  0.2498298101320790
  0.5001363711250897  0.4129789870414095  0.7506798409802609
  0.5006261148478681  0.9126605290786794  0.2505877845601234
  0.5005426931671902  0.9127133839910214  0.7503031374878589
  0.8308352595457776  0.4118474076452390  0.2527818577969091
  0.8314403221959004  0.4122662241156589  0.7486425697242901
  0.8334952305265837  0.9129489018791274  0.2508479679094946
  0.8336803346369110  0.9132291171379998  0.7509824465139718
  0.0012502516610012  0.0862917864544745  0.0013622592660031
  0.0000819138085592  0.0873758529376556  0.5009493683902837
  0.0026513377042076  0.5787975132627652  0.0006730238217476
  0.0003661542876036  0.5873045074753748  0.5002303748089607
  0.3321705150017014  0.0898296623007729  0.0005077489441773
  0.3340190691369773  0.0871511614766596  0.5006792602002049
  0.3371460324954355  0.5954222124667766  0.0001873341142630
  0.3333138221078034  0.5862120765675755  0.4998924603739612
  0.6658795520763967  0.0878880407984219  0.0006955785019302
  0.6666430230424891  0.0877482861476011  0.5009045768177581
  0.6684010341522459  0.5882734284836397  0.0006262284064764
  0.6665562840008240  0.5887697270949985  0.5006119941708853
  0.0375464479224253  0.4377652315731402  0.0011513184095916
  0.0354565661778218  0.1567624957021759  0.3970694545476395
  0.0400045523483178  0.1590900326481380  0.8997964697325067
  0.0355135173304422  0.6558965018945037  0.3959396400121956
  0.0351482900738388  0.6582212480037876  0.8967523072726588
  0.3695301405049525  0.1564117128477150  0.3969545129814880
  0.3669824858582088  0.1586354724232439  0.8962762501517096
  0.3682917770398624  0.6557316891604632  0.3959507091900978
  0.3741870440686680  0.6607640301160741  0.8957300552631713
  0.7015720660286966  0.1571296406167542  0.3969395852162617
  0.7011132368541361  0.1572384827268677  0.8968636398015361
  0.7021826801600382  0.6576707792497992  0.3967507423578925
  0.7028591723464643  0.6579421251537479  0.8965241893080387
  0.2031928131615919  0.0491538936905640  0.2558300488088044
  0.2025533637345546  0.0503775482614442  0.7462009871285521
  0.2009261812226296  0.5487545622636768  0.2460782755098951
  0.2011069586951404  0.5502979892978381  0.7533261154301505
  0.5333847511585822  0.0530906463435028  0.2508564341697827
  0.5333978978250394  0.0530703601386183  0.7501614096964095
  0.5342929829278585  0.5524367496506358  0.2507402683175168
  0.5343364092236921  0.5525861911461011  0.7500551526362256
  0.8675921039246852  0.0529237518269559  0.2509331268652984
  0.8678150333906868  0.0531894217386285  0.7510136796775126
  0.8663874453196788  0.5507261932179730  0.2512850858518622
  0.8663808719137469  0.5514483930622146  0.7499028385601741
  0.0604693355036783  0.4071593563160605  0.2533218343487551
  0.0608046119895996  0.4082268211613919  0.7472545220563209
  0.0615327453176453  0.9101555681630644  0.2510822628717441
  0.0614171750813455  0.9103502798108298  0.7506726880382819
  0.3942019863137425  0.4102878476247022  0.2489342712071128
  0.3941192815107855  0.4106889698123179  0.7510683003944646
  0.3946576477755073  0.9091647064407582  0.2507178748857497
  0.3945864879844411  0.9092554652998651  0.7500974849010107
  0.7249917045939224  0.4106578697187792  0.2532350376811079
  0.7255497754188042  0.4105766809937581  0.7486858984785931
  0.7275493755409542  0.9109195170402220  0.2511111968633282
  0.7277331074680377  0.9111799963220552  0.7505029946589463
  0.2255685814615351  0.0938681241346379  0.0006857119366383
  0.2280801319190992  0.0898904992694233  0.5006815080982385
  0.2317886955600259  0.6083481965558486  0.0001141688642278
  0.2273362362275669  0.5873956107855048  0.4998211470663155
  0.5598729308729614  0.0902898348576213  0.0004259404422376
  0.5607057181768519  0.0900688157529263  0.5007593715354166
  0.5622720225226971  0.5906217028474686  0.0006023672635346
  0.5605821390643865  0.5918885911854930  0.5004502865056346
  0.8959476261581980  0.0917666019661927  0.0009957746951521
  0.8942103893285039  0.0902222950606121  0.5010196587297295
  0.8948191877170873  0.5915065030305876  0.0004305406687705
  0.8944280734293095  0.5904581098529440  0.5004916058681435
  0.1987591860305257  0.3398687442835918  0.1410831433981375
  0.2038294905967936  0.3412743692908122  0.6490404568358523
  0.2029338863696893  0.8436840427445442  0.1477224943635118
  0.2017467418793788  0.8399959752587944  0.6458323273380084
  0.5354516189348846  0.3437775257653888  0.1457209851389481
  0.5346548051177608  0.3432915237424387  0.6465510650897696
  0.5363427514042869  0.8445935434723267  0.1463979531544206
  0.5358917569118807  0.8433497000409546  0.6464959457685850
  0.8640838719011672  0.3402336004736516  0.1493327095410731
  0.8669159019839183  0.3435200099188220  0.6443989173999284
  0.8684216039235382  0.8443028292131122  0.1467036105523772
  0.8690045237362652  0.8437540652455687  0.6471106372125072
  0.0393708786031859  0.1582598646975655  0.1038753076690532
  0.0354899920126762  0.1569356783340051  0.6048203732627522
  0.0349637958971852  0.6585178301082228  0.1046424052090205
  0.0356954499014478  0.6564906349576163  0.6042280826996609
  0.3670469019442293  0.1587129880984238  0.1047715402896564
  0.3694128298036183  0.1563432367926657  0.6045751425905511
  0.3740360223177860  0.6607791332990709  0.1047979522514884
  0.3681955841284290  0.6559572957848407  0.6038606941292078
  0.7007589832400252  0.1569729959004234  0.1048916594915797
  0.7015662213009977  0.1571924981164042  0.6049101857389022
  0.7028598679904876  0.6577988241741383  0.1048873112857904
  0.7021322995352642  0.6578561838408060  0.6044826729522182
  0.0342473132087890  0.4472819954114306  0.5002136849501356
  0.0345046909697808  0.9472583909607141  0.0010877407033764
  0.0340376196326838  0.9475609205567693  0.5008968434768433
  0.3648749991542564  0.4526978180070390  0.0001140833264032
  0.3677229223936020  0.4466256844747336  0.4999379236479091
  0.3651566546822173  0.9498389835041692  0.0004981530450646
  0.3674896514850009  0.9470931280992759  0.5005329259578697
  0.7022521786375341  0.4485674388691187  0.0005110586860206
  0.6995561355787788  0.4485633570915248  0.5007493564714532
  0.7004730515971720  0.9484418076146857  0.0006827722798353
  0.7008021241809606  0.9480840029540564  0.5008878352300581
  0.2042295666878588  0.3395953309372628  0.3495622744130749
  0.2000054427045850  0.3412874741227824  0.8575967494991102
  0.2017356348859728  0.8387740804113881  0.3557557069244590
  0.2030871233282008  0.8445920653020504  0.8537666266152595
  0.5345351907189285  0.3430456760077233  0.3540160100842477
  0.5351463562023300  0.3438399469250991  0.8548186268372296
  0.5359672811057290  0.8433725943055280  0.3543926279696525
  0.5362690328545413  0.8446539295860837  0.8544468162678140
  0.8666069174116081  0.3428488102671748  0.3567329462545890
  0.8655261841869010  0.3407007394398379  0.8516399070410898
  0.8688463422331839  0.8436158579630886  0.3547058687268025
  0.8685246554009399  0.8445547312766710  0.8551130199131638
 
  0.00000000E+00  0.00000000E+00  0.00000000E+00
  0.00000000E+00  0.00000000E+00  0.00000000E+00
  0.00000000E+00  0.00000000E+00  0.00000000E+00
  0.00000000E+00  0.00000000E+00  0.00000000E+00
  0.00000000E+00  0.00000000E+00  0.00000000E+00
  0.00000000E+00  0.00000000E+00  0.00000000E+00
  0.00000000E+00  0.00000000E+00  0.00000000E+00
  0.00000000E+00  0.00000000E+00  0.00000000E+00
  0.00000000E+00  0.00000000E+00  0.00000000E+00
  0.00000000E+00  0.00000000E+00  0.00000000E+00
  0.00000000E+00  0.00000000E+00  0.00000000E+00
  0.00000000E+00  0.00000000E+00  0.00000000E+00
  0.00000000E+00  0.00000000E+00  0.00000000E+00
  0.00000000E+00  0.00000000E+00  0.00000000E+00
  0.00000000E+00  0.00000000E+00  0.00000000E+00
  0.00000000E+00  0.00000000E+00  0.00000000E+00
  0.00000000E+00  0.00000000E+00  0.00000000E+00
  0.00000000E+00  0.00000000E+00  0.00000000E+00
  0.00000000E+00  0.00000000E+00  0.00000000E+00
  0.00000000E+00  0.00000000E+00  0.00000000E+00
  0.00000000E+00  0.00000000E+00  0.00000000E+00
  0.00000000E+00  0.00000000E+00  0.00000000E+00
  0.00000000E+00  0.00000000E+00  0.00000000E+00
  0.00000000E+00  0.00000000E+00  0.00000000E+00
  0.00000000E+00  0.00000000E+00  0.00000000E+00
  0.00000000E+00  0.00000000E+00  0.00000000E+00
  0.00000000E+00  0.00000000E+00  0.00000000E+00
  0.00000000E+00  0.00000000E+00  0.00000000E+00
  0.00000000E+00  0.00000000E+00  0.00000000E+00
  0.00000000E+00  0.00000000E+00  0.00000000E+00
  0.00000000E+00  0.00000000E+00  0.00000000E+00
  0.00000000E+00  0.00000000E+00  0.00000000E+00
  0.00000000E+00  0.00000000E+00  0.00000000E+00
  0.00000000E+00  0.00000000E+00  0.00000000E+00
  0.00000000E+00  0.00000000E+00  0.00000000E+00
  0.00000000E+00  0.00000000E+00  0.00000000E+00
  0.00000000E+00  0.00000000E+00  0.00000000E+00
  0.00000000E+00  0.00000000E+00  0.00000000E+00
  0.00000000E+00  0.00000000E+00  0.00000000E+00
  0.00000000E+00  0.00000000E+00  0.00000000E+00
  0.00000000E+00  0.00000000E+00  0.00000000E+00
  0.00000000E+00  0.00000000E+00  0.00000000E+00
  0.00000000E+00  0.00000000E+00  0.00000000E+00
  0.00000000E+00  0.00000000E+00  0.00000000E+00
  0.00000000E+00  0.00000000E+00  0.00000000E+00
  0.00000000E+00  0.00000000E+00  0.00000000E+00
  0.00000000E+00  0.00000000E+00  0.00000000E+00
  0.00000000E+00  0.00000000E+00  0.00000000E+00
  0.00000000E+00  0.00000000E+00  0.00000000E+00
  0.00000000E+00  0.00000000E+00  0.00000000E+00
  0.00000000E+00  0.00000000E+00  0.00000000E+00
  0.00000000E+00  0.00000000E+00  0.00000000E+00
  0.00000000E+00  0.00000000E+00  0.00000000E+00
  0.00000000E+00  0.00000000E+00  0.00000000E+00
  0.00000000E+00  0.00000000E+00  0.00000000E+00
  0.00000000E+00  0.00000000E+00  0.00000000E+00
  0.00000000E+00  0.00000000E+00  0.00000000E+00
  0.00000000E+00  0.00000000E+00  0.00000000E+00
  0.00000000E+00  0.00000000E+00  0.00000000E+00
  0.00000000E+00  0.00000000E+00  0.00000000E+00
  0.00000000E+00  0.00000000E+00  0.00000000E+00
  0.00000000E+00  0.00000000E+00  0.00000000E+00
  0.00000000E+00  0.00000000E+00  0.00000000E+00
  0.00000000E+00  0.00000000E+00  0.00000000E+00
  0.00000000E+00  0.00000000E+00  0.00000000E+00
  0.00000000E+00  0.00000000E+00  0.00000000E+00
  0.00000000E+00  0.00000000E+00  0.00000000E+00
  0.00000000E+00  0.00000000E+00  0.00000000E+00
  0.00000000E+00  0.00000000E+00  0.00000000E+00
  0.00000000E+00  0.00000000E+00  0.00000000E+00
  0.00000000E+00  0.00000000E+00  0.00000000E+00
  0.00000000E+00  0.00000000E+00  0.00000000E+00
  0.00000000E+00  0.00000000E+00  0.00000000E+00
  0.00000000E+00  0.00000000E+00  0.00000000E+00
  0.00000000E+00  0.00000000E+00  0.00000000E+00
  0.00000000E+00  0.00000000E+00  0.00000000E+00
  0.00000000E+00  0.00000000E+00  0.00000000E+00
  0.00000000E+00  0.00000000E+00  0.00000000E+00
  0.00000000E+00  0.00000000E+00  0.00000000E+00
  0.00000000E+00  0.00000000E+00  0.00000000E+00
  0.00000000E+00  0.00000000E+00  0.00000000E+00
  0.00000000E+00  0.00000000E+00  0.00000000E+00
  0.00000000E+00  0.00000000E+00  0.00000000E+00
  0.00000000E+00  0.00000000E+00  0.00000000E+00
  0.00000000E+00  0.00000000E+00  0.00000000E+00
  0.00000000E+00  0.00000000E+00  0.00000000E+00
  0.00000000E+00  0.00000000E+00  0.00000000E+00
  0.00000000E+00  0.00000000E+00  0.00000000E+00
  0.00000000E+00  0.00000000E+00  0.00000000E+00
  0.00000000E+00  0.00000000E+00  0.00000000E+00
  0.00000000E+00  0.00000000E+00  0.00000000E+00
  0.00000000E+00  0.00000000E+00  0.00000000E+00
  0.00000000E+00  0.00000000E+00  0.00000000E+00
  0.00000000E+00  0.00000000E+00  0.00000000E+00
  0.00000000E+00  0.00000000E+00  0.00000000E+00
  0.00000000E+00  0.00000000E+00  0.00000000E+00
  0.00000000E+00  0.00000000E+00  0.00000000E+00
  0.00000000E+00  0.00000000E+00  0.00000000E+00
  0.00000000E+00  0.00000000E+00  0.00000000E+00
  0.00000000E+00  0.00000000E+00  0.00000000E+00
  0.00000000E+00  0.00000000E+00  0.00000000E+00
  0.00000000E+00  0.00000000E+00  0.00000000E+00
  0.00000000E+00  0.00000000E+00  0.00000000E+00
  0.00000000E+00  0.00000000E+00  0.00000000E+00
  0.00000000E+00  0.00000000E+00  0.00000000E+00
  0.00000000E+00  0.00000000E+00  0.00000000E+00
  0.00000000E+00  0.00000000E+00  0.00000000E+00
  0.00000000E+00  0.00000000E+00  0.00000000E+00
  0.00000000E+00  0.00000000E+00  0.00000000E+00
  0.00000000E+00  0.00000000E+00  0.00000000E+00
  0.00000000E+00  0.00000000E+00  0.00000000E+00
  0.00000000E+00  0.00000000E+00  0.00000000E+00
  0.00000000E+00  0.00000000E+00  0.00000000E+00
  0.00000000E+00  0.00000000E+00  0.00000000E+00
  0.00000000E+00  0.00000000E+00  0.00000000E+00
  0.00000000E+00  0.00000000E+00  0.00000000E+00
  0.00000000E+00  0.00000000E+00  0.00000000E+00
  0.00000000E+00  0.00000000E+00  0.00000000E+00
  0.00000000E+00  0.00000000E+00  0.00000000E+00
  0.00000000E+00  0.00000000E+00  0.00000000E+00
  0.00000000E+00  0.00000000E+00  0.00000000E+00
  0.00000000E+00  0.00000000E+00  0.00000000E+00
  0.00000000E+00  0.00000000E+00  0.00000000E+00
  0.00000000E+00  0.00000000E+00  0.00000000E+00
  0.00000000E+00  0.00000000E+00  0.00000000E+00
  0.00000000E+00  0.00000000E+00  0.00000000E+00
  0.00000000E+00  0.00000000E+00  0.00000000E+00
  0.00000000E+00  0.00000000E+00  0.00000000E+00
  0.00000000E+00  0.00000000E+00  0.00000000E+00
  0.00000000E+00  0.00000000E+00  0.00000000E+00
  0.00000000E+00  0.00000000E+00  0.00000000E+00
  0.00000000E+00  0.00000000E+00  0.00000000E+00
  0.00000000E+00  0.00000000E+00  0.00000000E+00
  0.00000000E+00  0.00000000E+00  0.00000000E+00
  0.00000000E+00  0.00000000E+00  0.00000000E+00
  0.00000000E+00  0.00000000E+00  0.00000000E+00
  0.00000000E+00  0.00000000E+00  0.00000000E+00
  0.00000000E+00  0.00000000E+00  0.00000000E+00
  0.00000000E+00  0.00000000E+00  0.00000000E+00
  0.00000000E+00  0.00000000E+00  0.00000000E+00
  0.00000000E+00  0.00000000E+00  0.00000000E+00
  0.00000000E+00  0.00000000E+00  0.00000000E+00
  0.00000000E+00  0.00000000E+00  0.00000000E+00
  0.00000000E+00  0.00000000E+00  0.00000000E+00
  0.00000000E+00  0.00000000E+00  0.00000000E+00
  0.00000000E+00  0.00000000E+00  0.00000000E+00
  0.00000000E+00  0.00000000E+00  0.00000000E+00
  0.00000000E+00  0.00000000E+00  0.00000000E+00
  0.00000000E+00  0.00000000E+00  0.00000000E+00
  0.00000000E+00  0.00000000E+00  0.00000000E+00
  0.00000000E+00  0.00000000E+00  0.00000000E+00
  0.00000000E+00  0.00000000E+00  0.00000000E+00
  0.00000000E+00  0.00000000E+00  0.00000000E+00
  0.00000000E+00  0.00000000E+00  0.00000000E+00
  0.00000000E+00  0.00000000E+00  0.00000000E+00
  0.00000000E+00  0.00000000E+00  0.00000000E+00
  0.00000000E+00  0.00000000E+00  0.00000000E+00
  0.00000000E+00  0.00000000E+00  0.00000000E+00
  0.00000000E+00  0.00000000E+00  0.00000000E+00
  0.00000000E+00  0.00000000E+00  0.00000000E+00
  0.00000000E+00  0.00000000E+00  0.00000000E+00
  0.00000000E+00  0.00000000E+00  0.00000000E+00
  0.00000000E+00  0.00000000E+00  0.00000000E+00
  0.00000000E+00  0.00000000E+00  0.00000000E+00
  0.00000000E+00  0.00000000E+00  0.00000000E+00
  0.00000000E+00  0.00000000E+00  0.00000000E+00
  0.00000000E+00  0.00000000E+00  0.00000000E+00
  0.00000000E+00  0.00000000E+00  0.00000000E+00
  0.00000000E+00  0.00000000E+00  0.00000000E+00
  0.00000000E+00  0.00000000E+00  0.00000000E+00
  0.00000000E+00  0.00000000E+00  0.00000000E+00
  0.00000000E+00  0.00000000E+00  0.00000000E+00
  0.00000000E+00  0.00000000E+00  0.00000000E+00
  0.00000000E+00  0.00000000E+00  0.00000000E+00
  0.00000000E+00  0.00000000E+00  0.00000000E+00
  0.00000000E+00  0.00000000E+00  0.00000000E+00
  0.00000000E+00  0.00000000E+00  0.00000000E+00
  0.00000000E+00  0.00000000E+00  0.00000000E+00
  0.00000000E+00  0.00000000E+00  0.00000000E+00
  0.00000000E+00  0.00000000E+00  0.00000000E+00
  0.00000000E+00  0.00000000E+00  0.00000000E+00
  0.00000000E+00  0.00000000E+00  0.00000000E+00
  0.00000000E+00  0.00000000E+00  0.00000000E+00
  0.00000000E+00  0.00000000E+00  0.00000000E+00
  0.00000000E+00  0.00000000E+00  0.00000000E+00
  0.00000000E+00  0.00000000E+00  0.00000000E+00
  0.00000000E+00  0.00000000E+00  0.00000000E+00
  0.00000000E+00  0.00000000E+00  0.00000000E+00
  0.00000000E+00  0.00000000E+00  0.00000000E+00
  0.00000000E+00  0.00000000E+00  0.00000000E+00
  0.00000000E+00  0.00000000E+00  0.00000000E+00
  0.00000000E+00  0.00000000E+00  0.00000000E+00
  0.00000000E+00  0.00000000E+00  0.00000000E+00
