Li5 P2 N1 O6                            
   1.00000000000000     
     0.0000000000000000   -0.5937498813397757    5.0217353199172186
     6.3963568177649170    0.0000000000000000    0.0000000000000000
     0.0000000000000000    4.9763417960206082   -0.6470984383438205
   Li   P    N    O 
     5     2     1     6
Direct
  0.6049472629131042  0.0000000000000000  0.7606314601786479
  0.4228695203991203  0.7520733395891211  0.2389116544826968
  0.0368434607089970  0.7420511512352171  0.7217468201709977
  0.0368434607089970  0.2579488487647825  0.7217468201709977
  0.4228695203991203  0.2479266604108790  0.2389116544826968
  0.5238946105831493  0.5000000000000000  0.7611798809106090
 -0.0378044184331173  0.0000000000000000  0.2161616508740977
  0.3202657165724626  0.5000000000000000  0.9436819574764175
  0.0914281410034618  0.1985887312880676  0.3688569421949383
  0.6351746649464493  0.6957953935926381  0.6527978720563300
  0.0914281410034618  0.8014112687119321  0.3688569421949383
  0.6351746649464493  0.3042046064073629  0.6527978720563300
  0.0193270857935370  0.0000000000000000  0.9219165123717826
  0.6429951684548386  0.0000000000000000  0.1728139603785268
 
  0.00000000E+00  0.00000000E+00  0.00000000E+00
  0.00000000E+00  0.00000000E+00  0.00000000E+00
  0.00000000E+00  0.00000000E+00  0.00000000E+00
  0.00000000E+00  0.00000000E+00  0.00000000E+00
  0.00000000E+00  0.00000000E+00  0.00000000E+00
  0.00000000E+00  0.00000000E+00  0.00000000E+00
  0.00000000E+00  0.00000000E+00  0.00000000E+00
  0.00000000E+00  0.00000000E+00  0.00000000E+00
  0.00000000E+00  0.00000000E+00  0.00000000E+00
  0.00000000E+00  0.00000000E+00  0.00000000E+00
  0.00000000E+00  0.00000000E+00  0.00000000E+00
  0.00000000E+00  0.00000000E+00  0.00000000E+00
  0.00000000E+00  0.00000000E+00  0.00000000E+00
  0.00000000E+00  0.00000000E+00  0.00000000E+00
