Li5 P2 N1 O6                            
   1.00000000000000     
    -0.1382126107106990   -0.0486428536317766    5.1833624477858358
     6.1433483290166686   -0.0662171585053964   -0.1748053790700961
    -0.0545878557146139    5.3174089393282848   -0.0541489577441349
   Li   P    N    O 
     5     2     1     6
Direct
  0.5063306798433311 -0.0026967004171015  0.8398982000763989
  0.4988219642069498  0.7507743670700086  0.3293289653696774
 -0.0010818755281948  0.7304369378830803  0.6528710176872419
 -0.0381958914801626  0.2555323112645109  0.7771056347639217
  0.5863767225173625  0.2801311801931339  0.3257519858290865
  0.4863234941048737  0.4990206678613899  0.8108579292358369
 -0.0205903550827835 -0.0535006570337339  0.1474547336184803
  0.7031560991527726  0.0119382032810087  0.1816261169195281
  0.6162250882228956  0.7063904843373041  0.6870114121878579
  0.1447270913857467  0.8411600737588241  0.3437265877477707
  0.6055929221788144  0.2917209745683066  0.6895131662767726
  0.5387667746145638  0.5044238997550939  0.0984525212374275
  0.1221500921351144 -0.0124294163277056  0.8997332912016720
  0.1927701937287440  0.4899596738058802  0.7476794378483282
 
  0.00000000E+00  0.00000000E+00  0.00000000E+00
  0.00000000E+00  0.00000000E+00  0.00000000E+00
  0.00000000E+00  0.00000000E+00  0.00000000E+00
  0.00000000E+00  0.00000000E+00  0.00000000E+00
  0.00000000E+00  0.00000000E+00  0.00000000E+00
  0.00000000E+00  0.00000000E+00  0.00000000E+00
  0.00000000E+00  0.00000000E+00  0.00000000E+00
  0.00000000E+00  0.00000000E+00  0.00000000E+00
  0.00000000E+00  0.00000000E+00  0.00000000E+00
  0.00000000E+00  0.00000000E+00  0.00000000E+00
  0.00000000E+00  0.00000000E+00  0.00000000E+00
  0.00000000E+00  0.00000000E+00  0.00000000E+00
  0.00000000E+00  0.00000000E+00  0.00000000E+00
  0.00000000E+00  0.00000000E+00  0.00000000E+00
