Li140 P140 O420
1.0
13.312980 0.000000 -5.521558
2.677750 16.540545 0.000000
0.000000 0.000000 60.737138
Li P O
140 140 420
direct
0.944698 0.181780 0.052606 Li+
0.444698 0.681780 0.006170 Li+
0.822834 0.065996 0.042453 Li+
0.322834 0.565996 0.085075 Li+
0.702414 0.950543 0.029564 Li+
0.202414 0.450543 0.076070 Li+
0.582845 0.835452 0.018563 Li+
0.082845 0.335452 0.065331 Li+
0.512460 0.758434 0.058932 Li+
0.012460 0.258434 0.012165 Li+
0.942549 0.681714 0.049993 Li+
0.442549 0.181714 0.008392 Li+
0.821455 0.566270 0.043065 Li+
0.321455 0.066270 0.084213 Li+
0.702271 0.449547 0.027054 Li+
0.202271 0.949547 0.078554 Li+
0.582496 0.332984 0.021212 Li+
0.082496 0.832984 0.062618 Li+
0.510463 0.256366 0.061649 Li+
0.010463 0.756366 0.009084 Li+
0.944698 0.181780 0.143515 Li+
0.444698 0.681780 0.097080 Li+
0.822834 0.065996 0.133362 Li+
0.322834 0.565996 0.175984 Li+
0.702414 0.950543 0.120473 Li+
0.202414 0.450543 0.166979 Li+
0.582845 0.835452 0.109472 Li+
0.082845 0.335452 0.156240 Li+
0.512460 0.758434 0.149841 Li+
0.012460 0.258434 0.103074 Li+
0.942549 0.681714 0.140902 Li+
0.442549 0.181714 0.099301 Li+
0.821455 0.566270 0.133974 Li+
0.321455 0.066270 0.175122 Li+
0.702271 0.449547 0.117963 Li+
0.202271 0.949547 0.169463 Li+
0.582496 0.332984 0.112121 Li+
0.082496 0.832984 0.153528 Li+
0.510463 0.256366 0.152559 Li+
0.010463 0.756366 0.099993 Li+
0.944698 0.181780 0.234424 Li+
0.444698 0.681780 0.187989 Li+
0.822834 0.065996 0.224271 Li+
0.322834 0.565996 0.266893 Li+
0.702414 0.950543 0.211382 Li+
0.202414 0.450543 0.257888 Li+
0.582845 0.835452 0.200381 Li+
0.082845 0.335452 0.247149 Li+
0.512460 0.758434 0.240750 Li+
0.012460 0.258434 0.193983 Li+
0.942549 0.681714 0.231811 Li+
0.442549 0.181714 0.190210 Li+
0.821455 0.566270 0.224883 Li+
0.321455 0.066270 0.266031 Li+
0.702271 0.449547 0.208872 Li+
0.202271 0.949547 0.260372 Li+
0.582496 0.332984 0.203030 Li+
0.082496 0.832984 0.244437 Li+
0.510463 0.256366 0.243468 Li+
0.010463 0.756366 0.190902 Li+
0.944698 0.181780 0.325333 Li+
0.444698 0.681780 0.278898 Li+
0.822834 0.065996 0.315180 Li+
0.322834 0.565996 0.357802 Li+
0.702414 0.950543 0.302291 Li+
0.202414 0.450543 0.348797 Li+
0.582845 0.835452 0.291290 Li+
0.082845 0.335452 0.338058 Li+
0.512460 0.758434 0.331659 Li+
0.012460 0.258434 0.284892 Li+
0.942549 0.681714 0.322720 Li+
0.442549 0.181714 0.281119 Li+
0.821455 0.566270 0.315792 Li+
0.321455 0.066270 0.356940 Li+
0.702271 0.449547 0.299781 Li+
0.202271 0.949547 0.351281 Li+
0.582496 0.332984 0.293939 Li+
0.082496 0.832984 0.335346 Li+
0.510463 0.256366 0.334377 Li+
0.010463 0.756366 0.281811 Li+
0.944698 0.181780 0.416242 Li+
0.444698 0.681780 0.369807 Li+
0.822834 0.065996 0.406090 Li+
0.322834 0.565996 0.448711 Li+
0.702414 0.950543 0.393200 Li+
0.202414 0.450543 0.439706 Li+
0.582845 0.835452 0.382199 Li+
0.082845 0.335452 0.428967 Li+
0.512460 0.758434 0.422568 Li+
0.012460 0.258434 0.375801 Li+
0.942549 0.681714 0.413630 Li+
0.442549 0.181714 0.372028 Li+
0.821455 0.566270 0.406701 Li+
0.321455 0.066270 0.447849 Li+
0.702271 0.449547 0.390690 Li+
0.202271 0.949547 0.442190 Li+
0.582496 0.332984 0.384848 Li+
0.082496 0.832984 0.426255 Li+
0.510463 0.256366 0.425286 Li+
0.010463 0.756366 0.372720 Li+
0.944698 0.181780 0.507151 Li+
0.444698 0.681780 0.460716 Li+
0.822834 0.065996 0.496999 Li+
0.322834 0.565996 0.539620 Li+
0.702414 0.950543 0.484109 Li+
0.202414 0.450543 0.530615 Li+
0.582845 0.835452 0.473108 Li+
0.082845 0.335452 0.519876 Li+
0.512460 0.758434 0.513477 Li+
0.012460 0.258434 0.466710 Li+
0.942549 0.681714 0.504539 Li+
0.442549 0.181714 0.462938 Li+
0.821455 0.566270 0.497610 Li+
0.321455 0.066270 0.538758 Li+
0.702271 0.449547 0.481599 Li+
0.202271 0.949547 0.533099 Li+
0.582496 0.332984 0.475757 Li+
0.082496 0.832984 0.517164 Li+
0.510463 0.256366 0.516195 Li+
0.010463 0.756366 0.463629 Li+
0.944698 0.181780 0.598060 Li+
0.444698 0.681780 0.551625 Li+
0.822834 0.065996 0.587908 Li+
0.322834 0.565996 0.630529 Li+
0.702414 0.950543 0.575018 Li+
0.202414 0.450543 0.621524 Li+
0.582845 0.835452 0.564017 Li+
0.082845 0.335452 0.610785 Li+
0.512460 0.758434 0.604386 Li+
0.012460 0.258434 0.557619 Li+
0.942549 0.681714 0.595448 Li+
0.442549 0.181714 0.553847 Li+
0.821455 0.566270 0.588519 Li+
0.321455 0.066270 0.629667 Li+
0.702271 0.449547 0.572508 Li+
0.202271 0.949547 0.624008 Li+
0.582496 0.332984 0.566666 Li+
0.082496 0.832984 0.608073 Li+
0.510463 0.256366 0.607104 Li+
0.010463 0.756366 0.554538 Li+
0.001192 0.999587 0.085853 P5+
0.501192 0.499587 0.074104 P5+
0.887667 0.906720 0.015720 P5+
0.387667 0.406720 0.032687 P5+
0.795924 0.802939 0.066914 P5+
0.295924 0.302939 0.055722 P5+
0.716706 0.691689 0.001482 P5+
0.216706 0.191689 0.015841 P5+
0.616650 0.591751 0.053226 P5+
0.116650 0.091751 0.036814 P5+
0.909487 0.425433 0.017648 P5+
0.409487 0.925433 0.034726 P5+
0.808986 0.325562 0.069385 P5+
0.308986 0.825562 0.055625 P5+
0.730132 0.213545 0.004220 P5+
0.230132 0.713545 0.015544 P5+
0.637722 0.110144 0.055854 P5+
0.137722 0.610144 0.038018 P5+
0.524425 0.017155 0.076648 P5+
0.024425 0.517155 0.087533 P5+
0.001192 0.999587 0.176762 P5+
0.501192 0.499587 0.165013 P5+
0.887667 0.906720 0.106629 P5+
0.387667 0.406720 0.123596 P5+
0.795924 0.802939 0.157823 P5+
0.295924 0.302939 0.146631 P5+
0.716706 0.691689 0.092391 P5+
0.216706 0.191689 0.106750 P5+
0.616650 0.591751 0.144135 P5+
0.116650 0.091751 0.127724 P5+
0.909487 0.425433 0.108557 P5+
0.409487 0.925433 0.125635 P5+
0.808986 0.325562 0.160294 P5+
0.308986 0.825562 0.146534 P5+
0.730132 0.213545 0.095129 P5+
0.230132 0.713545 0.106453 P5+
0.637722 0.110144 0.146763 P5+
0.137722 0.610144 0.128927 P5+
0.524425 0.017155 0.167557 P5+
0.024425 0.517155 0.178442 P5+
0.001192 0.999587 0.267671 P5+
0.501192 0.499587 0.255922 P5+
0.887667 0.906720 0.197538 P5+
0.387667 0.406720 0.214505 P5+
0.795924 0.802939 0.248732 P5+
0.295924 0.302939 0.237540 P5+
0.716706 0.691689 0.183300 P5+
0.216706 0.191689 0.197659 P5+
0.616650 0.591751 0.235044 P5+
0.116650 0.091751 0.218633 P5+
0.909487 0.425433 0.199466 P5+
0.409487 0.925433 0.216544 P5+
0.808986 0.325562 0.251203 P5+
0.308986 0.825562 0.237443 P5+
0.730132 0.213545 0.186039 P5+
0.230132 0.713545 0.197362 P5+
0.637722 0.110144 0.237672 P5+
0.137722 0.610144 0.219836 P5+
0.524425 0.017155 0.258466 P5+
0.024425 0.517155 0.269351 P5+
0.001192 0.999587 0.358580 P5+
0.501192 0.499587 0.346831 P5+
0.887667 0.906720 0.288447 P5+
0.387667 0.406720 0.305414 P5+
0.795924 0.802939 0.339641 P5+
0.295924 0.302939 0.328449 P5+
0.716706 0.691689 0.274209 P5+
0.216706 0.191689 0.288568 P5+
0.616650 0.591751 0.325953 P5+
0.116650 0.091751 0.309542 P5+
0.909487 0.425433 0.290375 P5+
0.409487 0.925433 0.307453 P5+
0.808986 0.325562 0.342112 P5+
0.308986 0.825562 0.328353 P5+
0.730132 0.213545 0.276948 P5+
0.230132 0.713545 0.288271 P5+
0.637722 0.110144 0.328581 P5+
0.137722 0.610144 0.310745 P5+
0.524425 0.017155 0.349375 P5+
0.024425 0.517155 0.360260 P5+
0.001192 0.999587 0.449490 P5+
0.501192 0.499587 0.437740 P5+
0.887667 0.906720 0.379356 P5+
0.387667 0.406720 0.396323 P5+
0.795924 0.802939 0.430550 P5+
0.295924 0.302939 0.419358 P5+
0.716706 0.691689 0.365118 P5+
0.216706 0.191689 0.379478 P5+
0.616650 0.591751 0.416862 P5+
0.116650 0.091751 0.400451 P5+
0.909487 0.425433 0.381284 P5+
0.409487 0.925433 0.398363 P5+
0.808986 0.325562 0.433021 P5+
0.308986 0.825562 0.419262 P5+
0.730132 0.213545 0.367857 P5+
0.230132 0.713545 0.379180 P5+
0.637722 0.110144 0.419490 P5+
0.137722 0.610144 0.401654 P5+
0.524425 0.017155 0.440284 P5+
0.024425 0.517155 0.451169 P5+
0.001192 0.999587 0.540399 P5+
0.501192 0.499587 0.528649 P5+
0.887667 0.906720 0.470265 P5+
0.387667 0.406720 0.487232 P5+
0.795924 0.802939 0.521459 P5+
0.295924 0.302939 0.510267 P5+
0.716706 0.691689 0.456027 P5+
0.216706 0.191689 0.470387 P5+
0.616650 0.591751 0.507771 P5+
0.116650 0.091751 0.491360 P5+
0.909487 0.425433 0.472193 P5+
0.409487 0.925433 0.489272 P5+
0.808986 0.325562 0.523930 P5+
0.308986 0.825562 0.510171 P5+
0.730132 0.213545 0.458766 P5+
0.230132 0.713545 0.470089 P5+
0.637722 0.110144 0.510399 P5+
0.137722 0.610144 0.492563 P5+
0.524425 0.017155 0.531193 P5+
0.024425 0.517155 0.542078 P5+
0.001192 0.999587 0.631308 P5+
0.501192 0.499587 0.619558 P5+
0.887667 0.906720 0.561175 P5+
0.387667 0.406720 0.578141 P5+
0.795924 0.802939 0.612368 P5+
0.295924 0.302939 0.601176 P5+
0.716706 0.691689 0.546936 P5+
0.216706 0.191689 0.561296 P5+
0.616650 0.591751 0.598680 P5+
0.116650 0.091751 0.582269 P5+
0.909487 0.425433 0.563102 P5+
0.409487 0.925433 0.580181 P5+
0.808986 0.325562 0.614839 P5+
0.308986 0.825562 0.601080 P5+
0.730132 0.213545 0.549675 P5+
0.230132 0.713545 0.560998 P5+
0.637722 0.110144 0.601308 P5+
0.137722 0.610144 0.583472 P5+
0.524425 0.017155 0.622103 P5+
0.024425 0.517155 0.632987 P5+
0.905428 0.964587 0.087727 O2-
0.405428 0.464587 0.054818 O2-
0.800449 0.859372 0.088903 O2-
0.300449 0.359372 0.034555 O2-
0.757206 0.724144 0.073251 O2-
0.257206 0.224144 0.042345 O2-
0.685355 0.607741 0.080659 O2-
0.185355 0.107741 0.021873 O2-
0.058300 0.021852 0.022259 O2-
0.558300 0.521852 0.057172 O2-
0.840686 0.409378 0.081134 O2-
0.340686 0.909378 0.049640 O2-
0.772630 0.290596 0.089033 O2-
0.272630 0.790596 0.029367 O2-
0.726756 0.156445 0.073278 O2-
0.226756 0.656445 0.036781 O2-
0.618048 0.056520 0.075257 O2-
0.118048 0.556520 0.015037 O2-
0.967956 0.495673 0.013803 O2-
0.467956 0.995673 0.049202 O2-
0.955284 0.073889 0.069187 O2-
0.455284 0.573889 0.082423 O2-
0.071165 0.933926 0.080529 O2-
0.571165 0.433926 0.001241 O2-
0.836724 0.958651 0.029247 O2-
0.336724 0.458651 0.009897 O2-
0.982201 0.846743 0.028679 O2-
0.482201 0.346743 0.036916 O2-
0.714989 0.845353 0.044690 O2-
0.214989 0.345353 0.063230 O2-
0.902007 0.775410 0.068072 O2-
0.402007 0.275410 0.073851 O2-
0.622035 0.747295 0.090824 O2-
0.122035 0.247295 0.000196 O2-
0.803128 0.669352 0.025037 O2-
0.303128 0.169352 0.007999 O2-
0.542257 0.667159 0.041428 O2-
0.042257 0.167159 0.035086 O2-
0.685603 0.553292 0.041672 O2-
0.185603 0.053292 0.060905 O2-
0.839056 0.463335 0.028885 O2-
0.339056 0.963335 0.010683 O2-
0.984307 0.350606 0.029716 O2-
0.484307 0.850606 0.036261 O2-
0.720379 0.348215 0.046196 O2-
0.220379 0.848215 0.062704 O2-
0.903854 0.271458 0.070398 O2-
0.403854 0.771458 0.071861 O2-
0.623095 0.241625 0.002357 O2-
0.123095 0.741625 0.088854 O2-
0.808921 0.171199 0.026776 O2-
0.308921 0.671199 0.007313 O2-
0.543593 0.170027 0.042445 O2-
0.043593 0.670027 0.034312 O2-
0.687356 0.055640 0.042603 O2-
0.187356 0.555640 0.060293 O2-
0.452378 0.080441 0.082134 O2-
0.952378 0.580441 0.068947 O2-
0.572944 0.942366 0.002055 O2-
0.072944 0.442366 0.080039 O2-
0.905428 0.964587 0.178636 O2-
0.405428 0.464587 0.145727 O2-
0.800449 0.859372 0.179812 O2-
0.300449 0.359372 0.125464 O2-
0.757206 0.724144 0.164160 O2-
0.257206 0.224144 0.133254 O2-
0.685355 0.607741 0.171568 O2-
0.185355 0.107741 0.112782 O2-
0.058300 0.021852 0.113168 O2-
0.558300 0.521852 0.148081 O2-
0.840686 0.409378 0.172043 O2-
0.340686 0.909378 0.140549 O2-
0.772630 0.290596 0.179942 O2-
0.272630 0.790596 0.120276 O2-
0.726756 0.156445 0.164187 O2-
0.226756 0.656445 0.127690 O2-
0.618048 0.056520 0.166166 O2-
0.118048 0.556520 0.105946 O2-
0.967956 0.495673 0.104712 O2-
0.467956 0.995673 0.140111 O2-
0.955284 0.073889 0.160096 O2-
0.455284 0.573889 0.173332 O2-
0.071165 0.933926 0.171438 O2-
0.571165 0.433926 0.092150 O2-
0.836724 0.958651 0.120156 O2-
0.336724 0.458651 0.100806 O2-
0.982201 0.846743 0.119588 O2-
0.482201 0.346743 0.127825 O2-
0.714989 0.845353 0.135599 O2-
0.214989 0.345353 0.154139 O2-
0.902007 0.775410 0.158981 O2-
0.402007 0.275410 0.164760 O2-
0.622035 0.747295 0.181733 O2-
0.122035 0.247295 0.091105 O2-
0.803128 0.669352 0.115946 O2-
0.303128 0.169352 0.098908 O2-
0.542257 0.667159 0.132337 O2-
0.042257 0.167159 0.125995 O2-
0.685603 0.553292 0.132581 O2-
0.185603 0.053292 0.151814 O2-
0.839056 0.463335 0.119794 O2-
0.339056 0.963335 0.101592 O2-
0.984307 0.350606 0.120626 O2-
0.484307 0.850606 0.127170 O2-
0.720379 0.348215 0.137105 O2-
0.220379 0.848215 0.153613 O2-
0.903854 0.271458 0.161307 O2-
0.403854 0.771458 0.162770 O2-
0.623095 0.241625 0.093267 O2-
0.123095 0.741625 0.179764 O2-
0.808921 0.171199 0.117686 O2-
0.308921 0.671199 0.098222 O2-
0.543593 0.170027 0.133354 O2-
0.043593 0.670027 0.125221 O2-
0.687356 0.055640 0.133512 O2-
0.187356 0.555640 0.151202 O2-
0.452378 0.080441 0.173044 O2-
0.952378 0.580441 0.159856 O2-
0.572944 0.942366 0.092964 O2-
0.072944 0.442366 0.170948 O2-
0.905428 0.964587 0.269545 O2-
0.405428 0.464587 0.236636 O2-
0.800449 0.859372 0.270721 O2-
0.300449 0.359372 0.216373 O2-
0.757206 0.724144 0.255069 O2-
0.257206 0.224144 0.224163 O2-
0.685355 0.607741 0.262477 O2-
0.185355 0.107741 0.203691 O2-
0.058300 0.021852 0.204077 O2-
0.558300 0.521852 0.238990 O2-
0.840686 0.409378 0.262952 O2-
0.340686 0.909378 0.231458 O2-
0.772630 0.290596 0.270851 O2-
0.272630 0.790596 0.211186 O2-
0.726756 0.156445 0.255097 O2-
0.226756 0.656445 0.218599 O2-
0.618048 0.056520 0.257076 O2-
0.118048 0.556520 0.196855 O2-
0.967956 0.495673 0.195621 O2-
0.467956 0.995673 0.231020 O2-
0.955284 0.073889 0.251005 O2-
0.455284 0.573889 0.264241 O2-
0.071165 0.933926 0.262347 O2-
0.571165 0.433926 0.183059 O2-
0.836724 0.958651 0.211065 O2-
0.336724 0.458651 0.191715 O2-
0.982201 0.846743 0.210497 O2-
0.482201 0.346743 0.218734 O2-
0.714989 0.845353 0.226508 O2-
0.214989 0.345353 0.245049 O2-
0.902007 0.775410 0.249891 O2-
0.402007 0.275410 0.255669 O2-
0.622035 0.747295 0.272642 O2-
0.122035 0.247295 0.182014 O2-
0.803128 0.669352 0.206855 O2-
0.303128 0.169352 0.189817 O2-
0.542257 0.667159 0.223246 O2-
0.042257 0.167159 0.216904 O2-
0.685603 0.553292 0.223491 O2-
0.185603 0.053292 0.242723 O2-
0.839056 0.463335 0.210703 O2-
0.339056 0.963335 0.192501 O2-
0.984307 0.350606 0.211535 O2-
0.484307 0.850606 0.218079 O2-
0.720379 0.348215 0.228014 O2-
0.220379 0.848215 0.244522 O2-
0.903854 0.271458 0.252216 O2-
0.403854 0.771458 0.253679 O2-
0.623095 0.241625 0.184176 O2-
0.123095 0.741625 0.270673 O2-
0.808921 0.171199 0.208595 O2-
0.308921 0.671199 0.189131 O2-
0.543593 0.170027 0.224263 O2-
0.043593 0.670027 0.216130 O2-
0.687356 0.055640 0.224421 O2-
0.187356 0.555640 0.242111 O2-
0.452378 0.080441 0.263953 O2-
0.952378 0.580441 0.250765 O2-
0.572944 0.942366 0.183873 O2-
0.072944 0.442366 0.261857 O2-
0.905428 0.964587 0.360454 O2-
0.405428 0.464587 0.327545 O2-
0.800449 0.859372 0.361630 O2-
0.300449 0.359372 0.307282 O2-
0.757206 0.724144 0.345978 O2-
0.257206 0.224144 0.315072 O2-
0.685355 0.607741 0.353386 O2-
0.185355 0.107741 0.294601 O2-
0.058300 0.021852 0.294986 O2-
0.558300 0.521852 0.329899 O2-
0.840686 0.409378 0.353861 O2-
0.340686 0.909378 0.322367 O2-
0.772630 0.290596 0.361760 O2-
0.272630 0.790596 0.302095 O2-
0.726756 0.156445 0.346006 O2-
0.226756 0.656445 0.309508 O2-
0.618048 0.056520 0.347985 O2-
0.118048 0.556520 0.287764 O2-
0.967956 0.495673 0.286530 O2-
0.467956 0.995673 0.321929 O2-
0.955284 0.073889 0.341914 O2-
0.455284 0.573889 0.355150 O2-
0.071165 0.933926 0.353256 O2-
0.571165 0.433926 0.273968 O2-
0.836724 0.958651 0.301974 O2-
0.336724 0.458651 0.282625 O2-
0.982201 0.846743 0.301406 O2-
0.482201 0.346743 0.309643 O2-
0.714989 0.845353 0.317417 O2-
0.214989 0.345353 0.335958 O2-
0.902007 0.775410 0.340800 O2-
0.402007 0.275410 0.346578 O2-
0.622035 0.747295 0.363551 O2-
0.122035 0.247295 0.272923 O2-
0.803128 0.669352 0.297764 O2-
0.303128 0.169352 0.280726 O2-
0.542257 0.667159 0.314155 O2-
0.042257 0.167159 0.307813 O2-
0.685603 0.553292 0.314400 O2-
0.185603 0.053292 0.333632 O2-
0.839056 0.463335 0.301612 O2-
0.339056 0.963335 0.283411 O2-
0.984307 0.350606 0.302444 O2-
0.484307 0.850606 0.308988 O2-
0.720379 0.348215 0.318923 O2-
0.220379 0.848215 0.335431 O2-
0.903854 0.271458 0.343125 O2-
0.403854 0.771458 0.344588 O2-
0.623095 0.241625 0.275085 O2-
0.123095 0.741625 0.361582 O2-
0.808921 0.171199 0.299504 O2-
0.308921 0.671199 0.280040 O2-
0.543593 0.170027 0.315172 O2-
0.043593 0.670027 0.307040 O2-
0.687356 0.055640 0.315330 O2-
0.187356 0.555640 0.333020 O2-
0.452378 0.080441 0.354862 O2-
0.952378 0.580441 0.341674 O2-
0.572944 0.942366 0.274782 O2-
0.072944 0.442366 0.352766 O2-
0.905428 0.964587 0.451364 O2-
0.405428 0.464587 0.418454 O2-
0.800449 0.859372 0.452539 O2-
0.300449 0.359372 0.398191 O2-
0.757206 0.724144 0.436887 O2-
0.257206 0.224144 0.405981 O2-
0.685355 0.607741 0.444295 O2-
0.185355 0.107741 0.385510 O2-
0.058300 0.021852 0.385895 O2-
0.558300 0.521852 0.420808 O2-
0.840686 0.409378 0.444770 O2-
0.340686 0.909378 0.413276 O2-
0.772630 0.290596 0.452669 O2-
0.272630 0.790596 0.393004 O2-
0.726756 0.156445 0.436915 O2-
0.226756 0.656445 0.400417 O2-
0.618048 0.056520 0.438894 O2-
0.118048 0.556520 0.378673 O2-
0.967956 0.495673 0.377440 O2-
0.467956 0.995673 0.412838 O2-
0.955284 0.073889 0.432824 O2-
0.455284 0.573889 0.446059 O2-
0.071165 0.933926 0.444165 O2-
0.571165 0.433926 0.364878 O2-
0.836724 0.958651 0.392883 O2-
0.336724 0.458651 0.373534 O2-
0.982201 0.846743 0.392315 O2-
0.482201 0.346743 0.400552 O2-
0.714989 0.845353 0.408326 O2-
0.214989 0.345353 0.426867 O2-
0.902007 0.775410 0.431709 O2-
0.402007 0.275410 0.437487 O2-
0.622035 0.747295 0.454460 O2-
0.122035 0.247295 0.363832 O2-
0.803128 0.669352 0.388673 O2-
0.303128 0.169352 0.371635 O2-
0.542257 0.667159 0.405064 O2-
0.042257 0.167159 0.398723 O2-
0.685603 0.553292 0.405309 O2-
0.185603 0.053292 0.424541 O2-
0.839056 0.463335 0.392521 O2-
0.339056 0.963335 0.374320 O2-
0.984307 0.350606 0.393353 O2-
0.484307 0.850606 0.399898 O2-
0.720379 0.348215 0.409832 O2-
0.220379 0.848215 0.426340 O2-
0.903854 0.271458 0.434035 O2-
0.403854 0.771458 0.435497 O2-
0.623095 0.241625 0.365994 O2-
0.123095 0.741625 0.452491 O2-
0.808921 0.171199 0.390413 O2-
0.308921 0.671199 0.370949 O2-
0.543593 0.170027 0.406081 O2-
0.043593 0.670027 0.397949 O2-
0.687356 0.055640 0.406239 O2-
0.187356 0.555640 0.423929 O2-
0.452378 0.080441 0.445771 O2-
0.952378 0.580441 0.432584 O2-
0.572944 0.942366 0.365691 O2-
0.072944 0.442366 0.443675 O2-
0.905428 0.964587 0.542273 O2-
0.405428 0.464587 0.509363 O2-
0.800449 0.859372 0.543448 O2-
0.300449 0.359372 0.489101 O2-
0.757206 0.724144 0.527796 O2-
0.257206 0.224144 0.496890 O2-
0.685355 0.607741 0.535204 O2-
0.185355 0.107741 0.476419 O2-
0.058300 0.021852 0.476804 O2-
0.558300 0.521852 0.511718 O2-
0.840686 0.409378 0.535680 O2-
0.340686 0.909378 0.504185 O2-
0.772630 0.290596 0.543578 O2-
0.272630 0.790596 0.483913 O2-
0.726756 0.156445 0.527824 O2-
0.226756 0.656445 0.491326 O2-
0.618048 0.056520 0.529803 O2-
0.118048 0.556520 0.469582 O2-
0.967956 0.495673 0.468349 O2-
0.467956 0.995673 0.503747 O2-
0.955284 0.073889 0.523733 O2-
0.455284 0.573889 0.536968 O2-
0.071165 0.933926 0.535074 O2-
0.571165 0.433926 0.455787 O2-
0.836724 0.958651 0.483793 O2-
0.336724 0.458651 0.464443 O2-
0.982201 0.846743 0.483224 O2-
0.482201 0.346743 0.491461 O2-
0.714989 0.845353 0.499235 O2-
0.214989 0.345353 0.517776 O2-
0.902007 0.775410 0.522618 O2-
0.402007 0.275410 0.528396 O2-
0.622035 0.747295 0.545369 O2-
0.122035 0.247295 0.454741 O2-
0.803128 0.669352 0.479583 O2-
0.303128 0.169352 0.462544 O2-
0.542257 0.667159 0.495973 O2-
0.042257 0.167159 0.489632 O2-
0.685603 0.553292 0.496218 O2-
0.185603 0.053292 0.515450 O2-
0.839056 0.463335 0.483431 O2-
0.339056 0.963335 0.465229 O2-
0.984307 0.350606 0.484262 O2-
0.484307 0.850606 0.490807 O2-
0.720379 0.348215 0.500741 O2-
0.220379 0.848215 0.517249 O2-
0.903854 0.271458 0.524944 O2-
0.403854 0.771458 0.526406 O2-
0.623095 0.241625 0.456903 O2-
0.123095 0.741625 0.543400 O2-
0.808921 0.171199 0.481322 O2-
0.308921 0.671199 0.461858 O2-
0.543593 0.170027 0.496990 O2-
0.043593 0.670027 0.488858 O2-
0.687356 0.055640 0.497148 O2-
0.187356 0.555640 0.514838 O2-
0.452378 0.080441 0.536680 O2-
0.952378 0.580441 0.523493 O2-
0.572944 0.942366 0.456600 O2-
0.072944 0.442366 0.534584 O2-
0.905428 0.964587 0.633182 O2-
0.405428 0.464587 0.600273 O2-
0.800449 0.859372 0.634357 O2-
0.300449 0.359372 0.580010 O2-
0.757206 0.724144 0.618705 O2-
0.257206 0.224144 0.587799 O2-
0.685355 0.607741 0.626113 O2-
0.185355 0.107741 0.567328 O2-
0.058300 0.021852 0.567713 O2-
0.558300 0.521852 0.602627 O2-
0.840686 0.409378 0.626589 O2-
0.340686 0.909378 0.595094 O2-
0.772630 0.290596 0.634487 O2-
0.272630 0.790596 0.574822 O2-
0.726756 0.156445 0.618733 O2-
0.226756 0.656445 0.582236 O2-
0.618048 0.056520 0.620712 O2-
0.118048 0.556520 0.560491 O2-
0.967956 0.495673 0.559258 O2-
0.467956 0.995673 0.594656 O2-
0.955284 0.073889 0.614642 O2-
0.455284 0.573889 0.627877 O2-
0.071165 0.933926 0.625983 O2-
0.571165 0.433926 0.546696 O2-
0.836724 0.958651 0.574702 O2-
0.336724 0.458651 0.555352 O2-
0.982201 0.846743 0.574133 O2-
0.482201 0.346743 0.582371 O2-
0.714989 0.845353 0.590144 O2-
0.214989 0.345353 0.608685 O2-
0.902007 0.775410 0.613527 O2-
0.402007 0.275410 0.619305 O2-
0.622035 0.747295 0.636278 O2-
0.122035 0.247295 0.545650 O2-
0.803128 0.669352 0.570492 O2-
0.303128 0.169352 0.553453 O2-
0.542257 0.667159 0.586882 O2-
0.042257 0.167159 0.580541 O2-
0.685603 0.553292 0.587127 O2-
0.185603 0.053292 0.606359 O2-
0.839056 0.463335 0.574340 O2-
0.339056 0.963335 0.556138 O2-
0.984307 0.350606 0.575171 O2-
0.484307 0.850606 0.581716 O2-
0.720379 0.348215 0.591651 O2-
0.220379 0.848215 0.608158 O2-
0.903854 0.271458 0.615853 O2-
0.403854 0.771458 0.617315 O2-
0.623095 0.241625 0.547812 O2-
0.123095 0.741625 0.634309 O2-
0.808921 0.171199 0.572231 O2-
0.308921 0.671199 0.552767 O2-
0.543593 0.170027 0.587899 O2-
0.043593 0.670027 0.579767 O2-
0.687356 0.055640 0.588057 O2-
0.187356 0.555640 0.605747 O2-
0.452378 0.080441 0.627589 O2-
0.952378 0.580441 0.614402 O2-
0.572944 0.942366 0.547509 O2-
0.072944 0.442366 0.625493 O2-
