Li5 P2 N1 O6                            
   1.00000000000000     
    -0.4521618216800657    0.2895922168545135    5.1350240838482826
     5.1608484040891023    0.4775350745187280   -0.7688963677704218
     0.4299502982958036    5.6591138603435516    0.3663343469551210
   Li   P    N    O 
     5     2     1     6
Direct
  0.5861978472950293 -0.0617646630313183  0.9154935931872333
  0.3878646463972087  0.6763807022392935  0.3150735563453297
  0.1471591154922509  0.8819714896720572  0.6960738386462157
 -0.0305046707963207  0.3924664064661132  0.5503532039782494
  0.5474729914184564  0.2627398222090977  0.3271748580125893
  0.3945121704558979  0.3769317598697963  0.8429763390772840
 -0.0031586368641015 -0.0234492064834357  0.2265805517723283
  0.1715293704996255  0.0963704194565566  0.9578384330468488
  0.1231230973930064  0.1307627700615768  0.4172747650833143
  0.0102775086103299  0.6844557742782207  0.2932047779897344
  0.6053479022051678  0.2774844938209351  0.6832339205651671
  0.5197466055773104  0.5278451139539979  0.0331075090865337
  0.2836560432339867  0.5775508569543063  0.6739509234147057
  0.6981490090821793 -0.0068837394671970  0.2256927297944712
 
  0.00000000E+00  0.00000000E+00  0.00000000E+00
  0.00000000E+00  0.00000000E+00  0.00000000E+00
  0.00000000E+00  0.00000000E+00  0.00000000E+00
  0.00000000E+00  0.00000000E+00  0.00000000E+00
  0.00000000E+00  0.00000000E+00  0.00000000E+00
  0.00000000E+00  0.00000000E+00  0.00000000E+00
  0.00000000E+00  0.00000000E+00  0.00000000E+00
  0.00000000E+00  0.00000000E+00  0.00000000E+00
  0.00000000E+00  0.00000000E+00  0.00000000E+00
  0.00000000E+00  0.00000000E+00  0.00000000E+00
  0.00000000E+00  0.00000000E+00  0.00000000E+00
  0.00000000E+00  0.00000000E+00  0.00000000E+00
  0.00000000E+00  0.00000000E+00  0.00000000E+00
  0.00000000E+00  0.00000000E+00  0.00000000E+00
