Li7 P2 N1 O7                            
   1.00000000000000     
     4.9535791876033723    0.0000000000000000    0.0182433793998275
     0.0000000000000000    6.2377299579068408    0.0000000000000000
     0.0193674712925847    0.0000000000000000    5.3315731101808375
   Li   P    N    O 
     7     2     1     7
Direct
  0.0214134050973488  0.5000000000000000  0.1574655646055451
  0.5313115975166495  0.7204813340757855  0.2985318983272489
  0.5313115975166495  0.2795186659242145  0.2985318983272489
 -0.0094566657841294  0.7535403734644510  0.6809737318449498
 -0.0094566657841294  0.2464596265355489  0.6809737318449498
  0.5063741636066976  0.0000000000000000  0.9080440584075624
  0.3926918808020298  0.0000000000000000  0.4905769406228502
  0.4913128200140294  0.5000000000000000  0.8091202006815326
 -0.0075371282229004  0.0000000000000000  0.1875661718272287
  0.6788171539347487  0.0000000000000000  0.2197361621438502
  0.1331334997232610  0.2026493231156989  0.3230130978505537
  0.1331334997232610  0.7973506768843008  0.3230130978505537
  0.6141762014245995  0.5000000000000000  0.0775604421013599
  0.1774871351492069  0.5000000000000000  0.8208132227008869
  0.5902111253334784  0.7066266163793027  0.6695667563346827
  0.5902111253334784  0.2933733836206974  0.6695667563346827
  0.1017452546157524  0.0000000000000000  0.9027862681943142
 
  0.00000000E+00  0.00000000E+00  0.00000000E+00
  0.00000000E+00  0.00000000E+00  0.00000000E+00
  0.00000000E+00  0.00000000E+00  0.00000000E+00
  0.00000000E+00  0.00000000E+00  0.00000000E+00
  0.00000000E+00  0.00000000E+00  0.00000000E+00
  0.00000000E+00  0.00000000E+00  0.00000000E+00
  0.00000000E+00  0.00000000E+00  0.00000000E+00
  0.00000000E+00  0.00000000E+00  0.00000000E+00
  0.00000000E+00  0.00000000E+00  0.00000000E+00
  0.00000000E+00  0.00000000E+00  0.00000000E+00
  0.00000000E+00  0.00000000E+00  0.00000000E+00
  0.00000000E+00  0.00000000E+00  0.00000000E+00
  0.00000000E+00  0.00000000E+00  0.00000000E+00
  0.00000000E+00  0.00000000E+00  0.00000000E+00
  0.00000000E+00  0.00000000E+00  0.00000000E+00
  0.00000000E+00  0.00000000E+00  0.00000000E+00
  0.00000000E+00  0.00000000E+00  0.00000000E+00
