Li5 P2 N1 O6                            
   1.00000000000000     
     0.2642211744268910    0.2527677951315622    5.0675687053205181
     6.2154459541641618   -0.1201693891852052    0.3357508778880364
    -0.1027315099622725    5.2822214674820600    0.2632276076713416
   Li   P    N    O 
     5     2     1     6
Direct
  0.4772857373424397  0.0203023331847403  0.9077260528049093
  0.0153701415764165  0.4757480372344185  0.1537229042791877
  0.4956550554787583  0.7551928084268881  0.3410864372772623
  0.0105106773100846  0.7460300262136490  0.6642892897175315
  0.0969903540537279  0.2224056385327221  0.6518061251667634
  0.4861167961700782  0.5624641523886420  0.8484086383512959
 -0.0278402881756417 -0.0063897099635453  0.1773012554519606
  0.2295024799466455  0.4734543637143006  0.7896060074404533
  0.0302475797033635  0.2019043449539177  0.3187680805283907
  0.6151078583086874  0.7309361677581873  0.6835623201838855
  0.1072731089920503  0.7895643198606049  0.3014311332648298
  0.6367326385431069  0.5107172953441370  0.0765883672466018
  0.0985080264387702 -0.0066639261951404  0.8915384367050263
  0.6709668343115366 -0.0214008514535235  0.1812399515819064
 
  0.00000000E+00  0.00000000E+00  0.00000000E+00
  0.00000000E+00  0.00000000E+00  0.00000000E+00
  0.00000000E+00  0.00000000E+00  0.00000000E+00
  0.00000000E+00  0.00000000E+00  0.00000000E+00
  0.00000000E+00  0.00000000E+00  0.00000000E+00
  0.00000000E+00  0.00000000E+00  0.00000000E+00
  0.00000000E+00  0.00000000E+00  0.00000000E+00
  0.00000000E+00  0.00000000E+00  0.00000000E+00
  0.00000000E+00  0.00000000E+00  0.00000000E+00
  0.00000000E+00  0.00000000E+00  0.00000000E+00
  0.00000000E+00  0.00000000E+00  0.00000000E+00
  0.00000000E+00  0.00000000E+00  0.00000000E+00
  0.00000000E+00  0.00000000E+00  0.00000000E+00
  0.00000000E+00  0.00000000E+00  0.00000000E+00
