(2, 0, 1)
1.0
3.668361 0.000000 -2.117929
-0.000000 15.141436 -4.235858
0.000000 0.000000 42.358582
Li P
48 16
Selective dynamics
direct
0.000000 0.375000 0.012500 T T T Li+
0.000000 0.875000 0.062500 T T T Li+
0.000000 0.125000 0.087500 F F F Li+
0.000000 0.625000 0.037500 T T T Li+
0.333333 0.042060 0.045873 F F F Li+
0.333333 0.542060 0.095873 F F F Li+
0.666667 0.292060 0.037539 T T T Li+
0.666667 0.792060 0.087539 F F F Li+
0.666667 0.457940 0.054127 T T T Li+
0.666667 0.957940 0.004127 T T T Li+
0.333333 0.207940 0.062461 F F F Li+
0.333333 0.707941 0.012461 T T T Li+
0.000000 0.375000 0.112500 F F F Li+
0.000000 0.875000 0.162500 F F F Li+
0.000000 0.125000 0.187500 F F F Li+
0.000000 0.625000 0.137500 F F F Li+
0.333333 0.042060 0.145873 F F F Li+
0.333333 0.542060 0.195873 F F F Li+
0.666667 0.292060 0.137539 F F F Li+
0.666667 0.792060 0.187539 F F F Li+
0.666667 0.457940 0.154127 F F F Li+
0.666667 0.957940 0.104127 F F F Li+
0.333333 0.207940 0.162461 F F F Li+
0.333333 0.707941 0.112461 F F F Li+
0.000000 0.375000 0.212500 F F F Li+
0.000000 0.875000 0.262500 F F F Li+
0.000000 0.125000 0.287500 F F F Li+
0.000000 0.625000 0.237500 F F F Li+
0.333333 0.042060 0.245873 F F F Li+
0.333333 0.542060 0.295873 F F F Li+
0.666667 0.292060 0.237539 F F F Li+
0.666667 0.792060 0.287539 F F F Li+
0.666667 0.457940 0.254127 F F F Li+
0.666667 0.957940 0.204127 F F F Li+
0.333333 0.207940 0.262461 F F F Li+
0.333333 0.707941 0.212461 F F F Li+
0.000000 0.375000 0.312500 F F F Li+
0.000000 0.875000 0.362500 T T T Li+
0.000000 0.125000 0.387500 T T T Li+
0.000000 0.625000 0.337500 T T T Li+
0.333333 0.042060 0.345873 T T T Li+
0.333333 0.542060 0.395873 T T T Li+
0.666667 0.292060 0.337539 F F F Li+
0.666667 0.792060 0.387539 T T T Li+
0.666667 0.457940 0.354127 F F F Li+
0.666667 0.957940 0.304127 F F F Li+
0.333333 0.207940 0.362461 T T T Li+
0.333333 0.707941 0.312461 F F F Li+
0.333333 0.375000 0.079167 F F F P3+
0.333333 0.875000 0.029167 T T T P3+
0.666667 0.125000 0.020833 T T T P3+
0.666667 0.625000 0.070833 T T T P3+
0.333333 0.375000 0.179167 F F F P3+
0.333333 0.875000 0.129167 F F F P3+
0.666667 0.125000 0.120833 F F F P3+
0.666667 0.625000 0.170833 F F F P3+
0.333333 0.375000 0.279167 F F F P3+
0.333333 0.875000 0.229167 F F F P3+
0.666667 0.125000 0.220833 F F F P3+
0.666667 0.625000 0.270833 F F F P3+
0.333333 0.375000 0.379167 T T T P3+
0.333333 0.875000 0.329167 T T T P3+
0.666667 0.125000 0.320833 F F F P3+
0.666667 0.625000 0.370833 T T T P3+
