Li56 P28 O98
1.0
6.730959 0.000000 -2.599490
-2.035903 8.419349 -5.257546
0.000000 0.000000 63.126504
Li P O
56 28 98
Selective dynamics
direct
0.144977 0.012029 0.039075 T T T Li+
0.855023 0.987971 0.077814 T T T Li+
0.588727 0.248347 0.004501 T T T Li+
0.411273 0.751653 0.029056 T T T Li+
0.327738 0.208724 0.031858 T T T Li+
0.672262 0.791276 0.001699 T T T Li+
0.241886 0.549204 0.057799 T T T Li+
0.758114 0.450796 0.059091 T T T Li+
0.144977 0.012029 0.122409 T T T Li+
0.855023 0.987971 0.161148 T T T Li+
0.588727 0.248347 0.087834 T T T Li+
0.411273 0.751653 0.112389 T T T Li+
0.327738 0.208724 0.115191 T T T Li+
0.672262 0.791276 0.085032 T T T Li+
0.241886 0.549204 0.141133 T T T Li+
0.758114 0.450796 0.142424 T T T Li+
0.144977 0.012029 0.205742 F F F Li+
0.855023 0.987971 0.244481 F F F Li+
0.588727 0.248347 0.171167 F F F Li+
0.411273 0.751653 0.195722 F F F Li+
0.327738 0.208724 0.198525 F F F Li+
0.672262 0.791276 0.168365 F F F Li+
0.241886 0.549204 0.224466 F F F Li+
0.758114 0.450796 0.225757 F F F Li+
0.144977 0.012029 0.289075 F F F Li+
0.855023 0.987971 0.327814 F F F Li+
0.588727 0.248347 0.254501 F F F Li+
0.411273 0.751653 0.279056 F F F Li+
0.327738 0.208724 0.281858 F F F Li+
0.672262 0.791276 0.251699 F F F Li+
0.241886 0.549204 0.307799 F F F Li+
0.758114 0.450796 0.309091 F F F Li+
0.144977 0.012029 0.372409 F F F Li+
0.855023 0.987971 0.411148 F F F Li+
0.588727 0.248347 0.337834 F F F Li+
0.411273 0.751653 0.362389 F F F Li+
0.327738 0.208724 0.365191 F F F Li+
0.672262 0.791276 0.335032 F F F Li+
0.241886 0.549204 0.391133 F F F Li+
0.758114 0.450796 0.392424 F F F Li+
0.144977 0.012029 0.455742 T T T Li+
0.855023 0.987971 0.494481 T T T Li+
0.588727 0.248347 0.421167 T T T Li+
0.411273 0.751653 0.445722 T T T Li+
0.327738 0.208724 0.448525 T T T Li+
0.672262 0.791276 0.418365 T T T Li+
0.241886 0.549204 0.474466 T T T Li+
0.758114 0.450796 0.475757 T T T Li+
0.144977 0.012029 0.539075 T T T Li+
0.855023 0.987971 0.577814 T T T Li+
0.588727 0.248347 0.504501 T T T Li+
0.411273 0.751653 0.529056 T T T Li+
0.327738 0.208724 0.531858 T T T Li+
0.672262 0.791276 0.501699 T T T Li+
0.241886 0.549204 0.557799 T T T Li+
0.758114 0.450796 0.559091 T T T Li+
0.213298 0.368044 0.082949 T T T P5+
0.786702 0.631956 0.033940 T T T P5+
0.779241 0.154498 0.047630 T T T P5+
0.220759 0.845502 0.069259 T T T P5+
0.213298 0.368044 0.166283 T T T P5+
0.786702 0.631956 0.117274 T T T P5+
0.779241 0.154498 0.130964 T T T P5+
0.220759 0.845502 0.152593 T T T P5+
0.213298 0.368044 0.249616 F F F P5+
0.786702 0.631956 0.200607 F F F P5+
0.779241 0.154498 0.214297 F F F P5+
0.220759 0.845502 0.235926 F F F P5+
0.213298 0.368044 0.332949 F F F P5+
0.786702 0.631956 0.283940 F F F P5+
0.779241 0.154498 0.297630 F F F P5+
0.220759 0.845502 0.319259 F F F P5+
0.213298 0.368044 0.416283 F F F P5+
0.786702 0.631956 0.367274 F F F P5+
0.779241 0.154498 0.380964 F F F P5+
0.220759 0.845502 0.402593 F F F P5+
0.213298 0.368044 0.499616 T T T P5+
0.786702 0.631956 0.450607 T T T P5+
0.779241 0.154498 0.464297 T T T P5+
0.220759 0.845502 0.485926 T T T P5+
0.213298 0.368044 0.582949 T T T P5+
0.786702 0.631956 0.533940 T T T P5+
0.779241 0.154498 0.547630 T T T P5+
0.220759 0.845502 0.569259 T T T P5+
0.741759 0.125660 0.067257 T T T O2-
0.605720 0.209316 0.033710 T T T O2-
0.394280 0.790684 0.083179 T T T O2-
0.848591 0.018024 0.028038 T T T O2-
0.743350 0.623545 0.007694 T T T O2-
0.256650 0.376455 0.025863 T T T O2-
0.732189 0.473810 0.030025 T T T O2-
0.267811 0.526190 0.003531 T T T O2-
0.702403 0.763496 0.052218 T T T O2-
0.297597 0.236504 0.064672 T T T O2-
0.962384 0.316106 0.065365 T T T O2-
0.037616 0.683894 0.051525 T T T O2-
0.151409 0.981976 0.005519 T T T O2-
0.258241 0.874340 0.049633 T T T O2-
0.741759 0.125660 0.150591 T T T O2-
0.605720 0.209316 0.117044 T T T O2-
0.394280 0.790684 0.166513 T T T O2-
0.848591 0.018024 0.111371 T T T O2-
0.743350 0.623545 0.091027 T T T O2-
0.256650 0.376455 0.109196 T T T O2-
0.732189 0.473810 0.113359 T T T O2-
0.267811 0.526190 0.086864 T T T O2-
0.702403 0.763496 0.135551 T T T O2-
0.297597 0.236504 0.148005 T T T O2-
0.962384 0.316106 0.148698 T T T O2-
0.037616 0.683894 0.134859 T T T O2-
0.151409 0.981976 0.088852 T T T O2-
0.258241 0.874340 0.132966 T T T O2-
0.741759 0.125660 0.233924 F F F O2-
0.605720 0.209316 0.200377 F F F O2-
0.394280 0.790684 0.249846 F F F O2-
0.848591 0.018024 0.194704 F F F O2-
0.743350 0.623545 0.174360 F F F O2-
0.256650 0.376455 0.192530 F F F O2-
0.732189 0.473810 0.196692 F F F O2-
0.267811 0.526190 0.170198 F F F O2-
0.702403 0.763496 0.218884 F F F O2-
0.297597 0.236504 0.231339 F F F O2-
0.962384 0.316106 0.232031 F F F O2-
0.037616 0.683894 0.218192 F F F O2-
0.151409 0.981976 0.172186 T T T O2-
0.258241 0.874340 0.216299 F F F O2-
0.741759 0.125660 0.317257 F F F O2-
0.605720 0.209316 0.283710 F F F O2-
0.394280 0.790684 0.333179 F F F O2-
0.848591 0.018024 0.278038 F F F O2-
0.743350 0.623545 0.257694 F F F O2-
0.256650 0.376455 0.275863 F F F O2-
0.732189 0.473810 0.280025 F F F O2-
0.267811 0.526190 0.253531 F F F O2-
0.702403 0.763496 0.302218 F F F O2-
0.297597 0.236504 0.314672 F F F O2-
0.962384 0.316106 0.315365 F F F O2-
0.037616 0.683894 0.301525 F F F O2-
0.151409 0.981976 0.255519 F F F O2-
0.258241 0.874340 0.299633 F F F O2-
0.741759 0.125660 0.400591 F F F O2-
0.605720 0.209316 0.367044 F F F O2-
0.394280 0.790684 0.416513 F F F O2-
0.848591 0.018024 0.361371 F F F O2-
0.743350 0.623545 0.341027 F F F O2-
0.256650 0.376455 0.359196 F F F O2-
0.732189 0.473810 0.363359 F F F O2-
0.267811 0.526190 0.336864 F F F O2-
0.702403 0.763496 0.385551 F F F O2-
0.297597 0.236504 0.398005 F F F O2-
0.962384 0.316106 0.398698 F F F O2-
0.037616 0.683894 0.384859 F F F O2-
0.151409 0.981976 0.338852 F F F O2-
0.258241 0.874340 0.382966 F F F O2-
0.741759 0.125660 0.483924 T T T O2-
0.605720 0.209316 0.450377 T T T O2-
0.394280 0.790684 0.499846 T T T O2-
0.848591 0.018024 0.444704 T T T O2-
0.743350 0.623545 0.424360 T T T O2-
0.256650 0.376455 0.442530 T T T O2-
0.732189 0.473810 0.446692 T T T O2-
0.267811 0.526190 0.420198 T T T O2-
0.702403 0.763496 0.468884 T T T O2-
0.297597 0.236504 0.481339 T T T O2-
0.962384 0.316106 0.482031 T T T O2-
0.037616 0.683894 0.468192 T T T O2-
0.151409 0.981976 0.422186 T T T O2-
0.258241 0.874340 0.466299 T T T O2-
0.741759 0.125660 0.567257 T T T O2-
0.605720 0.209316 0.533710 T T T O2-
0.394280 0.790684 0.583179 T T T O2-
0.848591 0.018024 0.528038 T T T O2-
0.743350 0.623545 0.507694 T T T O2-
0.256650 0.376455 0.525863 T T T O2-
0.732189 0.473810 0.530025 T T T O2-
0.267811 0.526190 0.503531 T T T O2-
0.702403 0.763496 0.552218 T T T O2-
0.297597 0.236504 0.564672 T T T O2-
0.962384 0.316106 0.565365 T T T O2-
0.037616 0.683894 0.551525 T T T O2-
0.151409 0.981976 0.505519 T T T O2-
0.258241 0.874340 0.549633 T T T O2-
