Li140 P140 O420
1.0
13.312980 0.000000 0.000000
-10.635230 16.540545 0.000000
0.000000 0.000000 60.737138
Li P O
140 140 420
Selective dynamics
direct
0.126478 0.181780 0.009635 T T T Li
0.126478 0.681780 0.008654 T T T Li
0.888830 0.065996 0.010561 F F F Li
0.888830 0.565996 0.007728 T T T Li
0.652957 0.950543 0.008619 T T T Li
0.652957 0.450543 0.009670 T T T Li
0.418297 0.835452 0.008488 T T T Li
0.418297 0.335452 0.009801 T T T Li
0.270894 0.758434 0.055255 F F F Li
0.270894 0.258434 0.053943 F F F Li
0.624263 0.681714 0.007218 T T T Li
0.624263 0.181714 0.011071 T T T Li
0.387725 0.566270 0.011298 T T T Li
0.387725 0.066270 0.006991 T T T Li
0.151818 0.449547 0.006122 T T T Li
0.151818 0.949547 0.012167 T T T Li
0.915480 0.332984 0.011168 T T T Li
0.915480 0.832984 0.007120 F F F Li
0.766829 0.256366 0.058154 F F F Li
0.766829 0.756366 0.051043 F F F Li
0.126478 0.181780 0.100544 F F F Li
0.126478 0.681780 0.099563 F F F Li
0.888830 0.065996 0.101470 F F F Li
0.888830 0.565996 0.098637 F F F Li
0.652957 0.950543 0.099528 F F F Li
0.652957 0.450543 0.100579 F F F Li
0.418297 0.835452 0.099397 F F F Li
0.418297 0.335452 0.100710 F F F Li
0.270894 0.758434 0.146164 F F F Li
0.270894 0.258434 0.144852 F F F Li
0.624263 0.681714 0.098127 F F F Li
0.624263 0.181714 0.101980 F F F Li
0.387725 0.566270 0.102207 F F F Li
0.387725 0.066270 0.097900 F F F Li
0.151818 0.449547 0.097031 F F F Li
0.151818 0.949547 0.103076 F F F Li
0.915480 0.332984 0.102077 F F F Li
0.915480 0.832984 0.098030 F F F Li
0.766829 0.256366 0.149064 F F F Li
0.766829 0.756366 0.141953 F F F Li
0.126478 0.181780 0.191453 F F F Li
0.126478 0.681780 0.190472 F F F Li
0.888830 0.065996 0.192379 F F F Li
0.888830 0.565996 0.189546 F F F Li
0.652957 0.950543 0.190437 F F F Li
0.652957 0.450543 0.191488 F F F Li
0.418297 0.835452 0.190306 F F F Li
0.418297 0.335452 0.191619 F F F Li
0.270894 0.758434 0.237073 F F F Li
0.270894 0.258434 0.235761 F F F Li
0.624263 0.681714 0.189036 F F F Li
0.624263 0.181714 0.192889 F F F Li
0.387725 0.566270 0.193116 F F F Li
0.387725 0.066270 0.188809 F F F Li
0.151818 0.449547 0.187940 F F F Li
0.151818 0.949547 0.193985 F F F Li
0.915480 0.332984 0.192987 F F F Li
0.915480 0.832984 0.188939 F F F Li
0.766829 0.256366 0.239973 F F F Li
0.766829 0.756366 0.232862 F F F Li
0.126478 0.181780 0.282362 F F F Li
0.126478 0.681780 0.281381 F F F Li
0.888830 0.065996 0.283288 F F F Li
0.888830 0.565996 0.280455 F F F Li
0.652957 0.950543 0.281346 F F F Li
0.652957 0.450543 0.282397 F F F Li
0.418297 0.835452 0.281215 F F F Li
0.418297 0.335452 0.282528 F F F Li
0.270894 0.758434 0.327982 F F F Li
0.270894 0.258434 0.326670 F F F Li
0.624263 0.681714 0.279945 F F F Li
0.624263 0.181714 0.283798 F F F Li
0.387725 0.566270 0.284025 F F F Li
0.387725 0.066270 0.279718 F F F Li
0.151818 0.449547 0.278849 F F F Li
0.151818 0.949547 0.284894 F F F Li
0.915480 0.332984 0.283896 F F F Li
0.915480 0.832984 0.279848 F F F Li
0.766829 0.256366 0.330882 F F F Li
0.766829 0.756366 0.323771 F F F Li
0.126478 0.181780 0.373271 F F F Li
0.126478 0.681780 0.372291 F F F Li
0.888830 0.065996 0.374197 F F F Li
0.888830 0.565996 0.371364 F F F Li
0.652957 0.950543 0.372255 F F F Li
0.652957 0.450543 0.373307 F F F Li
0.418297 0.835452 0.372124 F F F Li
0.418297 0.335452 0.373438 F F F Li
0.270894 0.758434 0.418891 F F F Li
0.270894 0.258434 0.417579 F F F Li
0.624263 0.681714 0.370854 F F F Li
0.624263 0.181714 0.374708 F F F Li
0.387725 0.566270 0.374934 F F F Li
0.387725 0.066270 0.370627 F F F Li
0.151818 0.449547 0.369758 F F F Li
0.151818 0.949547 0.375804 F F F Li
0.915480 0.332984 0.374805 F F F Li
0.915480 0.832984 0.370757 F F F Li
0.766829 0.256366 0.421791 F F F Li
0.766829 0.756366 0.414680 F F F Li
0.126478 0.181780 0.464180 F F F Li
0.126478 0.681780 0.463200 F F F Li
0.888830 0.065996 0.465106 F F F Li
0.888830 0.565996 0.462273 F F F Li
0.652957 0.950543 0.463164 F F F Li
0.652957 0.450543 0.464216 F F F Li
0.418297 0.835452 0.463033 F F F Li
0.418297 0.335452 0.464347 F F F Li
0.270894 0.758434 0.509800 F F F Li
0.270894 0.258434 0.508488 F F F Li
0.624263 0.681714 0.461763 F F F Li
0.624263 0.181714 0.465617 F F F Li
0.387725 0.566270 0.465843 F F F Li
0.387725 0.066270 0.461536 F F F Li
0.151818 0.449547 0.460667 F F F Li
0.151818 0.949547 0.466713 F F F Li
0.915480 0.332984 0.465714 F F F Li
0.915480 0.832984 0.461666 F F F Li
0.766829 0.256366 0.512700 F F F Li
0.766829 0.756366 0.505589 F F F Li
0.126478 0.181780 0.555089 F F F Li
0.126478 0.681780 0.554109 F F F Li
0.888830 0.065996 0.556015 F F F Li
0.888830 0.565996 0.553182 F F F Li
0.652957 0.950543 0.554073 F F F Li
0.652957 0.450543 0.555125 F F F Li
0.418297 0.835452 0.553942 F F F Li
0.418297 0.335452 0.555256 F F F Li
0.270894 0.758434 0.600710 F F F Li
0.270894 0.258434 0.599397 T T T Li
0.624263 0.681714 0.552672 F F F Li
0.624263 0.181714 0.556526 F F F Li
0.387725 0.566270 0.556752 F F F Li
0.387725 0.066270 0.552446 F F F Li
0.151818 0.449547 0.551576 F F F Li
0.151818 0.949547 0.557622 F F F Li
0.915480 0.332984 0.556623 F F F Li
0.915480 0.832984 0.552575 F F F Li
0.766829 0.256366 0.603609 F F F Li
0.766829 0.756366 0.596498 F F F Li
0.000779 0.999587 0.037747 F F F P
0.000779 0.499587 0.071451 F F F P
0.794387 0.906720 0.068843 F F F P
0.794387 0.406720 0.040355 T T T P
0.598863 0.802939 0.037468 T T T P
0.598863 0.302939 0.071730 F F F P
0.408395 0.691689 0.070147 F F F P
0.408395 0.191689 0.039051 T T T P
0.208401 0.591751 0.040077 F F F P
0.208401 0.091751 0.069121 F F F P
0.334920 0.425433 0.068787 F F F P
0.334920 0.925433 0.040411 F F F P
0.134548 0.325562 0.038752 T T T P
0.134548 0.825562 0.070446 F F F P
0.943677 0.213545 0.071665 F F F P
0.943677 0.713545 0.037533 T T T P
0.747866 0.110144 0.040790 T T T P
0.747866 0.610144 0.068408 F F F P
0.541580 0.017155 0.071884 F F F P
0.541580 0.517155 0.037314 F F F P
0.000779 0.999587 0.128656 F F F P
0.000779 0.499587 0.162360 F F F P
0.794387 0.906720 0.159752 F F F P
0.794387 0.406720 0.131264 F F F P
0.598863 0.802939 0.128377 F F F P
0.598863 0.302939 0.162639 F F F P
0.408395 0.691689 0.161056 F F F P
0.408395 0.191689 0.129961 F F F P
0.208401 0.591751 0.130986 F F F P
0.208401 0.091751 0.160030 F F F P
0.334920 0.425433 0.159696 F F F P
0.334920 0.925433 0.131320 F F F P
0.134548 0.325562 0.129661 F F F P
0.134548 0.825562 0.161356 F F F P
0.943677 0.213545 0.162574 F F F P
0.943677 0.713545 0.128442 F F F P
0.747866 0.110144 0.131699 F F F P
0.747866 0.610144 0.159317 F F F P
0.541580 0.017155 0.162793 F F F P
0.541580 0.517155 0.128223 F F F P
0.000779 0.999587 0.219565 F F F P
0.000779 0.499587 0.253270 F F F P
0.794387 0.906720 0.250661 F F F P
0.794387 0.406720 0.222173 F F F P
0.598863 0.802939 0.219286 F F F P
0.598863 0.302939 0.253548 F F F P
0.408395 0.691689 0.251965 F F F P
0.408395 0.191689 0.220870 F F F P
0.208401 0.591751 0.221895 F F F P
0.208401 0.091751 0.250939 F F F P
0.334920 0.425433 0.250605 F F F P
0.334920 0.925433 0.222229 F F F P
0.134548 0.325562 0.220570 F F F P
0.134548 0.825562 0.252265 F F F P
0.943677 0.213545 0.253483 F F F P
0.943677 0.713545 0.219352 F F F P
0.747866 0.110144 0.222608 F F F P
0.747866 0.610144 0.250226 F F F P
0.541580 0.017155 0.253702 F F F P
0.541580 0.517155 0.219132 F F F P
0.000779 0.999587 0.310474 F F F P
0.000779 0.499587 0.344179 F F F P
0.794387 0.906720 0.341570 F F F P
0.794387 0.406720 0.313082 F F F P
0.598863 0.802939 0.310195 F F F P
0.598863 0.302939 0.344457 F F F P
0.408395 0.691689 0.342874 F F F P
0.408395 0.191689 0.311779 F F F P
0.208401 0.591751 0.312804 F F F P
0.208401 0.091751 0.341848 F F F P
0.334920 0.425433 0.341514 F F F P
0.334920 0.925433 0.313138 F F F P
0.134548 0.325562 0.311479 F F F P
0.134548 0.825562 0.343174 F F F P
0.943677 0.213545 0.344392 F F F P
0.943677 0.713545 0.310261 F F F P
0.747866 0.110144 0.313517 F F F P
0.747866 0.610144 0.341135 F F F P
0.541580 0.017155 0.344611 F F F P
0.541580 0.517155 0.310041 F F F P
0.000779 0.999587 0.401383 F F F P
0.000779 0.499587 0.435088 F F F P
0.794387 0.906720 0.432479 F F F P
0.794387 0.406720 0.403991 F F F P
0.598863 0.802939 0.401104 F F F P
0.598863 0.302939 0.435367 F F F P
0.408395 0.691689 0.433783 F F F P
0.408395 0.191689 0.402688 F F F P
0.208401 0.591751 0.403714 F F F P
0.208401 0.091751 0.432757 F F F P
0.334920 0.425433 0.432424 F F F P
0.334920 0.925433 0.404047 F F F P
0.134548 0.325562 0.402388 F F F P
0.134548 0.825562 0.434083 F F F P
0.943677 0.213545 0.435301 F F F P
0.943677 0.713545 0.401170 F F F P
0.747866 0.110144 0.404426 F F F P
0.747866 0.610144 0.432044 F F F P
0.541580 0.017155 0.435520 F F F P
0.541580 0.517155 0.400950 F F F P
0.000779 0.999587 0.492292 F F F P
0.000779 0.499587 0.525997 F F F P
0.794387 0.906720 0.523388 F F F P
0.794387 0.406720 0.494900 F F F P
0.598863 0.802939 0.492013 F F F P
0.598863 0.302939 0.526276 F F F P
0.408395 0.691689 0.524692 F F F P
0.408395 0.191689 0.493597 F F F P
0.208401 0.591751 0.494623 F F F P
0.208401 0.091751 0.523666 F F F P
0.334920 0.425433 0.523333 F F F P
0.334920 0.925433 0.494956 F F F P
0.134548 0.325562 0.493297 F F F P
0.134548 0.825562 0.524992 F F F P
0.943677 0.213545 0.526210 F F F P
0.943677 0.713545 0.492079 F F F P
0.747866 0.110144 0.495335 F F F P
0.747866 0.610144 0.522954 F F F P
0.541580 0.017155 0.526429 F F F P
0.541580 0.517155 0.491860 F F F P
0.000779 0.999587 0.583201 F F F P
0.000779 0.499587 0.616906 T T T P
0.794387 0.906720 0.614297 T T T P
0.794387 0.406720 0.585810 F F F P
0.598863 0.802939 0.582922 F F F P
0.598863 0.302939 0.617185 T T T P
0.408395 0.691689 0.615601 T T T P
0.408395 0.191689 0.584506 F F F P
0.208401 0.591751 0.585532 F F F P
0.208401 0.091751 0.614575 T T T P
0.334920 0.425433 0.614242 T T T P
0.334920 0.925433 0.585865 F F F P
0.134548 0.325562 0.584206 F F F P
0.134548 0.825562 0.615901 T T T P
0.943677 0.213545 0.617119 T T T P
0.943677 0.713545 0.582988 F F F P
0.747866 0.110144 0.586244 F F F P
0.747866 0.610144 0.613863 T T T P
0.541580 0.017155 0.617338 T T T P
0.541580 0.517155 0.582769 F F F P
0.870015 0.964587 0.048326 F F F O
0.870015 0.464587 0.060872 F F F O
0.659821 0.859372 0.059046 F F F O
0.659821 0.359372 0.050152 F F F O
0.481350 0.724144 0.047325 F F F O
0.481350 0.224144 0.061873 F F F O
0.293096 0.607741 0.061264 F F F O
0.293096 0.107741 0.047934 F F F O
0.080152 0.021852 0.059870 F F F O
0.080152 0.521852 0.049328 F F F O
0.250064 0.409378 0.047619 F F F O
0.250064 0.909378 0.061579 F F F O
0.063226 0.290596 0.061704 F F F O
0.063226 0.790596 0.047494 F F F O
0.883201 0.156445 0.050120 F F F O
0.883201 0.656445 0.059078 F F F O
0.674568 0.056520 0.061982 F F F O
0.674568 0.556520 0.047216 F F F O
0.463629 0.495673 0.059627 F F F O
0.463629 0.995673 0.049571 F F F O
0.029173 0.073889 0.025254 F F F O
0.029173 0.573889 0.083944 F F F O
0.005091 0.933926 0.026061 F F F O
0.005091 0.433926 0.083137 F F F O
0.795375 0.958651 0.087001 F F F O
0.795375 0.458651 0.022197 F F F O
0.828944 0.846743 0.073208 F F F O
0.828944 0.346743 0.035990 T T T O
0.560342 0.845353 0.022601 T T T O
0.560342 0.345353 0.086597 F F F O
0.677417 0.775410 0.028983 F F F O
0.677417 0.275410 0.080215 F F F O
0.369330 0.747295 0.077186 F F F O
0.369330 0.247295 0.032012 F F F O
0.472480 0.669352 0.085845 F F F O
0.472480 0.169352 0.023353 T T T O
0.209416 0.667159 0.035043 F F F O
0.209416 0.167159 0.074155 F F F O
0.238895 0.553292 0.022256 F F F O
0.238895 0.053292 0.086942 F F F O
0.302391 0.463335 0.086427 F F F O
0.302391 0.963335 0.022771 F F F O
0.334913 0.350606 0.074054 F F F O
0.334913 0.850606 0.035144 F F F O
0.068594 0.348215 0.023618 T T T O
0.068594 0.848215 0.085580 F F F O
0.175312 0.271458 0.031140 F F F O
0.175312 0.771458 0.078058 F F F O
0.864720 0.241625 0.079532 F F F O
0.864720 0.741625 0.029666 F F F O
0.980120 0.171199 0.087058 F F F O
0.980120 0.671199 0.022140 T T T O
0.713620 0.170027 0.035938 T T T O
0.713620 0.670027 0.073260 F F F O
0.742996 0.055640 0.023027 F F F O
0.742996 0.555640 0.086171 F F F O
0.532819 0.080441 0.083920 F F F O
0.532819 0.580441 0.025278 F F F O
0.515310 0.942366 0.083789 F F F O
0.515310 0.442366 0.025409 F F F O
0.870015 0.964587 0.139235 F F F O
0.870015 0.464587 0.151781 F F F O
0.659821 0.859372 0.149955 F F F O
0.659821 0.359372 0.141061 F F F O
0.481350 0.724144 0.138234 F F F O
0.481350 0.224144 0.152782 F F F O
0.293096 0.607741 0.152173 F F F O
0.293096 0.107741 0.138843 F F F O
0.080152 0.021852 0.150779 F F F O
0.080152 0.521852 0.140237 F F F O
0.250064 0.409378 0.138528 F F F O
0.250064 0.909378 0.152488 F F F O
0.063226 0.290596 0.152613 F F F O
0.063226 0.790596 0.138403 F F F O
0.883201 0.156445 0.141029 F F F O
0.883201 0.656445 0.149987 F F F O
0.674568 0.056520 0.152891 F F F O
0.674568 0.556520 0.138125 F F F O
0.463629 0.495673 0.150536 F F F O
0.463629 0.995673 0.140480 F F F O
0.029173 0.073889 0.116163 F F F O
0.029173 0.573889 0.174853 F F F O
0.005091 0.933926 0.116970 F F F O
0.005091 0.433926 0.174046 F F F O
0.795375 0.958651 0.177910 F F F O
0.795375 0.458651 0.113106 F F F O
0.828944 0.846743 0.164117 F F F O
0.828944 0.346743 0.126899 F F F O
0.560342 0.845353 0.113510 F F F O
0.560342 0.345353 0.177506 F F F O
0.677417 0.775410 0.119892 F F F O
0.677417 0.275410 0.171125 F F F O
0.369330 0.747295 0.168095 F F F O
0.369330 0.247295 0.122921 F F F O
0.472480 0.669352 0.176754 F F F O
0.472480 0.169352 0.114262 F F F O
0.209416 0.667159 0.125952 F F F O
0.209416 0.167159 0.165065 F F F O
0.238895 0.553292 0.113165 F F F O
0.238895 0.053292 0.177851 F F F O
0.302391 0.463335 0.177336 F F F O
0.302391 0.963335 0.113680 F F F O
0.334913 0.350606 0.164963 F F F O
0.334913 0.850606 0.126053 F F F O
0.068594 0.348215 0.114527 F F F O
0.068594 0.848215 0.176489 F F F O
0.175312 0.271458 0.122050 F F F O
0.175312 0.771458 0.168967 F F F O
0.864720 0.241625 0.170441 F F F O
0.864720 0.741625 0.120575 F F F O
0.980120 0.171199 0.177967 F F F O
0.980120 0.671199 0.113049 F F F O
0.713620 0.170027 0.126847 F F F O
0.713620 0.670027 0.164169 F F F O
0.742996 0.055640 0.113936 F F F O
0.742996 0.555640 0.177080 F F F O
0.532819 0.080441 0.174829 F F F O
0.532819 0.580441 0.116187 F F F O
0.515310 0.942366 0.174698 F F F O
0.515310 0.442366 0.116318 F F F O
0.870015 0.964587 0.230144 F F F O
0.870015 0.464587 0.242690 F F F O
0.659821 0.859372 0.240864 F F F O
0.659821 0.359372 0.231970 F F F O
0.481350 0.724144 0.229143 F F F O
0.481350 0.224144 0.243692 F F F O
0.293096 0.607741 0.243083 F F F O
0.293096 0.107741 0.229752 F F F O
0.080152 0.021852 0.241688 F F F O
0.080152 0.521852 0.231146 F F F O
0.250064 0.409378 0.229437 F F F O
0.250064 0.909378 0.243397 F F F O
0.063226 0.290596 0.243523 F F F O
0.063226 0.790596 0.229312 F F F O
0.883201 0.156445 0.231939 F F F O
0.883201 0.656445 0.240896 F F F O
0.674568 0.056520 0.243800 F F F O
0.674568 0.556520 0.229034 F F F O
0.463629 0.495673 0.241445 F F F O
0.463629 0.995673 0.231389 F F F O
0.029173 0.073889 0.207072 F F F O
0.029173 0.573889 0.265762 F F F O
0.005091 0.933926 0.207879 F F F O
0.005091 0.433926 0.264955 F F F O
0.795375 0.958651 0.268819 F F F O
0.795375 0.458651 0.204015 F F F O
0.828944 0.846743 0.255026 F F F O
0.828944 0.346743 0.217809 F F F O
0.560342 0.845353 0.204420 F F F O
0.560342 0.345353 0.268415 F F F O
0.677417 0.775410 0.210801 F F F O
0.677417 0.275410 0.262034 F F F O
0.369330 0.747295 0.259004 F F F O
0.369330 0.247295 0.213830 F F F O
0.472480 0.669352 0.267663 F F F O
0.472480 0.169352 0.205171 F F F O
0.209416 0.667159 0.216861 F F F O
0.209416 0.167159 0.255974 F F F O
0.238895 0.553292 0.204074 F F F O
0.238895 0.053292 0.268761 F F F O
0.302391 0.463335 0.268245 F F F O
0.302391 0.963335 0.204589 F F F O
0.334913 0.350606 0.255872 F F F O
0.334913 0.850606 0.216962 F F F O
0.068594 0.348215 0.205436 F F F O
0.068594 0.848215 0.267398 F F F O
0.175312 0.271458 0.212959 F F F O
0.175312 0.771458 0.259876 F F F O
0.864720 0.241625 0.261350 F F F O
0.864720 0.741625 0.211484 F F F O
0.980120 0.171199 0.268876 F F F O
0.980120 0.671199 0.203958 F F F O
0.713620 0.170027 0.217756 F F F O
0.713620 0.670027 0.255078 F F F O
0.742996 0.055640 0.204845 F F F O
0.742996 0.555640 0.267989 F F F O
0.532819 0.080441 0.265738 F F F O
0.532819 0.580441 0.207096 F F F O
0.515310 0.942366 0.265607 F F F O
0.515310 0.442366 0.207228 F F F O
0.870015 0.964587 0.321053 F F F O
0.870015 0.464587 0.333599 F F F O
0.659821 0.859372 0.331773 F F F O
0.659821 0.359372 0.322880 F F F O
0.481350 0.724144 0.320052 F F F O
0.481350 0.224144 0.334601 F F F O
0.293096 0.607741 0.333992 F F F O
0.293096 0.107741 0.320661 F F F O
0.080152 0.021852 0.332597 F F F O
0.080152 0.521852 0.322055 F F F O
0.250064 0.409378 0.320346 F F F O
0.250064 0.909378 0.334306 F F F O
0.063226 0.290596 0.334432 F F F O
0.063226 0.790596 0.320221 F F F O
0.883201 0.156445 0.322848 F F F O
0.883201 0.656445 0.331805 F F F O
0.674568 0.056520 0.334709 F F F O
0.674568 0.556520 0.319943 F F F O
0.463629 0.495673 0.332354 F F F O
0.463629 0.995673 0.322298 F F F O
0.029173 0.073889 0.297981 F F F O
0.029173 0.573889 0.356671 F F F O
0.005091 0.933926 0.298788 F F F O
0.005091 0.433926 0.355864 F F F O
0.795375 0.958651 0.359728 F F F O
0.795375 0.458651 0.294924 F F F O
0.828944 0.846743 0.345935 F F F O
0.828944 0.346743 0.308718 F F F O
0.560342 0.845353 0.295329 F F F O
0.560342 0.345353 0.359324 F F F O
0.677417 0.775410 0.301710 F F F O
0.677417 0.275410 0.352943 F F F O
0.369330 0.747295 0.349913 F F F O
0.369330 0.247295 0.304739 F F F O
0.472480 0.669352 0.358573 F F F O
0.472480 0.169352 0.296080 F F F O
0.209416 0.667159 0.307770 F F F O
0.209416 0.167159 0.346883 F F F O
0.238895 0.553292 0.294983 F F F O
0.238895 0.053292 0.359670 F F F O
0.302391 0.463335 0.359154 F F F O
0.302391 0.963335 0.295498 F F F O
0.334913 0.350606 0.346781 F F F O
0.334913 0.850606 0.307871 F F F O
0.068594 0.348215 0.296345 F F F O
0.068594 0.848215 0.358307 F F F O
0.175312 0.271458 0.303868 F F F O
0.175312 0.771458 0.350785 F F F O
0.864720 0.241625 0.352260 F F F O
0.864720 0.741625 0.302393 F F F O
0.980120 0.171199 0.359785 F F F O
0.980120 0.671199 0.294867 F F F O
0.713620 0.170027 0.308665 F F F O
0.713620 0.670027 0.345987 F F F O
0.742996 0.055640 0.295754 F F F O
0.742996 0.555640 0.358899 F F F O
0.532819 0.080441 0.356647 F F F O
0.532819 0.580441 0.298005 F F F O
0.515310 0.942366 0.356516 F F F O
0.515310 0.442366 0.298137 F F F O
0.870015 0.964587 0.411963 F F F O
0.870015 0.464587 0.424508 F F F O
0.659821 0.859372 0.422682 F F F O
0.659821 0.359372 0.413789 F F F O
0.481350 0.724144 0.410961 F F F O
0.481350 0.224144 0.425510 F F F O
0.293096 0.607741 0.424901 F F F O
0.293096 0.107741 0.411570 F F F O
0.080152 0.021852 0.423506 F F F O
0.080152 0.521852 0.412965 F F F O
0.250064 0.409378 0.411255 F F F O
0.250064 0.909378 0.425215 F F F O
0.063226 0.290596 0.425341 F F F O
0.063226 0.790596 0.411130 F F F O
0.883201 0.156445 0.413757 F F F O
0.883201 0.656445 0.422714 F F F O
0.674568 0.056520 0.425618 F F F O
0.674568 0.556520 0.410852 F F F O
0.463629 0.495673 0.423263 F F F O
0.463629 0.995673 0.413207 F F F O
0.029173 0.073889 0.388890 F F F O
0.029173 0.573889 0.447580 F F F O
0.005091 0.933926 0.389697 F F F O
0.005091 0.433926 0.446773 F F F O
0.795375 0.958651 0.450638 F F F O
0.795375 0.458651 0.385833 F F F O
0.828944 0.846743 0.436844 F F F O
0.828944 0.346743 0.399627 F F F O
0.560342 0.845353 0.386238 F F F O
0.560342 0.345353 0.450233 F F F O
0.677417 0.775410 0.392619 F F F O
0.677417 0.275410 0.443852 F F F O
0.369330 0.747295 0.440822 F F F O
0.369330 0.247295 0.395649 F F F O
0.472480 0.669352 0.449482 F F F O
0.472480 0.169352 0.386989 F F F O
0.209416 0.667159 0.398679 F F F O
0.209416 0.167159 0.437792 F F F O
0.238895 0.553292 0.385892 F F F O
0.238895 0.053292 0.450579 F F F O
0.302391 0.463335 0.450064 F F F O
0.302391 0.963335 0.386407 F F F O
0.334913 0.350606 0.437690 F F F O
0.334913 0.850606 0.398780 F F F O
0.068594 0.348215 0.387254 F F F O
0.068594 0.848215 0.449217 F F F O
0.175312 0.271458 0.394777 F F F O
0.175312 0.771458 0.441694 F F F O
0.864720 0.241625 0.443169 F F F O
0.864720 0.741625 0.393302 F F F O
0.980120 0.171199 0.450694 F F F O
0.980120 0.671199 0.385776 F F F O
0.713620 0.170027 0.399574 F F F O
0.713620 0.670027 0.436896 F F F O
0.742996 0.055640 0.386663 F F F O
0.742996 0.555640 0.449808 F F F O
0.532819 0.080441 0.447556 F F F O
0.532819 0.580441 0.388914 F F F O
0.515310 0.942366 0.447425 F F F O
0.515310 0.442366 0.389046 F F F O
0.870015 0.964587 0.502872 F F F O
0.870015 0.464587 0.515417 F F F O
0.659821 0.859372 0.513591 F F F O
0.659821 0.359372 0.504698 F F F O
0.481350 0.724144 0.501870 F F F O
0.481350 0.224144 0.516419 F F F O
0.293096 0.607741 0.515810 F F F O
0.293096 0.107741 0.502479 F F F O
0.080152 0.021852 0.514415 F F F O
0.080152 0.521852 0.503874 F F F O
0.250064 0.409378 0.502164 F F F O
0.250064 0.909378 0.516124 F F F O
0.063226 0.290596 0.516250 F F F O
0.063226 0.790596 0.502039 F F F O
0.883201 0.156445 0.504666 F F F O
0.883201 0.656445 0.513623 F F F O
0.674568 0.056520 0.516527 F F F O
0.674568 0.556520 0.501761 F F F O
0.463629 0.495673 0.514173 F F F O
0.463629 0.995673 0.504116 F F F O
0.029173 0.073889 0.479799 F F F O
0.029173 0.573889 0.538489 F F F O
0.005091 0.933926 0.480606 F F F O
0.005091 0.433926 0.537682 F F F O
0.795375 0.958651 0.541547 F F F O
0.795375 0.458651 0.476742 F F F O
0.828944 0.846743 0.527753 F F F O
0.828944 0.346743 0.490536 F F F O
0.560342 0.845353 0.477147 F F F O
0.560342 0.345353 0.541142 F F F O
0.677417 0.775410 0.483528 F F F O
0.677417 0.275410 0.534761 F F F O
0.369330 0.747295 0.531731 F F F O
0.369330 0.247295 0.486558 F F F O
0.472480 0.669352 0.540391 F F F O
0.472480 0.169352 0.477898 F F F O
0.209416 0.667159 0.489588 F F F O
0.209416 0.167159 0.528701 F F F O
0.238895 0.553292 0.476801 F F F O
0.238895 0.053292 0.541488 F F F O
0.302391 0.463335 0.540973 F F F O
0.302391 0.963335 0.477316 F F F O
0.334913 0.350606 0.528599 F F F O
0.334913 0.850606 0.489689 F F F O
0.068594 0.348215 0.478163 F F F O
0.068594 0.848215 0.540126 F F F O
0.175312 0.271458 0.485686 F F F O
0.175312 0.771458 0.532603 F F F O
0.864720 0.241625 0.534078 F F F O
0.864720 0.741625 0.484211 F F F O
0.980120 0.171199 0.541604 F F F O
0.980120 0.671199 0.476685 F F F O
0.713620 0.170027 0.490483 F F F O
0.713620 0.670027 0.527805 F F F O
0.742996 0.055640 0.477572 F F F O
0.742996 0.555640 0.540717 F F F O
0.532819 0.080441 0.538465 F F F O
0.532819 0.580441 0.479824 F F F O
0.515310 0.942366 0.538334 F F F O
0.515310 0.442366 0.479955 F F F O
0.870015 0.964587 0.593781 F F F O
0.870015 0.464587 0.606326 F F F O
0.659821 0.859372 0.604500 F F F O
0.659821 0.359372 0.595607 F F F O
0.481350 0.724144 0.592779 F F F O
0.481350 0.224144 0.607328 F F F O
0.293096 0.607741 0.606719 F F F O
0.293096 0.107741 0.593388 F F F O
0.080152 0.021852 0.605324 F F F O
0.080152 0.521852 0.594783 F F F O
0.250064 0.409378 0.593073 F F F O
0.250064 0.909378 0.607034 F F F O
0.063226 0.290596 0.607159 F F F O
0.063226 0.790596 0.592948 F F F O
0.883201 0.156445 0.595575 F F F O
0.883201 0.656445 0.604532 F F F O
0.674568 0.056520 0.607436 F F F O
0.674568 0.556520 0.592670 F F F O
0.463629 0.495673 0.605082 F F F O
0.463629 0.995673 0.595025 F F F O
0.029173 0.073889 0.570708 F F F O
0.029173 0.573889 0.629398 T T T O
0.005091 0.933926 0.571515 F F F O
0.005091 0.433926 0.628591 T T T O
0.795375 0.958651 0.632456 F F F O
0.795375 0.458651 0.567651 F F F O
0.828944 0.846743 0.618662 T T T O
0.828944 0.346743 0.581445 F F F O
0.560342 0.845353 0.568056 F F F O
0.560342 0.345353 0.632051 T T T O
0.677417 0.775410 0.574437 F F F O
0.677417 0.275410 0.625670 F F F O
0.369330 0.747295 0.622640 F F F O
0.369330 0.247295 0.577467 F F F O
0.472480 0.669352 0.631300 T T T O
0.472480 0.169352 0.568807 F F F O
0.209416 0.667159 0.580497 F F F O
0.209416 0.167159 0.619610 T T T O
0.238895 0.553292 0.567710 F F F O
0.238895 0.053292 0.632397 F F F O
0.302391 0.463335 0.631882 F F F O
0.302391 0.963335 0.568225 F F F O
0.334913 0.350606 0.619508 T T T O
0.334913 0.850606 0.580599 F F F O
0.068594 0.348215 0.569072 F F F O
0.068594 0.848215 0.631035 T T T O
0.175312 0.271458 0.576595 F F F O
0.175312 0.771458 0.623512 F F F O
0.864720 0.241625 0.624987 F F F O
0.864720 0.741625 0.575120 F F F O
0.980120 0.171199 0.632513 T T T O
0.980120 0.671199 0.567594 F F F O
0.713620 0.170027 0.581392 F F F O
0.713620 0.670027 0.618715 T T T O
0.742996 0.055640 0.568481 F F F O
0.742996 0.555640 0.631626 F F F O
0.532819 0.080441 0.629374 T T T O
0.532819 0.580441 0.570733 F F F O
0.515310 0.942366 0.629243 T T T O
0.515310 0.442366 0.570864 F F F O
