Li56 P8 N32                             
   1.00000000000000     
     9.5880159999999997    0.0000000000000000    0.0000000000000000
     0.0000000000000000    9.5880159999999997    0.0000000000000000
     0.0000000000000000    0.0000000000000000    9.5880159999999997
   Li   P    N 
    56     8    32
Direct
  0.0000000000000000  0.5000000000000000  0.5000000000000000
  0.5000000000000000  0.0000000000000000  0.0000000000000000
  0.0000000000000000  0.0000000000000000  0.5000000000000000
  0.0000000000000000  0.5000000000000000  0.0000000000000000
  0.5000000000000000  0.0000000000000000  0.5000000000000000
  0.5000000000000000  0.5000000000000000  0.0000000000000000
  0.2500000000000000  0.0000000000000000  0.5000000000000000
  0.0000000000000000  0.5000000000000000  0.7500000000000000
  0.0000000000000000  0.5000000000000000  0.2500000000000000
  0.5000000000000000  0.2500000000000000  0.0000000000000000
  0.5000000000000000  0.7500000000000000  0.0000000000000000
  0.7500000000000000  0.0000000000000000  0.5000000000000000
  0.2250420000000020  0.2250420000000020  0.2250420000000020
  0.2749579999999980  0.7250420000000020  0.2749579999999980
  0.2749579999999980  0.2749579999999980  0.7250420000000020
  0.7250420000000020  0.2749579999999980  0.2749579999999980
  0.7749579999999980  0.7749579999999980  0.2250420000000020
  0.2250420000000020  0.7749579999999980  0.7749579999999980
  0.7749579999999980  0.2250420000000020  0.7749579999999980
  0.7250420000000020  0.7250420000000020  0.7250420000000020
  0.2534559999999999  0.2380089999999981  0.9750670000000028
  0.2465440000000001  0.4750670000000028  0.2619910000000019
  0.2465440000000001  0.5249329999999972  0.7380089999999981
  0.5249329999999972  0.2619910000000019  0.7534559999999999
  0.4750670000000028  0.2619910000000019  0.2465440000000001
  0.7380089999999981  0.2465440000000001  0.5249329999999972
  0.2619910000000019  0.7534559999999999  0.5249329999999972
  0.9750670000000028  0.2534559999999999  0.2380089999999981
  0.2380089999999981  0.9750670000000028  0.2534559999999999
  0.7619910000000019  0.0249329999999972  0.2534559999999999
  0.9750670000000028  0.7465440000000001  0.7619910000000019
  0.7619910000000019  0.9750670000000028  0.7465440000000001
  0.0249329999999972  0.7465440000000001  0.2380089999999981
  0.0249329999999972  0.2534559999999999  0.7619910000000019
  0.2380089999999981  0.0249329999999972  0.7465440000000001
  0.2534559999999999  0.7619910000000019  0.0249329999999972
  0.7465440000000001  0.2380089999999981  0.0249329999999972
  0.7465440000000001  0.7619910000000019  0.9750670000000028
  0.2619910000000019  0.2465440000000001  0.4750670000000028
  0.7380089999999981  0.7534559999999999  0.4750670000000028
  0.5249329999999972  0.7380089999999981  0.2465440000000001
  0.4750670000000028  0.7380089999999981  0.7534559999999999
  0.7534559999999999  0.5249329999999972  0.2619910000000019
  0.7534559999999999  0.4750670000000028  0.7380089999999981
  0.2635739999999984  0.0000000000000000  0.0000000000000000
  0.2364260000000016  0.5000000000000000  0.5000000000000000
  0.5000000000000000  0.5000000000000000  0.7635739999999984
  0.5000000000000000  0.5000000000000000  0.2364260000000016
  0.5000000000000000  0.2364260000000016  0.5000000000000000
  0.5000000000000000  0.7635739999999984  0.5000000000000000
  0.0000000000000000  0.2635739999999984  0.0000000000000000
  0.0000000000000000  0.0000000000000000  0.2635739999999984
  0.0000000000000000  0.7364260000000016  0.0000000000000000
  0.0000000000000000  0.0000000000000000  0.7364260000000016
  0.7364260000000016  0.0000000000000000  0.0000000000000000
  0.7635739999999984  0.5000000000000000  0.5000000000000000
  0.5000000000000000  0.5000000000000000  0.5000000000000000
  0.0000000000000000  0.0000000000000000  0.0000000000000000
  0.5000000000000000  0.0000000000000000  0.7500000000000000
  0.7500000000000000  0.5000000000000000  0.0000000000000000
  0.2500000000000000  0.5000000000000000  0.0000000000000000
  0.0000000000000000  0.2500000000000000  0.5000000000000000
  0.0000000000000000  0.7500000000000000  0.5000000000000000
  0.5000000000000000  0.0000000000000000  0.2500000000000000
  0.6037269999999992  0.6037269999999992  0.6037269999999992
  0.8962730000000008  0.1037269999999992  0.8962730000000008
  0.1037269999999992  0.8962730000000008  0.8962730000000008
  0.8962730000000008  0.8962730000000008  0.1037269999999992
  0.6037269999999992  0.3962730000000008  0.3962730000000008
  0.3962730000000008  0.3962730000000008  0.6037269999999992
  0.3962730000000008  0.6037269999999992  0.3962730000000008
  0.1037269999999992  0.1037269999999992  0.1037269999999992
  0.3509549999999990  0.3870480000000001  0.0996329999999972
  0.1490450000000010  0.5996329999999972  0.1129519999999999
  0.1490450000000010  0.4003670000000028  0.8870480000000001
  0.4003670000000028  0.1129519999999999  0.8509549999999990
  0.5996329999999972  0.1129519999999999  0.1490450000000010
  0.8870480000000001  0.1490450000000010  0.4003670000000028
  0.1129519999999999  0.8509549999999990  0.4003670000000028
  0.0996329999999972  0.3509549999999990  0.3870480000000001
  0.3870480000000001  0.0996329999999972  0.3509549999999990
  0.6129519999999999  0.9003670000000028  0.3509549999999990
  0.0996329999999972  0.6490450000000010  0.6129519999999999
  0.6129519999999999  0.0996329999999972  0.6490450000000010
  0.9003670000000028  0.6490450000000010  0.3870480000000001
  0.9003670000000028  0.3509549999999990  0.6129519999999999
  0.3870480000000001  0.9003670000000028  0.6490450000000010
  0.3509549999999990  0.6129519999999999  0.9003670000000028
  0.6490450000000010  0.3870480000000001  0.9003670000000028
  0.6490450000000010  0.6129519999999999  0.0996329999999972
  0.1129519999999999  0.1490450000000010  0.5996329999999972
  0.8870480000000001  0.8509549999999990  0.5996329999999972
  0.4003670000000028  0.8870480000000001  0.1490450000000010
  0.5996329999999972  0.8870480000000001  0.8509549999999990
  0.8509549999999990  0.4003670000000028  0.1129519999999999
  0.8509549999999990  0.5996329999999972  0.8870480000000001
 
  0.00000000E+00  0.00000000E+00  0.00000000E+00
  0.00000000E+00  0.00000000E+00  0.00000000E+00
  0.00000000E+00  0.00000000E+00  0.00000000E+00
  0.00000000E+00  0.00000000E+00  0.00000000E+00
  0.00000000E+00  0.00000000E+00  0.00000000E+00
  0.00000000E+00  0.00000000E+00  0.00000000E+00
  0.00000000E+00  0.00000000E+00  0.00000000E+00
  0.00000000E+00  0.00000000E+00  0.00000000E+00
  0.00000000E+00  0.00000000E+00  0.00000000E+00
  0.00000000E+00  0.00000000E+00  0.00000000E+00
  0.00000000E+00  0.00000000E+00  0.00000000E+00
  0.00000000E+00  0.00000000E+00  0.00000000E+00
  0.00000000E+00  0.00000000E+00  0.00000000E+00
  0.00000000E+00  0.00000000E+00  0.00000000E+00
  0.00000000E+00  0.00000000E+00  0.00000000E+00
  0.00000000E+00  0.00000000E+00  0.00000000E+00
  0.00000000E+00  0.00000000E+00  0.00000000E+00
  0.00000000E+00  0.00000000E+00  0.00000000E+00
  0.00000000E+00  0.00000000E+00  0.00000000E+00
  0.00000000E+00  0.00000000E+00  0.00000000E+00
  0.00000000E+00  0.00000000E+00  0.00000000E+00
  0.00000000E+00  0.00000000E+00  0.00000000E+00
  0.00000000E+00  0.00000000E+00  0.00000000E+00
  0.00000000E+00  0.00000000E+00  0.00000000E+00
  0.00000000E+00  0.00000000E+00  0.00000000E+00
  0.00000000E+00  0.00000000E+00  0.00000000E+00
  0.00000000E+00  0.00000000E+00  0.00000000E+00
  0.00000000E+00  0.00000000E+00  0.00000000E+00
  0.00000000E+00  0.00000000E+00  0.00000000E+00
  0.00000000E+00  0.00000000E+00  0.00000000E+00
  0.00000000E+00  0.00000000E+00  0.00000000E+00
  0.00000000E+00  0.00000000E+00  0.00000000E+00
  0.00000000E+00  0.00000000E+00  0.00000000E+00
  0.00000000E+00  0.00000000E+00  0.00000000E+00
  0.00000000E+00  0.00000000E+00  0.00000000E+00
  0.00000000E+00  0.00000000E+00  0.00000000E+00
  0.00000000E+00  0.00000000E+00  0.00000000E+00
  0.00000000E+00  0.00000000E+00  0.00000000E+00
  0.00000000E+00  0.00000000E+00  0.00000000E+00
  0.00000000E+00  0.00000000E+00  0.00000000E+00
  0.00000000E+00  0.00000000E+00  0.00000000E+00
  0.00000000E+00  0.00000000E+00  0.00000000E+00
  0.00000000E+00  0.00000000E+00  0.00000000E+00
  0.00000000E+00  0.00000000E+00  0.00000000E+00
  0.00000000E+00  0.00000000E+00  0.00000000E+00
  0.00000000E+00  0.00000000E+00  0.00000000E+00
  0.00000000E+00  0.00000000E+00  0.00000000E+00
  0.00000000E+00  0.00000000E+00  0.00000000E+00
  0.00000000E+00  0.00000000E+00  0.00000000E+00
  0.00000000E+00  0.00000000E+00  0.00000000E+00
  0.00000000E+00  0.00000000E+00  0.00000000E+00
  0.00000000E+00  0.00000000E+00  0.00000000E+00
  0.00000000E+00  0.00000000E+00  0.00000000E+00
  0.00000000E+00  0.00000000E+00  0.00000000E+00
  0.00000000E+00  0.00000000E+00  0.00000000E+00
  0.00000000E+00  0.00000000E+00  0.00000000E+00
  0.00000000E+00  0.00000000E+00  0.00000000E+00
  0.00000000E+00  0.00000000E+00  0.00000000E+00
  0.00000000E+00  0.00000000E+00  0.00000000E+00
  0.00000000E+00  0.00000000E+00  0.00000000E+00
  0.00000000E+00  0.00000000E+00  0.00000000E+00
  0.00000000E+00  0.00000000E+00  0.00000000E+00
  0.00000000E+00  0.00000000E+00  0.00000000E+00
  0.00000000E+00  0.00000000E+00  0.00000000E+00
  0.00000000E+00  0.00000000E+00  0.00000000E+00
  0.00000000E+00  0.00000000E+00  0.00000000E+00
  0.00000000E+00  0.00000000E+00  0.00000000E+00
  0.00000000E+00  0.00000000E+00  0.00000000E+00
  0.00000000E+00  0.00000000E+00  0.00000000E+00
  0.00000000E+00  0.00000000E+00  0.00000000E+00
  0.00000000E+00  0.00000000E+00  0.00000000E+00
  0.00000000E+00  0.00000000E+00  0.00000000E+00
  0.00000000E+00  0.00000000E+00  0.00000000E+00
  0.00000000E+00  0.00000000E+00  0.00000000E+00
  0.00000000E+00  0.00000000E+00  0.00000000E+00
  0.00000000E+00  0.00000000E+00  0.00000000E+00
  0.00000000E+00  0.00000000E+00  0.00000000E+00
  0.00000000E+00  0.00000000E+00  0.00000000E+00
  0.00000000E+00  0.00000000E+00  0.00000000E+00
  0.00000000E+00  0.00000000E+00  0.00000000E+00
  0.00000000E+00  0.00000000E+00  0.00000000E+00
  0.00000000E+00  0.00000000E+00  0.00000000E+00
  0.00000000E+00  0.00000000E+00  0.00000000E+00
  0.00000000E+00  0.00000000E+00  0.00000000E+00
  0.00000000E+00  0.00000000E+00  0.00000000E+00
  0.00000000E+00  0.00000000E+00  0.00000000E+00
  0.00000000E+00  0.00000000E+00  0.00000000E+00
  0.00000000E+00  0.00000000E+00  0.00000000E+00
  0.00000000E+00  0.00000000E+00  0.00000000E+00
  0.00000000E+00  0.00000000E+00  0.00000000E+00
  0.00000000E+00  0.00000000E+00  0.00000000E+00
  0.00000000E+00  0.00000000E+00  0.00000000E+00
  0.00000000E+00  0.00000000E+00  0.00000000E+00
  0.00000000E+00  0.00000000E+00  0.00000000E+00
  0.00000000E+00  0.00000000E+00  0.00000000E+00
  0.00000000E+00  0.00000000E+00  0.00000000E+00
