Li42 P14 O56
1.0
5.296402 0.000000 0.000000
0.000000 6.176136 0.000000
0.000000 0.000000 59.069376
Li P O
42 14 56
direct
0.844520 0.000000 0.030480 Li+
0.155480 0.500000 0.072147 Li+
0.326434 0.747127 0.030392 Li+
0.673566 0.752873 0.072059 Li+
0.673566 0.247127 0.072059 Li+
0.326434 0.252873 0.030392 Li+
0.844520 0.000000 0.113813 Li+
0.155480 0.500000 0.155480 Li+
0.326434 0.747127 0.113725 Li+
0.673566 0.752873 0.155392 Li+
0.673566 0.247127 0.155392 Li+
0.326434 0.252873 0.113725 Li+
0.844520 0.000000 0.197147 Li+
0.155480 0.500000 0.238813 Li+
0.326434 0.747127 0.197059 Li+
0.673566 0.752873 0.238725 Li+
0.673566 0.247127 0.238725 Li+
0.326434 0.252873 0.197059 Li+
0.844520 0.000000 0.280480 Li+
0.155480 0.500000 0.322147 Li+
0.326434 0.747127 0.280392 Li+
0.673566 0.752873 0.322059 Li+
0.673566 0.247127 0.322059 Li+
0.326434 0.252873 0.280392 Li+
0.844520 0.000000 0.363813 Li+
0.155480 0.500000 0.405480 Li+
0.326434 0.747127 0.363725 Li+
0.673566 0.752873 0.405392 Li+
0.673566 0.247127 0.405392 Li+
0.326434 0.252873 0.363725 Li+
0.844520 0.000000 0.447147 Li+
0.155480 0.500000 0.488813 Li+
0.326434 0.747127 0.447059 Li+
0.673566 0.752873 0.488725 Li+
0.673566 0.247127 0.488725 Li+
0.326434 0.252873 0.447059 Li+
0.844520 0.000000 0.530480 Li+
0.155480 0.500000 0.572147 Li+
0.326434 0.747127 0.530392 Li+
0.673566 0.752873 0.572059 Li+
0.673566 0.247127 0.572059 Li+
0.326434 0.252873 0.530392 Li+
0.824261 0.500000 0.029813 P5+
0.175739 0.000000 0.071480 P5+
0.824261 0.500000 0.113147 P5+
0.175739 0.000000 0.154813 P5+
0.824261 0.500000 0.196480 P5+
0.175739 0.000000 0.238147 P5+
0.824261 0.500000 0.279813 P5+
0.175739 0.000000 0.321480 P5+
0.824261 0.500000 0.363147 P5+
0.175739 0.000000 0.404813 P5+
0.824261 0.500000 0.446480 P5+
0.175739 0.000000 0.488147 P5+
0.824261 0.500000 0.529813 P5+
0.175739 0.000000 0.571480 P5+
0.313509 0.207138 0.080279 O2-
0.103508 0.500000 0.038206 O2-
0.818396 0.500000 0.003461 O2-
0.181604 0.000000 0.045128 O2-
0.686491 0.707138 0.038613 O2-
0.313509 0.792862 0.080279 O2-
0.896492 0.000000 0.079872 O2-
0.686491 0.292862 0.038613 O2-
0.313509 0.207138 0.163613 O2-
0.103508 0.500000 0.121539 O2-
0.818396 0.500000 0.086794 O2-
0.181604 0.000000 0.128461 O2-
0.686491 0.707138 0.121946 O2-
0.313509 0.792862 0.163613 O2-
0.896492 0.000000 0.163206 O2-
0.686491 0.292862 0.121946 O2-
0.313509 0.207138 0.246946 O2-
0.103508 0.500000 0.204872 O2-
0.818396 0.500000 0.170128 O2-
0.181604 0.000000 0.211794 O2-
0.686491 0.707138 0.205279 O2-
0.313509 0.792862 0.246946 O2-
0.896492 0.000000 0.246539 O2-
0.686491 0.292862 0.205279 O2-
0.313509 0.207138 0.330279 O2-
0.103508 0.500000 0.288206 O2-
0.818396 0.500000 0.253461 O2-
0.181604 0.000000 0.295128 O2-
0.686491 0.707138 0.288613 O2-
0.313509 0.792862 0.330279 O2-
0.896492 0.000000 0.329872 O2-
0.686491 0.292862 0.288613 O2-
0.313509 0.207138 0.413613 O2-
0.103508 0.500000 0.371539 O2-
0.818396 0.500000 0.336794 O2-
0.181604 0.000000 0.378461 O2-
0.686491 0.707138 0.371946 O2-
0.313509 0.792862 0.413613 O2-
0.896492 0.000000 0.413206 O2-
0.686491 0.292862 0.371946 O2-
0.313509 0.207138 0.496946 O2-
0.103508 0.500000 0.454872 O2-
0.818396 0.500000 0.420128 O2-
0.181604 0.000000 0.461794 O2-
0.686491 0.707138 0.455279 O2-
0.313509 0.792862 0.496946 O2-
0.896492 0.000000 0.496539 O2-
0.686491 0.292862 0.455279 O2-
0.313509 0.207138 0.580279 O2-
0.103508 0.500000 0.538206 O2-
0.818396 0.500000 0.503461 O2-
0.181604 0.000000 0.545128 O2-
0.686491 0.707138 0.538613 O2-
0.313509 0.792862 0.580279 O2-
0.896492 0.000000 0.579872 O2-
0.686491 0.292862 0.538613 O2-
