Li61 P7 N32                             
   1.00000000000000     
     0.0010452671241759    9.4873141409403061   -0.0071805856609479
    -0.0082565093767302   -0.0075241482844556    9.5552177467554174
     9.5381419429973402    0.0007645307836107   -0.0085567638340199
   Li   P    N 
    61     7    32
Direct
  0.4923637771093279  0.0035786528850936  0.5033063471894790
  0.0026004678806211  0.5026979900855933 -0.0001272426624990
  0.4926636808764856 -0.0081405575448379  0.0032206261111910
 -0.0035232131631330  0.0012845717409269  0.5038726155541363
  0.4851435216932429  0.4895668174324403 -0.0012323454399544
  0.0016871869061773  0.5020181742898842  0.5039257305433191
  0.7445623041608723 -0.0022086458382540  0.5032547275787522
  0.2425873382207526 -0.0109929376969254  0.5081859043631773
  0.7636348579834367  0.4992779588098117  0.5040334565549232
  0.2312451152136874  0.5047337304582334  0.5108861680966756
  0.2581638744436308  0.0056478597337841  0.0032568879772846
  0.7312566257179666 -0.0018117620343919  0.0022960371290063
  0.8202403173876226  0.4062674595409433 -0.0718222228018110
  0.5109756698387850  0.2320474812792294 -0.0130464911948490
  0.4953685564268955  0.7503617178565268  0.0176114574765840
 -0.0223701420003071  0.4896035204392674  0.2640302672182400
 -0.0111686621734314  0.5126823913362706  0.7460188247931717
  0.2347790384538935  0.2177686695533278  0.2127060737046952
  0.2287588790281203  0.7928353319585334  0.7778846901416332
  0.2511800879010452  0.2963370667346849  0.7209020368938706
  0.2642590040307995  0.7279754572900322  0.2794968239162011
  0.7662233116157707  0.3054378195009753  0.3106688474882726
  0.7509711634545477  0.7058157724969246  0.7067884512065691
  0.7295924305041968  0.1978180217914532  0.8099561840973345
  0.7381015363825549  0.8037342961587339  0.2043938505725684
  0.9884282283115036  0.2446926461207972  0.2474892626137619
  0.9796049906121305  0.7532113655200640  0.7582508495069226
  0.2548374647170119  0.2241844566675548  0.4883602179606846
  0.2594741494765188  0.7503515506667924  0.5264119024795597
  0.7484440757769203  0.2287395220576627  0.5570177102368631
  0.7400072374225107  0.7625700673741335  0.4622954768944405
  0.8239716915230937  0.5926460290895134  0.0817906770181611
  0.7351919793814895  0.4549553291868100  0.7260288409872615
  0.2037982561579500  0.4810585456236350  0.2522782489999115
  0.2269703277832332  0.5464771752955281  0.7502081434747183
  0.5123310284783162  0.7496531180413448  0.2587417535800195
  0.5056909600741345  0.2553748744592156  0.7481925736771466
  0.2317722138188643  0.9788630264290639  0.2582071195368617
  0.2332567632720829  0.0356971879591979  0.7508178458219134
  0.2667830583412547  0.2482196681664526  0.9668523736190580
  0.2508563972776139  0.7675325899862415  0.0288757535521719
  0.7538428879026335  0.9582291584052059  0.7398512619771516
  0.7541860929713101  0.0445065358533068  0.2686806535538939
  0.7534122282310468  0.7784791108809253  0.9562537811073303
  0.7677665910170625  0.2145317602966613  0.0608691484456822
  0.0028821015090274  0.2521249155300801  0.7683557931988747
  0.0107873722171835  0.7464357376271076  0.2378336815101716
  0.5105244301107823  0.2562630340974405  0.2407545311504380
  0.4785275812029405  0.7364235112794056  0.7608348462285082
  0.0134327792794812  0.2634340756094021  0.0179803773807035
  0.0045553765675974  0.7426547777323553 -0.0130980318515740
  0.5104044513928485  0.2369635119590805  0.5019318697732991
  0.4982947449065258  0.7655626113464628  0.5108468008647091
  0.4817687160024348  0.5272411587780005  0.2324320786832207
  0.4819392716202832  0.4851800147197298  0.7607619880876977
 -0.0063256560676053 -0.0065281133528086  0.2647103973123475
 -0.0060787209915051  0.0055816493155235  0.7429260778295407
  0.3590431728986464  0.3678472019999199  0.3589342038781093
  0.7266976870478049  0.5558400621854448  0.2857807013949985
  0.6707534112547771  0.4235238573435173  0.0968713467439746
  0.6659491630652855  0.5773536663979772  0.9153620396403245
  0.4966157666981210  0.5044837372748107  0.5028091021824983
 -0.0016689472264857  0.0018978127023591  0.0037217117441834
  0.2443012676852385  0.5069092044981590  0.0045254682690998
 -0.0016684976248990  0.7508343166655626  0.5007170569503580
  0.0011015058040300  0.2519956693328320  0.5069514060765651
  0.4949274236374458  0.0035854414124500  0.2520633937192848
  0.4943841298933496 -0.0031854932386231  0.7539312036359408
  0.5994437936974167  0.6000246004518480  0.6066744334024654
  0.5935703770336126  0.4047848398409953  0.3913408229660529
  0.8942066714140088  0.8966719248374834  0.1013659422836468
  0.8938103823812962  0.1070104190645577  0.9058794814638134
  0.1025036577650131  0.9063096262079119  0.8968442822522373
  0.1018511221509373  0.0980471238762479  0.1111848956557541
  0.3880710966096436  0.6060232908919579  0.4060004020938540
  0.3916586442044699  0.3916543414520002  0.5923488682944544
  0.1075263200090658  0.3484352883431986  0.3981556171861962
  0.0986999123996903  0.6537508175695356  0.6112903081311696
  0.1062285219229143  0.1502791660432412  0.6092644921225010
  0.1083920086835599  0.8507439755784080  0.4014438565539876
  0.8884499312308282  0.1514136597784678  0.4112127620427551
  0.8850614819732623  0.8516751602830597  0.5953882344121481
  0.8653746016281897  0.3817144974289076  0.1354108175026491
  0.8609617545715370  0.6162879491862252  0.8717363714017449
  0.1420214045774217  0.6088625833161333  0.1097162456876631
  0.1501883406017815  0.4047587212271862  0.8910427688987834
  0.3915154059825372  0.8938877966110302  0.1587965709680580
  0.3965575184087422  0.1057861463045214  0.8544193099281199
  0.3888893705977313  0.1131575247174900  0.3500882879786326
  0.3829947785075037  0.8995310209891506  0.6525623147959136
  0.3379460940972378  0.3955853228356676  0.1133981156847785
  0.3468007716046316  0.6149392056742005  0.9060847036692419
  0.6071678577900399  0.0932197271772583  0.6527390059888371
  0.6055435577263835  0.9100690811195259  0.3564743228353159
  0.6288083661203692  0.6337166504466387  0.1212548476540473
  0.6240047226634964  0.3703010827814183  0.8852750251821767
  0.9019781377975460  0.3563846751186942  0.6104557753045782
  0.8997299129324322  0.6466847750730635  0.3945531182812890
  0.5971154871412711  0.1025647174230760  0.1455613311481550
  0.5933521144518850  0.8889913507963415  0.8540033222742263
 
  0.00000000E+00  0.00000000E+00  0.00000000E+00
  0.00000000E+00  0.00000000E+00  0.00000000E+00
  0.00000000E+00  0.00000000E+00  0.00000000E+00
  0.00000000E+00  0.00000000E+00  0.00000000E+00
  0.00000000E+00  0.00000000E+00  0.00000000E+00
  0.00000000E+00  0.00000000E+00  0.00000000E+00
  0.00000000E+00  0.00000000E+00  0.00000000E+00
  0.00000000E+00  0.00000000E+00  0.00000000E+00
  0.00000000E+00  0.00000000E+00  0.00000000E+00
  0.00000000E+00  0.00000000E+00  0.00000000E+00
  0.00000000E+00  0.00000000E+00  0.00000000E+00
  0.00000000E+00  0.00000000E+00  0.00000000E+00
  0.00000000E+00  0.00000000E+00  0.00000000E+00
  0.00000000E+00  0.00000000E+00  0.00000000E+00
  0.00000000E+00  0.00000000E+00  0.00000000E+00
  0.00000000E+00  0.00000000E+00  0.00000000E+00
  0.00000000E+00  0.00000000E+00  0.00000000E+00
  0.00000000E+00  0.00000000E+00  0.00000000E+00
  0.00000000E+00  0.00000000E+00  0.00000000E+00
  0.00000000E+00  0.00000000E+00  0.00000000E+00
  0.00000000E+00  0.00000000E+00  0.00000000E+00
  0.00000000E+00  0.00000000E+00  0.00000000E+00
  0.00000000E+00  0.00000000E+00  0.00000000E+00
  0.00000000E+00  0.00000000E+00  0.00000000E+00
  0.00000000E+00  0.00000000E+00  0.00000000E+00
  0.00000000E+00  0.00000000E+00  0.00000000E+00
  0.00000000E+00  0.00000000E+00  0.00000000E+00
  0.00000000E+00  0.00000000E+00  0.00000000E+00
  0.00000000E+00  0.00000000E+00  0.00000000E+00
  0.00000000E+00  0.00000000E+00  0.00000000E+00
  0.00000000E+00  0.00000000E+00  0.00000000E+00
  0.00000000E+00  0.00000000E+00  0.00000000E+00
  0.00000000E+00  0.00000000E+00  0.00000000E+00
  0.00000000E+00  0.00000000E+00  0.00000000E+00
  0.00000000E+00  0.00000000E+00  0.00000000E+00
  0.00000000E+00  0.00000000E+00  0.00000000E+00
  0.00000000E+00  0.00000000E+00  0.00000000E+00
  0.00000000E+00  0.00000000E+00  0.00000000E+00
  0.00000000E+00  0.00000000E+00  0.00000000E+00
  0.00000000E+00  0.00000000E+00  0.00000000E+00
  0.00000000E+00  0.00000000E+00  0.00000000E+00
  0.00000000E+00  0.00000000E+00  0.00000000E+00
  0.00000000E+00  0.00000000E+00  0.00000000E+00
  0.00000000E+00  0.00000000E+00  0.00000000E+00
  0.00000000E+00  0.00000000E+00  0.00000000E+00
  0.00000000E+00  0.00000000E+00  0.00000000E+00
  0.00000000E+00  0.00000000E+00  0.00000000E+00
  0.00000000E+00  0.00000000E+00  0.00000000E+00
  0.00000000E+00  0.00000000E+00  0.00000000E+00
  0.00000000E+00  0.00000000E+00  0.00000000E+00
  0.00000000E+00  0.00000000E+00  0.00000000E+00
  0.00000000E+00  0.00000000E+00  0.00000000E+00
  0.00000000E+00  0.00000000E+00  0.00000000E+00
  0.00000000E+00  0.00000000E+00  0.00000000E+00
  0.00000000E+00  0.00000000E+00  0.00000000E+00
  0.00000000E+00  0.00000000E+00  0.00000000E+00
  0.00000000E+00  0.00000000E+00  0.00000000E+00
  0.00000000E+00  0.00000000E+00  0.00000000E+00
  0.00000000E+00  0.00000000E+00  0.00000000E+00
  0.00000000E+00  0.00000000E+00  0.00000000E+00
  0.00000000E+00  0.00000000E+00  0.00000000E+00
  0.00000000E+00  0.00000000E+00  0.00000000E+00
  0.00000000E+00  0.00000000E+00  0.00000000E+00
  0.00000000E+00  0.00000000E+00  0.00000000E+00
  0.00000000E+00  0.00000000E+00  0.00000000E+00
  0.00000000E+00  0.00000000E+00  0.00000000E+00
  0.00000000E+00  0.00000000E+00  0.00000000E+00
  0.00000000E+00  0.00000000E+00  0.00000000E+00
  0.00000000E+00  0.00000000E+00  0.00000000E+00
  0.00000000E+00  0.00000000E+00  0.00000000E+00
  0.00000000E+00  0.00000000E+00  0.00000000E+00
  0.00000000E+00  0.00000000E+00  0.00000000E+00
  0.00000000E+00  0.00000000E+00  0.00000000E+00
  0.00000000E+00  0.00000000E+00  0.00000000E+00
  0.00000000E+00  0.00000000E+00  0.00000000E+00
  0.00000000E+00  0.00000000E+00  0.00000000E+00
  0.00000000E+00  0.00000000E+00  0.00000000E+00
  0.00000000E+00  0.00000000E+00  0.00000000E+00
  0.00000000E+00  0.00000000E+00  0.00000000E+00
  0.00000000E+00  0.00000000E+00  0.00000000E+00
  0.00000000E+00  0.00000000E+00  0.00000000E+00
  0.00000000E+00  0.00000000E+00  0.00000000E+00
  0.00000000E+00  0.00000000E+00  0.00000000E+00
  0.00000000E+00  0.00000000E+00  0.00000000E+00
  0.00000000E+00  0.00000000E+00  0.00000000E+00
  0.00000000E+00  0.00000000E+00  0.00000000E+00
  0.00000000E+00  0.00000000E+00  0.00000000E+00
  0.00000000E+00  0.00000000E+00  0.00000000E+00
  0.00000000E+00  0.00000000E+00  0.00000000E+00
  0.00000000E+00  0.00000000E+00  0.00000000E+00
  0.00000000E+00  0.00000000E+00  0.00000000E+00
  0.00000000E+00  0.00000000E+00  0.00000000E+00
  0.00000000E+00  0.00000000E+00  0.00000000E+00
  0.00000000E+00  0.00000000E+00  0.00000000E+00
  0.00000000E+00  0.00000000E+00  0.00000000E+00
  0.00000000E+00  0.00000000E+00  0.00000000E+00
  0.00000000E+00  0.00000000E+00  0.00000000E+00
  0.00000000E+00  0.00000000E+00  0.00000000E+00
  0.00000000E+00  0.00000000E+00  0.00000000E+00
  0.00000000E+00  0.00000000E+00  0.00000000E+00
