Li5 P2 N1 O6                            
   1.00000000000000     
    -0.0871020392279426   -0.0953241940914524    5.0584644817368822
     6.3666555492302788   -0.1334647752840150   -0.1117247078026209
    -0.1032738011333892    5.3441383448726603   -0.1042355626854424
   Li   P    N    O 
     5     2     1     6
Direct
  0.4540108809661749  0.1943197846137232  0.1526787816540063
 -0.0495598330895807  0.4567842000817681  0.2710105192229404
  0.4435855361484779  0.7221425681415420  0.2627249139978672
 -0.0477364580975772  0.7770906518758091  0.6020594770526607
  0.0786212135106712  0.1823378426401429  0.6479875820846189
  0.6489450977958762  0.5204259197097207  0.7948051544705046
 -0.0359513915556850 -0.0380157223793156  0.1507270075938488
  0.5789079255723123  0.4651777485921257  0.0606774988537987
  0.1105908077205584  0.1550514712809576  0.2946983701436897
  0.5280946802676658  0.6864173160292988  0.6319377067210920
  0.0583743899193672  0.7553149516132847  0.2711120924195972
  0.8904069592644551  0.4353807890170163  0.6565726147240197
  0.0418629179304533 -0.0355025927806101  0.8735121602946219
  0.6640932736468509 -0.0297979284354615  0.1846661207667345
 
  0.00000000E+00  0.00000000E+00  0.00000000E+00
  0.00000000E+00  0.00000000E+00  0.00000000E+00
  0.00000000E+00  0.00000000E+00  0.00000000E+00
  0.00000000E+00  0.00000000E+00  0.00000000E+00
  0.00000000E+00  0.00000000E+00  0.00000000E+00
  0.00000000E+00  0.00000000E+00  0.00000000E+00
  0.00000000E+00  0.00000000E+00  0.00000000E+00
  0.00000000E+00  0.00000000E+00  0.00000000E+00
  0.00000000E+00  0.00000000E+00  0.00000000E+00
  0.00000000E+00  0.00000000E+00  0.00000000E+00
  0.00000000E+00  0.00000000E+00  0.00000000E+00
  0.00000000E+00  0.00000000E+00  0.00000000E+00
  0.00000000E+00  0.00000000E+00  0.00000000E+00
  0.00000000E+00  0.00000000E+00  0.00000000E+00
