Li140 P140 O420
1.0
5.521558 0.000000 0.000000
0.000000 16.540545 2.677750
0.000000 0.000000 119.816820
Li P O
140 140 420
direct
0.494607 0.818220 0.094009 Li+
0.505393 0.318220 0.038453 Li+
0.484419 0.934004 0.107549 Li+
0.515581 0.434004 0.051993 Li+
0.505784 0.049457 0.009818 Li+
0.494216 0.549457 0.065373 Li+
0.507224 0.164548 0.023103 Li+
0.492776 0.664548 0.078659 Li+
0.992783 0.241566 0.030924 Li+
0.007217 0.741566 0.086480 Li+
0.521194 0.318286 0.094247 Li+
0.478806 0.818286 0.038692 Li+
0.476313 0.433730 0.107702 Li+
0.523687 0.933730 0.052147 Li+
0.533250 0.550453 0.009834 Li+
0.466750 0.050453 0.065389 Li+
0.477737 0.667016 0.023142 Li+
0.522263 0.167016 0.078698 Li+
0.960889 0.743634 0.031146 Li+
0.039111 0.243634 0.086701 Li+
0.494607 0.818220 0.205120 Li+
0.505393 0.318220 0.149564 Li+
0.484419 0.934004 0.218660 Li+
0.515581 0.434004 0.163105 Li+
0.505784 0.049457 0.120929 Li+
0.494216 0.549457 0.176485 Li+
0.507224 0.164548 0.134214 Li+
0.492776 0.664548 0.189770 Li+
0.992783 0.241566 0.142035 Li+
0.007217 0.741566 0.197591 Li+
0.521194 0.318286 0.205358 Li+
0.478806 0.818286 0.149803 Li+
0.476313 0.433730 0.218813 Li+
0.523687 0.933730 0.163258 Li+
0.533250 0.550453 0.120945 Li+
0.466750 0.050453 0.176500 Li+
0.477737 0.667016 0.134253 Li+
0.522263 0.167016 0.189809 Li+
0.960889 0.743634 0.142257 Li+
0.039111 0.243634 0.197812 Li+
0.494607 0.818220 0.316231 Li+
0.505393 0.318220 0.260675 Li+
0.484419 0.934004 0.329771 Li+
0.515581 0.434004 0.274216 Li+
0.505784 0.049457 0.232040 Li+
0.494216 0.549457 0.287596 Li+
0.507224 0.164548 0.245326 Li+
0.492776 0.664548 0.300881 Li+
0.992783 0.241566 0.253146 Li+
0.007217 0.741566 0.308702 Li+
0.521194 0.318286 0.316470 Li+
0.478806 0.818286 0.260914 Li+
0.476313 0.433730 0.329925 Li+
0.523687 0.933730 0.274369 Li+
0.533250 0.550453 0.232056 Li+
0.466750 0.050453 0.287612 Li+
0.477737 0.667016 0.245364 Li+
0.522263 0.167016 0.300920 Li+
0.960889 0.743634 0.253368 Li+
0.039111 0.243634 0.308924 Li+
0.494607 0.818220 0.427342 Li+
0.505393 0.318220 0.371786 Li+
0.484419 0.934004 0.440882 Li+
0.515581 0.434004 0.385327 Li+
0.505784 0.049457 0.343151 Li+
0.494216 0.549457 0.398707 Li+
0.507224 0.164548 0.356437 Li+
0.492776 0.664548 0.411992 Li+
0.992783 0.241566 0.364257 Li+
0.007217 0.741566 0.419813 Li+
0.521194 0.318286 0.427581 Li+
0.478806 0.818286 0.372025 Li+
0.476313 0.433730 0.441036 Li+
0.523687 0.933730 0.385480 Li+
0.533250 0.550453 0.343167 Li+
0.466750 0.050453 0.398723 Li+
0.477737 0.667016 0.356475 Li+
0.522263 0.167016 0.412031 Li+
0.960889 0.743634 0.364479 Li+
0.039111 0.243634 0.420035 Li+
0.494607 0.818220 0.538453 Li+
0.505393 0.318220 0.482897 Li+
0.484419 0.934004 0.551994 Li+
0.515581 0.434004 0.496438 Li+
0.505784 0.049457 0.454262 Li+
0.494216 0.549457 0.509818 Li+
0.507224 0.164548 0.467548 Li+
0.492776 0.664548 0.523103 Li+
0.992783 0.241566 0.475368 Li+
0.007217 0.741566 0.530924 Li+
0.521194 0.318286 0.538692 Li+
0.478806 0.818286 0.483136 Li+
0.476313 0.433730 0.552147 Li+
0.523687 0.933730 0.496591 Li+
0.533250 0.550453 0.454278 Li+
0.466750 0.050453 0.509834 Li+
0.477737 0.667016 0.467587 Li+
0.522263 0.167016 0.523142 Li+
0.960889 0.743634 0.475590 Li+
0.039111 0.243634 0.531146 Li+
0.494607 0.818220 0.649564 Li+
0.505393 0.318220 0.594009 Li+
0.484419 0.934004 0.663105 Li+
0.515581 0.434004 0.607549 Li+
0.505784 0.049457 0.565373 Li+
0.494216 0.549457 0.620929 Li+
0.507224 0.164548 0.578659 Li+
0.492776 0.664548 0.634215 Li+
0.992783 0.241566 0.586480 Li+
0.007217 0.741566 0.642035 Li+
0.521194 0.318286 0.649803 Li+
0.478806 0.818286 0.594247 Li+
0.476313 0.433730 0.663258 Li+
0.523687 0.933730 0.607702 Li+
0.533250 0.550453 0.565389 Li+
0.466750 0.050453 0.620945 Li+
0.477737 0.667016 0.578698 Li+
0.522263 0.167016 0.634253 Li+
0.960889 0.743634 0.586701 Li+
0.039111 0.243634 0.642257 Li+
0.494607 0.818220 0.760675 Li+
0.505393 0.318220 0.705120 Li+
0.484419 0.934004 0.774216 Li+
0.515581 0.434004 0.718660 Li+
0.505784 0.049457 0.676485 Li+
0.494216 0.549457 0.732040 Li+
0.507224 0.164548 0.689770 Li+
0.492776 0.664548 0.745326 Li+
0.992783 0.241566 0.697591 Li+
0.007217 0.741566 0.753146 Li+
0.521194 0.318286 0.760914 Li+
0.478806 0.818286 0.705358 Li+
0.476313 0.433730 0.774369 Li+
0.523687 0.933730 0.718813 Li+
0.533250 0.550453 0.676500 Li+
0.466750 0.050453 0.732056 Li+
0.477737 0.667016 0.689809 Li+
0.522263 0.167016 0.745364 Li+
0.960889 0.743634 0.697812 Li+
0.039111 0.243634 0.753368 Li+
0.185377 0.000413 0.087731 P5+
0.814623 0.500413 0.032176 P5+
0.843317 0.093280 0.100345 P5+
0.156683 0.593280 0.044790 P5+
0.188444 0.197061 0.110539 P5+
0.811556 0.697061 0.054983 P5+
0.828977 0.308311 0.008230 P5+
0.171023 0.808311 0.063786 P5+
0.159739 0.408249 0.019347 P5+
0.840261 0.908249 0.074903 P5+
0.843930 0.574567 0.097921 P5+
0.156070 0.074567 0.042365 P5+
0.174322 0.674438 0.109088 P5+
0.825678 0.174438 0.053532 P5+
0.812278 0.786455 0.006738 P5+
0.187722 0.286455 0.062294 P5+
0.151901 0.889856 0.017006 P5+
0.848099 0.389856 0.072561 P5+
0.809867 0.982845 0.029594 P5+
0.190133 0.482845 0.085150 P5+
0.185377 0.000413 0.198843 P5+
0.814623 0.500413 0.143287 P5+
0.843317 0.093280 0.211456 P5+
0.156683 0.593280 0.155901 P5+
0.188444 0.197061 0.221650 P5+
0.811556 0.697061 0.166095 P5+
0.828977 0.308311 0.119341 P5+
0.171023 0.808311 0.174897 P5+
0.159739 0.408249 0.130458 P5+
0.840261 0.908249 0.186014 P5+
0.843930 0.574567 0.209032 P5+
0.156070 0.074567 0.153476 P5+
0.174322 0.674438 0.220199 P5+
0.825678 0.174438 0.164643 P5+
0.812278 0.786455 0.117849 P5+
0.187722 0.286455 0.173405 P5+
0.151901 0.889856 0.128117 P5+
0.848099 0.389856 0.183673 P5+
0.809867 0.982845 0.140706 P5+
0.190133 0.482845 0.196261 P5+
0.185377 0.000413 0.309954 P5+
0.814623 0.500413 0.254398 P5+
0.843317 0.093280 0.322568 P5+
0.156683 0.593280 0.267012 P5+
0.188444 0.197061 0.332761 P5+
0.811556 0.697061 0.277206 P5+
0.828977 0.308311 0.230452 P5+
0.171023 0.808311 0.286008 P5+
0.159739 0.408249 0.241569 P5+
0.840261 0.908249 0.297125 P5+
0.843930 0.574567 0.320143 P5+
0.156070 0.074567 0.264588 P5+
0.174322 0.674438 0.331310 P5+
0.825678 0.174438 0.275754 P5+
0.812278 0.786455 0.228960 P5+
0.187722 0.286455 0.284516 P5+
0.151901 0.889856 0.239228 P5+
0.848099 0.389856 0.294784 P5+
0.809867 0.982845 0.251817 P5+
0.190133 0.482845 0.307372 P5+
0.185377 0.000413 0.421065 P5+
0.814623 0.500413 0.365509 P5+
0.843317 0.093280 0.433679 P5+
0.156683 0.593280 0.378123 P5+
0.188444 0.197061 0.443872 P5+
0.811556 0.697061 0.388317 P5+
0.828977 0.308311 0.341563 P5+
0.171023 0.808311 0.397119 P5+
0.159739 0.408249 0.352681 P5+
0.840261 0.908249 0.408236 P5+
0.843930 0.574567 0.431254 P5+
0.156070 0.074567 0.375699 P5+
0.174322 0.674438 0.442421 P5+
0.825678 0.174438 0.386865 P5+
0.812278 0.786455 0.340071 P5+
0.187722 0.286455 0.395627 P5+
0.151901 0.889856 0.350339 P5+
0.848099 0.389856 0.405895 P5+
0.809867 0.982845 0.362928 P5+
0.190133 0.482845 0.418483 P5+
0.185377 0.000413 0.532176 P5+
0.814623 0.500413 0.476620 P5+
0.843317 0.093280 0.544790 P5+
0.156683 0.593280 0.489234 P5+
0.188444 0.197061 0.554983 P5+
0.811556 0.697061 0.499428 P5+
0.828977 0.308311 0.452674 P5+
0.171023 0.808311 0.508230 P5+
0.159739 0.408249 0.463792 P5+
0.840261 0.908249 0.519347 P5+
0.843930 0.574567 0.542365 P5+
0.156070 0.074567 0.486810 P5+
0.174322 0.674438 0.553532 P5+
0.825678 0.174438 0.497977 P5+
0.812278 0.786455 0.451183 P5+
0.187722 0.286455 0.506738 P5+
0.151901 0.889856 0.461450 P5+
0.848099 0.389856 0.517006 P5+
0.809867 0.982845 0.474039 P5+
0.190133 0.482845 0.529594 P5+
0.185377 0.000413 0.643287 P5+
0.814623 0.500413 0.587731 P5+
0.843317 0.093280 0.655901 P5+
0.156683 0.593280 0.600345 P5+
0.188444 0.197061 0.666095 P5+
0.811556 0.697061 0.610539 P5+
0.828977 0.308311 0.563786 P5+
0.171023 0.808311 0.619341 P5+
0.159739 0.408249 0.574903 P5+
0.840261 0.908249 0.630458 P5+
0.843930 0.574567 0.653477 P5+
0.156070 0.074567 0.597921 P5+
0.174322 0.674438 0.664643 P5+
0.825678 0.174438 0.609088 P5+
0.812278 0.786455 0.562294 P5+
0.187722 0.286455 0.617849 P5+
0.151901 0.889856 0.572561 P5+
0.848099 0.389856 0.628117 P5+
0.809867 0.982845 0.585150 P5+
0.190133 0.482845 0.640706 P5+
0.185377 0.000413 0.754398 P5+
0.814623 0.500413 0.698843 P5+
0.843317 0.093280 0.767012 P5+
0.156683 0.593280 0.711456 P5+
0.188444 0.197061 0.777206 P5+
0.811556 0.697061 0.721650 P5+
0.828977 0.308311 0.674897 P5+
0.171023 0.808311 0.730452 P5+
0.159739 0.408249 0.686014 P5+
0.840261 0.908249 0.741569 P5+
0.843930 0.574567 0.764588 P5+
0.156070 0.074567 0.709032 P5+
0.174322 0.674438 0.775754 P5+
0.825678 0.174438 0.720199 P5+
0.812278 0.786455 0.673405 P5+
0.187722 0.286455 0.728960 P5+
0.151901 0.889856 0.683673 P5+
0.848099 0.389856 0.739228 P5+
0.809867 0.982845 0.696261 P5+
0.190133 0.482845 0.751817 P5+
0.069000 0.035413 0.098372 O2-
0.931000 0.535413 0.042816 O2-
0.951087 0.140628 0.110036 O2-
0.048913 0.640628 0.054481 O2-
0.080018 0.275856 0.003730 O2-
0.919982 0.775856 0.059286 O2-
0.926681 0.392259 0.011713 O2-
0.073319 0.892259 0.067269 O2-
0.942022 0.978148 0.081386 O2-
0.057978 0.478148 0.025831 O2-
0.076781 0.590622 0.105565 O2-
0.923219 0.090622 0.050010 O2-
0.921841 0.709404 0.002016 O2-
0.078159 0.209404 0.057572 O2-
0.049265 0.843555 0.007113 O2-
0.950735 0.343555 0.062669 O2-
0.918787 0.943480 0.019192 O2-
0.081213 0.443480 0.074747 O2-
0.944691 0.504327 0.091424 O2-
0.055309 0.004327 0.035869 O2-
0.322795 0.926111 0.092832 O2-
0.677205 0.426111 0.037277 O2-
0.313918 0.066074 0.079957 O2-
0.686082 0.566074 0.024401 O2-
0.643576 0.041349 0.106006 O2-
0.356424 0.541349 0.050450 O2-
0.795305 0.153257 0.089842 O2-
0.204695 0.653257 0.034286 O2-
0.351974 0.154647 0.008421 O2-
0.648026 0.654647 0.063976 O2-
0.281781 0.224590 0.098752 O2-
0.718219 0.724590 0.043196 O2-
0.751546 0.252705 0.018749 O2-
0.248454 0.752705 0.074305 O2-
0.656290 0.330648 0.109739 O2-
0.343710 0.830648 0.054183 O2-
0.215121 0.332841 0.027613 O2-
0.784879 0.832841 0.083169 O2-
0.355777 0.446708 0.011686 O2-
0.644223 0.946708 0.067241 O2-
0.649890 0.536665 0.105747 O2-
0.350110 0.036665 0.050191 O2-
0.785996 0.649394 0.089608 O2-
0.214004 0.149394 0.034052 O2-
0.340793 0.651785 0.007822 O2-
0.659207 0.151785 0.063377 O2-
0.258044 0.728542 0.098547 O2-
0.741956 0.228542 0.042991 O2-
0.725734 0.758375 0.018631 O2-
0.274266 0.258375 0.074187 O2-
0.642950 0.828801 0.109095 O2-
0.357050 0.328801 0.053539 O2-
0.205272 0.829973 0.027465 O2-
0.794728 0.329973 0.083020 O2-
0.347295 0.944360 0.011491 O2-
0.652705 0.444360 0.067047 O2-
0.677470 0.919559 0.037600 O2-
0.322530 0.419559 0.093155 O2-
0.678914 0.057634 0.024203 O2-
0.321086 0.557634 0.079759 O2-
0.069000 0.035413 0.209483 O2-
0.931000 0.535413 0.153927 O2-
0.951087 0.140628 0.221147 O2-
0.048913 0.640628 0.165592 O2-
0.080018 0.275856 0.114841 O2-
0.919982 0.775856 0.170397 O2-
0.926681 0.392259 0.122824 O2-
0.073319 0.892259 0.178380 O2-
0.942022 0.978148 0.192497 O2-
0.057978 0.478148 0.136942 O2-
0.076781 0.590622 0.216677 O2-
0.923219 0.090622 0.161121 O2-
0.921841 0.709404 0.113127 O2-
0.078159 0.209404 0.168683 O2-
0.049265 0.843555 0.118224 O2-
0.950735 0.343555 0.173780 O2-
0.918787 0.943480 0.130303 O2-
0.081213 0.443480 0.185859 O2-
0.944691 0.504327 0.202535 O2-
0.055309 0.004327 0.146980 O2-
0.322795 0.926111 0.203943 O2-
0.677205 0.426111 0.148388 O2-
0.313918 0.066074 0.191068 O2-
0.686082 0.566074 0.135512 O2-
0.643576 0.041349 0.217117 O2-
0.356424 0.541349 0.161561 O2-
0.795305 0.153257 0.200953 O2-
0.204695 0.653257 0.145397 O2-
0.351974 0.154647 0.119532 O2-
0.648026 0.654647 0.175087 O2-
0.281781 0.224590 0.209863 O2-
0.718219 0.724590 0.154308 O2-
0.751546 0.252705 0.129860 O2-
0.248454 0.752705 0.185416 O2-
0.656290 0.330648 0.220850 O2-
0.343710 0.830648 0.165294 O2-
0.215121 0.332841 0.138724 O2-
0.784879 0.832841 0.194280 O2-
0.355777 0.446708 0.122797 O2-
0.644223 0.946708 0.178353 O2-
0.649890 0.536665 0.216858 O2-
0.350110 0.036665 0.161302 O2-
0.785996 0.649394 0.200719 O2-
0.214004 0.149394 0.145163 O2-
0.340793 0.651785 0.118933 O2-
0.659207 0.151785 0.174488 O2-
0.258044 0.728542 0.209658 O2-
0.741956 0.228542 0.154102 O2-
0.725734 0.758375 0.129742 O2-
0.274266 0.258375 0.185298 O2-
0.642950 0.828801 0.220206 O2-
0.357050 0.328801 0.164650 O2-
0.205272 0.829973 0.138576 O2-
0.794728 0.329973 0.194131 O2-
0.347295 0.944360 0.122602 O2-
0.652705 0.444360 0.178158 O2-
0.677470 0.919559 0.148711 O2-
0.322530 0.419559 0.204266 O2-
0.678914 0.057634 0.135315 O2-
0.321086 0.557634 0.190870 O2-
0.069000 0.035413 0.320594 O2-
0.931000 0.535413 0.265039 O2-
0.951087 0.140628 0.332259 O2-
0.048913 0.640628 0.276703 O2-
0.080018 0.275856 0.225952 O2-
0.919982 0.775856 0.281508 O2-
0.926681 0.392259 0.233936 O2-
0.073319 0.892259 0.289491 O2-
0.942022 0.978148 0.303608 O2-
0.057978 0.478148 0.248053 O2-
0.076781 0.590622 0.327788 O2-
0.923219 0.090622 0.272232 O2-
0.921841 0.709404 0.224238 O2-
0.078159 0.209404 0.279794 O2-
0.049265 0.843555 0.229335 O2-
0.950735 0.343555 0.284891 O2-
0.918787 0.943480 0.241414 O2-
0.081213 0.443480 0.296970 O2-
0.944691 0.504327 0.313647 O2-
0.055309 0.004327 0.258091 O2-
0.322795 0.926111 0.315055 O2-
0.677205 0.426111 0.259499 O2-
0.313918 0.066074 0.302179 O2-
0.686082 0.566074 0.246623 O2-
0.643576 0.041349 0.328228 O2-
0.356424 0.541349 0.272672 O2-
0.795305 0.153257 0.312064 O2-
0.204695 0.653257 0.256508 O2-
0.351974 0.154647 0.230643 O2-
0.648026 0.654647 0.286198 O2-
0.281781 0.224590 0.320974 O2-
0.718219 0.724590 0.265419 O2-
0.751546 0.252705 0.240971 O2-
0.248454 0.752705 0.296527 O2-
0.656290 0.330648 0.331961 O2-
0.343710 0.830648 0.276405 O2-
0.215121 0.332841 0.249835 O2-
0.784879 0.832841 0.305391 O2-
0.355777 0.446708 0.233908 O2-
0.644223 0.946708 0.289464 O2-
0.649890 0.536665 0.327969 O2-
0.350110 0.036665 0.272413 O2-
0.785996 0.649394 0.311830 O2-
0.214004 0.149394 0.256274 O2-
0.340793 0.651785 0.230044 O2-
0.659207 0.151785 0.285600 O2-
0.258044 0.728542 0.320769 O2-
0.741956 0.228542 0.265213 O2-
0.725734 0.758375 0.240853 O2-
0.274266 0.258375 0.296409 O2-
0.642950 0.828801 0.331317 O2-
0.357050 0.328801 0.275762 O2-
0.205272 0.829973 0.249687 O2-
0.794728 0.329973 0.305242 O2-
0.347295 0.944360 0.233713 O2-
0.652705 0.444360 0.289269 O2-
0.677470 0.919559 0.259822 O2-
0.322530 0.419559 0.315377 O2-
0.678914 0.057634 0.246426 O2-
0.321086 0.557634 0.301981 O2-
0.069000 0.035413 0.431705 O2-
0.931000 0.535413 0.376150 O2-
0.951087 0.140628 0.443370 O2-
0.048913 0.640628 0.387814 O2-
0.080018 0.275856 0.337063 O2-
0.919982 0.775856 0.392619 O2-
0.926681 0.392259 0.345047 O2-
0.073319 0.892259 0.400602 O2-
0.942022 0.978148 0.414719 O2-
0.057978 0.478148 0.359164 O2-
0.076781 0.590622 0.438899 O2-
0.923219 0.090622 0.383343 O2-
0.921841 0.709404 0.335349 O2-
0.078159 0.209404 0.390905 O2-
0.049265 0.843555 0.340447 O2-
0.950735 0.343555 0.396002 O2-
0.918787 0.943480 0.352525 O2-
0.081213 0.443480 0.408081 O2-
0.944691 0.504327 0.424758 O2-
0.055309 0.004327 0.369202 O2-
0.322795 0.926111 0.426166 O2-
0.677205 0.426111 0.370610 O2-
0.313918 0.066074 0.413290 O2-
0.686082 0.566074 0.357734 O2-
0.643576 0.041349 0.439339 O2-
0.356424 0.541349 0.383783 O2-
0.795305 0.153257 0.423175 O2-
0.204695 0.653257 0.367619 O2-
0.351974 0.154647 0.341754 O2-
0.648026 0.654647 0.397310 O2-
0.281781 0.224590 0.432085 O2-
0.718219 0.724590 0.376530 O2-
0.751546 0.252705 0.352082 O2-
0.248454 0.752705 0.407638 O2-
0.656290 0.330648 0.443072 O2-
0.343710 0.830648 0.387516 O2-
0.215121 0.332841 0.360946 O2-
0.784879 0.832841 0.416502 O2-
0.355777 0.446708 0.345019 O2-
0.644223 0.946708 0.400575 O2-
0.649890 0.536665 0.439080 O2-
0.350110 0.036665 0.383524 O2-
0.785996 0.649394 0.422941 O2-
0.214004 0.149394 0.367385 O2-
0.340793 0.651785 0.341155 O2-
0.659207 0.151785 0.396711 O2-
0.258044 0.728542 0.431880 O2-
0.741956 0.228542 0.376325 O2-
0.725734 0.758375 0.351964 O2-
0.274266 0.258375 0.407520 O2-
0.642950 0.828801 0.442428 O2-
0.357050 0.328801 0.386873 O2-
0.205272 0.829973 0.360798 O2-
0.794728 0.329973 0.416354 O2-
0.347295 0.944360 0.344824 O2-
0.652705 0.444360 0.400380 O2-
0.677470 0.919559 0.370933 O2-
0.322530 0.419559 0.426489 O2-
0.678914 0.057634 0.357537 O2-
0.321086 0.557634 0.413092 O2-
0.069000 0.035413 0.542816 O2-
0.931000 0.535413 0.487261 O2-
0.951087 0.140628 0.554481 O2-
0.048913 0.640628 0.498925 O2-
0.080018 0.275856 0.448174 O2-
0.919982 0.775856 0.503730 O2-
0.926681 0.392259 0.456158 O2-
0.073319 0.892259 0.511713 O2-
0.942022 0.978148 0.525831 O2-
0.057978 0.478148 0.470275 O2-
0.076781 0.590622 0.550010 O2-
0.923219 0.090622 0.494454 O2-
0.921841 0.709404 0.446461 O2-
0.078159 0.209404 0.502016 O2-
0.049265 0.843555 0.451558 O2-
0.950735 0.343555 0.507113 O2-
0.918787 0.943480 0.463636 O2-
0.081213 0.443480 0.519192 O2-
0.944691 0.504327 0.535869 O2-
0.055309 0.004327 0.480313 O2-
0.322795 0.926111 0.537277 O2-
0.677205 0.426111 0.481721 O2-
0.313918 0.066074 0.524401 O2-
0.686082 0.566074 0.468846 O2-
0.643576 0.041349 0.550450 O2-
0.356424 0.541349 0.494895 O2-
0.795305 0.153257 0.534286 O2-
0.204695 0.653257 0.478730 O2-
0.351974 0.154647 0.452865 O2-
0.648026 0.654647 0.508421 O2-
0.281781 0.224590 0.543196 O2-
0.718219 0.724590 0.487641 O2-
0.751546 0.252705 0.463193 O2-
0.248454 0.752705 0.518749 O2-
0.656290 0.330648 0.554183 O2-
0.343710 0.830648 0.498628 O2-
0.215121 0.332841 0.472058 O2-
0.784879 0.832841 0.527613 O2-
0.355777 0.446708 0.456130 O2-
0.644223 0.946708 0.511686 O2-
0.649890 0.536665 0.550191 O2-
0.350110 0.036665 0.494635 O2-
0.785996 0.649394 0.534052 O2-
0.214004 0.149394 0.478496 O2-
0.340793 0.651785 0.452266 O2-
0.659207 0.151785 0.507822 O2-
0.258044 0.728542 0.542991 O2-
0.741956 0.228542 0.487436 O2-
0.725734 0.758375 0.463076 O2-
0.274266 0.258375 0.518631 O2-
0.642950 0.828801 0.553539 O2-
0.357050 0.328801 0.497984 O2-
0.205272 0.829973 0.471909 O2-
0.794728 0.329973 0.527465 O2-
0.347295 0.944360 0.455935 O2-
0.652705 0.444360 0.511491 O2-
0.677470 0.919559 0.482044 O2-
0.322530 0.419559 0.537600 O2-
0.678914 0.057634 0.468648 O2-
0.321086 0.557634 0.524203 O2-
0.069000 0.035413 0.653927 O2-
0.931000 0.535413 0.598372 O2-
0.951087 0.140628 0.665592 O2-
0.048913 0.640628 0.610036 O2-
0.080018 0.275856 0.559285 O2-
0.919982 0.775856 0.614841 O2-
0.926681 0.392259 0.567269 O2-
0.073319 0.892259 0.622825 O2-
0.942022 0.978148 0.636942 O2-
0.057978 0.478148 0.581386 O2-
0.076781 0.590622 0.661121 O2-
0.923219 0.090622 0.605565 O2-
0.921841 0.709404 0.557572 O2-
0.078159 0.209404 0.613127 O2-
0.049265 0.843555 0.562669 O2-
0.950735 0.343555 0.618224 O2-
0.918787 0.943480 0.574747 O2-
0.081213 0.443480 0.630303 O2-
0.944691 0.504327 0.646980 O2-
0.055309 0.004327 0.591424 O2-
0.322795 0.926111 0.648388 O2-
0.677205 0.426111 0.592832 O2-
0.313918 0.066074 0.635512 O2-
0.686082 0.566074 0.579957 O2-
0.643576 0.041349 0.661561 O2-
0.356424 0.541349 0.606006 O2-
0.795305 0.153257 0.645397 O2-
0.204695 0.653257 0.589842 O2-
0.351974 0.154647 0.563976 O2-
0.648026 0.654647 0.619532 O2-
0.281781 0.224590 0.654308 O2-
0.718219 0.724590 0.598752 O2-
0.751546 0.252705 0.574304 O2-
0.248454 0.752705 0.629860 O2-
0.656290 0.330648 0.665294 O2-
0.343710 0.830648 0.609739 O2-
0.215121 0.332841 0.583169 O2-
0.784879 0.832841 0.638724 O2-
0.355777 0.446708 0.567241 O2-
0.644223 0.946708 0.622797 O2-
0.649890 0.536665 0.661302 O2-
0.350110 0.036665 0.605747 O2-
0.785996 0.649394 0.645163 O2-
0.214004 0.149394 0.589608 O2-
0.340793 0.651785 0.563377 O2-
0.659207 0.151785 0.618933 O2-
0.258044 0.728542 0.654102 O2-
0.741956 0.228542 0.598547 O2-
0.725734 0.758375 0.574187 O2-
0.274266 0.258375 0.629742 O2-
0.642950 0.828801 0.664651 O2-
0.357050 0.328801 0.609095 O2-
0.205272 0.829973 0.583020 O2-
0.794728 0.329973 0.638576 O2-
0.347295 0.944360 0.567047 O2-
0.652705 0.444360 0.622602 O2-
0.677470 0.919559 0.593155 O2-
0.322530 0.419559 0.648711 O2-
0.678914 0.057634 0.579759 O2-
0.321086 0.557634 0.635315 O2-
0.069000 0.035413 0.765039 O2-
0.931000 0.535413 0.709483 O2-
0.951087 0.140628 0.776703 O2-
0.048913 0.640628 0.721147 O2-
0.080018 0.275856 0.670397 O2-
0.919982 0.775856 0.725952 O2-
0.926681 0.392259 0.678380 O2-
0.073319 0.892259 0.733936 O2-
0.942022 0.978148 0.748053 O2-
0.057978 0.478148 0.692497 O2-
0.076781 0.590622 0.772232 O2-
0.923219 0.090622 0.716677 O2-
0.921841 0.709404 0.668683 O2-
0.078159 0.209404 0.724238 O2-
0.049265 0.843555 0.673780 O2-
0.950735 0.343555 0.729335 O2-
0.918787 0.943480 0.685859 O2-
0.081213 0.443480 0.741414 O2-
0.944691 0.504327 0.758091 O2-
0.055309 0.004327 0.702535 O2-
0.322795 0.926111 0.759499 O2-
0.677205 0.426111 0.703943 O2-
0.313918 0.066074 0.746623 O2-
0.686082 0.566074 0.691068 O2-
0.643576 0.041349 0.772672 O2-
0.356424 0.541349 0.717117 O2-
0.795305 0.153257 0.756508 O2-
0.204695 0.653257 0.700953 O2-
0.351974 0.154647 0.675087 O2-
0.648026 0.654647 0.730643 O2-
0.281781 0.224590 0.765419 O2-
0.718219 0.724590 0.709863 O2-
0.751546 0.252705 0.685416 O2-
0.248454 0.752705 0.740971 O2-
0.656290 0.330648 0.776405 O2-
0.343710 0.830648 0.720850 O2-
0.215121 0.332841 0.694280 O2-
0.784879 0.832841 0.749835 O2-
0.355777 0.446708 0.678353 O2-
0.644223 0.946708 0.733908 O2-
0.649890 0.536665 0.772413 O2-
0.350110 0.036665 0.716858 O2-
0.785996 0.649394 0.756274 O2-
0.214004 0.149394 0.700719 O2-
0.340793 0.651785 0.674488 O2-
0.659207 0.151785 0.730044 O2-
0.258044 0.728542 0.765213 O2-
0.741956 0.228542 0.709658 O2-
0.725734 0.758375 0.685298 O2-
0.274266 0.258375 0.740853 O2-
0.642950 0.828801 0.775762 O2-
0.357050 0.328801 0.720206 O2-
0.205272 0.829973 0.694131 O2-
0.794728 0.329973 0.749687 O2-
0.347295 0.944360 0.678158 O2-
0.652705 0.444360 0.733713 O2-
0.677470 0.919559 0.704266 O2-
0.322530 0.419559 0.759822 O2-
0.678914 0.057634 0.690870 O2-
0.321086 0.557634 0.746426 O2-
