Li56 P56
1.0
4.970385 0.000000 0.000000
0.000000 9.037780 -10.430857
0.000000 0.000000 72.720336
Li P
56 56
direct
0.388247 0.329300 0.036970 Li+
0.888247 0.170700 0.068308 Li+
0.611753 0.670700 0.029846 Li+
0.111753 0.829300 0.075432 Li+
0.658316 0.029786 0.014605 Li+
0.158316 0.470214 0.013750 Li+
0.341684 0.970214 0.052212 Li+
0.841684 0.529786 0.053066 Li+
0.388247 0.329300 0.113894 Li+
0.888247 0.170700 0.145231 Li+
0.611753 0.670700 0.106769 Li+
0.111753 0.829300 0.152355 Li+
0.658316 0.029786 0.091528 Li+
0.158316 0.470214 0.090673 Li+
0.341684 0.970214 0.129135 Li+
0.841684 0.529786 0.129989 Li+
0.388247 0.329300 0.190817 Li+
0.888247 0.170700 0.222154 Li+
0.611753 0.670700 0.183692 Li+
0.111753 0.829300 0.229278 Li+
0.658316 0.029786 0.168451 Li+
0.158316 0.470214 0.167596 Li+
0.341684 0.970214 0.206058 Li+
0.841684 0.529786 0.206912 Li+
0.388247 0.329300 0.267740 Li+
0.888247 0.170700 0.299077 Li+
0.611753 0.670700 0.260615 Li+
0.111753 0.829300 0.306201 Li+
0.658316 0.029786 0.245374 Li+
0.158316 0.470214 0.244520 Li+
0.341684 0.970214 0.282981 Li+
0.841684 0.529786 0.283836 Li+
0.388247 0.329300 0.344663 Li+
0.888247 0.170700 0.376000 Li+
0.611753 0.670700 0.337538 Li+
0.111753 0.829300 0.383124 Li+
0.658316 0.029786 0.322297 Li+
0.158316 0.470214 0.321443 Li+
0.341684 0.970214 0.359904 Li+
0.841684 0.529786 0.360759 Li+
0.388247 0.329300 0.421586 Li+
0.888247 0.170700 0.452923 Li+
0.611753 0.670700 0.414462 Li+
0.111753 0.829300 0.460047 Li+
0.658316 0.029786 0.399220 Li+
0.158316 0.470214 0.398366 Li+
0.341684 0.970214 0.436827 Li+
0.841684 0.529786 0.437682 Li+
0.388247 0.329300 0.498509 Li+
0.888247 0.170700 0.529846 Li+
0.611753 0.670700 0.491385 Li+
0.111753 0.829300 0.536970 Li+
0.658316 0.029786 0.476143 Li+
0.158316 0.470214 0.475289 Li+
0.341684 0.970214 0.513750 Li+
0.841684 0.529786 0.514605 Li+
0.894904 0.292916 0.041836 P-
0.394904 0.207084 0.063442 P-
0.105096 0.707084 0.024981 P-
0.605096 0.792916 0.003375 P-
0.156027 0.111742 0.026864 P-
0.656027 0.388258 0.001491 P-
0.843973 0.888258 0.039953 P-
0.343973 0.611742 0.065326 P-
0.894904 0.292916 0.118759 P-
0.394904 0.207084 0.140365 P-
0.105096 0.707084 0.101904 P-
0.605096 0.792916 0.080298 P-
0.156027 0.111742 0.103787 P-
0.656027 0.388258 0.078414 P-
0.843973 0.888258 0.116876 P-
0.343973 0.611742 0.142249 P-
0.894904 0.292916 0.195682 P-
0.394904 0.207084 0.217288 P-
0.105096 0.707084 0.178827 P-
0.605096 0.792916 0.157221 P-
0.156027 0.111742 0.180710 P-
0.656027 0.388258 0.155337 P-
0.843973 0.888258 0.193799 P-
0.343973 0.611742 0.219172 P-
0.894904 0.292916 0.272605 P-
0.394904 0.207084 0.294211 P-
0.105096 0.707084 0.255750 P-
0.605096 0.792916 0.234144 P-
0.156027 0.111742 0.257633 P-
0.656027 0.388258 0.232260 P-
0.843973 0.888258 0.270722 P-
0.343973 0.611742 0.296095 P-
0.894904 0.292916 0.349528 P-
0.394904 0.207084 0.371134 P-
0.105096 0.707084 0.332673 P-
0.605096 0.792916 0.311067 P-
0.156027 0.111742 0.334556 P-
0.656027 0.388258 0.309183 P-
0.843973 0.888258 0.347645 P-
0.343973 0.611742 0.373018 P-
0.894904 0.292916 0.426451 P-
0.394904 0.207084 0.448057 P-
0.105096 0.707084 0.409596 P-
0.605096 0.792916 0.387990 P-
0.156027 0.111742 0.411479 P-
0.656027 0.388258 0.386106 P-
0.843973 0.888258 0.424568 P-
0.343973 0.611742 0.449941 P-
0.894904 0.292916 0.503375 P-
0.394904 0.207084 0.524981 P-
0.105096 0.707084 0.486519 P-
0.605096 0.792916 0.464913 P-
0.156027 0.111742 0.488402 P-
0.656027 0.388258 0.463030 P-
0.843973 0.888258 0.501491 P-
0.343973 0.611742 0.526864 P-
