Li61 P7 N32                             
   1.00000000000000     
     0.0131036406150497    9.6293148375078648    0.0045332256449224
     0.0356907370661891    0.0049889391939073    9.6204266065232744
     9.6260522121601468    0.0134835652515096    0.0362280352035515
   Li   P    N 
    61     7    32
Direct
  0.5029979348678566 -0.0134665787738911  0.4979134237022878
 -0.0107000561424703  0.4804241735239355 -0.0165866337663945
  0.4952263165829007  0.0014058523570868  0.0004695885900439
 -0.0027404775936484 -0.0103770826963899  0.4928929739017603
  0.4867361578678006  0.4934866669816753 -0.0218037391850944
  0.0147505075691516  0.4893744737318451  0.4848309444570736
  0.7522808390320599 -0.0134771579635201  0.5068116120900616
  0.2370292512651505  0.0224168985300353  0.4770449193954097
  0.7778121633685398  0.4945639001443131  0.5097523549026821
  0.2695787345946718  0.5502748502857443  0.5082945534196521
  0.2553015031704414 -0.0050731420515993 -0.0182097423919201
  0.7323781052245401 -0.0165756289844734  0.0116554102870990
  0.5688064857650242  0.5694901751026148  0.4290703455412669
  0.4695935180223363  0.2403417837553455  0.0198111824018287
  0.4952970060014709  0.7475765382581767 -0.0131489382959928
  0.0112599439108432  0.4589515325151653  0.2324949526842425
 -0.0319960453000721  0.5019796411406884  0.7330920691410941
  0.2639720652668228  0.2599655524051435  0.2653304447033429
  0.2699048243747826  0.7842957466228661  0.8062069714764465
  0.2962309112827353  0.2859778922630359  0.7785516726100570
  0.2941705528608583  0.7849311926107996  0.3125520436104456
  0.8161325787139621  0.3139036186375253  0.3158110280513834
  0.7794189305191657  0.7114856221402477  0.7136852093038877
  0.7890260306712658  0.2298546321532979  0.7631361003490887
  0.7684682066315628  0.8077960649414362  0.2397789171396490
  0.0131402722009202  0.1906868927926195  0.2505601693103301
  0.0207689231251912  0.7747865731323231  0.7329362631297703
  0.2176321835970721  0.2926655953100506  0.5346658879068068
  0.2430936719669149  0.7874782376281390  0.5519957581868248
  0.7223922086918831  0.2305727064808889  0.5175854551883923
  0.7406346167096816  0.7435422260573429  0.4855949154897944
  0.7469155048936472  0.5294064703104763  0.2645508724034660
  0.7094748871566459  0.4979049973110774  0.7591034326349096
  0.2546707256331532  0.5261125224491586  0.2438546544029374
  0.2151594190516795  0.5160678400960435  0.7362659988481833
  0.5157473274208098  0.7395550742338804  0.2366750694605224
  0.5340645126138925  0.2586799242480250  0.7820103922098435
  0.2392892146960392  0.0032856421164007  0.2245767760775674
  0.2341390296546549  0.0321564384731991  0.7325558335181475
  0.2175206319393250  0.2379064329547024  0.0102690731321967
  0.2663072650286354  0.7417601166293198  0.0607282718818879
  0.7499569098351014  0.9812822149357709  0.7623721374560885
  0.7460471298011997  0.0590348423297700  0.2730744633299919
  0.7360650802912692  0.7522704807593502  0.9577466649413116
  0.7418632815132857  0.2156254167341957  0.0072168089431343
  0.0397395903582810  0.2630861572375949  0.7538454942106000
  0.0626968334960125  0.7139523903479565  0.2477850321747268
  0.5355314067732492  0.2192783125111889  0.3229116157326481
  0.5377714051736321  0.7581876719576008  0.7252093415645726
 -0.0202613236979339  0.2453096204043096  0.0041199854899233
  0.0247431842690883  0.7315360499756695 -0.0317402440519800
  0.4403978903415698  0.1982030509690315  0.5621185626325509
  0.4841183887963340  0.7489323129260099  0.5002347220465495
  0.4864368371339798  0.5056539063844951  0.2149071196897582
  0.4504289553908180  0.5350412178587654  0.7254546732823861
 -0.0039289576679439 -0.0467428141219895  0.2458824209422423
 -0.0084707904531697  0.0120420353238656  0.7310352415014572
  0.4200942140860285  0.4164579362932469  0.4206807825071227
  0.5668633255585485  0.4160933894098765  0.5767608226741083
  0.8873125428703555  0.6512134969628355  0.1175104566919793
  0.6436192236217284  0.3292222892920668  0.1711504095671947
 -0.0063283323833828 -0.0141874269948672 -0.0118397479919291
  0.7428005342357801  0.4893059573955349 -0.0016650297632730
  0.2332524907949258  0.4942366004090860 -0.0052116838137303
 -0.0013794799531534  0.7446622235012528  0.4882576687751961
 -0.0113185168725924  0.2338803432814063  0.4997205169032977
  0.4963775858161987 -0.0043395573992456  0.2446434547559398
  0.4963867099337999  0.0005582384917472  0.7563057058268452
  0.6289875395764546  0.6160797636935276  0.6153790842235367
  0.6294645627402292  0.3842186297834838  0.3747174942648211
  0.8984092067360003  0.8696826593209011  0.0826201792605496
  0.8855633124447483  0.0913687021582387  0.8974411593890459
  0.1010139878436795  0.9003441166381537  0.8786354330306007
  0.0913384739368989  0.0834750215066000  0.0959836693363119
  0.3887114813223563  0.6202306487057807  0.3599578310085843
  0.3701828943906567  0.3826079000059858  0.6187977586400385
  0.0832713669729127  0.3269781690921235  0.3814281724827202
  0.0945548449289151  0.6434458135301472  0.5974060126782144
  0.0976006624746952  0.1374310114878093  0.5973823317290600
  0.1100500190475658  0.8491856589024028  0.3964957608928858
  0.8811304688287193  0.1340174637224569  0.4048376077764242
  0.8928023468243850  0.8428968491931353  0.5890872188592140
  0.8424925713735287  0.3969036166575351  0.1116889277291470
  0.8435837016504372  0.5857024106967790  0.8906377788766778
  0.1240235945297968  0.5891318218369264  0.0967535692720166
  0.1396154334517284  0.3890347134080646  0.8899281872843781
  0.3974216456368370  0.8915967567126158  0.1446398654478201
  0.3969591836374913  0.1084165149008082  0.8526061898860687
  0.3874921515889712  0.0873620311920071  0.3491064688842993
  0.3915792803076570  0.9006320034321547  0.6555524749064715
  0.3338529225707049  0.3914467001381371  0.0968443966819842
  0.3309148722779710  0.6078895241370329  0.9020276996622923
  0.6070572341247586  0.0960697847548090  0.6547705786225785
  0.6111920830818797  0.9021159308796480  0.3419250034615448
  0.6458191023900756  0.6034934108720089  0.0911199387289816
  0.6447639304420235  0.3745830778448320  0.9130058241001503
  0.8979755204734176  0.3398247444423156  0.6052106470121132
  0.9039348432107969  0.6483947114078025  0.3740804712295366
  0.5915669115483259  0.1110689513537225  0.1474672278767764
  0.5939713476644780  0.8945116225607855  0.8597131528454636
 
  0.00000000E+00  0.00000000E+00  0.00000000E+00
  0.00000000E+00  0.00000000E+00  0.00000000E+00
  0.00000000E+00  0.00000000E+00  0.00000000E+00
  0.00000000E+00  0.00000000E+00  0.00000000E+00
  0.00000000E+00  0.00000000E+00  0.00000000E+00
  0.00000000E+00  0.00000000E+00  0.00000000E+00
  0.00000000E+00  0.00000000E+00  0.00000000E+00
  0.00000000E+00  0.00000000E+00  0.00000000E+00
  0.00000000E+00  0.00000000E+00  0.00000000E+00
  0.00000000E+00  0.00000000E+00  0.00000000E+00
  0.00000000E+00  0.00000000E+00  0.00000000E+00
  0.00000000E+00  0.00000000E+00  0.00000000E+00
  0.00000000E+00  0.00000000E+00  0.00000000E+00
  0.00000000E+00  0.00000000E+00  0.00000000E+00
  0.00000000E+00  0.00000000E+00  0.00000000E+00
  0.00000000E+00  0.00000000E+00  0.00000000E+00
  0.00000000E+00  0.00000000E+00  0.00000000E+00
  0.00000000E+00  0.00000000E+00  0.00000000E+00
  0.00000000E+00  0.00000000E+00  0.00000000E+00
  0.00000000E+00  0.00000000E+00  0.00000000E+00
  0.00000000E+00  0.00000000E+00  0.00000000E+00
  0.00000000E+00  0.00000000E+00  0.00000000E+00
  0.00000000E+00  0.00000000E+00  0.00000000E+00
  0.00000000E+00  0.00000000E+00  0.00000000E+00
  0.00000000E+00  0.00000000E+00  0.00000000E+00
  0.00000000E+00  0.00000000E+00  0.00000000E+00
  0.00000000E+00  0.00000000E+00  0.00000000E+00
  0.00000000E+00  0.00000000E+00  0.00000000E+00
  0.00000000E+00  0.00000000E+00  0.00000000E+00
  0.00000000E+00  0.00000000E+00  0.00000000E+00
  0.00000000E+00  0.00000000E+00  0.00000000E+00
  0.00000000E+00  0.00000000E+00  0.00000000E+00
  0.00000000E+00  0.00000000E+00  0.00000000E+00
  0.00000000E+00  0.00000000E+00  0.00000000E+00
  0.00000000E+00  0.00000000E+00  0.00000000E+00
  0.00000000E+00  0.00000000E+00  0.00000000E+00
  0.00000000E+00  0.00000000E+00  0.00000000E+00
  0.00000000E+00  0.00000000E+00  0.00000000E+00
  0.00000000E+00  0.00000000E+00  0.00000000E+00
  0.00000000E+00  0.00000000E+00  0.00000000E+00
  0.00000000E+00  0.00000000E+00  0.00000000E+00
  0.00000000E+00  0.00000000E+00  0.00000000E+00
  0.00000000E+00  0.00000000E+00  0.00000000E+00
  0.00000000E+00  0.00000000E+00  0.00000000E+00
  0.00000000E+00  0.00000000E+00  0.00000000E+00
  0.00000000E+00  0.00000000E+00  0.00000000E+00
  0.00000000E+00  0.00000000E+00  0.00000000E+00
  0.00000000E+00  0.00000000E+00  0.00000000E+00
  0.00000000E+00  0.00000000E+00  0.00000000E+00
  0.00000000E+00  0.00000000E+00  0.00000000E+00
  0.00000000E+00  0.00000000E+00  0.00000000E+00
  0.00000000E+00  0.00000000E+00  0.00000000E+00
  0.00000000E+00  0.00000000E+00  0.00000000E+00
  0.00000000E+00  0.00000000E+00  0.00000000E+00
  0.00000000E+00  0.00000000E+00  0.00000000E+00
  0.00000000E+00  0.00000000E+00  0.00000000E+00
  0.00000000E+00  0.00000000E+00  0.00000000E+00
  0.00000000E+00  0.00000000E+00  0.00000000E+00
  0.00000000E+00  0.00000000E+00  0.00000000E+00
  0.00000000E+00  0.00000000E+00  0.00000000E+00
  0.00000000E+00  0.00000000E+00  0.00000000E+00
  0.00000000E+00  0.00000000E+00  0.00000000E+00
  0.00000000E+00  0.00000000E+00  0.00000000E+00
  0.00000000E+00  0.00000000E+00  0.00000000E+00
  0.00000000E+00  0.00000000E+00  0.00000000E+00
  0.00000000E+00  0.00000000E+00  0.00000000E+00
  0.00000000E+00  0.00000000E+00  0.00000000E+00
  0.00000000E+00  0.00000000E+00  0.00000000E+00
  0.00000000E+00  0.00000000E+00  0.00000000E+00
  0.00000000E+00  0.00000000E+00  0.00000000E+00
  0.00000000E+00  0.00000000E+00  0.00000000E+00
  0.00000000E+00  0.00000000E+00  0.00000000E+00
  0.00000000E+00  0.00000000E+00  0.00000000E+00
  0.00000000E+00  0.00000000E+00  0.00000000E+00
  0.00000000E+00  0.00000000E+00  0.00000000E+00
  0.00000000E+00  0.00000000E+00  0.00000000E+00
  0.00000000E+00  0.00000000E+00  0.00000000E+00
  0.00000000E+00  0.00000000E+00  0.00000000E+00
  0.00000000E+00  0.00000000E+00  0.00000000E+00
  0.00000000E+00  0.00000000E+00  0.00000000E+00
  0.00000000E+00  0.00000000E+00  0.00000000E+00
  0.00000000E+00  0.00000000E+00  0.00000000E+00
  0.00000000E+00  0.00000000E+00  0.00000000E+00
  0.00000000E+00  0.00000000E+00  0.00000000E+00
  0.00000000E+00  0.00000000E+00  0.00000000E+00
  0.00000000E+00  0.00000000E+00  0.00000000E+00
  0.00000000E+00  0.00000000E+00  0.00000000E+00
  0.00000000E+00  0.00000000E+00  0.00000000E+00
  0.00000000E+00  0.00000000E+00  0.00000000E+00
  0.00000000E+00  0.00000000E+00  0.00000000E+00
  0.00000000E+00  0.00000000E+00  0.00000000E+00
  0.00000000E+00  0.00000000E+00  0.00000000E+00
  0.00000000E+00  0.00000000E+00  0.00000000E+00
  0.00000000E+00  0.00000000E+00  0.00000000E+00
  0.00000000E+00  0.00000000E+00  0.00000000E+00
  0.00000000E+00  0.00000000E+00  0.00000000E+00
  0.00000000E+00  0.00000000E+00  0.00000000E+00
  0.00000000E+00  0.00000000E+00  0.00000000E+00
  0.00000000E+00  0.00000000E+00  0.00000000E+00
  0.00000000E+00  0.00000000E+00  0.00000000E+00
