Li1 O8
1.0
4.683226 0.030675 1.916040
2.412188 4.453103 1.541215
0.536868 -0.340467 5.069074
Li O
1 8
direct
0.495530 0.803706 0.803706 Li
0.842098 0.333358 0.820393 O
0.150600 0.233297 0.699617 O
0.150600 0.699617 0.233297 O
0.842098 0.820393 0.333358 O
0.838017 0.255822 0.255822 O
0.153713 0.741225 0.741225 O
0.142059 0.152549 0.152549 O
0.843618 0.864795 0.864795 O
