Li140 P140 O420
1.0
13.312980 0.000000 0.000000
-10.635230 16.540545 -5.521558
0.000000 0.000000 60.737138
Li P O
140 140 420
direct
0.126478 0.181780 0.029874 Li+
0.126478 0.681780 0.074348 Li+
0.888830 0.065996 0.020274 Li+
0.888830 0.565996 0.062896 Li+
0.652957 0.950543 0.007836 Li+
0.652957 0.450543 0.054342 Li+
0.418297 0.835452 0.088152 Li+
0.418297 0.335452 0.044011 Li+
0.270894 0.758434 0.037008 Li+
0.270894 0.258434 0.081151 Li+
0.624263 0.681714 0.072905 Li+
0.624263 0.181714 0.031304 Li+
0.387725 0.566270 0.066491 Li+
0.387725 0.066270 0.016729 Li+
0.151818 0.449547 0.050703 Li+
0.151818 0.949547 0.011294 Li+
0.915480 0.332984 0.045153 Li+
0.915480 0.832984 0.086560 Li+
0.766829 0.256366 0.085174 Li+
0.766829 0.756366 0.032609 Li+
0.126478 0.181780 0.120783 Li+
0.126478 0.681780 0.165257 Li+
0.888830 0.065996 0.111183 Li+
0.888830 0.565996 0.153805 Li+
0.652957 0.950543 0.098745 Li+
0.652957 0.450543 0.145252 Li+
0.418297 0.835452 0.179061 Li+
0.418297 0.335452 0.134920 Li+
0.270894 0.758434 0.127917 Li+
0.270894 0.258434 0.172060 Li+
0.624263 0.681714 0.163815 Li+
0.624263 0.181714 0.122213 Li+
0.387725 0.566270 0.157400 Li+
0.387725 0.066270 0.107638 Li+
0.151818 0.449547 0.141612 Li+
0.151818 0.949547 0.102203 Li+
0.915480 0.332984 0.136062 Li+
0.915480 0.832984 0.177469 Li+
0.766829 0.256366 0.176083 Li+
0.766829 0.756366 0.123518 Li+
0.126478 0.181780 0.211692 Li+
0.126478 0.681780 0.256166 Li+
0.888830 0.065996 0.202092 Li+
0.888830 0.565996 0.244714 Li+
0.652957 0.950543 0.189654 Li+
0.652957 0.450543 0.236161 Li+
0.418297 0.835452 0.269970 Li+
0.418297 0.335452 0.225829 Li+
0.270894 0.758434 0.218826 Li+
0.270894 0.258434 0.262969 Li+
0.624263 0.681714 0.254724 Li+
0.624263 0.181714 0.213123 Li+
0.387725 0.566270 0.248309 Li+
0.387725 0.066270 0.198548 Li+
0.151818 0.449547 0.232522 Li+
0.151818 0.949547 0.193112 Li+
0.915480 0.332984 0.226972 Li+
0.915480 0.832984 0.268378 Li+
0.766829 0.256366 0.266992 Li+
0.766829 0.756366 0.214427 Li+
0.126478 0.181780 0.302601 Li+
0.126478 0.681780 0.347075 Li+
0.888830 0.065996 0.293002 Li+
0.888830 0.565996 0.335623 Li+
0.652957 0.950543 0.280564 Li+
0.652957 0.450543 0.327070 Li+
0.418297 0.835452 0.360879 Li+
0.418297 0.335452 0.316738 Li+
0.270894 0.758434 0.309736 Li+
0.270894 0.258434 0.353878 Li+
0.624263 0.681714 0.345633 Li+
0.624263 0.181714 0.304032 Li+
0.387725 0.566270 0.339218 Li+
0.387725 0.066270 0.289457 Li+
0.151818 0.449547 0.323431 Li+
0.151818 0.949547 0.284022 Li+
0.915480 0.332984 0.317881 Li+
0.915480 0.832984 0.359287 Li+
0.766829 0.256366 0.357902 Li+
0.766829 0.756366 0.305336 Li+
0.126478 0.181780 0.393510 Li+
0.126478 0.681780 0.437984 Li+
0.888830 0.065996 0.383911 Li+
0.888830 0.565996 0.426532 Li+
0.652957 0.950543 0.371473 Li+
0.652957 0.450543 0.417979 Li+
0.418297 0.835452 0.451788 Li+
0.418297 0.335452 0.407647 Li+
0.270894 0.758434 0.400645 Li+
0.270894 0.258434 0.444787 Li+
0.624263 0.681714 0.436542 Li+
0.624263 0.181714 0.394941 Li+
0.387725 0.566270 0.430127 Li+
0.387725 0.066270 0.380366 Li+
0.151818 0.449547 0.414340 Li+
0.151818 0.949547 0.374931 Li+
0.915480 0.332984 0.408790 Li+
0.915480 0.832984 0.450196 Li+
0.766829 0.256366 0.448811 Li+
0.766829 0.756366 0.396245 Li+
0.126478 0.181780 0.484419 Li+
0.126478 0.681780 0.528893 Li+
0.888830 0.065996 0.474820 Li+
0.888830 0.565996 0.517441 Li+
0.652957 0.950543 0.462382 Li+
0.652957 0.450543 0.508888 Li+
0.418297 0.835452 0.542697 Li+
0.418297 0.335452 0.498556 Li+
0.270894 0.758434 0.491554 Li+
0.270894 0.258434 0.535696 Li+
0.624263 0.681714 0.527451 Li+
0.624263 0.181714 0.485850 Li+
0.387725 0.566270 0.521036 Li+
0.387725 0.066270 0.471275 Li+
0.151818 0.449547 0.505249 Li+
0.151818 0.949547 0.465840 Li+
0.915480 0.332984 0.499699 Li+
0.915480 0.832984 0.541106 Li+
0.766829 0.256366 0.539720 Li+
0.766829 0.756366 0.487154 Li+
0.126478 0.181780 0.575328 Li+
0.126478 0.681780 0.619802 Li+
0.888830 0.065996 0.565729 Li+
0.888830 0.565996 0.608350 Li+
0.652957 0.950543 0.553291 Li+
0.652957 0.450543 0.599797 Li+
0.418297 0.835452 0.633606 Li+
0.418297 0.335452 0.589465 Li+
0.270894 0.758434 0.582463 Li+
0.270894 0.258434 0.626605 Li+
0.624263 0.681714 0.618360 Li+
0.624263 0.181714 0.576759 Li+
0.387725 0.566270 0.611945 Li+
0.387725 0.066270 0.562184 Li+
0.151818 0.449547 0.596158 Li+
0.151818 0.949547 0.556749 Li+
0.915480 0.332984 0.590608 Li+
0.915480 0.832984 0.632015 Li+
0.766829 0.256366 0.630629 Li+
0.766829 0.756366 0.578063 Li+
0.000779 0.999587 0.041423 P5+
0.000779 0.499587 0.029673 P5+
0.794387 0.906720 0.064077 P5+
0.794387 0.406720 0.081043 P5+
0.598863 0.802939 0.023267 P5+
0.598863 0.302939 0.012075 P5+
0.408395 0.691689 0.045832 P5+
0.408395 0.191689 0.060191 P5+
0.208401 0.591751 0.006677 P5+
0.208401 0.091751 0.081175 P5+
0.334920 0.425433 0.020268 P5+
0.334920 0.925433 0.037346 P5+
0.134548 0.325562 0.072062 P5+
0.134548 0.825562 0.058302 P5+
0.943677 0.213545 0.003882 P5+
0.943677 0.713545 0.015206 P5+
0.747866 0.110144 0.054517 P5+
0.747866 0.610144 0.036680 P5+
0.541580 0.017155 0.077157 P5+
0.541580 0.517155 0.088042 P5+
0.000779 0.999587 0.132332 P5+
0.000779 0.499587 0.120582 P5+
0.794387 0.906720 0.154986 P5+
0.794387 0.406720 0.171952 P5+
0.598863 0.802939 0.114176 P5+
0.598863 0.302939 0.102984 P5+
0.408395 0.691689 0.136741 P5+
0.408395 0.191689 0.151101 P5+
0.208401 0.591751 0.097587 P5+
0.208401 0.091751 0.172085 P5+
0.334920 0.425433 0.111177 P5+
0.334920 0.925433 0.128255 P5+
0.134548 0.325562 0.162971 P5+
0.134548 0.825562 0.149211 P5+
0.943677 0.213545 0.094792 P5+
0.943677 0.713545 0.106115 P5+
0.747866 0.110144 0.145426 P5+
0.747866 0.610144 0.127590 P5+
0.541580 0.017155 0.168066 P5+
0.541580 0.517155 0.178951 P5+
0.000779 0.999587 0.223241 P5+
0.000779 0.499587 0.211491 P5+
0.794387 0.906720 0.245895 P5+
0.794387 0.406720 0.262862 P5+
0.598863 0.802939 0.205085 P5+
0.598863 0.302939 0.193893 P5+
0.408395 0.691689 0.227650 P5+
0.408395 0.191689 0.242010 P5+
0.208401 0.591751 0.188496 P5+
0.208401 0.091751 0.262994 P5+
0.334920 0.425433 0.202086 P5+
0.334920 0.925433 0.219164 P5+
0.134548 0.325562 0.253880 P5+
0.134548 0.825562 0.240120 P5+
0.943677 0.213545 0.185701 P5+
0.943677 0.713545 0.197024 P5+
0.747866 0.110144 0.236335 P5+
0.747866 0.610144 0.218499 P5+
0.541580 0.017155 0.258975 P5+
0.541580 0.517155 0.269860 P5+
0.000779 0.999587 0.314150 P5+
0.000779 0.499587 0.302400 P5+
0.794387 0.906720 0.336804 P5+
0.794387 0.406720 0.353771 P5+
0.598863 0.802939 0.295994 P5+
0.598863 0.302939 0.284802 P5+
0.408395 0.691689 0.318559 P5+
0.408395 0.191689 0.332919 P5+
0.208401 0.591751 0.279405 P5+
0.208401 0.091751 0.353903 P5+
0.334920 0.425433 0.292995 P5+
0.334920 0.925433 0.310073 P5+
0.134548 0.325562 0.344789 P5+
0.134548 0.825562 0.331029 P5+
0.943677 0.213545 0.276610 P5+
0.943677 0.713545 0.287933 P5+
0.747866 0.110144 0.327244 P5+
0.747866 0.610144 0.309408 P5+
0.541580 0.017155 0.349884 P5+
0.541580 0.517155 0.360769 P5+
0.000779 0.999587 0.405059 P5+
0.000779 0.499587 0.393309 P5+
0.794387 0.906720 0.427713 P5+
0.794387 0.406720 0.444680 P5+
0.598863 0.802939 0.386903 P5+
0.598863 0.302939 0.375711 P5+
0.408395 0.691689 0.409468 P5+
0.408395 0.191689 0.423828 P5+
0.208401 0.591751 0.370314 P5+
0.208401 0.091751 0.444812 P5+
0.334920 0.425433 0.383904 P5+
0.334920 0.925433 0.400982 P5+
0.134548 0.325562 0.435698 P5+
0.134548 0.825562 0.421939 P5+
0.943677 0.213545 0.367519 P5+
0.943677 0.713545 0.378842 P5+
0.747866 0.110144 0.418153 P5+
0.747866 0.610144 0.400317 P5+
0.541580 0.017155 0.440793 P5+
0.541580 0.517155 0.451678 P5+
0.000779 0.999587 0.495968 P5+
0.000779 0.499587 0.484219 P5+
0.794387 0.906720 0.518622 P5+
0.794387 0.406720 0.535589 P5+
0.598863 0.802939 0.477812 P5+
0.598863 0.302939 0.466620 P5+
0.408395 0.691689 0.500377 P5+
0.408395 0.191689 0.514737 P5+
0.208401 0.591751 0.461223 P5+
0.208401 0.091751 0.535721 P5+
0.334920 0.425433 0.474813 P5+
0.334920 0.925433 0.491891 P5+
0.134548 0.325562 0.526607 P5+
0.134548 0.825562 0.512848 P5+
0.943677 0.213545 0.458428 P5+
0.943677 0.713545 0.469751 P5+
0.747866 0.110144 0.509062 P5+
0.747866 0.610144 0.491226 P5+
0.541580 0.017155 0.531703 P5+
0.541580 0.517155 0.542587 P5+
0.000779 0.999587 0.586877 P5+
0.000779 0.499587 0.575128 P5+
0.794387 0.906720 0.609531 P5+
0.794387 0.406720 0.626498 P5+
0.598863 0.802939 0.568721 P5+
0.598863 0.302939 0.557529 P5+
0.408395 0.691689 0.591287 P5+
0.408395 0.191689 0.605646 P5+
0.208401 0.591751 0.552132 P5+
0.208401 0.091751 0.626630 P5+
0.334920 0.425433 0.565722 P5+
0.334920 0.925433 0.582800 P5+
0.134548 0.325562 0.617516 P5+
0.134548 0.825562 0.603757 P5+
0.943677 0.213545 0.549337 P5+
0.943677 0.713545 0.560660 P5+
0.747866 0.110144 0.599971 P5+
0.747866 0.610144 0.582135 P5+
0.541580 0.017155 0.622612 P5+
0.541580 0.517155 0.633497 P5+
0.870015 0.964587 0.048821 O2-
0.870015 0.464587 0.015912 O2-
0.659821 0.859372 0.049975 O2-
0.659821 0.359372 0.086536 O2-
0.481350 0.724144 0.025961 O2-
0.481350 0.224144 0.085964 O2-
0.293096 0.607741 0.029318 O2-
0.293096 0.107741 0.061442 O2-
0.080152 0.021852 0.065570 O2-
0.080152 0.521852 0.009574 O2-
0.250064 0.409378 0.088549 O2-
0.250064 0.909378 0.057054 O2-
0.063226 0.290596 0.000927 O2-
0.063226 0.790596 0.032171 O2-
0.883201 0.156445 0.068056 O2-
0.883201 0.656445 0.031559 O2-
0.674568 0.056520 0.070834 O2-
0.674568 0.556520 0.010613 O2-
0.463629 0.495673 0.017493 O2-
0.463629 0.995673 0.052891 O2-
0.029173 0.073889 0.035685 O2-
0.029173 0.573889 0.048920 O2-
0.005091 0.933926 0.023768 O2-
0.005091 0.433926 0.035389 O2-
0.795375 0.958651 0.086956 O2-
0.795375 0.458651 0.067606 O2-
0.828944 0.846743 0.062989 O2-
0.828944 0.346743 0.071226 O2-
0.560342 0.845353 0.012256 O2-
0.560342 0.345353 0.030797 O2-
0.677417 0.775410 0.012279 O2-
0.677417 0.275410 0.018057 O2-
0.369330 0.747295 0.057926 O2-
0.369330 0.247295 0.058207 O2-
0.472480 0.669352 0.059500 O2-
0.472480 0.169352 0.042462 O2-
0.209416 0.667159 0.008498 O2-
0.209416 0.167159 0.002156 O2-
0.238895 0.553292 0.076269 O2-
0.238895 0.053292 0.004592 O2-
0.302391 0.463335 0.041353 O2-
0.302391 0.963335 0.023151 O2-
0.334913 0.350606 0.018732 O2-
0.334913 0.850606 0.025277 O2-
0.068594 0.348215 0.058987 O2-
0.068594 0.848215 0.075495 O2-
0.175312 0.271458 0.059532 O2-
0.175312 0.771458 0.060995 O2-
0.864720 0.241625 0.014303 O2-
0.864720 0.741625 0.009891 O2-
0.980120 0.171199 0.015426 O2-
0.980120 0.671199 0.086872 O2-
0.713620 0.170027 0.055109 O2-
0.713620 0.670027 0.046976 O2-
0.742996 0.055640 0.031799 O2-
0.742996 0.555640 0.049489 O2-
0.532819 0.080441 0.004037 O2-
0.532819 0.580441 0.081759 O2-
0.515310 0.942366 0.082263 O2-
0.515310 0.442366 0.069338 O2-
0.870015 0.964587 0.139730 O2-
0.870015 0.464587 0.106821 O2-
0.659821 0.859372 0.140884 O2-
0.659821 0.359372 0.177445 O2-
0.481350 0.724144 0.116870 O2-
0.481350 0.224144 0.176873 O2-
0.293096 0.607741 0.120227 O2-
0.293096 0.107741 0.152351 O2-
0.080152 0.021852 0.156479 O2-
0.080152 0.521852 0.100483 O2-
0.250064 0.409378 0.179458 O2-
0.250064 0.909378 0.147964 O2-
0.063226 0.290596 0.091836 O2-
0.063226 0.790596 0.123080 O2-
0.883201 0.156445 0.158965 O2-
0.883201 0.656445 0.122468 O2-
0.674568 0.056520 0.161743 O2-
0.674568 0.556520 0.101522 O2-
0.463629 0.495673 0.108402 O2-
0.463629 0.995673 0.143800 O2-
0.029173 0.073889 0.126594 O2-
0.029173 0.573889 0.139829 O2-
0.005091 0.933926 0.114677 O2-
0.005091 0.433926 0.126299 O2-
0.795375 0.958651 0.177865 O2-
0.795375 0.458651 0.158515 O2-
0.828944 0.846743 0.153898 O2-
0.828944 0.346743 0.162135 O2-
0.560342 0.845353 0.103165 O2-
0.560342 0.345353 0.121706 O2-
0.677417 0.775410 0.103188 O2-
0.677417 0.275410 0.108966 O2-
0.369330 0.747295 0.148835 O2-
0.369330 0.247295 0.149116 O2-
0.472480 0.669352 0.150409 O2-
0.472480 0.169352 0.133371 O2-
0.209416 0.667159 0.099407 O2-
0.209416 0.167159 0.093065 O2-
0.238895 0.553292 0.167178 O2-
0.238895 0.053292 0.095501 O2-
0.302391 0.463335 0.132262 O2-
0.302391 0.963335 0.114060 O2-
0.334913 0.350606 0.109641 O2-
0.334913 0.850606 0.116186 O2-
0.068594 0.348215 0.149897 O2-
0.068594 0.848215 0.166404 O2-
0.175312 0.271458 0.150441 O2-
0.175312 0.771458 0.151904 O2-
0.864720 0.241625 0.105212 O2-
0.864720 0.741625 0.100800 O2-
0.980120 0.171199 0.106335 O2-
0.980120 0.671199 0.177781 O2-
0.713620 0.170027 0.146018 O2-
0.713620 0.670027 0.137885 O2-
0.742996 0.055640 0.122708 O2-
0.742996 0.555640 0.140398 O2-
0.532819 0.080441 0.094946 O2-
0.532819 0.580441 0.172668 O2-
0.515310 0.942366 0.173172 O2-
0.515310 0.442366 0.160247 O2-
0.870015 0.964587 0.230639 O2-
0.870015 0.464587 0.197730 O2-
0.659821 0.859372 0.231793 O2-
0.659821 0.359372 0.268354 O2-
0.481350 0.724144 0.207779 O2-
0.481350 0.224144 0.267782 O2-
0.293096 0.607741 0.211136 O2-
0.293096 0.107741 0.243260 O2-
0.080152 0.021852 0.247388 O2-
0.080152 0.521852 0.191392 O2-
0.250064 0.409378 0.270367 O2-
0.250064 0.909378 0.238873 O2-
0.063226 0.290596 0.182745 O2-
0.063226 0.790596 0.213989 O2-
0.883201 0.156445 0.249875 O2-
0.883201 0.656445 0.213377 O2-
0.674568 0.056520 0.252652 O2-
0.674568 0.556520 0.192432 O2-
0.463629 0.495673 0.199311 O2-
0.463629 0.995673 0.234709 O2-
0.029173 0.073889 0.217503 O2-
0.029173 0.573889 0.230739 O2-
0.005091 0.933926 0.205586 O2-
0.005091 0.433926 0.217208 O2-
0.795375 0.958651 0.268774 O2-
0.795375 0.458651 0.249424 O2-
0.828944 0.846743 0.244807 O2-
0.828944 0.346743 0.253044 O2-
0.560342 0.845353 0.194074 O2-
0.560342 0.345353 0.212615 O2-
0.677417 0.775410 0.194097 O2-
0.677417 0.275410 0.199876 O2-
0.369330 0.747295 0.239744 O2-
0.369330 0.247295 0.240026 O2-
0.472480 0.669352 0.241318 O2-
0.472480 0.169352 0.224280 O2-
0.209416 0.667159 0.190316 O2-
0.209416 0.167159 0.183975 O2-
0.238895 0.553292 0.258087 O2-
0.238895 0.053292 0.186410 O2-
0.302391 0.463335 0.223171 O2-
0.302391 0.963335 0.204970 O2-
0.334913 0.350606 0.200550 O2-
0.334913 0.850606 0.207095 O2-
0.068594 0.348215 0.240806 O2-
0.068594 0.848215 0.257313 O2-
0.175312 0.271458 0.241350 O2-
0.175312 0.771458 0.242813 O2-
0.864720 0.241625 0.196121 O2-
0.864720 0.741625 0.191709 O2-
0.980120 0.171199 0.197244 O2-
0.980120 0.671199 0.268690 O2-
0.713620 0.170027 0.236927 O2-
0.713620 0.670027 0.228794 O2-
0.742996 0.055640 0.213617 O2-
0.742996 0.555640 0.231307 O2-
0.532819 0.080441 0.185856 O2-
0.532819 0.580441 0.263577 O2-
0.515310 0.942366 0.264081 O2-
0.515310 0.442366 0.251156 O2-
0.870015 0.964587 0.321548 O2-
0.870015 0.464587 0.288639 O2-
0.659821 0.859372 0.322702 O2-
0.659821 0.359372 0.359264 O2-
0.481350 0.724144 0.298688 O2-
0.481350 0.224144 0.358691 O2-
0.293096 0.607741 0.302045 O2-
0.293096 0.107741 0.334169 O2-
0.080152 0.021852 0.338297 O2-
0.080152 0.521852 0.282301 O2-
0.250064 0.409378 0.361276 O2-
0.250064 0.909378 0.329782 O2-
0.063226 0.290596 0.273654 O2-
0.063226 0.790596 0.304898 O2-
0.883201 0.156445 0.340784 O2-
0.883201 0.656445 0.304286 O2-
0.674568 0.056520 0.343561 O2-
0.674568 0.556520 0.283341 O2-
0.463629 0.495673 0.290220 O2-
0.463629 0.995673 0.325619 O2-
0.029173 0.073889 0.308412 O2-
0.029173 0.573889 0.321648 O2-
0.005091 0.933926 0.296495 O2-
0.005091 0.433926 0.308117 O2-
0.795375 0.958651 0.359683 O2-
0.795375 0.458651 0.340333 O2-
0.828944 0.846743 0.335716 O2-
0.828944 0.346743 0.343953 O2-
0.560342 0.845353 0.284984 O2-
0.560342 0.345353 0.303524 O2-
0.677417 0.775410 0.285006 O2-
0.677417 0.275410 0.290785 O2-
0.369330 0.747295 0.330654 O2-
0.369330 0.247295 0.330935 O2-
0.472480 0.669352 0.332227 O2-
0.472480 0.169352 0.315189 O2-
0.209416 0.667159 0.281225 O2-
0.209416 0.167159 0.274884 O2-
0.238895 0.553292 0.348996 O2-
0.238895 0.053292 0.277319 O2-
0.302391 0.463335 0.314080 O2-
0.302391 0.963335 0.295879 O2-
0.334913 0.350606 0.291459 O2-
0.334913 0.850606 0.298004 O2-
0.068594 0.348215 0.331715 O2-
0.068594 0.848215 0.348223 O2-
0.175312 0.271458 0.332259 O2-
0.175312 0.771458 0.333722 O2-
0.864720 0.241625 0.287030 O2-
0.864720 0.741625 0.282618 O2-
0.980120 0.171199 0.288154 O2-
0.980120 0.671199 0.359599 O2-
0.713620 0.170027 0.327836 O2-
0.713620 0.670027 0.319704 O2-
0.742996 0.055640 0.304526 O2-
0.742996 0.555640 0.322216 O2-
0.532819 0.080441 0.276765 O2-
0.532819 0.580441 0.354486 O2-
0.515310 0.942366 0.354990 O2-
0.515310 0.442366 0.342065 O2-
0.870015 0.964587 0.412457 O2-
0.870015 0.464587 0.379548 O2-
0.659821 0.859372 0.413611 O2-
0.659821 0.359372 0.450173 O2-
0.481350 0.724144 0.389597 O2-
0.481350 0.224144 0.449600 O2-
0.293096 0.607741 0.392955 O2-
0.293096 0.107741 0.425078 O2-
0.080152 0.021852 0.429206 O2-
0.080152 0.521852 0.373210 O2-
0.250064 0.409378 0.452185 O2-
0.250064 0.909378 0.420691 O2-
0.063226 0.290596 0.364563 O2-
0.063226 0.790596 0.395807 O2-
0.883201 0.156445 0.431693 O2-
0.883201 0.656445 0.395195 O2-
0.674568 0.056520 0.434470 O2-
0.674568 0.556520 0.374250 O2-
0.463629 0.495673 0.381129 O2-
0.463629 0.995673 0.416528 O2-
0.029173 0.073889 0.399321 O2-
0.029173 0.573889 0.412557 O2-
0.005091 0.933926 0.387404 O2-
0.005091 0.433926 0.399026 O2-
0.795375 0.958651 0.450592 O2-
0.795375 0.458651 0.431242 O2-
0.828944 0.846743 0.426625 O2-
0.828944 0.346743 0.434863 O2-
0.560342 0.845353 0.375893 O2-
0.560342 0.345353 0.394433 O2-
0.677417 0.775410 0.375915 O2-
0.677417 0.275410 0.381694 O2-
0.369330 0.747295 0.421563 O2-
0.369330 0.247295 0.421844 O2-
0.472480 0.669352 0.423137 O2-
0.472480 0.169352 0.406098 O2-
0.209416 0.667159 0.372134 O2-
0.209416 0.167159 0.365793 O2-
0.238895 0.553292 0.439905 O2-
0.238895 0.053292 0.368228 O2-
0.302391 0.463335 0.404990 O2-
0.302391 0.963335 0.386788 O2-
0.334913 0.350606 0.382368 O2-
0.334913 0.850606 0.388913 O2-
0.068594 0.348215 0.422624 O2-
0.068594 0.848215 0.439132 O2-
0.175312 0.271458 0.423169 O2-
0.175312 0.771458 0.424631 O2-
0.864720 0.241625 0.377939 O2-
0.864720 0.741625 0.373527 O2-
0.980120 0.171199 0.379063 O2-
0.980120 0.671199 0.450508 O2-
0.713620 0.170027 0.418745 O2-
0.713620 0.670027 0.410613 O2-
0.742996 0.055640 0.395435 O2-
0.742996 0.555640 0.413125 O2-
0.532819 0.080441 0.367674 O2-
0.532819 0.580441 0.445396 O2-
0.515310 0.942366 0.445899 O2-
0.515310 0.442366 0.432975 O2-
0.870015 0.964587 0.503366 O2-
0.870015 0.464587 0.470457 O2-
0.659821 0.859372 0.504520 O2-
0.659821 0.359372 0.541082 O2-
0.481350 0.724144 0.480506 O2-
0.481350 0.224144 0.540509 O2-
0.293096 0.607741 0.483864 O2-
0.293096 0.107741 0.515987 O2-
0.080152 0.021852 0.520115 O2-
0.080152 0.521852 0.464119 O2-
0.250064 0.409378 0.543094 O2-
0.250064 0.909378 0.511600 O2-
0.063226 0.290596 0.455472 O2-
0.063226 0.790596 0.486716 O2-
0.883201 0.156445 0.522602 O2-
0.883201 0.656445 0.486105 O2-
0.674568 0.056520 0.525379 O2-
0.674568 0.556520 0.465159 O2-
0.463629 0.495673 0.472038 O2-
0.463629 0.995673 0.507437 O2-
0.029173 0.073889 0.490230 O2-
0.029173 0.573889 0.503466 O2-
0.005091 0.933926 0.478313 O2-
0.005091 0.433926 0.489935 O2-
0.795375 0.958651 0.541501 O2-
0.795375 0.458651 0.522152 O2-
0.828944 0.846743 0.517534 O2-
0.828944 0.346743 0.525772 O2-
0.560342 0.845353 0.466802 O2-
0.560342 0.345353 0.485342 O2-
0.677417 0.775410 0.466824 O2-
0.677417 0.275410 0.472603 O2-
0.369330 0.747295 0.512472 O2-
0.369330 0.247295 0.512753 O2-
0.472480 0.669352 0.514046 O2-
0.472480 0.169352 0.497007 O2-
0.209416 0.667159 0.463043 O2-
0.209416 0.167159 0.456702 O2-
0.238895 0.553292 0.530814 O2-
0.238895 0.053292 0.459137 O2-
0.302391 0.463335 0.495899 O2-
0.302391 0.963335 0.477697 O2-
0.334913 0.350606 0.473277 O2-
0.334913 0.850606 0.479822 O2-
0.068594 0.348215 0.513533 O2-
0.068594 0.848215 0.530041 O2-
0.175312 0.271458 0.514078 O2-
0.175312 0.771458 0.515540 O2-
0.864720 0.241625 0.468848 O2-
0.864720 0.741625 0.464436 O2-
0.980120 0.171199 0.469972 O2-
0.980120 0.671199 0.541417 O2-
0.713620 0.170027 0.509654 O2-
0.713620 0.670027 0.501522 O2-
0.742996 0.055640 0.486344 O2-
0.742996 0.555640 0.504034 O2-
0.532819 0.080441 0.458583 O2-
0.532819 0.580441 0.536305 O2-
0.515310 0.942366 0.536808 O2-
0.515310 0.442366 0.523884 O2-
0.870015 0.964587 0.594275 O2-
0.870015 0.464587 0.561366 O2-
0.659821 0.859372 0.595430 O2-
0.659821 0.359372 0.631991 O2-
0.481350 0.724144 0.571415 O2-
0.481350 0.224144 0.631418 O2-
0.293096 0.607741 0.574773 O2-
0.293096 0.107741 0.606897 O2-
0.080152 0.021852 0.611025 O2-
0.080152 0.521852 0.555029 O2-
0.250064 0.409378 0.634003 O2-
0.250064 0.909378 0.602509 O2-
0.063226 0.290596 0.546381 O2-
0.063226 0.790596 0.577625 O2-
0.883201 0.156445 0.613511 O2-
0.883201 0.656445 0.577014 O2-
0.674568 0.056520 0.616288 O2-
0.674568 0.556520 0.556068 O2-
0.463629 0.495673 0.562947 O2-
0.463629 0.995673 0.598346 O2-
0.029173 0.073889 0.581139 O2-
0.029173 0.573889 0.594375 O2-
0.005091 0.933926 0.569223 O2-
0.005091 0.433926 0.580844 O2-
0.795375 0.958651 0.632410 O2-
0.795375 0.458651 0.613061 O2-
0.828944 0.846743 0.608443 O2-
0.828944 0.346743 0.616681 O2-
0.560342 0.845353 0.557711 O2-
0.560342 0.345353 0.576252 O2-
0.677417 0.775410 0.557734 O2-
0.677417 0.275410 0.563512 O2-
0.369330 0.747295 0.603381 O2-
0.369330 0.247295 0.603662 O2-
0.472480 0.669352 0.604955 O2-
0.472480 0.169352 0.587917 O2-
0.209416 0.667159 0.553953 O2-
0.209416 0.167159 0.547611 O2-
0.238895 0.553292 0.621723 O2-
0.238895 0.053292 0.550046 O2-
0.302391 0.463335 0.586808 O2-
0.302391 0.963335 0.568606 O2-
0.334913 0.350606 0.564186 O2-
0.334913 0.850606 0.570731 O2-
0.068594 0.348215 0.604442 O2-
0.068594 0.848215 0.620950 O2-
0.175312 0.271458 0.604987 O2-
0.175312 0.771458 0.606449 O2-
0.864720 0.241625 0.559757 O2-
0.864720 0.741625 0.555345 O2-
0.980120 0.171199 0.560881 O2-
0.980120 0.671199 0.632326 O2-
0.713620 0.170027 0.600563 O2-
0.713620 0.670027 0.592431 O2-
0.742996 0.055640 0.577253 O2-
0.742996 0.555640 0.594943 O2-
0.532819 0.080441 0.549492 O2-
0.532819 0.580441 0.627214 O2-
0.515310 0.942366 0.627717 O2-
0.515310 0.442366 0.614793 O2-
