Li5 P2 N1 O6                            
   1.00000000000000     
    -0.3277268755726794   -0.4961077048781527    5.0812108318571862
     5.5560237203049567   -0.4662883747406406   -0.4875814565180224
    -0.4933809636378477    5.5620218642967973   -0.5809401601530688
   Li   P    N    O 
     5     2     1     6
Direct
  0.4285925169781144  0.1264628098184465  0.9801908964437172
 -0.0161902412186869  0.3400767558066385 -0.0099812008884559
  0.4879683834629659  0.9160190847709768  0.4651596714429821
  0.0267276603309950  0.7211091849967791  0.6792260388848514
 -0.0538426803367809  0.2061753030963661  0.5622202321605955
  0.5247169296257438  0.4822444231103264  0.7536958987913295
 -0.0878594974441472 -0.1152659634533225  0.1640324993068437
  0.2315825054944325  0.4609297781164494  0.7907815755030185
  0.6311579631041536  0.6454225659235171  0.5855995328840513
  0.1035030415922079  0.8807536667259186  0.4102185085480340
  0.6356865257655426  0.2315023185471802  0.7274754775129403
  0.7661715550900123  0.6086668217754270  0.0427046087610877
  0.0660366661854192 -0.0056996999758142  0.9844703767149423
  0.6981756713700495  0.0415919507411100  0.2242628839340602
 
  0.00000000E+00  0.00000000E+00  0.00000000E+00
  0.00000000E+00  0.00000000E+00  0.00000000E+00
  0.00000000E+00  0.00000000E+00  0.00000000E+00
  0.00000000E+00  0.00000000E+00  0.00000000E+00
  0.00000000E+00  0.00000000E+00  0.00000000E+00
  0.00000000E+00  0.00000000E+00  0.00000000E+00
  0.00000000E+00  0.00000000E+00  0.00000000E+00
  0.00000000E+00  0.00000000E+00  0.00000000E+00
  0.00000000E+00  0.00000000E+00  0.00000000E+00
  0.00000000E+00  0.00000000E+00  0.00000000E+00
  0.00000000E+00  0.00000000E+00  0.00000000E+00
  0.00000000E+00  0.00000000E+00  0.00000000E+00
  0.00000000E+00  0.00000000E+00  0.00000000E+00
  0.00000000E+00  0.00000000E+00  0.00000000E+00
