Li6 P2                                  
   1.00000000000000     
     2.1333380000000002   -3.6950500000000002    0.0000000000000000
     2.1333380000000002    3.6950500000000002    0.0000000000000000
     0.0000000000000000    0.0000000000000000    7.6272849999999996
   Li   P 
     6     2
Direct
  0.0000000000000000  0.0000000000000000  0.2500000000000000
  0.0000000000000000  0.0000000000000000  0.7500000000000000
  0.3333330000000032  0.6666669999999968  0.5841039999999964
  0.6666669999999968  0.3333330000000032  0.0841040000000035
  0.6666669999999968  0.3333330000000032  0.4158959999999965
  0.3333330000000032  0.6666669999999968  0.9158960000000036
  0.3333330000000032  0.6666669999999968  0.2500000000000000
  0.6666669999999968  0.3333330000000032  0.7500000000000000
 
  0.00000000E+00  0.00000000E+00  0.00000000E+00
  0.00000000E+00  0.00000000E+00  0.00000000E+00
  0.00000000E+00  0.00000000E+00  0.00000000E+00
  0.00000000E+00  0.00000000E+00  0.00000000E+00
  0.00000000E+00  0.00000000E+00  0.00000000E+00
  0.00000000E+00  0.00000000E+00  0.00000000E+00
  0.00000000E+00  0.00000000E+00  0.00000000E+00
  0.00000000E+00  0.00000000E+00  0.00000000E+00
