P56 O140
1.0
8.166914 0.000000 -0.000000
0.000000 8.741067 -0.283502
0.000000 0.000000 57.922765
P O
56 140
Selective dynamics
direct
0.923152 0.930891 0.958486 F F F P
0.076848 0.207502 0.972317 F F F P
0.826848 0.430891 0.958486 F F F P
0.173152 0.798411 0.926862 F F F P
0.423152 0.021800 0.913032 F F F P
0.576848 0.298411 0.926862 F F F P
0.326848 0.521800 0.913032 F F F P
0.673152 0.707502 0.972317 F F F P
0.923152 0.112710 0.867577 F F F P
0.076848 0.389320 0.881408 F F F P
0.826848 0.612710 0.867577 F F F P
0.173152 0.980230 0.835953 F F F P
0.423152 0.203619 0.822123 F F F P
0.576848 0.480230 0.835953 F F F P
0.326848 0.703619 0.822123 F F F P
0.673152 0.889320 0.881408 F F F P
0.923152 0.294528 0.776668 F F F P
0.076848 0.571139 0.790499 F F F P
0.826848 0.794528 0.776668 F F F P
0.173152 0.162048 0.745044 F F F P
0.423152 0.385437 0.731214 F F F P
0.576848 0.662048 0.745044 F F F P
0.326848 0.885437 0.731214 F F F P
0.673152 0.071139 0.790499 F F F P
0.923152 0.476346 0.685759 F F F P
0.076848 0.752957 0.699590 F F F P
0.826848 0.976346 0.685759 F F F P
0.173152 0.343866 0.654135 F F F P
0.423152 0.567255 0.640304 F F F P
0.576848 0.843866 0.654135 F F F P
0.326848 0.067255 0.640304 F F F P
0.673152 0.252957 0.699590 F F F P
0.923152 0.658164 0.594850 F F F P
0.076848 0.934775 0.608680 F F F P
0.826848 0.158164 0.594850 F F F P
0.173152 0.525684 0.563226 F F F P
0.423152 0.749073 0.549395 F F F P
0.576848 0.025684 0.563226 F F F P
0.326848 0.249073 0.549395 F F F P
0.673152 0.434775 0.608680 F F F P
0.923152 0.839982 0.503941 F F F P
0.076848 0.116593 0.517771 F F F P
0.826848 0.339982 0.503941 F F F P
0.173152 0.707502 0.472317 F F F P
0.423152 0.930891 0.458486 F F F P
0.576848 0.207502 0.472317 F F F P
0.326848 0.430891 0.458486 F F F P
0.673152 0.616593 0.517771 F F F P
0.923152 0.021800 0.413032 F F F P
0.076848 0.298411 0.426862 F F F P
0.826848 0.521800 0.413032 F F F P
0.173152 0.889320 0.381408 F F F P
0.423152 0.112710 0.367577 T T T P
0.576848 0.389320 0.381408 F F F P
0.326848 0.612710 0.367577 T T T P
0.673152 0.798411 0.426862 F F F P
0.833418 0.003229 0.940012 F F F O
0.166582 0.215495 0.950626 F F F O
0.416582 0.412320 0.985467 F F F O
0.083418 0.624586 0.996080 F F F O
0.250000 0.634927 0.932536 F F F O
0.000000 0.044018 0.977991 F F F O
0.079208 0.829766 0.950605 F F F O
0.920791 0.318902 0.975061 F F F O
0.170792 0.238857 0.996059 F F F O
0.329208 0.909811 0.929607 F F F O
0.333418 0.912320 0.985467 F F F O
0.666582 0.124586 0.996080 F F F O
0.916582 0.503229 0.940012 F F F O
0.583418 0.715495 0.950626 F F F O
0.750000 0.544018 0.977991 F F F O
0.500000 0.134927 0.932536 F F F O
0.579208 0.738857 0.996059 F F F O
0.420792 0.409811 0.929607 F F F O
0.670792 0.329766 0.950605 F F F O
0.829208 0.818902 0.975061 F F F O
0.833418 0.185048 0.849103 F F F O
0.166582 0.397313 0.859716 F F F O
0.416582 0.594138 0.894558 F F F O
0.083418 0.806404 0.905171 F F F O
0.250000 0.816746 0.841627 F F F O
0.000000 0.225837 0.887082 F F F O
0.079208 0.011584 0.859695 F F F O
0.920791 0.500720 0.884152 F F F O
0.170792 0.420675 0.905150 F F F O
0.329208 0.091629 0.838698 F F F O
0.333418 0.094138 0.894558 F F F O
0.666582 0.306404 0.905171 F F F O
0.916582 0.685048 0.849103 F F F O
0.583418 0.897313 0.859716 F F F O
0.750000 0.725837 0.887082 F F F O
0.500000 0.316746 0.841627 F F F O
0.579208 0.920675 0.905150 F F F O
0.420792 0.591629 0.838698 F F F O
0.670792 0.511584 0.859695 F F F O
0.829208 0.000720 0.884152 F F F O
0.833418 0.366866 0.758194 F F F O
0.166582 0.579131 0.768807 F F F O
0.416582 0.775957 0.803649 F F F O
0.083418 0.988222 0.814262 F F F O
0.250000 0.998564 0.750718 F F F O
0.000000 0.407655 0.796173 F F F O
0.079208 0.193402 0.768786 F F F O
0.920791 0.682539 0.793243 F F F O
0.170792 0.602493 0.814241 F F F O
0.329208 0.273448 0.747789 F F F O
0.333418 0.275957 0.803649 F F F O
0.666582 0.488222 0.814262 F F F O
0.916582 0.866866 0.758194 F F F O
0.583418 0.079131 0.768807 F F F O
0.750000 0.907655 0.796173 F F F O
0.500000 0.498564 0.750718 F F F O
0.579208 0.102493 0.814241 F F F O
0.420792 0.773448 0.747789 F F F O
0.670792 0.693402 0.768786 F F F O
0.829208 0.182539 0.793243 F F F O
0.833418 0.548684 0.667285 F F F O
0.166582 0.760949 0.677898 F F F O
0.416582 0.957775 0.712740 F F F O
0.083418 0.170040 0.723353 F F F O
0.250000 0.180382 0.659809 F F F O
0.000000 0.589473 0.705264 F F F O
0.079208 0.375220 0.677877 F F F O
0.920791 0.864357 0.702334 F F F O
0.170792 0.784311 0.723332 F F F O
0.329208 0.455266 0.656880 F F F O
0.333418 0.457775 0.712740 F F F O
0.666582 0.670040 0.723353 F F F O
0.916582 0.048684 0.667285 F F F O
0.583418 0.260949 0.677898 F F F O
0.750000 0.089473 0.705264 F F F O
0.500000 0.680382 0.659809 F F F O
0.579208 0.284311 0.723332 F F F O
0.420792 0.955266 0.656880 F F F O
0.670792 0.875220 0.677877 F F F O
0.829208 0.364357 0.702334 F F F O
0.833418 0.730502 0.576376 F F F O
0.166582 0.942768 0.586989 F F F O
0.416582 0.139593 0.621830 F F F O
0.083418 0.351858 0.632444 F F F O
0.250000 0.362200 0.568900 F F F O
0.000000 0.771291 0.614354 F F F O
0.079208 0.557039 0.586968 F F F O
0.920791 0.046175 0.611425 F F F O
0.170792 0.966129 0.632423 F F F O
0.329208 0.637084 0.565970 F F F O
0.333418 0.639593 0.621830 F F F O
0.666582 0.851858 0.632444 F F F O
0.916582 0.230502 0.576376 F F F O
0.583418 0.442768 0.586989 F F F O
0.750000 0.271291 0.614354 F F F O
0.500000 0.862200 0.568900 F F F O
0.579208 0.466129 0.632423 F F F O
0.420792 0.137084 0.565970 F F F O
0.670792 0.057039 0.586968 F F F O
0.829208 0.546175 0.611425 F F F O
0.833418 0.912320 0.485467 F F F O
0.166582 0.124586 0.496080 F F F O
0.416582 0.321411 0.530921 F F F O
0.083418 0.533677 0.541535 F F F O
0.250000 0.544018 0.477991 F F F O
0.000000 0.953109 0.523445 F F F O
0.079208 0.738857 0.496059 F F F O
0.920791 0.227993 0.520516 F F F O
0.170792 0.147948 0.541514 F F F O
0.329208 0.818902 0.475061 F F F O
0.333418 0.821411 0.530921 F F F O
0.666582 0.033677 0.541535 F F F O
0.916582 0.412320 0.485467 F F F O
0.583418 0.624586 0.496080 F F F O
0.750000 0.453109 0.523445 F F F O
0.500000 0.044018 0.477991 F F F O
0.579208 0.647948 0.541514 F F F O
0.420792 0.318902 0.475061 F F F O
0.670792 0.238857 0.496059 F F F O
0.829208 0.727993 0.520516 F F F O
0.833418 0.094138 0.394558 F F F O
0.166582 0.306404 0.405171 F F F O
0.416582 0.503229 0.440012 F F F O
0.083418 0.715495 0.450626 F F F O
0.250000 0.725837 0.387082 F F F O
0.000000 0.134927 0.432536 F F F O
0.079208 0.920675 0.405150 F F F O
0.920791 0.409811 0.429607 F F F O
0.170792 0.329766 0.450605 F F F O
0.329208 0.000720 0.384152 T T T O
0.333418 0.003229 0.440012 F F F O
0.666582 0.215495 0.450626 F F F O
0.916582 0.594138 0.394558 F F F O
0.583418 0.806404 0.405171 F F F O
0.750000 0.634927 0.432536 F F F O
0.500000 0.225837 0.387082 F F F O
0.579208 0.829766 0.450605 F F F O
0.420792 0.500720 0.384152 T T T O
0.670792 0.420675 0.405150 F F F O
0.829208 0.909811 0.429607 F F F O
