Li5 P2 N1 O6                            
   1.00000000000000     
    -0.4121928179146943    0.4521066719690837    4.9017451783609074
     6.4868270791571803    0.4497475263722331   -0.5519489066215173
     0.3918197568242361    5.0527039329288135    0.5110653838861433
   Li   P    N    O 
     5     2     1     6
Direct
  0.5128418556419194  0.0204578189001927  0.8970181679033941
  0.3911376867849455  0.7140374722971964  0.3246467679330514
  0.0044925862051378  0.7257990675206555  0.7726298043324953
  0.0415368921219266  0.2528541833471026  0.6362805522530635
  0.5447543610220245  0.2422400701155800  0.3296907373720613
  0.5036188015658395  0.4588806884889178  0.8079207680387935
 -0.0149189305173543 -0.0084526962057978  0.2033051318337498
  0.6513162778734264  0.2966538169061844  0.6829080664612220
  0.1470489985627081  0.1985921433035831  0.2688935236688215
  0.0241699856952782  0.7964510419064870  0.3895682022428508
  0.5987970420377561  0.5861443037706010  0.0163696791811371
  0.1092432540945964 -0.0190328440782316  0.9005955813617117
  0.2631610978580251  0.5344945677111972  0.6957127013387721
  0.6641730910537978 -0.0062576339836668  0.2324893160788810
 
  0.00000000E+00  0.00000000E+00  0.00000000E+00
  0.00000000E+00  0.00000000E+00  0.00000000E+00
  0.00000000E+00  0.00000000E+00  0.00000000E+00
  0.00000000E+00  0.00000000E+00  0.00000000E+00
  0.00000000E+00  0.00000000E+00  0.00000000E+00
  0.00000000E+00  0.00000000E+00  0.00000000E+00
  0.00000000E+00  0.00000000E+00  0.00000000E+00
  0.00000000E+00  0.00000000E+00  0.00000000E+00
  0.00000000E+00  0.00000000E+00  0.00000000E+00
  0.00000000E+00  0.00000000E+00  0.00000000E+00
  0.00000000E+00  0.00000000E+00  0.00000000E+00
  0.00000000E+00  0.00000000E+00  0.00000000E+00
  0.00000000E+00  0.00000000E+00  0.00000000E+00
  0.00000000E+00  0.00000000E+00  0.00000000E+00
