Li56 P28 O98
1.0
6.730959 0.000000 -2.599490
-2.035903 8.419349 5.263538
0.000000 0.000000 63.126504
Li P O
56 28 98
direct
0.144977 0.012029 0.061959 Li+
0.855023 0.987971 0.021374 Li+
0.588727 0.248347 0.071331 Li+
0.411273 0.751653 0.012002 Li+
0.327738 0.208724 0.021959 Li+
0.672262 0.791276 0.061374 Li+
0.241886 0.549204 0.074487 Li+
0.758114 0.450796 0.008846 Li+
0.144977 0.012029 0.145292 Li+
0.855023 0.987971 0.104708 Li+
0.588727 0.248347 0.154665 Li+
0.411273 0.751653 0.095335 Li+
0.327738 0.208724 0.105292 Li+
0.672262 0.791276 0.144708 Li+
0.241886 0.549204 0.157820 Li+
0.758114 0.450796 0.092180 Li+
0.144977 0.012029 0.228626 Li+
0.855023 0.987971 0.188041 Li+
0.588727 0.248347 0.237998 Li+
0.411273 0.751653 0.178669 Li+
0.327738 0.208724 0.188626 Li+
0.672262 0.791276 0.228041 Li+
0.241886 0.549204 0.241154 Li+
0.758114 0.450796 0.175513 Li+
0.144977 0.012029 0.311959 Li+
0.855023 0.987971 0.271374 Li+
0.588727 0.248347 0.321331 Li+
0.411273 0.751653 0.262002 Li+
0.327738 0.208724 0.271959 Li+
0.672262 0.791276 0.311374 Li+
0.241886 0.549204 0.324487 Li+
0.758114 0.450796 0.258846 Li+
0.144977 0.012029 0.395292 Li+
0.855023 0.987971 0.354708 Li+
0.588727 0.248347 0.404665 Li+
0.411273 0.751653 0.345335 Li+
0.327738 0.208724 0.355292 Li+
0.672262 0.791276 0.394708 Li+
0.241886 0.549204 0.407820 Li+
0.758114 0.450796 0.342180 Li+
0.144977 0.012029 0.478626 Li+
0.855023 0.987971 0.438041 Li+
0.588727 0.248347 0.487998 Li+
0.411273 0.751653 0.428669 Li+
0.327738 0.208724 0.438626 Li+
0.672262 0.791276 0.478041 Li+
0.241886 0.549204 0.491154 Li+
0.758114 0.450796 0.425513 Li+
0.144977 0.012029 0.561959 Li+
0.855023 0.987971 0.521374 Li+
0.588727 0.248347 0.571331 Li+
0.411273 0.751653 0.512002 Li+
0.327738 0.208724 0.521959 Li+
0.672262 0.791276 0.561374 Li+
0.241886 0.549204 0.574487 Li+
0.758114 0.450796 0.508846 Li+
0.213298 0.368044 0.046497 P5+
0.786702 0.631956 0.036836 P5+
0.779241 0.154498 0.046769 P5+
0.220759 0.845502 0.036564 P5+
0.213298 0.368044 0.129830 P5+
0.786702 0.631956 0.120169 P5+
0.779241 0.154498 0.130102 P5+
0.220759 0.845502 0.119897 P5+
0.213298 0.368044 0.213164 P5+
0.786702 0.631956 0.203503 P5+
0.779241 0.154498 0.213436 P5+
0.220759 0.845502 0.203231 P5+
0.213298 0.368044 0.296497 P5+
0.786702 0.631956 0.286836 P5+
0.779241 0.154498 0.296769 P5+
0.220759 0.845502 0.286564 P5+
0.213298 0.368044 0.379830 P5+
0.786702 0.631956 0.370169 P5+
0.779241 0.154498 0.380102 P5+
0.220759 0.845502 0.369897 P5+
0.213298 0.368044 0.463164 P5+
0.786702 0.631956 0.453503 P5+
0.779241 0.154498 0.463436 P5+
0.220759 0.845502 0.453231 P5+
0.213298 0.368044 0.546497 P5+
0.786702 0.631956 0.536836 P5+
0.779241 0.154498 0.546769 P5+
0.220759 0.845502 0.536564 P5+
0.741759 0.125660 0.071202 O2-
0.605720 0.209316 0.023713 O2-
0.394280 0.790684 0.059620 O2-
0.848591 0.018024 0.049922 O2-
0.743350 0.623545 0.011991 O2-
0.256650 0.376455 0.071342 O2-
0.732189 0.473810 0.059279 O2-
0.267811 0.526190 0.024054 O2-
0.702403 0.763496 0.033190 O2-
0.297597 0.236504 0.050143 O2-
0.962384 0.316106 0.037569 O2-
0.037616 0.683894 0.045765 O2-
0.151409 0.981976 0.033411 O2-
0.258241 0.874340 0.012131 O2-
0.741759 0.125660 0.154536 O2-
0.605720 0.209316 0.107046 O2-
0.394280 0.790684 0.142954 O2-
0.848591 0.018024 0.133255 O2-
0.743350 0.623545 0.095324 O2-
0.256650 0.376455 0.154675 O2-
0.732189 0.473810 0.142612 O2-
0.267811 0.526190 0.107388 O2-
0.702403 0.763496 0.116524 O2-
0.297597 0.236504 0.133476 O2-
0.962384 0.316106 0.120902 O2-
0.037616 0.683894 0.129098 O2-
0.151409 0.981976 0.116745 O2-
0.258241 0.874340 0.095464 O2-
0.741759 0.125660 0.237869 O2-
0.605720 0.209316 0.190379 O2-
0.394280 0.790684 0.226287 O2-
0.848591 0.018024 0.216589 O2-
0.743350 0.623545 0.178658 O2-
0.256650 0.376455 0.238009 O2-
0.732189 0.473810 0.225945 O2-
0.267811 0.526190 0.190721 O2-
0.702403 0.763496 0.199857 O2-
0.297597 0.236504 0.216810 O2-
0.962384 0.316106 0.204235 O2-
0.037616 0.683894 0.212431 O2-
0.151409 0.981976 0.200078 O2-
0.258241 0.874340 0.178798 O2-
0.741759 0.125660 0.321202 O2-
0.605720 0.209316 0.273713 O2-
0.394280 0.790684 0.309620 O2-
0.848591 0.018024 0.299922 O2-
0.743350 0.623545 0.261991 O2-
0.256650 0.376455 0.321342 O2-
0.732189 0.473810 0.309279 O2-
0.267811 0.526190 0.274054 O2-
0.702403 0.763496 0.283190 O2-
0.297597 0.236504 0.300143 O2-
0.962384 0.316106 0.287569 O2-
0.037616 0.683894 0.295765 O2-
0.151409 0.981976 0.283411 O2-
0.258241 0.874340 0.262131 O2-
0.741759 0.125660 0.404536 O2-
0.605720 0.209316 0.357046 O2-
0.394280 0.790684 0.392954 O2-
0.848591 0.018024 0.383255 O2-
0.743350 0.623545 0.345324 O2-
0.256650 0.376455 0.404675 O2-
0.732189 0.473810 0.392612 O2-
0.267811 0.526190 0.357388 O2-
0.702403 0.763496 0.366524 O2-
0.297597 0.236504 0.383476 O2-
0.962384 0.316106 0.370902 O2-
0.037616 0.683894 0.379098 O2-
0.151409 0.981976 0.366745 O2-
0.258241 0.874340 0.345464 O2-
0.741759 0.125660 0.487869 O2-
0.605720 0.209316 0.440379 O2-
0.394280 0.790684 0.476287 O2-
0.848591 0.018024 0.466589 O2-
0.743350 0.623545 0.428658 O2-
0.256650 0.376455 0.488009 O2-
0.732189 0.473810 0.475946 O2-
0.267811 0.526190 0.440721 O2-
0.702403 0.763496 0.449857 O2-
0.297597 0.236504 0.466810 O2-
0.962384 0.316106 0.454235 O2-
0.037616 0.683894 0.462431 O2-
0.151409 0.981976 0.450078 O2-
0.258241 0.874340 0.428798 O2-
0.741759 0.125660 0.571202 O2-
0.605720 0.209316 0.523713 O2-
0.394280 0.790684 0.559620 O2-
0.848591 0.018024 0.549922 O2-
0.743350 0.623545 0.511991 O2-
0.256650 0.376455 0.571342 O2-
0.732189 0.473810 0.559279 O2-
0.267811 0.526190 0.524054 O2-
0.702403 0.763496 0.533190 O2-
0.297597 0.236504 0.550143 O2-
0.962384 0.316106 0.537569 O2-
0.037616 0.683894 0.545765 O2-
0.151409 0.981976 0.533411 O2-
0.258241 0.874340 0.512131 O2-
