Li28 P14 N14 O28
1.0
5.330402 0.000000 0.000000
-2.532976 4.690119 0.000000
0.000000 0.000000 56.987628
Li P N O
28 14 14 28
Selective dynamics
direct
0.674864 0.006207 0.996437 T T T Li+
0.006207 0.674864 0.996437 T T T Li+
0.325136 0.993793 0.954771 T T T Li+
0.993793 0.325136 0.954771 T T T Li+
0.674864 0.006207 0.913104 F F F Li+
0.006207 0.674864 0.913104 F F F Li+
0.325136 0.993793 0.871438 F F F Li+
0.993793 0.325136 0.871438 F F F Li+
0.674864 0.006207 0.829771 F F F Li+
0.006207 0.674864 0.829771 F F F Li+
0.325136 0.993793 0.788104 F F F Li+
0.993793 0.325136 0.788104 F F F Li+
0.674864 0.006207 0.746437 F F F Li+
0.006207 0.674864 0.746437 F F F Li+
0.325136 0.993793 0.704771 F F F Li+
0.993793 0.325136 0.704771 F F F Li+
0.674864 0.006207 0.663104 F F F Li+
0.006207 0.674864 0.663104 F F F Li+
0.325136 0.993793 0.621438 F F F Li+
0.993793 0.325136 0.621438 F F F Li+
0.674864 0.006207 0.579771 F F F Li+
0.006207 0.674864 0.579771 F F F Li+
0.325136 0.993793 0.538104 F F F Li+
0.993793 0.325136 0.538104 F F F Li+
0.674864 0.006207 0.496437 T T T Li+
0.006207 0.674864 0.496437 T T T Li+
0.325136 0.993793 0.454771 T T T Li+
0.993793 0.325136 0.454771 T T T Li+
0.346250 0.346250 0.996691 T T T P5+
0.653750 0.653750 0.955025 T T T P5+
0.346250 0.346250 0.913358 F F F P5+
0.653750 0.653750 0.871691 F F F P5+
0.346250 0.346250 0.830025 F F F P5+
0.653750 0.653750 0.788358 F F F P5+
0.346250 0.346250 0.746691 F F F P5+
0.653750 0.653750 0.705025 F F F P5+
0.346250 0.346250 0.663358 F F F P5+
0.653750 0.653750 0.621691 F F F P5+
0.346250 0.346250 0.580025 F F F P5+
0.653750 0.653750 0.538358 F F F P5+
0.346250 0.346250 0.496691 T T T P5+
0.653750 0.653750 0.455025 T T T P5+
0.613000 0.613000 0.926469 T T T N3-
0.387000 0.387000 0.968136 T T T N3-
0.613000 0.613000 0.843136 F F F N3-
0.387000 0.387000 0.884803 F F F N3-
0.613000 0.613000 0.759803 F F F N3-
0.387000 0.387000 0.801469 F F F N3-
0.613000 0.613000 0.676469 F F F N3-
0.387000 0.387000 0.718136 F F F N3-
0.613000 0.613000 0.593136 F F F N3-
0.387000 0.387000 0.634803 F F F N3-
0.613000 0.613000 0.509802 F F F N3-
0.387000 0.387000 0.551469 F F F N3-
0.613000 0.613000 0.426469 T T T N3-
0.387000 0.387000 0.468136 T T T N3-
0.055503 0.333597 0.919975 T T T O2-
0.333597 0.055503 0.919975 T T T O2-
0.944497 0.666403 0.961642 T T T O2-
0.666403 0.944497 0.961642 T T T O2-
0.055503 0.333597 0.836642 F F F O2-
0.333597 0.055503 0.836642 F F F O2-
0.944497 0.666403 0.878309 F F F O2-
0.666403 0.944497 0.878309 F F F O2-
0.055503 0.333597 0.753309 F F F O2-
0.333597 0.055503 0.753309 F F F O2-
0.944497 0.666403 0.794975 F F F O2-
0.666403 0.944497 0.794975 F F F O2-
0.055503 0.333597 0.669975 F F F O2-
0.333597 0.055503 0.669975 F F F O2-
0.944497 0.666403 0.711642 F F F O2-
0.666403 0.944497 0.711642 F F F O2-
0.055503 0.333597 0.586642 F F F O2-
0.333597 0.055503 0.586642 F F F O2-
0.944497 0.666403 0.628309 F F F O2-
0.666403 0.944497 0.628309 F F F O2-
0.055503 0.333597 0.503309 F F F O2-
0.333597 0.055503 0.503309 F F F O2-
0.944497 0.666403 0.544975 F F F O2-
0.666403 0.944497 0.544975 F F F O2-
0.055503 0.333597 0.419975 T T T O2-
0.333597 0.055503 0.419975 T T T O2-
0.944497 0.666403 0.461642 T T T O2-
0.666403 0.944497 0.461642 T T T O2-
