Li71 P24 N1 O94                         
   1.00000000000000     
    14.7243194033701013   -0.0057245293289482    0.0047449370604837
    -0.0041099920497563   10.5714910146516647    0.0070257336443617
     0.0039607423833898    0.0081353686223722   12.3203385429634658
   Li   P    N    O 
    71    24     1    94
Direct
  0.1711172984759556  0.4168398345786301  0.0025382587019000
  0.1710064909419731  0.4235835989391802  0.5006786736665330
  0.1647152133774616  0.9262584932945929  0.0086915167718710
  0.1733570394135370  0.9208029418978426  0.5007616372360770
  0.5024689797047114  0.4219497200944172  0.0003180954752512
  0.5027481656285522  0.4230150059032385  0.5003473110288600
  0.5064144031797354  0.9219004691542700 -0.0003639251155238
  0.5023267274576102  0.9222248389996377  0.4997185858874149
  0.8371493530527061  0.4226499760756377  0.0001097494570794
  0.8343034513771902  0.4227720730128291  0.5010264484173930
  0.8357127936459156  0.9194560435802979 -0.0016447032729810
  0.8330261725541798  0.9184021799382129  0.4988822902444858
  0.0033576345727622  0.0648928720551449  0.2255326994760408
  0.0018145852274758  0.0750870945050536  0.7560212285291299
  0.0049799390011280  0.5796395156699866  0.2476419624923763
  0.0035185086748380  0.5777078770221691  0.7518487557328556
  0.3348072557804684  0.0736125121124185  0.2407989812866027
  0.3374250819962025  0.0774860351448645  0.7532004845923165
  0.3346700840365961  0.5781625103586278  0.2493630627605292
  0.3366417049778704  0.5774817071562152  0.7515247310399118
  0.6689101125526393  0.0776612021008235  0.2485983735925533
  0.6692321214896018  0.0765962105933064  0.7498370109667398
  0.6692158767668122  0.5775856722600955  0.2497830567949080
  0.6687842524446314  0.5781209132721142  0.7504979060365625
  0.1730107735320106  0.1647498009878727  0.6297017661898358
  0.1707264290263270  0.6614698758876699  0.1273062122741324
  0.1704444097343888  0.6646191433842059  0.6276855263996224
  0.5036946339946569  0.1631976367649126  0.1258940728267655
  0.5027023864505830  0.1633695127855150  0.6268016955133474
  0.5023077160937287  0.6631517164074766  0.1261993156083982
  0.5025416031914977  0.6632538345890063  0.6264481632238168
  0.8394204619321377  0.1629936953420721  0.1231631522971676
  0.8328450517037909  0.1661032332336262  0.6276145756660180
  0.8366826663001649  0.6623278033707141  0.1264711295570647
  0.8349300743054019  0.6630328448449565  0.6267746381690796
  0.0071406554507726  0.3351869014043864  0.1228767038414461
  0.0019399624409055  0.3407099722961817  0.6261784244451706
  0.0038211885051432  0.8341628510707845  0.1231405334356353
  0.0024849867603693  0.8325220705608978  0.6282410759623789
  0.3327412010349513  0.3332843803402417  0.1229569037101468
  0.3365582443673745  0.3376474317041521  0.6247857946324913
  0.3361608906168680  0.8371881139870474  0.1212875860615663
  0.3365820010511243  0.8367281934678141  0.6249935604392590
  0.6702807884707107  0.3364575400430237  0.1237006843514802
  0.6680618183347228  0.3376353128922687  0.6239423152850724
  0.6701950410093380  0.8367199524547217  0.1239243153435797
  0.6679854548926998  0.8364177781521829  0.6231529521637302
 -0.0017150795891692  0.3610573055405359  0.3743927639803399
  0.0022515628089413  0.3370376103414410  0.8767726137419739
  0.0026995489163936  0.8346770290186170  0.3750623049017440
  0.0032672715583998  0.8367296646132987  0.8770682764207571
  0.3377013018079256  0.3415742294593357  0.3762689331522180
  0.3361248905728891  0.3326364322262569  0.8777734539545087
  0.3351360141090211  0.8359487752924586  0.3756632201997701
  0.3367038311405223  0.8377439573794164  0.8786018717255358
  0.6678393685231796  0.3372042621599793  0.3762072757654737
  0.6697816489485137  0.3372120985167034  0.8766171502677420
  0.6685221363970029  0.8367226860208927  0.3757312907859120
  0.6699270864462898  0.8364409897647423  0.8756689954400476
  0.2024712114996693  0.1668233087639800  0.3632788448890310
  0.1635879394012372  0.1689075343843073  0.8776508272385750
  0.1687072186155030  0.6623583216069326  0.3767766473722200
  0.1700934924486604  0.6634332330161815  0.8750060644406805
  0.5003151725607697  0.1631477103226223  0.3725066323395596
  0.5063388742333259  0.1625390401200491  0.8732598300149618
  0.5021819480709615  0.6632076826064994  0.3733639075674409
  0.5024401239823161  0.6631542472562164  0.8741364267966520
  0.8332684399793433  0.1636722921148905  0.3702171797840181
  0.8346662126465995  0.1634433169791695  0.8706826272363292
  0.8360814986558593  0.6625540317511757  0.3739993272327034
  0.8364719201170566  0.6628753234628438  0.8735102716304697
  0.1676228690943576  0.4153305643352643  0.2501002745789007
  0.1671199156459396  0.4137052551760734  0.7500445568565447
  0.1683465809699554  0.9092388359527809  0.2535683674941799
  0.1673258666522447  0.9131344795167291  0.7516202914117051
  0.5002376587908196  0.4123614286877029  0.2497905623783336
  0.5004205606042108  0.4123790822515441  0.7504090679205088
  0.5006823684837240  0.9114201960422290  0.2501004424528506
  0.5009938268695094  0.9116077252062037  0.7494511138145810
  0.8340225606327766  0.4120810181714300  0.2494705004820803
  0.8332047445116856  0.4129425618117981  0.7499195913912794
  0.8344366626257759  0.9117783533084821  0.2508296135374529
  0.8334860579188625  0.9117405061317544  0.7476838233376567
 -0.0054620568240537  0.0877143381812208 -0.0024986539098816
 -0.0006440944370729  0.0847848997171730  0.5072712363997703
  0.0007264432333088  0.5874721661055311 -0.0004824438280335
 -0.0005182427674360  0.5886093221663313  0.5016033587352234
  0.3380374033450428  0.0861268372744998 -0.0016074285987340
  0.3327902295394614  0.0879910430579050  0.5010163388793377
  0.3338284952208469  0.5866886943201499 -0.0000603827222396
  0.3338105283398383  0.5884457199454082  0.5010345927551960
  0.6684850300125116  0.0875237559735442 -0.0002871460277086
  0.6659485154792177  0.0883635575885285  0.4992662056940051
  0.6675296283325666  0.5878739835571537  0.0002297356083009
  0.6666799014590058  0.5881509213187345  0.4997886507188111
  0.2283823545997772  0.0873061314812793 -0.0058085841084010
  0.0302897570989649  0.1564319486899617  0.8933996521520933
  0.0341419476029577  0.6567259389022723  0.3972824988488965
  0.0355665110594720  0.6572292547687789  0.8956669566698808
  0.3641925406572988  0.1582565557335683  0.3953858053134168
  0.3764885501044408  0.1546487002405207  0.8943544764813590
  0.3690176584519591  0.6570610444343545  0.3969274496302467
  0.3691714602313705  0.6566786083490745  0.8961805962419678
  0.7018795752800074  0.1573057157936423  0.3954425362790809
  0.7023740610070026  0.1565373094881087  0.8948891197399581
  0.7024778595611492  0.6572609977248933  0.3960209327226847
  0.7029800856271362  0.6570419118481136  0.8962663505215438
  0.2043912019980380  0.0455126342357852  0.2569012446928140
  0.2005921167603988  0.0532381644381051  0.7515760394325721
  0.1983621300231392  0.5569167020630316  0.2556393259739776
  0.2005497788979649  0.5536746260576157  0.7496862964666132
  0.5340235597884404  0.0517274229119659  0.2502675899363352
  0.5354869254977660  0.0512425917953028  0.7487739642217900
  0.5345615808855507  0.5521324834928975  0.2502561100892279
  0.5340424032821713  0.5525008233806259  0.7497900546393584
  0.8699893891807339  0.0512990682006663  0.2507807558440979
  0.8671790431081593  0.0518504611338617  0.7461930380848186
  0.8684417006248857  0.5517057868290335  0.2512777427372161
  0.8675449559360014  0.5525218131173437  0.7495045604751630
  0.0611194406804843  0.4102233817861741  0.2509696163323471
  0.0611014853426959  0.4105419794779833  0.7501463936643642
  0.0616680161812095  0.9085580924856650  0.2516542671123526
  0.0610950839304626  0.9101474098308711  0.7500984169882237
  0.3946020119840224  0.4100307217946075  0.2490517096106623
  0.3947172136656698  0.4091186020072970  0.7509466396171848
  0.3950383048060803  0.9075302079862614  0.2494539489193204
  0.3952782560394833  0.9091004653107184  0.7501927118899971
  0.7283594350775642  0.4093704400800263  0.2511651930499079
  0.7275054134335787  0.4102989947443499  0.7493571354772646
  0.7287778599444719  0.9107281666537298  0.2505166093929521
  0.7278483747440102  0.9088488584100096  0.7482642731970125
  0.2266824048716524  0.0907967208528225  0.5023857490525919
  0.2281331373314343  0.5895790988412529 -0.0000105807043663
  0.2280502551650284  0.5909317100841690  0.5020459355907170
  0.5629383393218734  0.0906541011735584  0.0007855183875077
  0.5603143084433569  0.0912730040729749  0.4991335302965826
  0.5618275706633064  0.5906842197830195  0.0003054998551239
  0.5610359026169518  0.5908669823018262  0.4997180673702156
  0.8883305016245879  0.0854991127523849 -0.0070167825347640
  0.8944204712531403  0.0925811040350368  0.4989127020473569
  0.8947874376114368  0.5910051852208213 -0.0000638564086179
  0.8937340334005388  0.5898178254531653  0.5014366638138201
  0.2046602332332086  0.3543752663534428  0.1465719048917780
  0.2020338008392104  0.3447135448254816  0.6457686433600125
  0.2023653712030419  0.8388441745988994  0.1499610462495807
  0.2024711146630194  0.8444844569328337  0.6471406535415546
  0.5367145847477347  0.3431530103715008  0.1467090018243734
  0.5352998463760598  0.3433483896956090  0.6461602406317410
  0.5374961295198758  0.8422457429279567  0.1472331677887142
  0.5353067673445034  0.8427861074157763  0.6448641243234933
  0.8688666222104544  0.3441540120473043  0.1456494865916362
  0.8684826912265731  0.3433701963700468  0.6459541690536114
  0.8698227934659458  0.8419598195503245  0.1477145141588657
  0.8687906368731803  0.8432725816586067  0.6432413453673644
  0.0222429378386356  0.1592656838683869  0.1009065717344516
  0.0361243769078477  0.1589161621713823  0.6064951553845370
  0.0361164130764182  0.6564498886861956  0.1033230524393477
  0.0351647774071766  0.6571517460066766  0.6050908132108729
  0.3713561674948795  0.1563043779682345  0.1029882079266742
  0.3689885878647207  0.1572918565484047  0.6038876601686688
  0.3690755024132158  0.6560131267220932  0.1037832389631068
  0.3692532535166697  0.6573583633434108  0.6047312612434216
  0.7044233480321663  0.1565491371422203  0.1032665503052180
  0.7013900619130726  0.1575853267493078  0.6030167284681421
  0.7031163020204161  0.6568253091549151  0.1040722104288941
  0.7019860754443430  0.6570748096608662  0.6036625450750950
  0.0340389417583512  0.4478037758752473 -0.0007781860747681
  0.0336357930077995  0.4484625794502265  0.5017356167667867
  0.0294240891244037  0.9479245207400260  0.0003601901880539
  0.0348131148221681  0.9471477899355873  0.5012338464035686
  0.3680552727500195  0.4471133853050737 -0.0004264554007822
  0.3675746290948049  0.4484285578760225  0.5010022732441464
  0.3759540962808858  0.9468587292273919 -0.0005971249459187
  0.3666717593736306  0.9484632978987123  0.4997480321874209
  0.7014384909422258  0.4480195785775463  0.0002499632652352
  0.7003228885490281  0.4480670468747010  0.4998462019186800
  0.7013634418057573  0.9470691927406110 -0.0005407922841854
  0.6999432432382504  0.9485011834237993  0.4995699677086655
  0.2017978350275170  0.3454821310138632  0.3553455578681351
  0.2023150685715361  0.3444161704730174  0.8531538030153994
  0.2001875694234092  0.8373424822530221  0.3582375917796176
  0.2017623487480015  0.8430555010136010  0.8548727475329869
  0.5345613240985968  0.3428987499113014  0.3543094898084605
  0.5368717987856848  0.3437767879791483  0.8538022299944699
  0.5356138724447077  0.8430357395816730  0.3546852696257662
  0.5373098744988193  0.8420134692445628  0.8524467889978472
  0.8700091703539282  0.3415946506663596  0.3534642900852459
  0.8682413926448012  0.3436380414263223  0.8535136889279761
  0.8688805478789148  0.8429098697223818  0.3554574429793366
  0.8693118626321360  0.8421043755623718  0.8507051027373256
 
  0.00000000E+00  0.00000000E+00  0.00000000E+00
  0.00000000E+00  0.00000000E+00  0.00000000E+00
  0.00000000E+00  0.00000000E+00  0.00000000E+00
  0.00000000E+00  0.00000000E+00  0.00000000E+00
  0.00000000E+00  0.00000000E+00  0.00000000E+00
  0.00000000E+00  0.00000000E+00  0.00000000E+00
  0.00000000E+00  0.00000000E+00  0.00000000E+00
  0.00000000E+00  0.00000000E+00  0.00000000E+00
  0.00000000E+00  0.00000000E+00  0.00000000E+00
  0.00000000E+00  0.00000000E+00  0.00000000E+00
  0.00000000E+00  0.00000000E+00  0.00000000E+00
  0.00000000E+00  0.00000000E+00  0.00000000E+00
  0.00000000E+00  0.00000000E+00  0.00000000E+00
  0.00000000E+00  0.00000000E+00  0.00000000E+00
  0.00000000E+00  0.00000000E+00  0.00000000E+00
  0.00000000E+00  0.00000000E+00  0.00000000E+00
  0.00000000E+00  0.00000000E+00  0.00000000E+00
  0.00000000E+00  0.00000000E+00  0.00000000E+00
  0.00000000E+00  0.00000000E+00  0.00000000E+00
  0.00000000E+00  0.00000000E+00  0.00000000E+00
  0.00000000E+00  0.00000000E+00  0.00000000E+00
  0.00000000E+00  0.00000000E+00  0.00000000E+00
  0.00000000E+00  0.00000000E+00  0.00000000E+00
  0.00000000E+00  0.00000000E+00  0.00000000E+00
  0.00000000E+00  0.00000000E+00  0.00000000E+00
  0.00000000E+00  0.00000000E+00  0.00000000E+00
  0.00000000E+00  0.00000000E+00  0.00000000E+00
  0.00000000E+00  0.00000000E+00  0.00000000E+00
  0.00000000E+00  0.00000000E+00  0.00000000E+00
  0.00000000E+00  0.00000000E+00  0.00000000E+00
  0.00000000E+00  0.00000000E+00  0.00000000E+00
  0.00000000E+00  0.00000000E+00  0.00000000E+00
  0.00000000E+00  0.00000000E+00  0.00000000E+00
  0.00000000E+00  0.00000000E+00  0.00000000E+00
  0.00000000E+00  0.00000000E+00  0.00000000E+00
  0.00000000E+00  0.00000000E+00  0.00000000E+00
  0.00000000E+00  0.00000000E+00  0.00000000E+00
  0.00000000E+00  0.00000000E+00  0.00000000E+00
  0.00000000E+00  0.00000000E+00  0.00000000E+00
  0.00000000E+00  0.00000000E+00  0.00000000E+00
  0.00000000E+00  0.00000000E+00  0.00000000E+00
  0.00000000E+00  0.00000000E+00  0.00000000E+00
  0.00000000E+00  0.00000000E+00  0.00000000E+00
  0.00000000E+00  0.00000000E+00  0.00000000E+00
  0.00000000E+00  0.00000000E+00  0.00000000E+00
  0.00000000E+00  0.00000000E+00  0.00000000E+00
  0.00000000E+00  0.00000000E+00  0.00000000E+00
  0.00000000E+00  0.00000000E+00  0.00000000E+00
  0.00000000E+00  0.00000000E+00  0.00000000E+00
  0.00000000E+00  0.00000000E+00  0.00000000E+00
  0.00000000E+00  0.00000000E+00  0.00000000E+00
  0.00000000E+00  0.00000000E+00  0.00000000E+00
  0.00000000E+00  0.00000000E+00  0.00000000E+00
  0.00000000E+00  0.00000000E+00  0.00000000E+00
  0.00000000E+00  0.00000000E+00  0.00000000E+00
  0.00000000E+00  0.00000000E+00  0.00000000E+00
  0.00000000E+00  0.00000000E+00  0.00000000E+00
  0.00000000E+00  0.00000000E+00  0.00000000E+00
  0.00000000E+00  0.00000000E+00  0.00000000E+00
  0.00000000E+00  0.00000000E+00  0.00000000E+00
  0.00000000E+00  0.00000000E+00  0.00000000E+00
  0.00000000E+00  0.00000000E+00  0.00000000E+00
  0.00000000E+00  0.00000000E+00  0.00000000E+00
  0.00000000E+00  0.00000000E+00  0.00000000E+00
  0.00000000E+00  0.00000000E+00  0.00000000E+00
  0.00000000E+00  0.00000000E+00  0.00000000E+00
  0.00000000E+00  0.00000000E+00  0.00000000E+00
  0.00000000E+00  0.00000000E+00  0.00000000E+00
  0.00000000E+00  0.00000000E+00  0.00000000E+00
  0.00000000E+00  0.00000000E+00  0.00000000E+00
  0.00000000E+00  0.00000000E+00  0.00000000E+00
  0.00000000E+00  0.00000000E+00  0.00000000E+00
  0.00000000E+00  0.00000000E+00  0.00000000E+00
  0.00000000E+00  0.00000000E+00  0.00000000E+00
  0.00000000E+00  0.00000000E+00  0.00000000E+00
  0.00000000E+00  0.00000000E+00  0.00000000E+00
  0.00000000E+00  0.00000000E+00  0.00000000E+00
  0.00000000E+00  0.00000000E+00  0.00000000E+00
  0.00000000E+00  0.00000000E+00  0.00000000E+00
  0.00000000E+00  0.00000000E+00  0.00000000E+00
  0.00000000E+00  0.00000000E+00  0.00000000E+00
  0.00000000E+00  0.00000000E+00  0.00000000E+00
  0.00000000E+00  0.00000000E+00  0.00000000E+00
  0.00000000E+00  0.00000000E+00  0.00000000E+00
  0.00000000E+00  0.00000000E+00  0.00000000E+00
  0.00000000E+00  0.00000000E+00  0.00000000E+00
  0.00000000E+00  0.00000000E+00  0.00000000E+00
  0.00000000E+00  0.00000000E+00  0.00000000E+00
  0.00000000E+00  0.00000000E+00  0.00000000E+00
  0.00000000E+00  0.00000000E+00  0.00000000E+00
  0.00000000E+00  0.00000000E+00  0.00000000E+00
  0.00000000E+00  0.00000000E+00  0.00000000E+00
  0.00000000E+00  0.00000000E+00  0.00000000E+00
  0.00000000E+00  0.00000000E+00  0.00000000E+00
  0.00000000E+00  0.00000000E+00  0.00000000E+00
  0.00000000E+00  0.00000000E+00  0.00000000E+00
  0.00000000E+00  0.00000000E+00  0.00000000E+00
  0.00000000E+00  0.00000000E+00  0.00000000E+00
  0.00000000E+00  0.00000000E+00  0.00000000E+00
  0.00000000E+00  0.00000000E+00  0.00000000E+00
  0.00000000E+00  0.00000000E+00  0.00000000E+00
  0.00000000E+00  0.00000000E+00  0.00000000E+00
  0.00000000E+00  0.00000000E+00  0.00000000E+00
  0.00000000E+00  0.00000000E+00  0.00000000E+00
  0.00000000E+00  0.00000000E+00  0.00000000E+00
  0.00000000E+00  0.00000000E+00  0.00000000E+00
  0.00000000E+00  0.00000000E+00  0.00000000E+00
  0.00000000E+00  0.00000000E+00  0.00000000E+00
  0.00000000E+00  0.00000000E+00  0.00000000E+00
  0.00000000E+00  0.00000000E+00  0.00000000E+00
  0.00000000E+00  0.00000000E+00  0.00000000E+00
  0.00000000E+00  0.00000000E+00  0.00000000E+00
  0.00000000E+00  0.00000000E+00  0.00000000E+00
  0.00000000E+00  0.00000000E+00  0.00000000E+00
  0.00000000E+00  0.00000000E+00  0.00000000E+00
  0.00000000E+00  0.00000000E+00  0.00000000E+00
  0.00000000E+00  0.00000000E+00  0.00000000E+00
  0.00000000E+00  0.00000000E+00  0.00000000E+00
  0.00000000E+00  0.00000000E+00  0.00000000E+00
  0.00000000E+00  0.00000000E+00  0.00000000E+00
  0.00000000E+00  0.00000000E+00  0.00000000E+00
  0.00000000E+00  0.00000000E+00  0.00000000E+00
  0.00000000E+00  0.00000000E+00  0.00000000E+00
  0.00000000E+00  0.00000000E+00  0.00000000E+00
  0.00000000E+00  0.00000000E+00  0.00000000E+00
  0.00000000E+00  0.00000000E+00  0.00000000E+00
  0.00000000E+00  0.00000000E+00  0.00000000E+00
  0.00000000E+00  0.00000000E+00  0.00000000E+00
  0.00000000E+00  0.00000000E+00  0.00000000E+00
  0.00000000E+00  0.00000000E+00  0.00000000E+00
  0.00000000E+00  0.00000000E+00  0.00000000E+00
  0.00000000E+00  0.00000000E+00  0.00000000E+00
  0.00000000E+00  0.00000000E+00  0.00000000E+00
  0.00000000E+00  0.00000000E+00  0.00000000E+00
  0.00000000E+00  0.00000000E+00  0.00000000E+00
  0.00000000E+00  0.00000000E+00  0.00000000E+00
  0.00000000E+00  0.00000000E+00  0.00000000E+00
  0.00000000E+00  0.00000000E+00  0.00000000E+00
  0.00000000E+00  0.00000000E+00  0.00000000E+00
  0.00000000E+00  0.00000000E+00  0.00000000E+00
  0.00000000E+00  0.00000000E+00  0.00000000E+00
  0.00000000E+00  0.00000000E+00  0.00000000E+00
  0.00000000E+00  0.00000000E+00  0.00000000E+00
  0.00000000E+00  0.00000000E+00  0.00000000E+00
  0.00000000E+00  0.00000000E+00  0.00000000E+00
  0.00000000E+00  0.00000000E+00  0.00000000E+00
  0.00000000E+00  0.00000000E+00  0.00000000E+00
  0.00000000E+00  0.00000000E+00  0.00000000E+00
  0.00000000E+00  0.00000000E+00  0.00000000E+00
  0.00000000E+00  0.00000000E+00  0.00000000E+00
  0.00000000E+00  0.00000000E+00  0.00000000E+00
  0.00000000E+00  0.00000000E+00  0.00000000E+00
  0.00000000E+00  0.00000000E+00  0.00000000E+00
  0.00000000E+00  0.00000000E+00  0.00000000E+00
  0.00000000E+00  0.00000000E+00  0.00000000E+00
  0.00000000E+00  0.00000000E+00  0.00000000E+00
  0.00000000E+00  0.00000000E+00  0.00000000E+00
  0.00000000E+00  0.00000000E+00  0.00000000E+00
  0.00000000E+00  0.00000000E+00  0.00000000E+00
  0.00000000E+00  0.00000000E+00  0.00000000E+00
  0.00000000E+00  0.00000000E+00  0.00000000E+00
  0.00000000E+00  0.00000000E+00  0.00000000E+00
  0.00000000E+00  0.00000000E+00  0.00000000E+00
  0.00000000E+00  0.00000000E+00  0.00000000E+00
  0.00000000E+00  0.00000000E+00  0.00000000E+00
  0.00000000E+00  0.00000000E+00  0.00000000E+00
  0.00000000E+00  0.00000000E+00  0.00000000E+00
  0.00000000E+00  0.00000000E+00  0.00000000E+00
  0.00000000E+00  0.00000000E+00  0.00000000E+00
  0.00000000E+00  0.00000000E+00  0.00000000E+00
  0.00000000E+00  0.00000000E+00  0.00000000E+00
  0.00000000E+00  0.00000000E+00  0.00000000E+00
  0.00000000E+00  0.00000000E+00  0.00000000E+00
  0.00000000E+00  0.00000000E+00  0.00000000E+00
  0.00000000E+00  0.00000000E+00  0.00000000E+00
  0.00000000E+00  0.00000000E+00  0.00000000E+00
  0.00000000E+00  0.00000000E+00  0.00000000E+00
  0.00000000E+00  0.00000000E+00  0.00000000E+00
  0.00000000E+00  0.00000000E+00  0.00000000E+00
  0.00000000E+00  0.00000000E+00  0.00000000E+00
  0.00000000E+00  0.00000000E+00  0.00000000E+00
  0.00000000E+00  0.00000000E+00  0.00000000E+00
  0.00000000E+00  0.00000000E+00  0.00000000E+00
  0.00000000E+00  0.00000000E+00  0.00000000E+00
  0.00000000E+00  0.00000000E+00  0.00000000E+00
  0.00000000E+00  0.00000000E+00  0.00000000E+00
  0.00000000E+00  0.00000000E+00  0.00000000E+00
  0.00000000E+00  0.00000000E+00  0.00000000E+00
  0.00000000E+00  0.00000000E+00  0.00000000E+00
  0.00000000E+00  0.00000000E+00  0.00000000E+00
