Li140 P140 O420
1.0
5.521558 0.000000 0.000000
0.000000 16.540545 2.677750
0.000000 0.000000 119.816820
Li P O
140 140 420
direct
0.494607 0.818220 0.001719 Li+
0.505393 0.318220 0.057274 Li+
0.484419 0.934004 0.015259 Li+
0.515581 0.434004 0.070815 Li+
0.505784 0.049457 0.028639 Li+
0.494216 0.549457 0.084195 Li+
0.507224 0.164548 0.041925 Li+
0.492776 0.664548 0.097480 Li+
0.992783 0.241566 0.049745 Li+
0.007217 0.741566 0.105301 Li+
0.521194 0.318286 0.001958 Li+
0.478806 0.818286 0.057513 Li+
0.476313 0.433730 0.015412 Li+
0.523687 0.933730 0.070968 Li+
0.533250 0.550453 0.028655 Li+
0.466750 0.050453 0.084211 Li+
0.477737 0.667016 0.041963 Li+
0.522263 0.167016 0.097519 Li+
0.960889 0.743634 0.049967 Li+
0.039111 0.243634 0.105523 Li+
0.494607 0.818220 0.112830 Li+
0.505393 0.318220 0.168385 Li+
0.484419 0.934004 0.126370 Li+
0.515581 0.434004 0.181926 Li+
0.505784 0.049457 0.139750 Li+
0.494216 0.549457 0.195306 Li+
0.507224 0.164548 0.153036 Li+
0.492776 0.664548 0.208591 Li+
0.992783 0.241566 0.160856 Li+
0.007217 0.741566 0.216412 Li+
0.521194 0.318286 0.113069 Li+
0.478806 0.818286 0.168624 Li+
0.476313 0.433730 0.126524 Li+
0.523687 0.933730 0.182079 Li+
0.533250 0.550453 0.139766 Li+
0.466750 0.050453 0.195322 Li+
0.477737 0.667016 0.153075 Li+
0.522263 0.167016 0.208630 Li+
0.960889 0.743634 0.161078 Li+
0.039111 0.243634 0.216634 Li+
0.494607 0.818220 0.223941 Li+
0.505393 0.318220 0.279497 Li+
0.484419 0.934004 0.237481 Li+
0.515581 0.434004 0.293037 Li+
0.505784 0.049457 0.250861 Li+
0.494216 0.549457 0.306417 Li+
0.507224 0.164548 0.264147 Li+
0.492776 0.664548 0.319702 Li+
0.992783 0.241566 0.271967 Li+
0.007217 0.741566 0.327523 Li+
0.521194 0.318286 0.224180 Li+
0.478806 0.818286 0.279735 Li+
0.476313 0.433730 0.237635 Li+
0.523687 0.933730 0.293190 Li+
0.533250 0.550453 0.250877 Li+
0.466750 0.050453 0.306433 Li+
0.477737 0.667016 0.264186 Li+
0.522263 0.167016 0.319741 Li+
0.960889 0.743634 0.272189 Li+
0.039111 0.243634 0.327745 Li+
0.494607 0.818220 0.335052 Li+
0.505393 0.318220 0.390608 Li+
0.484419 0.934004 0.348593 Li+
0.515581 0.434004 0.404148 Li+
0.505784 0.049457 0.361973 Li+
0.494216 0.549457 0.417528 Li+
0.507224 0.164548 0.375258 Li+
0.492776 0.664548 0.430814 Li+
0.992783 0.241566 0.383079 Li+
0.007217 0.741566 0.438634 Li+
0.521194 0.318286 0.335291 Li+
0.478806 0.818286 0.390846 Li+
0.476313 0.433730 0.348746 Li+
0.523687 0.933730 0.404301 Li+
0.533250 0.550453 0.361988 Li+
0.466750 0.050453 0.417544 Li+
0.477737 0.667016 0.375297 Li+
0.522263 0.167016 0.430852 Li+
0.960889 0.743634 0.383300 Li+
0.039111 0.243634 0.438856 Li+
0.494607 0.818220 0.446163 Li+
0.505393 0.318220 0.501719 Li+
0.484419 0.934004 0.459704 Li+
0.515581 0.434004 0.515259 Li+
0.505784 0.049457 0.473084 Li+
0.494216 0.549457 0.528639 Li+
0.507224 0.164548 0.486369 Li+
0.492776 0.664548 0.541925 Li+
0.992783 0.241566 0.494190 Li+
0.007217 0.741566 0.549745 Li+
0.521194 0.318286 0.446402 Li+
0.478806 0.818286 0.501958 Li+
0.476313 0.433730 0.459857 Li+
0.523687 0.933730 0.515412 Li+
0.533250 0.550453 0.473100 Li+
0.466750 0.050453 0.528655 Li+
0.477737 0.667016 0.486408 Li+
0.522263 0.167016 0.541963 Li+
0.960889 0.743634 0.494412 Li+
0.039111 0.243634 0.549967 Li+
0.494607 0.818220 0.557274 Li+
0.505393 0.318220 0.612830 Li+
0.484419 0.934004 0.570815 Li+
0.515581 0.434004 0.626370 Li+
0.505784 0.049457 0.584195 Li+
0.494216 0.549457 0.639750 Li+
0.507224 0.164548 0.597480 Li+
0.492776 0.664548 0.653036 Li+
0.992783 0.241566 0.605301 Li+
0.007217 0.741566 0.660856 Li+
0.521194 0.318286 0.557513 Li+
0.478806 0.818286 0.613069 Li+
0.476313 0.433730 0.570968 Li+
0.523687 0.933730 0.626524 Li+
0.533250 0.550453 0.584211 Li+
0.466750 0.050453 0.639766 Li+
0.477737 0.667016 0.597519 Li+
0.522263 0.167016 0.653075 Li+
0.960889 0.743634 0.605523 Li+
0.039111 0.243634 0.661078 Li+
0.494607 0.818220 0.668385 Li+
0.505393 0.318220 0.723941 Li+
0.484419 0.934004 0.681926 Li+
0.515581 0.434004 0.737481 Li+
0.505784 0.049457 0.695306 Li+
0.494216 0.549457 0.750861 Li+
0.507224 0.164548 0.708591 Li+
0.492776 0.664548 0.764147 Li+
0.992783 0.241566 0.716412 Li+
0.007217 0.741566 0.771967 Li+
0.521194 0.318286 0.668624 Li+
0.478806 0.818286 0.724180 Li+
0.476313 0.433730 0.682079 Li+
0.523687 0.933730 0.737635 Li+
0.533250 0.550453 0.695322 Li+
0.466750 0.050453 0.750877 Li+
0.477737 0.667016 0.708630 Li+
0.522263 0.167016 0.764186 Li+
0.960889 0.743634 0.716634 Li+
0.039111 0.243634 0.772189 Li+
0.185377 0.000413 0.106553 P5+
0.814623 0.500413 0.050997 P5+
0.843317 0.093280 0.008056 P5+
0.156683 0.593280 0.063611 P5+
0.188444 0.197061 0.018249 P5+
0.811556 0.697061 0.073805 P5+
0.828977 0.308311 0.027051 P5+
0.171023 0.808311 0.082607 P5+
0.159739 0.408249 0.038169 P5+
0.840261 0.908249 0.093724 P5+
0.843930 0.574567 0.005631 P5+
0.156070 0.074567 0.061187 P5+
0.174322 0.674438 0.016798 P5+
0.825678 0.174438 0.072353 P5+
0.812278 0.786455 0.025559 P5+
0.187722 0.286455 0.081115 P5+
0.151901 0.889856 0.035827 P5+
0.848099 0.389856 0.091383 P5+
0.809867 0.982845 0.048416 P5+
0.190133 0.482845 0.103971 P5+
0.185377 0.000413 0.217664 P5+
0.814623 0.500413 0.162108 P5+
0.843317 0.093280 0.119167 P5+
0.156683 0.593280 0.174722 P5+
0.188444 0.197061 0.129360 P5+
0.811556 0.697061 0.184916 P5+
0.828977 0.308311 0.138162 P5+
0.171023 0.808311 0.193718 P5+
0.159739 0.408249 0.149280 P5+
0.840261 0.908249 0.204835 P5+
0.843930 0.574567 0.116742 P5+
0.156070 0.074567 0.172298 P5+
0.174322 0.674438 0.127909 P5+
0.825678 0.174438 0.183465 P5+
0.812278 0.786455 0.136671 P5+
0.187722 0.286455 0.192226 P5+
0.151901 0.889856 0.146938 P5+
0.848099 0.389856 0.202494 P5+
0.809867 0.982845 0.159527 P5+
0.190133 0.482845 0.215082 P5+
0.185377 0.000413 0.328775 P5+
0.814623 0.500413 0.273219 P5+
0.843317 0.093280 0.230278 P5+
0.156683 0.593280 0.285833 P5+
0.188444 0.197061 0.240471 P5+
0.811556 0.697061 0.296027 P5+
0.828977 0.308311 0.249273 P5+
0.171023 0.808311 0.304829 P5+
0.159739 0.408249 0.260391 P5+
0.840261 0.908249 0.315946 P5+
0.843930 0.574567 0.227853 P5+
0.156070 0.074567 0.283409 P5+
0.174322 0.674438 0.239020 P5+
0.825678 0.174438 0.294576 P5+
0.812278 0.786455 0.247782 P5+
0.187722 0.286455 0.303337 P5+
0.151901 0.889856 0.258049 P5+
0.848099 0.389856 0.313605 P5+
0.809867 0.982845 0.270638 P5+
0.190133 0.482845 0.326194 P5+
0.185377 0.000413 0.439886 P5+
0.814623 0.500413 0.384331 P5+
0.843317 0.093280 0.341389 P5+
0.156683 0.593280 0.396944 P5+
0.188444 0.197061 0.351583 P5+
0.811556 0.697061 0.407138 P5+
0.828977 0.308311 0.360385 P5+
0.171023 0.808311 0.415940 P5+
0.159739 0.408249 0.371502 P5+
0.840261 0.908249 0.427057 P5+
0.843930 0.574567 0.338964 P5+
0.156070 0.074567 0.394520 P5+
0.174322 0.674438 0.350131 P5+
0.825678 0.174438 0.405687 P5+
0.812278 0.786455 0.358893 P5+
0.187722 0.286455 0.414448 P5+
0.151901 0.889856 0.369161 P5+
0.848099 0.389856 0.424716 P5+
0.809867 0.982845 0.381749 P5+
0.190133 0.482845 0.437305 P5+
0.185377 0.000413 0.550997 P5+
0.814623 0.500413 0.495442 P5+
0.843317 0.093280 0.452500 P5+
0.156683 0.593280 0.508056 P5+
0.188444 0.197061 0.462694 P5+
0.811556 0.697061 0.518249 P5+
0.828977 0.308311 0.471496 P5+
0.171023 0.808311 0.527051 P5+
0.159739 0.408249 0.482613 P5+
0.840261 0.908249 0.538169 P5+
0.843930 0.574567 0.450076 P5+
0.156070 0.074567 0.505631 P5+
0.174322 0.674438 0.461242 P5+
0.825678 0.174438 0.516798 P5+
0.812278 0.786455 0.470004 P5+
0.187722 0.286455 0.525559 P5+
0.151901 0.889856 0.480272 P5+
0.848099 0.389856 0.535827 P5+
0.809867 0.982845 0.492860 P5+
0.190133 0.482845 0.548416 P5+
0.185377 0.000413 0.662108 P5+
0.814623 0.500413 0.606553 P5+
0.843317 0.093280 0.563611 P5+
0.156683 0.593280 0.619167 P5+
0.188444 0.197061 0.573805 P5+
0.811556 0.697061 0.629360 P5+
0.828977 0.308311 0.582607 P5+
0.171023 0.808311 0.638162 P5+
0.159739 0.408249 0.593724 P5+
0.840261 0.908249 0.649280 P5+
0.843930 0.574567 0.561187 P5+
0.156070 0.074567 0.616742 P5+
0.174322 0.674438 0.572353 P5+
0.825678 0.174438 0.627909 P5+
0.812278 0.786455 0.581115 P5+
0.187722 0.286455 0.636671 P5+
0.151901 0.889856 0.591383 P5+
0.848099 0.389856 0.646938 P5+
0.809867 0.982845 0.603971 P5+
0.190133 0.482845 0.659527 P5+
0.185377 0.000413 0.773219 P5+
0.814623 0.500413 0.717664 P5+
0.843317 0.093280 0.674722 P5+
0.156683 0.593280 0.730278 P5+
0.188444 0.197061 0.684916 P5+
0.811556 0.697061 0.740471 P5+
0.828977 0.308311 0.693718 P5+
0.171023 0.808311 0.749273 P5+
0.159739 0.408249 0.704835 P5+
0.840261 0.908249 0.760391 P5+
0.843930 0.574567 0.672298 P5+
0.156070 0.074567 0.727853 P5+
0.174322 0.674438 0.683465 P5+
0.825678 0.174438 0.739020 P5+
0.812278 0.786455 0.692226 P5+
0.187722 0.286455 0.747782 P5+
0.151901 0.889856 0.702494 P5+
0.848099 0.389856 0.758049 P5+
0.809867 0.982845 0.715082 P5+
0.190133 0.482845 0.770638 P5+
0.069000 0.035413 0.006082 O2-
0.931000 0.535413 0.061638 O2-
0.951087 0.140628 0.017746 O2-
0.048913 0.640628 0.073302 O2-
0.080018 0.275856 0.022551 O2-
0.919982 0.775856 0.078107 O2-
0.926681 0.392259 0.030535 O2-
0.073319 0.892259 0.086090 O2-
0.942022 0.978148 0.100207 O2-
0.057978 0.478148 0.044652 O2-
0.076781 0.590622 0.013276 O2-
0.923219 0.090622 0.068831 O2-
0.921841 0.709404 0.020837 O2-
0.078159 0.209404 0.076393 O2-
0.049265 0.843555 0.025935 O2-
0.950735 0.343555 0.081490 O2-
0.918787 0.943480 0.038013 O2-
0.081213 0.443480 0.093569 O2-
0.944691 0.504327 0.110246 O2-
0.055309 0.004327 0.054690 O2-
0.322795 0.926111 0.000543 O2-
0.677205 0.426111 0.056098 O2-
0.313918 0.066074 0.098778 O2-
0.686082 0.566074 0.043222 O2-
0.643576 0.041349 0.013716 O2-
0.356424 0.541349 0.069271 O2-
0.795305 0.153257 0.108663 O2-
0.204695 0.653257 0.053107 O2-
0.351974 0.154647 0.027242 O2-
0.648026 0.654647 0.082798 O2-
0.281781 0.224590 0.006462 O2-
0.718219 0.724590 0.062018 O2-
0.751546 0.252705 0.037570 O2-
0.248454 0.752705 0.093126 O2-
0.656290 0.330648 0.017449 O2-
0.343710 0.830648 0.073004 O2-
0.215121 0.332841 0.046434 O2-
0.784879 0.832841 0.101990 O2-
0.355777 0.446708 0.030507 O2-
0.644223 0.946708 0.086063 O2-
0.649890 0.536665 0.013457 O2-
0.350110 0.036665 0.069012 O2-
0.785996 0.649394 0.108429 O2-
0.214004 0.149394 0.052873 O2-
0.340793 0.651785 0.026643 O2-
0.659207 0.151785 0.082199 O2-
0.258044 0.728542 0.006257 O2-
0.741956 0.228542 0.061813 O2-
0.725734 0.758375 0.037452 O2-
0.274266 0.258375 0.093008 O2-
0.642950 0.828801 0.016805 O2-
0.357050 0.328801 0.072361 O2-
0.205272 0.829973 0.046286 O2-
0.794728 0.329973 0.101842 O2-
0.347295 0.944360 0.030312 O2-
0.652705 0.444360 0.085868 O2-
0.677470 0.919559 0.056421 O2-
0.322530 0.419559 0.000865 O2-
0.678914 0.057634 0.043025 O2-
0.321086 0.557634 0.098580 O2-
0.069000 0.035413 0.117193 O2-
0.931000 0.535413 0.172749 O2-
0.951087 0.140628 0.128858 O2-
0.048913 0.640628 0.184413 O2-
0.080018 0.275856 0.133662 O2-
0.919982 0.775856 0.189218 O2-
0.926681 0.392259 0.141646 O2-
0.073319 0.892259 0.197201 O2-
0.942022 0.978148 0.211319 O2-
0.057978 0.478148 0.155763 O2-
0.076781 0.590622 0.124387 O2-
0.923219 0.090622 0.179942 O2-
0.921841 0.709404 0.131949 O2-
0.078159 0.209404 0.187504 O2-
0.049265 0.843555 0.137046 O2-
0.950735 0.343555 0.192601 O2-
0.918787 0.943480 0.149124 O2-
0.081213 0.443480 0.204680 O2-
0.944691 0.504327 0.221357 O2-
0.055309 0.004327 0.165801 O2-
0.322795 0.926111 0.111654 O2-
0.677205 0.426111 0.167209 O2-
0.313918 0.066074 0.209889 O2-
0.686082 0.566074 0.154334 O2-
0.643576 0.041349 0.124827 O2-
0.356424 0.541349 0.180383 O2-
0.795305 0.153257 0.219774 O2-
0.204695 0.653257 0.164218 O2-
0.351974 0.154647 0.138353 O2-
0.648026 0.654647 0.193909 O2-
0.281781 0.224590 0.117573 O2-
0.718219 0.724590 0.173129 O2-
0.751546 0.252705 0.148681 O2-
0.248454 0.752705 0.204237 O2-
0.656290 0.330648 0.128560 O2-
0.343710 0.830648 0.184115 O2-
0.215121 0.332841 0.157546 O2-
0.784879 0.832841 0.213101 O2-
0.355777 0.446708 0.141618 O2-
0.644223 0.946708 0.197174 O2-
0.649890 0.536665 0.124568 O2-
0.350110 0.036665 0.180123 O2-
0.785996 0.649394 0.219540 O2-
0.214004 0.149394 0.163984 O2-
0.340793 0.651785 0.137754 O2-
0.659207 0.151785 0.193310 O2-
0.258044 0.728542 0.117368 O2-
0.741956 0.228542 0.172924 O2-
0.725734 0.758375 0.148564 O2-
0.274266 0.258375 0.204119 O2-
0.642950 0.828801 0.127916 O2-
0.357050 0.328801 0.183472 O2-
0.205272 0.829973 0.157397 O2-
0.794728 0.329973 0.212953 O2-
0.347295 0.944360 0.141423 O2-
0.652705 0.444360 0.196979 O2-
0.677470 0.919559 0.167532 O2-
0.322530 0.419559 0.111977 O2-
0.678914 0.057634 0.154136 O2-
0.321086 0.557634 0.209691 O2-
0.069000 0.035413 0.228304 O2-
0.931000 0.535413 0.283860 O2-
0.951087 0.140628 0.239969 O2-
0.048913 0.640628 0.295524 O2-
0.080018 0.275856 0.244773 O2-
0.919982 0.775856 0.300329 O2-
0.926681 0.392259 0.252757 O2-
0.073319 0.892259 0.308312 O2-
0.942022 0.978148 0.322430 O2-
0.057978 0.478148 0.266874 O2-
0.076781 0.590622 0.235498 O2-
0.923219 0.090622 0.291053 O2-
0.921841 0.709404 0.243060 O2-
0.078159 0.209404 0.298615 O2-
0.049265 0.843555 0.248157 O2-
0.950735 0.343555 0.303712 O2-
0.918787 0.943480 0.260235 O2-
0.081213 0.443480 0.315791 O2-
0.944691 0.504327 0.332468 O2-
0.055309 0.004327 0.276912 O2-
0.322795 0.926111 0.222765 O2-
0.677205 0.426111 0.278320 O2-
0.313918 0.066074 0.321000 O2-
0.686082 0.566074 0.265445 O2-
0.643576 0.041349 0.235938 O2-
0.356424 0.541349 0.291494 O2-
0.795305 0.153257 0.330885 O2-
0.204695 0.653257 0.275330 O2-
0.351974 0.154647 0.249464 O2-
0.648026 0.654647 0.305020 O2-
0.281781 0.224590 0.228684 O2-
0.718219 0.724590 0.284240 O2-
0.751546 0.252705 0.259792 O2-
0.248454 0.752705 0.315348 O2-
0.656290 0.330648 0.239671 O2-
0.343710 0.830648 0.295227 O2-
0.215121 0.332841 0.268657 O2-
0.784879 0.832841 0.324212 O2-
0.355777 0.446708 0.252729 O2-
0.644223 0.946708 0.308285 O2-
0.649890 0.536665 0.235679 O2-
0.350110 0.036665 0.291235 O2-
0.785996 0.649394 0.330651 O2-
0.214004 0.149394 0.275096 O2-
0.340793 0.651785 0.248865 O2-
0.659207 0.151785 0.304421 O2-
0.258044 0.728542 0.228479 O2-
0.741956 0.228542 0.284035 O2-
0.725734 0.758375 0.259675 O2-
0.274266 0.258375 0.315230 O2-
0.642950 0.828801 0.239027 O2-
0.357050 0.328801 0.294583 O2-
0.205272 0.829973 0.268508 O2-
0.794728 0.329973 0.324064 O2-
0.347295 0.944360 0.252535 O2-
0.652705 0.444360 0.308090 O2-
0.677470 0.919559 0.278643 O2-
0.322530 0.419559 0.223088 O2-
0.678914 0.057634 0.265247 O2-
0.321086 0.557634 0.320803 O2-
0.069000 0.035413 0.339415 O2-
0.931000 0.535413 0.394971 O2-
0.951087 0.140628 0.351080 O2-
0.048913 0.640628 0.406635 O2-
0.080018 0.275856 0.355885 O2-
0.919982 0.775856 0.411440 O2-
0.926681 0.392259 0.363868 O2-
0.073319 0.892259 0.419424 O2-
0.942022 0.978148 0.433541 O2-
0.057978 0.478148 0.377985 O2-
0.076781 0.590622 0.346609 O2-
0.923219 0.090622 0.402165 O2-
0.921841 0.709404 0.354171 O2-
0.078159 0.209404 0.409726 O2-
0.049265 0.843555 0.359268 O2-
0.950735 0.343555 0.414823 O2-
0.918787 0.943480 0.371347 O2-
0.081213 0.443480 0.426902 O2-
0.944691 0.504327 0.443579 O2-
0.055309 0.004327 0.388023 O2-
0.322795 0.926111 0.333876 O2-
0.677205 0.426111 0.389431 O2-
0.313918 0.066074 0.432111 O2-
0.686082 0.566074 0.376556 O2-
0.643576 0.041349 0.347049 O2-
0.356424 0.541349 0.402605 O2-
0.795305 0.153257 0.441996 O2-
0.204695 0.653257 0.386441 O2-
0.351974 0.154647 0.360575 O2-
0.648026 0.654647 0.416131 O2-
0.281781 0.224590 0.339796 O2-
0.718219 0.724590 0.395351 O2-
0.751546 0.252705 0.370904 O2-
0.248454 0.752705 0.426459 O2-
0.656290 0.330648 0.350782 O2-
0.343710 0.830648 0.406338 O2-
0.215121 0.332841 0.379768 O2-
0.784879 0.832841 0.435323 O2-
0.355777 0.446708 0.363840 O2-
0.644223 0.946708 0.419396 O2-
0.649890 0.536665 0.346790 O2-
0.350110 0.036665 0.402346 O2-
0.785996 0.649394 0.441762 O2-
0.214004 0.149394 0.386207 O2-
0.340793 0.651785 0.359976 O2-
0.659207 0.151785 0.415532 O2-
0.258044 0.728542 0.339590 O2-
0.741956 0.228542 0.395146 O2-
0.725734 0.758375 0.370786 O2-
0.274266 0.258375 0.426341 O2-
0.642950 0.828801 0.350138 O2-
0.357050 0.328801 0.405694 O2-
0.205272 0.829973 0.379619 O2-
0.794728 0.329973 0.435175 O2-
0.347295 0.944360 0.363646 O2-
0.652705 0.444360 0.419201 O2-
0.677470 0.919559 0.389754 O2-
0.322530 0.419559 0.334199 O2-
0.678914 0.057634 0.376358 O2-
0.321086 0.557634 0.431914 O2-
0.069000 0.035413 0.450527 O2-
0.931000 0.535413 0.506082 O2-
0.951087 0.140628 0.462191 O2-
0.048913 0.640628 0.517746 O2-
0.080018 0.275856 0.466996 O2-
0.919982 0.775856 0.522551 O2-
0.926681 0.392259 0.474979 O2-
0.073319 0.892259 0.530535 O2-
0.942022 0.978148 0.544652 O2-
0.057978 0.478148 0.489096 O2-
0.076781 0.590622 0.457720 O2-
0.923219 0.090622 0.513276 O2-
0.921841 0.709404 0.465282 O2-
0.078159 0.209404 0.520837 O2-
0.049265 0.843555 0.470379 O2-
0.950735 0.343555 0.525935 O2-
0.918787 0.943480 0.482458 O2-
0.081213 0.443480 0.538013 O2-
0.944691 0.504327 0.554690 O2-
0.055309 0.004327 0.499135 O2-
0.322795 0.926111 0.444987 O2-
0.677205 0.426111 0.500543 O2-
0.313918 0.066074 0.543222 O2-
0.686082 0.566074 0.487667 O2-
0.643576 0.041349 0.458160 O2-
0.356424 0.541349 0.513716 O2-
0.795305 0.153257 0.553107 O2-
0.204695 0.653257 0.497552 O2-
0.351974 0.154647 0.471686 O2-
0.648026 0.654647 0.527242 O2-
0.281781 0.224590 0.450907 O2-
0.718219 0.724590 0.506462 O2-
0.751546 0.252705 0.482015 O2-
0.248454 0.752705 0.537570 O2-
0.656290 0.330648 0.461893 O2-
0.343710 0.830648 0.517449 O2-
0.215121 0.332841 0.490879 O2-
0.784879 0.832841 0.546434 O2-
0.355777 0.446708 0.474952 O2-
0.644223 0.946708 0.530507 O2-
0.649890 0.536665 0.457901 O2-
0.350110 0.036665 0.513457 O2-
0.785996 0.649394 0.552873 O2-
0.214004 0.149394 0.497318 O2-
0.340793 0.651785 0.471088 O2-
0.659207 0.151785 0.526643 O2-
0.258044 0.728542 0.450701 O2-
0.741956 0.228542 0.506257 O2-
0.725734 0.758375 0.481897 O2-
0.274266 0.258375 0.537452 O2-
0.642950 0.828801 0.461250 O2-
0.357050 0.328801 0.516805 O2-
0.205272 0.829973 0.490730 O2-
0.794728 0.329973 0.546286 O2-
0.347295 0.944360 0.474757 O2-
0.652705 0.444360 0.530312 O2-
0.677470 0.919559 0.500865 O2-
0.322530 0.419559 0.445310 O2-
0.678914 0.057634 0.487469 O2-
0.321086 0.557634 0.543025 O2-
0.069000 0.035413 0.561638 O2-
0.931000 0.535413 0.617193 O2-
0.951087 0.140628 0.573302 O2-
0.048913 0.640628 0.628858 O2-
0.080018 0.275856 0.578107 O2-
0.919982 0.775856 0.633662 O2-
0.926681 0.392259 0.586090 O2-
0.073319 0.892259 0.641646 O2-
0.942022 0.978148 0.655763 O2-
0.057978 0.478148 0.600207 O2-
0.076781 0.590622 0.568831 O2-
0.923219 0.090622 0.624387 O2-
0.921841 0.709404 0.576393 O2-
0.078159 0.209404 0.631949 O2-
0.049265 0.843555 0.581490 O2-
0.950735 0.343555 0.637046 O2-
0.918787 0.943480 0.593569 O2-
0.081213 0.443480 0.649124 O2-
0.944691 0.504327 0.665801 O2-
0.055309 0.004327 0.610246 O2-
0.322795 0.926111 0.556098 O2-
0.677205 0.426111 0.611654 O2-
0.313918 0.066074 0.654334 O2-
0.686082 0.566074 0.598778 O2-
0.643576 0.041349 0.569271 O2-
0.356424 0.541349 0.624827 O2-
0.795305 0.153257 0.664218 O2-
0.204695 0.653257 0.608663 O2-
0.351974 0.154647 0.582798 O2-
0.648026 0.654647 0.638353 O2-
0.281781 0.224590 0.562018 O2-
0.718219 0.724590 0.617573 O2-
0.751546 0.252705 0.593126 O2-
0.248454 0.752705 0.648681 O2-
0.656290 0.330648 0.573004 O2-
0.343710 0.830648 0.628560 O2-
0.215121 0.332841 0.601990 O2-
0.784879 0.832841 0.657546 O2-
0.355777 0.446708 0.586063 O2-
0.644223 0.946708 0.641618 O2-
0.649890 0.536665 0.569012 O2-
0.350110 0.036665 0.624568 O2-
0.785996 0.649394 0.663984 O2-
0.214004 0.149394 0.608429 O2-
0.340793 0.651785 0.582199 O2-
0.659207 0.151785 0.637754 O2-
0.258044 0.728542 0.561813 O2-
0.741956 0.228542 0.617368 O2-
0.725734 0.758375 0.593008 O2-
0.274266 0.258375 0.648564 O2-
0.642950 0.828801 0.572361 O2-
0.357050 0.328801 0.627916 O2-
0.205272 0.829973 0.601842 O2-
0.794728 0.329973 0.657397 O2-
0.347295 0.944360 0.585868 O2-
0.652705 0.444360 0.641423 O2-
0.677470 0.919559 0.611977 O2-
0.322530 0.419559 0.556421 O2-
0.678914 0.057634 0.598580 O2-
0.321086 0.557634 0.654136 O2-
0.069000 0.035413 0.672749 O2-
0.931000 0.535413 0.728304 O2-
0.951087 0.140628 0.684413 O2-
0.048913 0.640628 0.739969 O2-
0.080018 0.275856 0.689218 O2-
0.919982 0.775856 0.744773 O2-
0.926681 0.392259 0.697201 O2-
0.073319 0.892259 0.752757 O2-
0.942022 0.978148 0.766874 O2-
0.057978 0.478148 0.711319 O2-
0.076781 0.590622 0.679942 O2-
0.923219 0.090622 0.735498 O2-
0.921841 0.709404 0.687504 O2-
0.078159 0.209404 0.743060 O2-
0.049265 0.843555 0.692601 O2-
0.950735 0.343555 0.748157 O2-
0.918787 0.943480 0.704680 O2-
0.081213 0.443480 0.760235 O2-
0.944691 0.504327 0.776912 O2-
0.055309 0.004327 0.721357 O2-
0.322795 0.926111 0.667209 O2-
0.677205 0.426111 0.722765 O2-
0.313918 0.066074 0.765445 O2-
0.686082 0.566074 0.709889 O2-
0.643576 0.041349 0.680383 O2-
0.356424 0.541349 0.735938 O2-
0.795305 0.153257 0.775330 O2-
0.204695 0.653257 0.719774 O2-
0.351974 0.154647 0.693909 O2-
0.648026 0.654647 0.749464 O2-
0.281781 0.224590 0.673129 O2-
0.718219 0.724590 0.728684 O2-
0.751546 0.252705 0.704237 O2-
0.248454 0.752705 0.759792 O2-
0.656290 0.330648 0.684115 O2-
0.343710 0.830648 0.739671 O2-
0.215121 0.332841 0.713101 O2-
0.784879 0.832841 0.768657 O2-
0.355777 0.446708 0.697174 O2-
0.644223 0.946708 0.752729 O2-
0.649890 0.536665 0.680123 O2-
0.350110 0.036665 0.735679 O2-
0.785996 0.649394 0.775096 O2-
0.214004 0.149394 0.719540 O2-
0.340793 0.651785 0.693310 O2-
0.659207 0.151785 0.748865 O2-
0.258044 0.728542 0.672924 O2-
0.741956 0.228542 0.728479 O2-
0.725734 0.758375 0.704119 O2-
0.274266 0.258375 0.759675 O2-
0.642950 0.828801 0.683472 O2-
0.357050 0.328801 0.739027 O2-
0.205272 0.829973 0.712953 O2-
0.794728 0.329973 0.768508 O2-
0.347295 0.944360 0.696979 O2-
0.652705 0.444360 0.752535 O2-
0.677470 0.919559 0.723088 O2-
0.322530 0.419559 0.667532 O2-
0.678914 0.057634 0.709691 O2-
0.321086 0.557634 0.765247 O2-
