Li71 P24 N1 O94                         
   1.00000000000000     
    14.7141437223863960   -0.0017822122976816   -0.0064998118497002
    -0.0012891535641135   10.5734729882107388    0.0109780303790791
    -0.0054219768728803    0.0128144437480550   12.3013706076878737
   Li   P    N    O 
    71    24     1    94
Direct
  0.1697708611138264  0.4170440107750156  0.0025010127142213
  0.1696918137412104  0.4253859561627259  0.5015401342425068
  0.1682453729708995  0.9269327834158936 -0.0012210386843125
  0.1687546586683719  0.9229980164321655  0.5028197405197969
  0.5030057053960122  0.4221993867001413 -0.0000493999783619
  0.5031970396075318  0.4226378224431992  0.5004966249254101
  0.5043883688324771  0.9231200083261983 -0.0010214253517899
  0.5032993652127559  0.9226113565835701  0.5006625774146736
  0.8376316522766800  0.4231988033577450 -0.0000186306551475
  0.8363556727687889  0.4224689522973985  0.5003159942207530
  0.8352413498694875  0.9198567086609495 -0.0008985477693396
  0.8352628371023191  0.9231085104056530  0.5004093552695003
  0.0002985588086716  0.0775138351491921  0.2523644280464095
  0.0037711461811708  0.0759325381741127  0.7497155860239316
  0.0026968069835132  0.5803523065000186  0.2501708376861416
  0.0033128401061901  0.5760857863379552  0.7508764257445295
  0.3629427461560258  0.0839701630263893  0.2464073871367712
  0.3362532859078073  0.0773567597392039  0.7513090449448239
  0.3362766338034910  0.5767544989081098  0.2494316610817404
  0.3366640193236037  0.5766291793822779  0.7508693442522557
  0.6699768922854302  0.0778204172560619  0.2490859947761267
  0.6695183299833293  0.0776736835906774  0.7498303183059195
  0.6693403084947862  0.5780539417333705  0.2497206308811460
  0.6698356731571304  0.5769676597280712  0.7502869874671642
  0.1702500108158347  0.1628721661535439  0.6274110737400513
  0.1693324570213360  0.6575578355747540  0.1246989066369604
  0.1695891603427620  0.6630278393427782  0.6279175393207307
  0.5048533131258326  0.1656419799420863  0.1224661467911172
  0.5021572301364196  0.1636259863417064  0.6265798419376899
  0.5028384097023696  0.6622728401031496  0.1255635439013524
  0.5034322818228677  0.6632692467945772  0.6268220584477174
  0.8398647987841991  0.1640480263952488  0.1255521286739416
  0.8360633547192725  0.1636931255618378  0.6261641600356529
  0.8359915844537483  0.6631768111149782  0.1262905893048131
  0.8357778769105069  0.6630707361900993  0.6266086163956193
  0.0054856325677206  0.3418711728880203  0.1257665173623855
  0.0029877647982391  0.3363492974239634  0.6244479270103385
  0.0004022523420072  0.8382330159455802  0.1197498944376835
  0.0020836489686619  0.8356842756098587  0.6241420452738043
  0.3323436964832104  0.3336165995629261  0.1230546253591782
  0.3357761964318528  0.3370341402500008  0.6239163393993856
  0.3387501402557138  0.8354906749849017  0.1211145467009960
  0.3365824888704745  0.8362445570122884  0.6239786776873332
  0.6711538708390470  0.3369019571729907  0.1235231746947496
  0.6694943081322394  0.3368775745761764  0.6241066727670134
  0.6698130130678213  0.8360613513280152  0.1229904898806610
  0.6692160043434089  0.8365926734078841  0.6237271923857354
  0.0018749069436828  0.3388366205783692  0.3745572642535712
  0.0039083698572246  0.3342646184049233  0.8787329249625551
 -0.0009016336764547  0.8352147220284289  0.3797258699256775
  0.0029768509806191  0.8359433068099196  0.8739852700201051
  0.3360285476237391  0.3387416132336645  0.3756673828724926
  0.3364432491481905  0.3346694669405375  0.8770202265421131
  0.3384318130326023  0.8349662159403120  0.3770481494138717
  0.3367505031581124  0.8367466653994639  0.8768466491120654
  0.6695411844084325  0.3377317205055879  0.3765983893454199
  0.6699497412900320  0.3367365665636909  0.8765079952310213
  0.6694144606137082  0.8363111945259315  0.3770623363728970
  0.6696279676255774  0.8366149644144530  0.8756272392102559
  0.1644572678100051  0.1803233205667887  0.3839026066304326
  0.1697314445974866  0.1617823153747595  0.8780209895452709
  0.1683629331058383  0.6599226308517989  0.3777313386297603
  0.1696184172920024  0.6624331167936924  0.8735388639496582
  0.5051854393701020  0.1653819871100955  0.3750978255962346
  0.5029785293978229  0.1630141556622428  0.8734839183451236
  0.5032188903335102  0.6622988833272268  0.3737351602502466
  0.5029107676672721  0.6630951940414798  0.8733759690563151
  0.8350301835072153  0.1644570299957691  0.3734389335256134
  0.8362000921066964  0.1635812776773117  0.8714554545140633
  0.8351206017660544  0.6628427966821948  0.3742904955624743
  0.8362777061723488  0.6630721470373065  0.8729806414613601
  0.1676279846708326  0.4179003314727688  0.2503571152829664
  0.1671725920046467  0.4108963579687454  0.7504295828983079
  0.1653172142052943  0.9029710948261478  0.2509087181871169
  0.1676338432180446  0.9114964898082770  0.7493180368089707
  0.5007181907844661  0.4120681539781769  0.2497090053430724
  0.5005843667582582  0.4117886194205346  0.7501492398509858
  0.5004018542630525  0.9107454649657273  0.2498852867863869
  0.5005023254507153  0.9123221407202380  0.7496222378539511
  0.8330866892264368  0.4137455808648686  0.2501707130277960
  0.8340176623433138  0.4120087353524243  0.7501405101637102
  0.8319975240836169  0.9119652586496316  0.2506648864487239
  0.8333118283218027  0.9120360157247462  0.7489887115085435
 -0.0008013693471122  0.0851701196287056 -0.0022502499056119
  0.0000699888690890  0.0876337881939304  0.5002237079244166
  0.0005504204699210  0.5891795038579319 -0.0007428676497795
 -0.0001275508744695  0.5877937228632290  0.5010664529090684
  0.3343303406575817  0.0856037591952586 -0.0006386269543700
  0.3334151433862117  0.0877677685397281  0.4975883169395504
  0.3340793690299594  0.5865858317769311 -0.0006296557101438
  0.3344866155727657  0.5878650862088127  0.5009795714270114
  0.6682044174297485  0.0877140483503024 -0.0006056951803372
  0.6665927147519634  0.0881315833420469  0.5000780919328423
  0.6672961134540270  0.5877468408628317 -0.0003938474659763
  0.6668231888756289  0.5877101639387439  0.5003949991141552
  0.0217472552149548  0.1590015427909541  0.1097554085366747
  0.0358883198924266  0.1567914552119500  0.3960407446572012
  0.0354116618039392  0.1527227642207587  0.8927224174295402
  0.0351738844193665  0.6584410823268051  0.3976337940454247
  0.0355261179820699  0.6577459561956293  0.8948103036485870
  0.3690499686225097  0.1565691576814562  0.3932128451255017
  0.3708108846078784  0.1558918130698147  0.8957030231110484
  0.3696121781760882  0.6567097301951231  0.3966881714770698
  0.3695191156379516  0.6564089796353604  0.8955929183076841
  0.7010643895009036  0.1572126446223032  0.3955829105892978
  0.7031288694846430  0.1567956089895111  0.8952059263877548
  0.7017539659715892  0.6570437324372786  0.3962882160223772
  0.7024230328554965  0.6571034739865484  0.8955607901902911
  0.2013069545265688  0.0513543200399875  0.7489392428357158
  0.2006370757351059  0.5590490537826571  0.2545526817315648
  0.2010879130760338  0.5507909496631694  0.7501418878332780
  0.5304814462018640  0.0527482039380504  0.2496088609691562
  0.5342101686780402  0.0522426112078346  0.7493795165673723
  0.5339250168550193  0.5522801094879327  0.2498905261911390
  0.5343880686925081  0.5516830637312208  0.7499503270054549
  0.8650581948968470  0.0518501840247429  0.2517617916622035
  0.8674639016859726  0.0516479837587912  0.7484452155301563
  0.8669460464365684  0.5536903709056272  0.2508994673229966
  0.8676063366296545  0.5519434154061762  0.7497991261857410
  0.0617010346463213  0.4160972197199342  0.2524146282358548
  0.0613109784883303  0.4083515002354338  0.7506020375582182
  0.0599888752079152  0.9047890523325618  0.2514619674638972
  0.0618018438688741  0.9083153994887346  0.7482409956173294
  0.3949939213213334  0.4081566247299359  0.2491133318909022
  0.3947651503074308  0.4086784372418823  0.7500934008503183
  0.3942711602845138  0.9065670911899957  0.2496282516383712
  0.3947024764159635  0.9095502356707894  0.7495405907531733
  0.7271718577559024  0.4110165201045428  0.2507688848642067
  0.7281256794209636  0.4092066281710079  0.7500241357218096
  0.7261483259077883  0.9085887803652281  0.2501567060385543
  0.7274450752419064  0.9098196058088764  0.7491992031546990
  0.2300534988724442  0.0846623537574656 -0.0021232151687292
  0.2272134402045016  0.0908283296466128  0.4952589938213753
  0.2283158881001301  0.5895303562521167 -0.0009189294892779
  0.2286445853270235  0.5912731337034469  0.5020395962661064
  0.5623921530800241  0.0907521254987989 -0.0006833076250142
  0.5606701083749149  0.0906722673101305  0.5005831862645329
  0.5614349551323358  0.5903207928949783 -0.0003279689727379
  0.5609829757202768  0.5902585706358516  0.5003418418816880
  0.8925014481227100  0.0860050045351619 -0.0042729269574506
  0.8943991068120325  0.0911929541346858  0.4996282508070793
  0.8946104249364660  0.5922208619849205 -0.0002219351319539
  0.8940890114302855  0.5905324971955854  0.5005946242041301
  0.2041823324080398  0.3548889905215028  0.1469467936699590
  0.2019980581489525  0.3425215726698950  0.6456632189031790
  0.2033379596261236  0.8415391793969146  0.1459586351489357
  0.2029737626473035  0.8427995688271881  0.6449761743370598
  0.5371784043093241  0.3433014388137401  0.1463385825641011
  0.5357201545320608  0.3427261992609361  0.6460815154714322
  0.5364148842193411  0.8426738778135814  0.1464300131037244
  0.5355655782579974  0.8433602084358492  0.6454958802267875
  0.8677525649948479  0.3459472758810799  0.1458725494546433
  0.8690977162007330  0.3428714525083517  0.6461172374883958
  0.8678114193638716  0.8433639110541173  0.1468826047270231
  0.8682224854071333  0.8428532233068308  0.6449058186726965
  0.0361837123917388  0.1564456226408248  0.6035854316514407
  0.0358205990386855  0.6591842438312957  0.1030172762576827
  0.0353270777835232  0.6563594176835627  0.6051173420903687
  0.3712308355661817  0.1555794744915226  0.1028810580140041
  0.3676271728501885  0.1573474284013179  0.6014210017299120
  0.3692886839163759  0.6559111647207011  0.1034701659510731
  0.3701647687195609  0.6568474361970100  0.6046386261513489
  0.7035282153281965  0.1564700570784671  0.1034647573929705
  0.7023200960360255  0.1573134549828348  0.6035877375717323
  0.7024115616805935  0.6569775841371832  0.1035801400562202
  0.7020067749076944  0.6569369649010943  0.6042627678443213
  0.0343325038578924  0.4498294221600397 -0.0002474973632235
  0.0338158332840692  0.4480857271225147  0.5004377025294336
  0.0338894454069192  0.9448180563392798 -0.0038483899299821
  0.0334731136377725  0.9475538852823336  0.4997720087238116
  0.3682265732237667  0.4470703916536050 -0.0004900901860203
  0.3678250240321168  0.4478282718522529  0.5005363241566282
  0.3712674531017172  0.9464172204835263  0.0001467054051578
  0.3670168255078523  0.9480692818677134  0.4987406219782628
  0.7013582047774191  0.4481159423765450 -0.0002972872043927
  0.7007870992989437  0.4479909293964660  0.5004893669678375
  0.7009682587251153  0.9473449235720266 -0.0005493389979409
  0.7002296401549473  0.9482785743898907  0.5000287515816909
  0.2026499876683477  0.3476169101070667  0.3552826279305320
  0.2027984410242433  0.3411830863076792  0.8537844814922679
  0.2034251145813433  0.8417071831295213  0.3567585146657782
  0.2028628025758310  0.8418735136473164  0.8529574846518229
  0.5359075838381619  0.3434899199214154  0.3543567917718610
  0.5362478254970743  0.3427314557697285  0.8540562703026336
  0.5357066704000920  0.8433119249001358  0.3544852596756585
  0.5361588312319461  0.8429263965251506  0.8533502215825229
  0.8684024856983286  0.3438304401842402  0.3540719630501500
  0.8694128666951766  0.3430190907677338  0.8541425419122369
  0.8672126099015611  0.8425815031106920  0.3548579826715389
  0.8685411095559189  0.8422846919188435  0.8526863098726402
 
  0.00000000E+00  0.00000000E+00  0.00000000E+00
  0.00000000E+00  0.00000000E+00  0.00000000E+00
  0.00000000E+00  0.00000000E+00  0.00000000E+00
  0.00000000E+00  0.00000000E+00  0.00000000E+00
  0.00000000E+00  0.00000000E+00  0.00000000E+00
  0.00000000E+00  0.00000000E+00  0.00000000E+00
  0.00000000E+00  0.00000000E+00  0.00000000E+00
  0.00000000E+00  0.00000000E+00  0.00000000E+00
  0.00000000E+00  0.00000000E+00  0.00000000E+00
  0.00000000E+00  0.00000000E+00  0.00000000E+00
  0.00000000E+00  0.00000000E+00  0.00000000E+00
  0.00000000E+00  0.00000000E+00  0.00000000E+00
  0.00000000E+00  0.00000000E+00  0.00000000E+00
  0.00000000E+00  0.00000000E+00  0.00000000E+00
  0.00000000E+00  0.00000000E+00  0.00000000E+00
  0.00000000E+00  0.00000000E+00  0.00000000E+00
  0.00000000E+00  0.00000000E+00  0.00000000E+00
  0.00000000E+00  0.00000000E+00  0.00000000E+00
  0.00000000E+00  0.00000000E+00  0.00000000E+00
  0.00000000E+00  0.00000000E+00  0.00000000E+00
  0.00000000E+00  0.00000000E+00  0.00000000E+00
  0.00000000E+00  0.00000000E+00  0.00000000E+00
  0.00000000E+00  0.00000000E+00  0.00000000E+00
  0.00000000E+00  0.00000000E+00  0.00000000E+00
  0.00000000E+00  0.00000000E+00  0.00000000E+00
  0.00000000E+00  0.00000000E+00  0.00000000E+00
  0.00000000E+00  0.00000000E+00  0.00000000E+00
  0.00000000E+00  0.00000000E+00  0.00000000E+00
  0.00000000E+00  0.00000000E+00  0.00000000E+00
  0.00000000E+00  0.00000000E+00  0.00000000E+00
  0.00000000E+00  0.00000000E+00  0.00000000E+00
  0.00000000E+00  0.00000000E+00  0.00000000E+00
  0.00000000E+00  0.00000000E+00  0.00000000E+00
  0.00000000E+00  0.00000000E+00  0.00000000E+00
  0.00000000E+00  0.00000000E+00  0.00000000E+00
  0.00000000E+00  0.00000000E+00  0.00000000E+00
  0.00000000E+00  0.00000000E+00  0.00000000E+00
  0.00000000E+00  0.00000000E+00  0.00000000E+00
  0.00000000E+00  0.00000000E+00  0.00000000E+00
  0.00000000E+00  0.00000000E+00  0.00000000E+00
  0.00000000E+00  0.00000000E+00  0.00000000E+00
  0.00000000E+00  0.00000000E+00  0.00000000E+00
  0.00000000E+00  0.00000000E+00  0.00000000E+00
  0.00000000E+00  0.00000000E+00  0.00000000E+00
  0.00000000E+00  0.00000000E+00  0.00000000E+00
  0.00000000E+00  0.00000000E+00  0.00000000E+00
  0.00000000E+00  0.00000000E+00  0.00000000E+00
  0.00000000E+00  0.00000000E+00  0.00000000E+00
  0.00000000E+00  0.00000000E+00  0.00000000E+00
  0.00000000E+00  0.00000000E+00  0.00000000E+00
  0.00000000E+00  0.00000000E+00  0.00000000E+00
  0.00000000E+00  0.00000000E+00  0.00000000E+00
  0.00000000E+00  0.00000000E+00  0.00000000E+00
  0.00000000E+00  0.00000000E+00  0.00000000E+00
  0.00000000E+00  0.00000000E+00  0.00000000E+00
  0.00000000E+00  0.00000000E+00  0.00000000E+00
  0.00000000E+00  0.00000000E+00  0.00000000E+00
  0.00000000E+00  0.00000000E+00  0.00000000E+00
  0.00000000E+00  0.00000000E+00  0.00000000E+00
  0.00000000E+00  0.00000000E+00  0.00000000E+00
  0.00000000E+00  0.00000000E+00  0.00000000E+00
  0.00000000E+00  0.00000000E+00  0.00000000E+00
  0.00000000E+00  0.00000000E+00  0.00000000E+00
  0.00000000E+00  0.00000000E+00  0.00000000E+00
  0.00000000E+00  0.00000000E+00  0.00000000E+00
  0.00000000E+00  0.00000000E+00  0.00000000E+00
  0.00000000E+00  0.00000000E+00  0.00000000E+00
  0.00000000E+00  0.00000000E+00  0.00000000E+00
  0.00000000E+00  0.00000000E+00  0.00000000E+00
  0.00000000E+00  0.00000000E+00  0.00000000E+00
  0.00000000E+00  0.00000000E+00  0.00000000E+00
  0.00000000E+00  0.00000000E+00  0.00000000E+00
  0.00000000E+00  0.00000000E+00  0.00000000E+00
  0.00000000E+00  0.00000000E+00  0.00000000E+00
  0.00000000E+00  0.00000000E+00  0.00000000E+00
  0.00000000E+00  0.00000000E+00  0.00000000E+00
  0.00000000E+00  0.00000000E+00  0.00000000E+00
  0.00000000E+00  0.00000000E+00  0.00000000E+00
  0.00000000E+00  0.00000000E+00  0.00000000E+00
  0.00000000E+00  0.00000000E+00  0.00000000E+00
  0.00000000E+00  0.00000000E+00  0.00000000E+00
  0.00000000E+00  0.00000000E+00  0.00000000E+00
  0.00000000E+00  0.00000000E+00  0.00000000E+00
  0.00000000E+00  0.00000000E+00  0.00000000E+00
  0.00000000E+00  0.00000000E+00  0.00000000E+00
  0.00000000E+00  0.00000000E+00  0.00000000E+00
  0.00000000E+00  0.00000000E+00  0.00000000E+00
  0.00000000E+00  0.00000000E+00  0.00000000E+00
  0.00000000E+00  0.00000000E+00  0.00000000E+00
  0.00000000E+00  0.00000000E+00  0.00000000E+00
  0.00000000E+00  0.00000000E+00  0.00000000E+00
  0.00000000E+00  0.00000000E+00  0.00000000E+00
  0.00000000E+00  0.00000000E+00  0.00000000E+00
  0.00000000E+00  0.00000000E+00  0.00000000E+00
  0.00000000E+00  0.00000000E+00  0.00000000E+00
  0.00000000E+00  0.00000000E+00  0.00000000E+00
  0.00000000E+00  0.00000000E+00  0.00000000E+00
  0.00000000E+00  0.00000000E+00  0.00000000E+00
  0.00000000E+00  0.00000000E+00  0.00000000E+00
  0.00000000E+00  0.00000000E+00  0.00000000E+00
  0.00000000E+00  0.00000000E+00  0.00000000E+00
  0.00000000E+00  0.00000000E+00  0.00000000E+00
  0.00000000E+00  0.00000000E+00  0.00000000E+00
  0.00000000E+00  0.00000000E+00  0.00000000E+00
  0.00000000E+00  0.00000000E+00  0.00000000E+00
  0.00000000E+00  0.00000000E+00  0.00000000E+00
  0.00000000E+00  0.00000000E+00  0.00000000E+00
  0.00000000E+00  0.00000000E+00  0.00000000E+00
  0.00000000E+00  0.00000000E+00  0.00000000E+00
  0.00000000E+00  0.00000000E+00  0.00000000E+00
  0.00000000E+00  0.00000000E+00  0.00000000E+00
  0.00000000E+00  0.00000000E+00  0.00000000E+00
  0.00000000E+00  0.00000000E+00  0.00000000E+00
  0.00000000E+00  0.00000000E+00  0.00000000E+00
  0.00000000E+00  0.00000000E+00  0.00000000E+00
  0.00000000E+00  0.00000000E+00  0.00000000E+00
  0.00000000E+00  0.00000000E+00  0.00000000E+00
  0.00000000E+00  0.00000000E+00  0.00000000E+00
  0.00000000E+00  0.00000000E+00  0.00000000E+00
  0.00000000E+00  0.00000000E+00  0.00000000E+00
  0.00000000E+00  0.00000000E+00  0.00000000E+00
  0.00000000E+00  0.00000000E+00  0.00000000E+00
  0.00000000E+00  0.00000000E+00  0.00000000E+00
  0.00000000E+00  0.00000000E+00  0.00000000E+00
  0.00000000E+00  0.00000000E+00  0.00000000E+00
  0.00000000E+00  0.00000000E+00  0.00000000E+00
  0.00000000E+00  0.00000000E+00  0.00000000E+00
  0.00000000E+00  0.00000000E+00  0.00000000E+00
  0.00000000E+00  0.00000000E+00  0.00000000E+00
  0.00000000E+00  0.00000000E+00  0.00000000E+00
  0.00000000E+00  0.00000000E+00  0.00000000E+00
  0.00000000E+00  0.00000000E+00  0.00000000E+00
  0.00000000E+00  0.00000000E+00  0.00000000E+00
  0.00000000E+00  0.00000000E+00  0.00000000E+00
  0.00000000E+00  0.00000000E+00  0.00000000E+00
  0.00000000E+00  0.00000000E+00  0.00000000E+00
  0.00000000E+00  0.00000000E+00  0.00000000E+00
  0.00000000E+00  0.00000000E+00  0.00000000E+00
  0.00000000E+00  0.00000000E+00  0.00000000E+00
  0.00000000E+00  0.00000000E+00  0.00000000E+00
  0.00000000E+00  0.00000000E+00  0.00000000E+00
  0.00000000E+00  0.00000000E+00  0.00000000E+00
  0.00000000E+00  0.00000000E+00  0.00000000E+00
  0.00000000E+00  0.00000000E+00  0.00000000E+00
  0.00000000E+00  0.00000000E+00  0.00000000E+00
  0.00000000E+00  0.00000000E+00  0.00000000E+00
  0.00000000E+00  0.00000000E+00  0.00000000E+00
  0.00000000E+00  0.00000000E+00  0.00000000E+00
  0.00000000E+00  0.00000000E+00  0.00000000E+00
  0.00000000E+00  0.00000000E+00  0.00000000E+00
  0.00000000E+00  0.00000000E+00  0.00000000E+00
  0.00000000E+00  0.00000000E+00  0.00000000E+00
  0.00000000E+00  0.00000000E+00  0.00000000E+00
  0.00000000E+00  0.00000000E+00  0.00000000E+00
  0.00000000E+00  0.00000000E+00  0.00000000E+00
  0.00000000E+00  0.00000000E+00  0.00000000E+00
  0.00000000E+00  0.00000000E+00  0.00000000E+00
  0.00000000E+00  0.00000000E+00  0.00000000E+00
  0.00000000E+00  0.00000000E+00  0.00000000E+00
  0.00000000E+00  0.00000000E+00  0.00000000E+00
  0.00000000E+00  0.00000000E+00  0.00000000E+00
  0.00000000E+00  0.00000000E+00  0.00000000E+00
  0.00000000E+00  0.00000000E+00  0.00000000E+00
  0.00000000E+00  0.00000000E+00  0.00000000E+00
  0.00000000E+00  0.00000000E+00  0.00000000E+00
  0.00000000E+00  0.00000000E+00  0.00000000E+00
  0.00000000E+00  0.00000000E+00  0.00000000E+00
  0.00000000E+00  0.00000000E+00  0.00000000E+00
  0.00000000E+00  0.00000000E+00  0.00000000E+00
  0.00000000E+00  0.00000000E+00  0.00000000E+00
  0.00000000E+00  0.00000000E+00  0.00000000E+00
  0.00000000E+00  0.00000000E+00  0.00000000E+00
  0.00000000E+00  0.00000000E+00  0.00000000E+00
  0.00000000E+00  0.00000000E+00  0.00000000E+00
  0.00000000E+00  0.00000000E+00  0.00000000E+00
  0.00000000E+00  0.00000000E+00  0.00000000E+00
  0.00000000E+00  0.00000000E+00  0.00000000E+00
  0.00000000E+00  0.00000000E+00  0.00000000E+00
  0.00000000E+00  0.00000000E+00  0.00000000E+00
  0.00000000E+00  0.00000000E+00  0.00000000E+00
  0.00000000E+00  0.00000000E+00  0.00000000E+00
  0.00000000E+00  0.00000000E+00  0.00000000E+00
  0.00000000E+00  0.00000000E+00  0.00000000E+00
  0.00000000E+00  0.00000000E+00  0.00000000E+00
  0.00000000E+00  0.00000000E+00  0.00000000E+00
  0.00000000E+00  0.00000000E+00  0.00000000E+00
  0.00000000E+00  0.00000000E+00  0.00000000E+00
  0.00000000E+00  0.00000000E+00  0.00000000E+00
  0.00000000E+00  0.00000000E+00  0.00000000E+00
  0.00000000E+00  0.00000000E+00  0.00000000E+00
