Li71 P24 N1 O94                         
   1.00000000000000     
    14.7214053611442299    0.0084812248123767   -0.0255680215085029
     0.0060715896365681   10.5557177608858890    0.0082010593369645
    -0.0212678089686321    0.0095330122678541   12.3742447635767210
   Li   P    N    O 
    71    24     1    94
Direct
  0.1693141110959357  0.4213608289303944 -0.0105890581318062
  0.1595789504907482  0.4348335113808926  0.5225312678480190
  0.1702289175553220  0.9243834234058188  0.0000321311757121
  0.1708315771934353  0.9186203510399923  0.5009895232506414
  0.5053932839258682  0.4219302555901097 -0.0017288492941450
  0.5082081858667911  0.4252135339633477  0.5058393356530886
  0.5040944501778516  0.9225580256338909 -0.0007744841687661
  0.5032667874684378  0.9221594551929535  0.5003933885296187
  0.8361956559400271  0.4219381039291500  0.0011886290348088
  0.8350915562289495  0.4236160730679234  0.5008995464749531
  0.8373102755195693  0.9244732472276573  0.0010403424551567
  0.8362593568911491  0.9239656473516584  0.4992259716357561
  0.0000641254893878  0.0722121667769033  0.7514794575222856
 -0.0023786986103492  0.5834222994308610  0.2545329813251080
  0.0018940849445509  0.5791419158049305  0.7515446191881886
  0.3358557562811292  0.0758776713140476  0.2481355690773893
  0.3364350469844214  0.0774228468665178  0.7499135318033872
  0.3417035102759199  0.5812947072669087  0.2469908742218181
  0.3367153405606665  0.5775331554084540  0.7497800646187176
  0.6788982112751517  0.0737140999671719  0.2493585123961482
  0.6703124235380886  0.0760348066445767  0.7501469975774122
  0.6717845082870402  0.5804882357940068  0.2496991826398008
  0.6694387339489427  0.5783106746951705  0.7504367595102197
  0.1655633644945048  0.1581080703678036  0.1268233391879514
  0.1668546259540301  0.1607137009825440  0.6272307271254163
  0.1695902909047835  0.6751132957851069  0.1174273977875694
  0.1695933851645503  0.6655109609519954  0.6269809259465006
  0.5057372663541121  0.1611364105271540  0.1260066498140100
  0.5028224435674533  0.1629044111075451  0.6264591247162563
  0.5049969617123433  0.6632845403464250  0.1244491887609642
  0.5022102835716491  0.6641413903255717  0.6267954567797892
  0.8394159013025924  0.1612180276362130  0.1275108234928143
  0.8354753478215228  0.1630154966519253  0.6275839937226396
  0.8359471889273478  0.6652656088569909  0.1260436484110171
  0.8352098350492587  0.6644005879416726  0.6276665029527601
 -0.0021230790800313  0.3285888809934053  0.1279451502336252
 -0.0002868062810272  0.3346947406909441  0.6280598896631850
  0.0004210416822995  0.8460916642399487  0.1257224951796871
  0.0022389621036898  0.8386883935773259  0.6231976848591209
  0.3425178201790447  0.3367470051589637  0.1201417408166273
  0.3351669814104192  0.3359794111161941  0.6245413710692878
  0.3397788787699370  0.8376723362924767  0.1220812722843671
  0.3367017269064563  0.8372715617350351  0.6235473059757755
  0.6718080379409250  0.3358802505911316  0.1234193919466823
  0.6701909165167282  0.3357906779469733  0.6253745405850814
  0.6687355122455279  0.8346952072533849  0.1215960723471488
  0.6691363634455647  0.8364760934801854  0.6237729077282301
 -0.0026579104133481  0.3365631124992676  0.3795296514193915
  0.0018201736401899  0.3340908269703047  0.8769077919882331
  0.0007667897113481  0.8471878520175031  0.3738674132951864
  0.0031258134968041  0.8365978176644826  0.8772318674950046
  0.3776294575323837  0.3339201727694194  0.3830230027608453
  0.3375442298744696  0.3356667557078143  0.8755506698734711
  0.3390415285314705  0.8369899508353882  0.3753883383789051
  0.3371482124755077  0.8374598527245065  0.8760994919372633
  0.6696292738523619  0.3363697229215790  0.3768805701425046
  0.6699393476620306  0.3358416215869354  0.8759781418331554
  0.6680828046905304  0.8352279420415134  0.3780232896545961
  0.6697293922273835  0.8360756733411074  0.8764164833888756
  0.1539844025307098  0.1282353902737311  0.3718088667198582
  0.1677278709657641  0.1605589462311165  0.8725704881139094
  0.1670308728959966  0.6656947193568684  0.3733548434908187
  0.1697007247209212  0.6636821374026831  0.8731937632280747
  0.5078383991832430  0.1569635944790038  0.3718591043204125
  0.5036195104407174  0.1627017061089682  0.8730962514332756
  0.5040613401525504  0.6634555977006062  0.3739754598189955
  0.5032123135743121  0.6633951168028374  0.8729677650089137
  0.8394015326069798  0.1620557976534957  0.3728203492685646
  0.8362775163429502  0.1629622182374090  0.8738675218296601
  0.8348130531181429  0.6664362562224594  0.3747286239005610
  0.8364272150489063  0.6631466174424829  0.8747799116706065
  0.1563717294571773  0.4344306416506966  0.2180185804369307
  0.1664881728003801  0.4119245591084910  0.7511982182280618
  0.1697579876572817  0.9068909378741871  0.2483516903973843
  0.1678787061753341  0.9105551919433928  0.7501334408326811
  0.5010984349593841  0.4137531222184150  0.2484201038846076
  0.5002488176516466  0.4122038270202370  0.7501530809426161
  0.5017253303276964  0.9116471843527599  0.2494578302502014
  0.5003654017795413  0.9122106299832864  0.7497582484584728
  0.8310774665812154  0.4135656204503302  0.2513251366086051
  0.8326939177243599  0.4132185152236116  0.7510088481191837
  0.8286400369502670  0.9115430545967375  0.2502904478988634
  0.8324898163149854  0.9110429078121973  0.7503756971471690
  0.0019234410274050  0.0899729527106945 -0.0052100364780841
  0.0004256922207769  0.0918229607600830  0.5076357957419050
  0.0012065148614322  0.5874631387572196  0.0011482170418351
 -0.0014331851756226  0.5908729767463200  0.5023423866332523
  0.3350356776919812  0.0881709171175070 -0.0007793330638611
  0.3332756859658663  0.0882417641286897  0.4987492526504071
  0.3353442199870347  0.5872440370073293 -0.0016356704846467
  0.3337925876915118  0.5860850373228260  0.4988407713832336
  0.6671484608735310  0.0874851523249920 -0.0011849724661992
  0.6664360981015134  0.0876653833292802  0.5011167066282561
  0.6672016033184582  0.5867349113625243 -0.0010633033422875
  0.6662640875362552  0.5878659309197818  0.5013633059858520
  0.0607215226088254  0.4080727918949287  0.2565749475311316
  0.0388250516246207  0.1718491667072915  0.4142343609878552
  0.0333547075802988  0.1527602287935974  0.8860609020603692
  0.0344126761138191  0.6601103550317542  0.3995890386110985
  0.0363334002356362  0.6560713595998482  0.8972068840679783
  0.3695677256615781  0.1564574205048697  0.3949700996512646
  0.3699836089853391  0.1572610521233934  0.8955561579137590
  0.3694504080927469  0.6545431016052708  0.3957532675968099
  0.3690292732466813  0.6567037480532666  0.8945836198936589
  0.7006113074526455  0.1575905007342890  0.3980481882764416
  0.7017168941912786  0.1559856921490604  0.8947398828305672
  0.7013994657160061  0.6561815354322164  0.3980022000568517
  0.7022470795256989  0.6558930059108733  0.8955893095944241
  0.2018477055553055  0.0486277532854913  0.2486296946488258
  0.2018125377119881  0.0504974907569253  0.7494941624185840
  0.2084496654788741  0.5568645550501898  0.2441620814398959
  0.2011464168603386  0.5516349119889966  0.7496173674066485
  0.5371221701094466  0.0508037297870048  0.2492108778034759
  0.5339871339180743  0.0522363424087202  0.7495580120151555
  0.5354375714925516  0.5529454798696576  0.2499976439839999
  0.5332697556269257  0.5525601213665616  0.7496536495189257
  0.8490747068091569  0.0543277133755353  0.2504882313707327
  0.8643530006457539  0.0516538815459055  0.7507562327221853
  0.8638637764277689  0.5543488318211701  0.2510406972787230
  0.8667306146081756  0.5531614319104355  0.7508610418612677
  0.0609821902189371  0.4107952523373726  0.7518660640152615
  0.0661662309190216  0.8942787511358148  0.2492348554131976
  0.0623331119131536  0.9055805674478826  0.7499905201215804
  0.3949207557957968  0.4123518462939522  0.2467056656517122
  0.3943578975423033  0.4089347075221725  0.7493743114305221
  0.3958601020741343  0.9105419982711526  0.2491496746806392
  0.3945146715686126  0.9095845715712556  0.7495622470234719
  0.7250359977598667  0.4106464270778315  0.2507739434482752
  0.7268511032013413  0.4106834719715177  0.7508559937050782
  0.7229504803675518  0.8952105322249391  0.2500230805776503
  0.7266396198286899  0.9063395293539218  0.7500729101975183
  0.2293456801392084  0.0914066005417176 -0.0005098116233626
  0.2273606789556809  0.0918072648287665  0.4975177827862378
  0.2291608314370731  0.5886223156234250 -0.0007181706020725
  0.2275094352195164  0.5860685184594008  0.4972847920789042
  0.5611440654327156  0.0901845608562152 -0.0012168102748814
  0.5603239536542275  0.0899606101352990  0.5012802486734287
  0.5612624961871282  0.5900392014809556 -0.0013179100245754
  0.5602673532431927  0.5924351083043977  0.5012197324162712
  0.8957973304464346  0.0916930336628180 -0.0012646820184177
  0.8945406179217233  0.0912263962039517  0.5029632558846336
  0.8953972569236959  0.5900481076500150  0.0009382499745178
  0.8928688359465600  0.5936463968628051  0.5016715959383810
  0.2097661147621385  0.3468600297402195  0.1421187506329291
  0.2008976922704071  0.3423213988820927  0.6474567921107974
  0.2086187346921695  0.8431088703416137  0.1439194939556632
  0.2036998478144908  0.8418539525100311  0.6465337028699066
  0.5369561626751883  0.3428981187345241  0.1470869068330993
  0.5357816879795468  0.3430134681829438  0.6470389738729738
  0.5355553058708713  0.8417309153543211  0.1459698446251721
  0.5349723592398391  0.8429726099452985  0.6461930454683131
  0.8657455769300612  0.3445886377848175  0.1478771505654663
  0.8670456634782151  0.3441994649661907  0.6473258487247613
  0.8674152231094520  0.8451418765527936  0.1469916424339621
  0.8683515293240575  0.8433245534280793  0.6467098004251919
  0.0414246460109639  0.1667106283316913  0.0891496794416158
  0.0319409682414226  0.1533899031995248  0.6166320241844087
  0.0369024644056830  0.6574762739727353  0.1040664050775403
  0.0352203798100104  0.6587496210161458  0.6059394187949748
  0.3710034575374082  0.1569441562647940  0.1027821386569429
  0.3681546533039823  0.1579334449150506  0.6020887419388766
  0.3713637380336886  0.6565324652249961  0.1012257655023861
  0.3673442839609964  0.6558029816583442  0.6025608200682337
  0.7023593486125491  0.1570446667609015  0.1015994506355835
  0.7013583318904243  0.1561088972475114  0.6050784430133039
  0.7022911420116256  0.6555967764399218  0.1022765681909879
  0.7016611509838517  0.6562553874908712  0.6049063736373370
  0.0356240180685935  0.4472528750956528  0.0016966179677461
  0.0314426385201199  0.4499701221744937  0.5045774043498765
  0.0354693918553338  0.9490624354040905 -0.0018859515126855
  0.0363319426718277  0.9521199467883892  0.5015395409162338
  0.3697828293354652  0.4474225860900097 -0.0021881496110817
  0.3685478067603933  0.4460682179315076  0.5006435154558518
  0.3692222267441274  0.9481917632689691 -0.0010862515682039
  0.3672676694489705  0.9482786434605933  0.4997059072596592
  0.7003805113877153  0.4463843624631705 -0.0008150385711478
  0.6981344474194273  0.4468368687225590  0.5014055686312988
  0.7005703849776572  0.9471329264649324 -0.0008150292364443
  0.6999837026751369  0.9474400390921042  0.5007554265391049
  0.2030508712940552  0.3418008355685352  0.8534565818281284
  0.2083002394056631  0.8408974912490987  0.3528720828182493
  0.2038714432312949  0.8419284811681008  0.8537926680678067
  0.5299221888563034  0.3433709177793451  0.3552414634950977
  0.5356672981394736  0.3432130090177302  0.8536500704851719
  0.5350491734019640  0.8422230781833165  0.3540106545548684
  0.5357029343919453  0.8427883406345440  0.8532341861189136
  0.8652560857795435  0.3454704882322051  0.3557856197910227
  0.8681963383323724  0.3440241005299896  0.8544591577481787
  0.8675174304964843  0.8452523659733397  0.3540169784540780
  0.8687131215466468  0.8422835192837811  0.8538301032076785
 
  0.00000000E+00  0.00000000E+00  0.00000000E+00
  0.00000000E+00  0.00000000E+00  0.00000000E+00
  0.00000000E+00  0.00000000E+00  0.00000000E+00
  0.00000000E+00  0.00000000E+00  0.00000000E+00
  0.00000000E+00  0.00000000E+00  0.00000000E+00
  0.00000000E+00  0.00000000E+00  0.00000000E+00
  0.00000000E+00  0.00000000E+00  0.00000000E+00
  0.00000000E+00  0.00000000E+00  0.00000000E+00
  0.00000000E+00  0.00000000E+00  0.00000000E+00
  0.00000000E+00  0.00000000E+00  0.00000000E+00
  0.00000000E+00  0.00000000E+00  0.00000000E+00
  0.00000000E+00  0.00000000E+00  0.00000000E+00
  0.00000000E+00  0.00000000E+00  0.00000000E+00
  0.00000000E+00  0.00000000E+00  0.00000000E+00
  0.00000000E+00  0.00000000E+00  0.00000000E+00
  0.00000000E+00  0.00000000E+00  0.00000000E+00
  0.00000000E+00  0.00000000E+00  0.00000000E+00
  0.00000000E+00  0.00000000E+00  0.00000000E+00
  0.00000000E+00  0.00000000E+00  0.00000000E+00
  0.00000000E+00  0.00000000E+00  0.00000000E+00
  0.00000000E+00  0.00000000E+00  0.00000000E+00
  0.00000000E+00  0.00000000E+00  0.00000000E+00
  0.00000000E+00  0.00000000E+00  0.00000000E+00
  0.00000000E+00  0.00000000E+00  0.00000000E+00
  0.00000000E+00  0.00000000E+00  0.00000000E+00
  0.00000000E+00  0.00000000E+00  0.00000000E+00
  0.00000000E+00  0.00000000E+00  0.00000000E+00
  0.00000000E+00  0.00000000E+00  0.00000000E+00
  0.00000000E+00  0.00000000E+00  0.00000000E+00
  0.00000000E+00  0.00000000E+00  0.00000000E+00
  0.00000000E+00  0.00000000E+00  0.00000000E+00
  0.00000000E+00  0.00000000E+00  0.00000000E+00
  0.00000000E+00  0.00000000E+00  0.00000000E+00
  0.00000000E+00  0.00000000E+00  0.00000000E+00
  0.00000000E+00  0.00000000E+00  0.00000000E+00
  0.00000000E+00  0.00000000E+00  0.00000000E+00
  0.00000000E+00  0.00000000E+00  0.00000000E+00
  0.00000000E+00  0.00000000E+00  0.00000000E+00
  0.00000000E+00  0.00000000E+00  0.00000000E+00
  0.00000000E+00  0.00000000E+00  0.00000000E+00
  0.00000000E+00  0.00000000E+00  0.00000000E+00
  0.00000000E+00  0.00000000E+00  0.00000000E+00
  0.00000000E+00  0.00000000E+00  0.00000000E+00
  0.00000000E+00  0.00000000E+00  0.00000000E+00
  0.00000000E+00  0.00000000E+00  0.00000000E+00
  0.00000000E+00  0.00000000E+00  0.00000000E+00
  0.00000000E+00  0.00000000E+00  0.00000000E+00
  0.00000000E+00  0.00000000E+00  0.00000000E+00
  0.00000000E+00  0.00000000E+00  0.00000000E+00
  0.00000000E+00  0.00000000E+00  0.00000000E+00
  0.00000000E+00  0.00000000E+00  0.00000000E+00
  0.00000000E+00  0.00000000E+00  0.00000000E+00
  0.00000000E+00  0.00000000E+00  0.00000000E+00
  0.00000000E+00  0.00000000E+00  0.00000000E+00
  0.00000000E+00  0.00000000E+00  0.00000000E+00
  0.00000000E+00  0.00000000E+00  0.00000000E+00
  0.00000000E+00  0.00000000E+00  0.00000000E+00
  0.00000000E+00  0.00000000E+00  0.00000000E+00
  0.00000000E+00  0.00000000E+00  0.00000000E+00
  0.00000000E+00  0.00000000E+00  0.00000000E+00
  0.00000000E+00  0.00000000E+00  0.00000000E+00
  0.00000000E+00  0.00000000E+00  0.00000000E+00
  0.00000000E+00  0.00000000E+00  0.00000000E+00
  0.00000000E+00  0.00000000E+00  0.00000000E+00
  0.00000000E+00  0.00000000E+00  0.00000000E+00
  0.00000000E+00  0.00000000E+00  0.00000000E+00
  0.00000000E+00  0.00000000E+00  0.00000000E+00
  0.00000000E+00  0.00000000E+00  0.00000000E+00
  0.00000000E+00  0.00000000E+00  0.00000000E+00
  0.00000000E+00  0.00000000E+00  0.00000000E+00
  0.00000000E+00  0.00000000E+00  0.00000000E+00
  0.00000000E+00  0.00000000E+00  0.00000000E+00
  0.00000000E+00  0.00000000E+00  0.00000000E+00
  0.00000000E+00  0.00000000E+00  0.00000000E+00
  0.00000000E+00  0.00000000E+00  0.00000000E+00
  0.00000000E+00  0.00000000E+00  0.00000000E+00
  0.00000000E+00  0.00000000E+00  0.00000000E+00
  0.00000000E+00  0.00000000E+00  0.00000000E+00
  0.00000000E+00  0.00000000E+00  0.00000000E+00
  0.00000000E+00  0.00000000E+00  0.00000000E+00
  0.00000000E+00  0.00000000E+00  0.00000000E+00
  0.00000000E+00  0.00000000E+00  0.00000000E+00
  0.00000000E+00  0.00000000E+00  0.00000000E+00
  0.00000000E+00  0.00000000E+00  0.00000000E+00
  0.00000000E+00  0.00000000E+00  0.00000000E+00
  0.00000000E+00  0.00000000E+00  0.00000000E+00
  0.00000000E+00  0.00000000E+00  0.00000000E+00
  0.00000000E+00  0.00000000E+00  0.00000000E+00
  0.00000000E+00  0.00000000E+00  0.00000000E+00
  0.00000000E+00  0.00000000E+00  0.00000000E+00
  0.00000000E+00  0.00000000E+00  0.00000000E+00
  0.00000000E+00  0.00000000E+00  0.00000000E+00
  0.00000000E+00  0.00000000E+00  0.00000000E+00
  0.00000000E+00  0.00000000E+00  0.00000000E+00
  0.00000000E+00  0.00000000E+00  0.00000000E+00
  0.00000000E+00  0.00000000E+00  0.00000000E+00
  0.00000000E+00  0.00000000E+00  0.00000000E+00
  0.00000000E+00  0.00000000E+00  0.00000000E+00
  0.00000000E+00  0.00000000E+00  0.00000000E+00
  0.00000000E+00  0.00000000E+00  0.00000000E+00
  0.00000000E+00  0.00000000E+00  0.00000000E+00
  0.00000000E+00  0.00000000E+00  0.00000000E+00
  0.00000000E+00  0.00000000E+00  0.00000000E+00
  0.00000000E+00  0.00000000E+00  0.00000000E+00
  0.00000000E+00  0.00000000E+00  0.00000000E+00
  0.00000000E+00  0.00000000E+00  0.00000000E+00
  0.00000000E+00  0.00000000E+00  0.00000000E+00
  0.00000000E+00  0.00000000E+00  0.00000000E+00
  0.00000000E+00  0.00000000E+00  0.00000000E+00
  0.00000000E+00  0.00000000E+00  0.00000000E+00
  0.00000000E+00  0.00000000E+00  0.00000000E+00
  0.00000000E+00  0.00000000E+00  0.00000000E+00
  0.00000000E+00  0.00000000E+00  0.00000000E+00
  0.00000000E+00  0.00000000E+00  0.00000000E+00
  0.00000000E+00  0.00000000E+00  0.00000000E+00
  0.00000000E+00  0.00000000E+00  0.00000000E+00
  0.00000000E+00  0.00000000E+00  0.00000000E+00
  0.00000000E+00  0.00000000E+00  0.00000000E+00
  0.00000000E+00  0.00000000E+00  0.00000000E+00
  0.00000000E+00  0.00000000E+00  0.00000000E+00
  0.00000000E+00  0.00000000E+00  0.00000000E+00
  0.00000000E+00  0.00000000E+00  0.00000000E+00
  0.00000000E+00  0.00000000E+00  0.00000000E+00
  0.00000000E+00  0.00000000E+00  0.00000000E+00
  0.00000000E+00  0.00000000E+00  0.00000000E+00
  0.00000000E+00  0.00000000E+00  0.00000000E+00
  0.00000000E+00  0.00000000E+00  0.00000000E+00
  0.00000000E+00  0.00000000E+00  0.00000000E+00
  0.00000000E+00  0.00000000E+00  0.00000000E+00
  0.00000000E+00  0.00000000E+00  0.00000000E+00
  0.00000000E+00  0.00000000E+00  0.00000000E+00
  0.00000000E+00  0.00000000E+00  0.00000000E+00
  0.00000000E+00  0.00000000E+00  0.00000000E+00
  0.00000000E+00  0.00000000E+00  0.00000000E+00
  0.00000000E+00  0.00000000E+00  0.00000000E+00
  0.00000000E+00  0.00000000E+00  0.00000000E+00
  0.00000000E+00  0.00000000E+00  0.00000000E+00
  0.00000000E+00  0.00000000E+00  0.00000000E+00
  0.00000000E+00  0.00000000E+00  0.00000000E+00
  0.00000000E+00  0.00000000E+00  0.00000000E+00
  0.00000000E+00  0.00000000E+00  0.00000000E+00
  0.00000000E+00  0.00000000E+00  0.00000000E+00
  0.00000000E+00  0.00000000E+00  0.00000000E+00
  0.00000000E+00  0.00000000E+00  0.00000000E+00
  0.00000000E+00  0.00000000E+00  0.00000000E+00
  0.00000000E+00  0.00000000E+00  0.00000000E+00
  0.00000000E+00  0.00000000E+00  0.00000000E+00
  0.00000000E+00  0.00000000E+00  0.00000000E+00
  0.00000000E+00  0.00000000E+00  0.00000000E+00
  0.00000000E+00  0.00000000E+00  0.00000000E+00
  0.00000000E+00  0.00000000E+00  0.00000000E+00
  0.00000000E+00  0.00000000E+00  0.00000000E+00
  0.00000000E+00  0.00000000E+00  0.00000000E+00
  0.00000000E+00  0.00000000E+00  0.00000000E+00
  0.00000000E+00  0.00000000E+00  0.00000000E+00
  0.00000000E+00  0.00000000E+00  0.00000000E+00
  0.00000000E+00  0.00000000E+00  0.00000000E+00
  0.00000000E+00  0.00000000E+00  0.00000000E+00
  0.00000000E+00  0.00000000E+00  0.00000000E+00
  0.00000000E+00  0.00000000E+00  0.00000000E+00
  0.00000000E+00  0.00000000E+00  0.00000000E+00
  0.00000000E+00  0.00000000E+00  0.00000000E+00
  0.00000000E+00  0.00000000E+00  0.00000000E+00
  0.00000000E+00  0.00000000E+00  0.00000000E+00
  0.00000000E+00  0.00000000E+00  0.00000000E+00
  0.00000000E+00  0.00000000E+00  0.00000000E+00
  0.00000000E+00  0.00000000E+00  0.00000000E+00
  0.00000000E+00  0.00000000E+00  0.00000000E+00
  0.00000000E+00  0.00000000E+00  0.00000000E+00
  0.00000000E+00  0.00000000E+00  0.00000000E+00
  0.00000000E+00  0.00000000E+00  0.00000000E+00
  0.00000000E+00  0.00000000E+00  0.00000000E+00
  0.00000000E+00  0.00000000E+00  0.00000000E+00
  0.00000000E+00  0.00000000E+00  0.00000000E+00
  0.00000000E+00  0.00000000E+00  0.00000000E+00
  0.00000000E+00  0.00000000E+00  0.00000000E+00
  0.00000000E+00  0.00000000E+00  0.00000000E+00
  0.00000000E+00  0.00000000E+00  0.00000000E+00
  0.00000000E+00  0.00000000E+00  0.00000000E+00
  0.00000000E+00  0.00000000E+00  0.00000000E+00
  0.00000000E+00  0.00000000E+00  0.00000000E+00
  0.00000000E+00  0.00000000E+00  0.00000000E+00
  0.00000000E+00  0.00000000E+00  0.00000000E+00
  0.00000000E+00  0.00000000E+00  0.00000000E+00
  0.00000000E+00  0.00000000E+00  0.00000000E+00
  0.00000000E+00  0.00000000E+00  0.00000000E+00
  0.00000000E+00  0.00000000E+00  0.00000000E+00
  0.00000000E+00  0.00000000E+00  0.00000000E+00
  0.00000000E+00  0.00000000E+00  0.00000000E+00
  0.00000000E+00  0.00000000E+00  0.00000000E+00
