Li56 P28 O98
1.0
6.730959 0.000000 7.860032
2.035903 8.419349 5.263538
0.000000 0.000000 68.387046
Li P O
56 28 98
direct
0.144977 0.987971 0.008578 Li+
0.855023 0.012029 0.068345 Li+
0.588727 0.751653 0.042715 Li+
0.411273 0.248347 0.034208 Li+
0.327738 0.791276 0.031443 Li+
0.672262 0.208724 0.045480 Li+
0.241886 0.450796 0.066482 Li+
0.758114 0.549204 0.010441 Li+
0.144977 0.987971 0.085501 Li+
0.855023 0.012029 0.145268 Li+
0.588727 0.751653 0.119638 Li+
0.411273 0.248347 0.111131 Li+
0.327738 0.791276 0.108366 Li+
0.672262 0.208724 0.122403 Li+
0.241886 0.450796 0.143405 Li+
0.758114 0.549204 0.087364 Li+
0.144977 0.987971 0.162424 Li+
0.855023 0.012029 0.222191 Li+
0.588727 0.751653 0.196561 Li+
0.411273 0.248347 0.188054 Li+
0.327738 0.791276 0.185289 Li+
0.672262 0.208724 0.199327 Li+
0.241886 0.450796 0.220328 Li+
0.758114 0.549204 0.164287 Li+
0.144977 0.987971 0.239347 Li+
0.855023 0.012029 0.299114 Li+
0.588727 0.751653 0.273484 Li+
0.411273 0.248347 0.264977 Li+
0.327738 0.791276 0.262212 Li+
0.672262 0.208724 0.276250 Li+
0.241886 0.450796 0.297252 Li+
0.758114 0.549204 0.241210 Li+
0.144977 0.987971 0.316270 Li+
0.855023 0.012029 0.376037 Li+
0.588727 0.751653 0.350407 Li+
0.411273 0.248347 0.341900 Li+
0.327738 0.791276 0.339135 Li+
0.672262 0.208724 0.353173 Li+
0.241886 0.450796 0.374175 Li+
0.758114 0.549204 0.318133 Li+
0.144977 0.987971 0.393193 Li+
0.855023 0.012029 0.452960 Li+
0.588727 0.751653 0.427331 Li+
0.411273 0.248347 0.418823 Li+
0.327738 0.791276 0.416058 Li+
0.672262 0.208724 0.430096 Li+
0.241886 0.450796 0.451098 Li+
0.758114 0.549204 0.395056 Li+
0.144977 0.987971 0.470117 Li+
0.855023 0.012029 0.529883 Li+
0.588727 0.751653 0.504254 Li+
0.411273 0.248347 0.495746 Li+
0.327738 0.791276 0.492981 Li+
0.672262 0.208724 0.507019 Li+
0.241886 0.450796 0.528021 Li+
0.758114 0.549204 0.471979 Li+
0.213298 0.631956 0.017595 P5+
0.786702 0.368044 0.059328 P5+
0.779241 0.845502 0.050733 P5+
0.220759 0.154498 0.026190 P5+
0.213298 0.631956 0.094518 P5+
0.786702 0.368044 0.136251 P5+
0.779241 0.845502 0.127656 P5+
0.220759 0.154498 0.103113 P5+
0.213298 0.631956 0.171441 P5+
0.786702 0.368044 0.213174 P5+
0.779241 0.845502 0.204579 P5+
0.220759 0.154498 0.180036 P5+
0.213298 0.631956 0.248364 P5+
0.786702 0.368044 0.290097 P5+
0.779241 0.845502 0.281502 P5+
0.220759 0.154498 0.256959 P5+
0.213298 0.631956 0.325287 P5+
0.786702 0.368044 0.367020 P5+
0.779241 0.845502 0.358425 P5+
0.220759 0.154498 0.333882 P5+
0.213298 0.631956 0.402210 P5+
0.786702 0.368044 0.443943 P5+
0.779241 0.845502 0.435348 P5+
0.220759 0.154498 0.410805 P5+
0.213298 0.631956 0.479134 P5+
0.786702 0.368044 0.520866 P5+
0.779241 0.845502 0.512271 P5+
0.220759 0.154498 0.487729 P5+
0.741759 0.874340 0.031063 O2-
0.605720 0.790684 0.008440 O2-
0.394280 0.209316 0.068483 O2-
0.848591 0.981976 0.042488 O2-
0.743350 0.376455 0.008674 O2-
0.256650 0.623545 0.068250 O2-
0.732189 0.526190 0.042805 O2-
0.267811 0.473810 0.034118 O2-
0.702403 0.236504 0.069178 O2-
0.297597 0.763496 0.007745 O2-
0.962384 0.683894 0.045138 O2-
0.037616 0.316106 0.031785 O2-
0.151409 0.018024 0.034435 O2-
0.258241 0.125660 0.045861 O2-
0.741759 0.874340 0.107986 O2-
0.605720 0.790684 0.085364 O2-
0.394280 0.209316 0.145406 O2-
0.848591 0.981976 0.119411 O2-
0.743350 0.376455 0.085597 O2-
0.256650 0.623545 0.145173 O2-
0.732189 0.526190 0.119728 O2-
0.267811 0.473810 0.111041 O2-
0.702403 0.236504 0.146101 O2-
0.297597 0.763496 0.084668 O2-
0.962384 0.683894 0.122061 O2-
0.037616 0.316106 0.108708 O2-
0.151409 0.018024 0.111358 O2-
0.258241 0.125660 0.122784 O2-
0.741759 0.874340 0.184909 O2-
0.605720 0.790684 0.162287 O2-
0.394280 0.209316 0.222329 O2-
0.848591 0.981976 0.196334 O2-
0.743350 0.376455 0.162520 O2-
0.256650 0.623545 0.222096 O2-
0.732189 0.526190 0.196651 O2-
0.267811 0.473810 0.187964 O2-
0.702403 0.236504 0.223024 O2-
0.297597 0.763496 0.161591 O2-
0.962384 0.683894 0.198984 O2-
0.037616 0.316106 0.185631 O2-
0.151409 0.018024 0.188281 O2-
0.258241 0.125660 0.199707 O2-
0.741759 0.874340 0.261832 O2-
0.605720 0.790684 0.239210 O2-
0.394280 0.209316 0.299252 O2-
0.848591 0.981976 0.273257 O2-
0.743350 0.376455 0.239443 O2-
0.256650 0.623545 0.299019 O2-
0.732189 0.526190 0.273574 O2-
0.267811 0.473810 0.264887 O2-
0.702403 0.236504 0.299947 O2-
0.297597 0.763496 0.238514 O2-
0.962384 0.683894 0.275907 O2-
0.037616 0.316106 0.262555 O2-
0.151409 0.018024 0.265204 O2-
0.258241 0.125660 0.276630 O2-
0.741759 0.874340 0.338755 O2-
0.605720 0.790684 0.316133 O2-
0.394280 0.209316 0.376175 O2-
0.848591 0.981976 0.350180 O2-
0.743350 0.376455 0.316366 O2-
0.256650 0.623545 0.375942 O2-
0.732189 0.526190 0.350497 O2-
0.267811 0.473810 0.341810 O2-
0.702403 0.236504 0.376870 O2-
0.297597 0.763496 0.315437 O2-
0.962384 0.683894 0.352830 O2-
0.037616 0.316106 0.339478 O2-
0.151409 0.018024 0.342127 O2-
0.258241 0.125660 0.353553 O2-
0.741759 0.874340 0.415678 O2-
0.605720 0.790684 0.393056 O2-
0.394280 0.209316 0.453098 O2-
0.848591 0.981976 0.427103 O2-
0.743350 0.376455 0.393289 O2-
0.256650 0.623545 0.452865 O2-
0.732189 0.526190 0.427420 O2-
0.267811 0.473810 0.418733 O2-
0.702403 0.236504 0.453793 O2-
0.297597 0.763496 0.392360 O2-
0.962384 0.683894 0.429753 O2-
0.037616 0.316106 0.416401 O2-
0.151409 0.018024 0.419050 O2-
0.258241 0.125660 0.430476 O2-
0.741759 0.874340 0.492601 O2-
0.605720 0.790684 0.469979 O2-
0.394280 0.209316 0.530021 O2-
0.848591 0.981976 0.504026 O2-
0.743350 0.376455 0.470212 O2-
0.256650 0.623545 0.529788 O2-
0.732189 0.526190 0.504343 O2-
0.267811 0.473810 0.495657 O2-
0.702403 0.236504 0.530717 O2-
0.297597 0.763496 0.469283 O2-
0.962384 0.683894 0.506676 O2-
0.037616 0.316106 0.493324 O2-
0.151409 0.018024 0.495974 O2-
0.258241 0.125660 0.507399 O2-
