Li61 P7 N32                             
   1.00000000000000     
     0.0107351674919156    9.6426005289871792    0.0247178067550124
    -0.0609216152883809    0.0252282689399073    9.6498210296830607
     9.6665907629393395    0.0107207994312011   -0.0603790167887672
   Li   P    N 
    61     7    32
Direct
  0.4948890155321638  0.0104800008540575  0.5027451287648874
  0.9969403646767060  0.4898594461750157  0.9879952114564545
  0.4941646326381807  0.0094783986160499  0.0028651800158948
  0.0035078504566885  0.9920042615558318  0.4994503962548503
  0.4907581800015724  0.5013115561671880  0.9881460678033511
  0.9691053080351516  0.4959677569452968  0.4822884462425782
  0.7527223234281832  0.9816120522222067  0.4973496316898153
  0.2489746338862271  0.9817318269037218  0.5049095788425445
  0.7016249971464514  0.4566713075237948  0.5502036589097824
  0.2015124811468930  0.4656999757536424  0.5192443372356123
  0.2583075587002795  0.0014161184731462  0.9940399578075698
  0.7384787591570120  0.0010347418897671  0.0371419353352346
  0.5765798789938930  0.5819756460699393  0.4291247682547983
  0.5055292628307783  0.2509248478143696  0.0004081146119730
  0.5067814629300499  0.7611670352491292  0.0037188635960861
  0.0126859965610764  0.4783190863740123  0.2409451567661723
  0.0309184632055346  0.4976813923178532  0.7384302090177560
  0.2201030855125022  0.2635473809677467  0.2284282765426592
  0.2583474708072392  0.7795366486898058  0.8025030364064115
  0.2557278260984333  0.2538066007039672  0.7212358601767095
  0.2982182484571764  0.7950217326910022  0.3086764114805031
  0.7962249878169733  0.3176014787097101  0.3929805110717976
  0.8364474948185890  0.6435529719142992  0.6807970961304949
  0.7287660801105625  0.0555276172423578  0.8060343688346167
  0.7661321438945192  0.8264234056897204  0.2389945561290970
  0.9770671484429077  0.2188117756221469  0.2449152589418022
  0.0249433924376940  0.7810342405384051  0.7268032007173374
  0.2627787634673339  0.2275240627999935  0.4822599559834997
  0.2478397626831312  0.7096309650088325  0.5108459438412546
  0.7554534289931809  0.1945702714724732  0.5898284051285844
  0.7478482188785450  0.7371588601831404  0.4743862814777931
  0.7542259327179855  0.5256182921493022  0.2693354770538631
  0.6418852083818331  0.5654156827572044  0.7980059396643447
  0.2663330429280757  0.5431734332499398  0.2493094316264308
  0.2897780722638373  0.4822351386379262  0.7630504817835675
  0.5177911580748548  0.7519467117004429  0.2486100339305115
  0.5015877569156241  0.2752274111518912  0.7482152085450595
  0.2366651723966992  0.0110435453403879  0.2378984039787912
  0.2284483140277719  0.0199528524955557  0.7483452239118625
  0.2697699131800069  0.2472478710354272  0.9700032611470867
  0.2701905744115441  0.7543903874761929  0.0560532846131453
  0.7014858958214115  0.8332120761545877  0.6885419020004939
  0.7258876867097808  0.0874737745940201  0.2981491672115458
  0.7540271149815205  0.7668131463888639  0.9491145519626203
  0.7761812692672755  0.2439484740567438  0.9897028783821247
  0.0068703890408000  0.2406567957506986  0.7616335749947900
  0.0623673747868478  0.7370914637331788  0.2368473922407554
  0.4747587955008552  0.2574251016514726  0.2601338398596784
  0.4923689382917885  0.7513661264641487  0.7527927776636250
  0.0198801510067599  0.2536161209765282  0.0045390921263207
  0.0248589082800206  0.7371707842053891  0.9725724576391084
  0.5122423822787706  0.2523470563386114  0.5079746045675348
  0.4898401865896364  0.7749449874878402  0.5084297993671343
  0.5020699131972679  0.5096266673865126  0.2209842258944279
  0.4634029287752940  0.5377304918866641  0.6203866294847177
  0.9915171127166619  0.9761218242537932  0.2580510963109662
  0.9779836586273832  0.0047860275200311  0.7365846203515328
  0.4176102133759106  0.4397027049632669  0.4263879306714771
  0.8020037816507120  0.3900983126338074  0.7771583929882091
  0.8798117717685151  0.6642576624835871  0.1353511001546816
  0.6773243117515318  0.3098626396091576  0.1879528953897034
  0.0008489311694274  0.9938493786010815  0.9970225577852250
  0.7497796696700522  0.4976938001542173  0.0042567350362814
  0.2417406793050066  0.5034225448338605  0.0016546657051371
  0.9970515383022032  0.7474316727055142  0.4800844553847093
  0.9995915040774290  0.2374476015227002  0.5039224828920332
  0.4941724764049659  0.0076313941095829  0.2492651824834099
  0.4893246233510054  0.0063198793347526  0.7566510815261214
  0.6331714807217158  0.6452840758419690  0.6195187559428286
  0.6154304559562349  0.3902201018351320  0.3654016117175513
  0.9048955668692591  0.8791590010133596  0.0876062491909753
  0.8985804386200301  0.1023235943855241  0.9072042063710859
  0.1036887490369989  0.9039169569726024  0.8839792499413193
  0.0974673868097704  0.0920136706449099  0.1069406016810883
  0.3932339459622276  0.6358167912468847  0.3764135827960282
  0.3646908935176730  0.3697627591104296  0.6071050116722521
  0.0838943698257352  0.3335996862009875  0.3878146564876828
  0.0732589407781744  0.6359472103396941  0.5894198252045728
  0.1024371470649407  0.1408451225986678  0.6043519640718481
  0.1143851949496646  0.8481244329197679  0.4003565933923525
  0.8862036150085111  0.1350360657039518  0.4141115975088317
  0.8901095665924971  0.8441031125566391  0.5843179730379289
  0.8533918232610814  0.4053691838751127  0.1113825821429104
  0.8482406523589238  0.5811458293330313  0.8845782642769668
  0.1329660384828710  0.5993505525552532  0.1013361833742856
  0.1514418490684995  0.3981191668192073  0.8916387527295535
  0.3988435168122184  0.8984941110471454  0.1493627951103217
  0.3915828061973261  0.1149509495798125  0.8552780638416738
  0.3834004239628058  0.0994847233066112  0.3516828399051954
  0.3853992650679787  0.9038519688826469  0.6597661714760250
  0.3430092189796910  0.4008541958160988  0.1022862545014779
  0.3420204727987449  0.6181613861633048  0.9112569443854006
  0.6000278044716928  0.0954299248409290  0.6556068774771894
  0.6091561109528637  0.9177124387668345  0.3468744395567878
  0.6595588641319390  0.6198354709722209  0.0935312513049582
  0.6481570166973126  0.3871612154327688  0.9175532055369799
  0.8975135418323105  0.3421984671115690  0.6059757893298182
  0.9037965817892814  0.6614468783334565  0.3569011042462255
  0.5884198184049626  0.1179149107384087  0.1494611353462917
  0.5937448692733535  0.9044477461215360  0.8588838246446827
 
  0.00000000E+00  0.00000000E+00  0.00000000E+00
  0.00000000E+00  0.00000000E+00  0.00000000E+00
  0.00000000E+00  0.00000000E+00  0.00000000E+00
  0.00000000E+00  0.00000000E+00  0.00000000E+00
  0.00000000E+00  0.00000000E+00  0.00000000E+00
  0.00000000E+00  0.00000000E+00  0.00000000E+00
  0.00000000E+00  0.00000000E+00  0.00000000E+00
  0.00000000E+00  0.00000000E+00  0.00000000E+00
  0.00000000E+00  0.00000000E+00  0.00000000E+00
  0.00000000E+00  0.00000000E+00  0.00000000E+00
  0.00000000E+00  0.00000000E+00  0.00000000E+00
  0.00000000E+00  0.00000000E+00  0.00000000E+00
  0.00000000E+00  0.00000000E+00  0.00000000E+00
  0.00000000E+00  0.00000000E+00  0.00000000E+00
  0.00000000E+00  0.00000000E+00  0.00000000E+00
  0.00000000E+00  0.00000000E+00  0.00000000E+00
  0.00000000E+00  0.00000000E+00  0.00000000E+00
  0.00000000E+00  0.00000000E+00  0.00000000E+00
  0.00000000E+00  0.00000000E+00  0.00000000E+00
  0.00000000E+00  0.00000000E+00  0.00000000E+00
  0.00000000E+00  0.00000000E+00  0.00000000E+00
  0.00000000E+00  0.00000000E+00  0.00000000E+00
  0.00000000E+00  0.00000000E+00  0.00000000E+00
  0.00000000E+00  0.00000000E+00  0.00000000E+00
  0.00000000E+00  0.00000000E+00  0.00000000E+00
  0.00000000E+00  0.00000000E+00  0.00000000E+00
  0.00000000E+00  0.00000000E+00  0.00000000E+00
  0.00000000E+00  0.00000000E+00  0.00000000E+00
  0.00000000E+00  0.00000000E+00  0.00000000E+00
  0.00000000E+00  0.00000000E+00  0.00000000E+00
  0.00000000E+00  0.00000000E+00  0.00000000E+00
  0.00000000E+00  0.00000000E+00  0.00000000E+00
  0.00000000E+00  0.00000000E+00  0.00000000E+00
  0.00000000E+00  0.00000000E+00  0.00000000E+00
  0.00000000E+00  0.00000000E+00  0.00000000E+00
  0.00000000E+00  0.00000000E+00  0.00000000E+00
  0.00000000E+00  0.00000000E+00  0.00000000E+00
  0.00000000E+00  0.00000000E+00  0.00000000E+00
  0.00000000E+00  0.00000000E+00  0.00000000E+00
  0.00000000E+00  0.00000000E+00  0.00000000E+00
  0.00000000E+00  0.00000000E+00  0.00000000E+00
  0.00000000E+00  0.00000000E+00  0.00000000E+00
  0.00000000E+00  0.00000000E+00  0.00000000E+00
  0.00000000E+00  0.00000000E+00  0.00000000E+00
  0.00000000E+00  0.00000000E+00  0.00000000E+00
  0.00000000E+00  0.00000000E+00  0.00000000E+00
  0.00000000E+00  0.00000000E+00  0.00000000E+00
  0.00000000E+00  0.00000000E+00  0.00000000E+00
  0.00000000E+00  0.00000000E+00  0.00000000E+00
  0.00000000E+00  0.00000000E+00  0.00000000E+00
  0.00000000E+00  0.00000000E+00  0.00000000E+00
  0.00000000E+00  0.00000000E+00  0.00000000E+00
  0.00000000E+00  0.00000000E+00  0.00000000E+00
  0.00000000E+00  0.00000000E+00  0.00000000E+00
  0.00000000E+00  0.00000000E+00  0.00000000E+00
  0.00000000E+00  0.00000000E+00  0.00000000E+00
  0.00000000E+00  0.00000000E+00  0.00000000E+00
  0.00000000E+00  0.00000000E+00  0.00000000E+00
  0.00000000E+00  0.00000000E+00  0.00000000E+00
  0.00000000E+00  0.00000000E+00  0.00000000E+00
  0.00000000E+00  0.00000000E+00  0.00000000E+00
  0.00000000E+00  0.00000000E+00  0.00000000E+00
  0.00000000E+00  0.00000000E+00  0.00000000E+00
  0.00000000E+00  0.00000000E+00  0.00000000E+00
  0.00000000E+00  0.00000000E+00  0.00000000E+00
  0.00000000E+00  0.00000000E+00  0.00000000E+00
  0.00000000E+00  0.00000000E+00  0.00000000E+00
  0.00000000E+00  0.00000000E+00  0.00000000E+00
  0.00000000E+00  0.00000000E+00  0.00000000E+00
  0.00000000E+00  0.00000000E+00  0.00000000E+00
  0.00000000E+00  0.00000000E+00  0.00000000E+00
  0.00000000E+00  0.00000000E+00  0.00000000E+00
  0.00000000E+00  0.00000000E+00  0.00000000E+00
  0.00000000E+00  0.00000000E+00  0.00000000E+00
  0.00000000E+00  0.00000000E+00  0.00000000E+00
  0.00000000E+00  0.00000000E+00  0.00000000E+00
  0.00000000E+00  0.00000000E+00  0.00000000E+00
  0.00000000E+00  0.00000000E+00  0.00000000E+00
  0.00000000E+00  0.00000000E+00  0.00000000E+00
  0.00000000E+00  0.00000000E+00  0.00000000E+00
  0.00000000E+00  0.00000000E+00  0.00000000E+00
  0.00000000E+00  0.00000000E+00  0.00000000E+00
  0.00000000E+00  0.00000000E+00  0.00000000E+00
  0.00000000E+00  0.00000000E+00  0.00000000E+00
  0.00000000E+00  0.00000000E+00  0.00000000E+00
  0.00000000E+00  0.00000000E+00  0.00000000E+00
  0.00000000E+00  0.00000000E+00  0.00000000E+00
  0.00000000E+00  0.00000000E+00  0.00000000E+00
  0.00000000E+00  0.00000000E+00  0.00000000E+00
  0.00000000E+00  0.00000000E+00  0.00000000E+00
  0.00000000E+00  0.00000000E+00  0.00000000E+00
  0.00000000E+00  0.00000000E+00  0.00000000E+00
  0.00000000E+00  0.00000000E+00  0.00000000E+00
  0.00000000E+00  0.00000000E+00  0.00000000E+00
  0.00000000E+00  0.00000000E+00  0.00000000E+00
  0.00000000E+00  0.00000000E+00  0.00000000E+00
  0.00000000E+00  0.00000000E+00  0.00000000E+00
  0.00000000E+00  0.00000000E+00  0.00000000E+00
  0.00000000E+00  0.00000000E+00  0.00000000E+00
  0.00000000E+00  0.00000000E+00  0.00000000E+00
