Li61 P7 N32                             
   1.00000000000000     
     0.0120521866093142    9.6321767452192599    0.0290101348489626
    -0.0482307335376630    0.0295043667676476    9.6370192062496631
     9.6528034527934441    0.0119835745739074   -0.0476686643387202
   Li   P    N 
    61     7    32
Direct
  0.4964893392549951  0.0102204437281862  0.5028932191651136
 -0.0019769379530639  0.4895948694832188 -0.0112805065112138
  0.4939717448530647  0.0103021613034730  0.0029733310990191
  0.0045613254877806 -0.0081692045450297  0.4989521795159617
  0.4920103544898334  0.5041294285374919 -0.0110562158062145
 -0.0311554476221022  0.4959495403834914  0.4825254785238678
  0.7547074253319628 -0.0179065867947276  0.4983137641763499
  0.2504230366758055 -0.0190978631630292  0.5049458375906033
  0.7041263503098736  0.4569930832580279  0.5490031181269349
  0.1999646553071416  0.4648017073602191  0.5206943645240169
  0.2576223457477121  0.0028434711851773 -0.0056890302378817
  0.7374498911266276  0.0009175891903248  0.0367208029514964
  0.5741066299106641  0.5799423163562564  0.4310590933742839
  0.5048757979033293  0.2530920299183915  0.0017250384849185
  0.5072106983284189  0.7633764117806332  0.0046190635188149
  0.0121391726860689  0.4778446415198125  0.2418124949686659
  0.0307806974081657  0.4987537541017217  0.7401827699692741
  0.2199662739445762  0.2657004385249088  0.2276888917629129
  0.2598914854913905  0.7828725450459726  0.8035155777213823
  0.2558446602911834  0.2547252943227423  0.7246683943584457
  0.2995732070993884  0.7958479117869343  0.3091438582181332
  0.7973297174631090  0.3184121437542648  0.3913822379634199
  0.8371057048076834  0.6437161623592265  0.6800379948746591
  0.7298469815064005  0.0536680847308809  0.8045304455559097
  0.7665362177691761  0.8255563295623127  0.2382193454472762
 -0.0232229805605512  0.2192740855056026  0.2428296064428617
  0.0259915929667098  0.7804190182560994  0.7269155173407259
  0.2610307825503124  0.2269089336766543  0.4840650820459854
  0.2478113357223906  0.7074877484033557  0.5101929494374999
  0.7532508810844513  0.1965533173294023  0.5884648975979658
  0.7470355757305525  0.7383637202142120  0.4727074592936838
  0.7531614757203394  0.5271121644085874  0.2703008552741324
  0.6425357005444693  0.5654816910026529  0.7979807838776182
  0.2657823980517049  0.5431583696675455  0.2494339276507550
  0.2887647348388441  0.4840143954849495  0.7615536283314328
  0.5184857464432864  0.7504417909968374  0.2496002343500465
  0.5022992098912060  0.2749854416418056  0.7493574687442023
  0.2352018984829736  0.0115540856480178  0.2390503544101861
  0.2287803114686669  0.0211954799239620  0.7475572862732621
  0.2692471364352777  0.2477900000215108  0.9710684623704465
  0.2696841063865712  0.7553155501113261  0.0564845464572662
  0.7008988366761711  0.8316570833012824  0.6883418582845898
  0.7267293206668795  0.0865013540272921  0.2980354572913667
  0.7529184667670603  0.7669919031589638  0.9487994822549126
  0.7741438454864933  0.2430858764800296 -0.0117661964091141
  0.0042423741773816  0.2396355641592312  0.7595054220645536
  0.0632070394681142  0.7366897577261681  0.2372020884268163
  0.4744834755298116  0.2575002763268876  0.2591130805945772
  0.4913853036976665  0.7501506756450183  0.7528417694394022
  0.0179727737743460  0.2539887047073900  0.0028209521825852
  0.0248019746264964  0.7370130157711052 -0.0281932531723058
  0.5107219609774077  0.2511513661448480  0.5089626911360440
  0.4901454758025473  0.7748740630136489  0.5092059250191087
  0.5019145951021191  0.5079581025419410  0.2223191827438278
  0.4651435740454432  0.5337304126016340  0.6210484601644135
 -0.0101446738167527 -0.0240400070132432  0.2577692945018231
 -0.0215998812665048  0.0042920227070371  0.7356225075780634
  0.4145357282871495  0.4371929740329584  0.4260944166854908
  0.8023523297360203  0.3916665298806763  0.7769715816388756
  0.8811124942555135  0.6640605826049313  0.1345805649657455
  0.6783883483891673  0.3087113447995474  0.1889652547972351
  0.0004027264298564 -0.0054913953238451 -0.0039171463663684
  0.7503019419661179  0.4970438401615512  0.0045539923302508
  0.2424375209792780  0.5038811082637153  0.0011091828642772
 -0.0028429839373617  0.7470381485856677  0.4801843645379401
 -0.0007557684856346  0.2372566590594005  0.5032608000546830
  0.4946332914963059  0.0075212443106631  0.2496332412057771
  0.4896701779245549  0.0066243024329451  0.7570479256296021
  0.6335697614375908  0.6445770820483957  0.6190220667130404
  0.6152081698309605  0.3892824409610888  0.3661529677603224
  0.9044519873644932  0.8792636646085337  0.0866858726989138
  0.8981718827477728  0.1027795130357948  0.9054096057283246
  0.1042789569548837  0.9040910939141716  0.8842162870113076
  0.0964649582714743  0.0924971621383270  0.1066974133203560
  0.3927360581170258  0.6345708049228654  0.3766190659289496
  0.3634290030910680  0.3684499990840499  0.6077438041152347
  0.0834413794535406  0.3338842390571515  0.3871909150027978
  0.0735139766072962  0.6352306331558293  0.5894349666864646
  0.1018394961829311  0.1405723783321981  0.6045360621857102
  0.1147052704262264  0.8479355972245924  0.4002522803433058
  0.8863344382887798  0.1349712395968108  0.4132211856721388
  0.8902723578589130  0.8439169139952313  0.5845352541270459
  0.8540535348874152  0.4039206515217504  0.1116683093714264
  0.8490803546223538  0.5812325281554358  0.8848645867384158
  0.1334863091650546  0.5995473149807177  0.1011688349624025
  0.1521150645735692  0.3984946219983636  0.8912248660541895
  0.3991953577617014  0.8987384900006042  0.1498082776226792
  0.3916114966912690  0.1147598439564238  0.8559108802900439
  0.3837525063399180  0.0996128781298709  0.3519496343679324
  0.3860413663311481  0.9043243939516051  0.6597020099626604
  0.3443474191584703  0.4013169563480757  0.1019053217468265
  0.3419783908423274  0.6192602746943070  0.9104724003197674
  0.6003533498760621  0.0960441526561878  0.6559355369588944
  0.6101406571703457  0.9169163424394555  0.3474993550117614
  0.6605013678108742  0.6199308906159278  0.0941385563251140
  0.6479249328106703  0.3881900639572231  0.9173250171431315
  0.8966888199839154  0.3425596946370860  0.6046491511374036
  0.9039029275866670  0.6614241939216167  0.3565211926764033
  0.5888803016901004  0.1180971035848906  0.1493475159118098
  0.5942616439331418  0.9042438362845681  0.8595002964268416
 
  0.00000000E+00  0.00000000E+00  0.00000000E+00
  0.00000000E+00  0.00000000E+00  0.00000000E+00
  0.00000000E+00  0.00000000E+00  0.00000000E+00
  0.00000000E+00  0.00000000E+00  0.00000000E+00
  0.00000000E+00  0.00000000E+00  0.00000000E+00
  0.00000000E+00  0.00000000E+00  0.00000000E+00
  0.00000000E+00  0.00000000E+00  0.00000000E+00
  0.00000000E+00  0.00000000E+00  0.00000000E+00
  0.00000000E+00  0.00000000E+00  0.00000000E+00
  0.00000000E+00  0.00000000E+00  0.00000000E+00
  0.00000000E+00  0.00000000E+00  0.00000000E+00
  0.00000000E+00  0.00000000E+00  0.00000000E+00
  0.00000000E+00  0.00000000E+00  0.00000000E+00
  0.00000000E+00  0.00000000E+00  0.00000000E+00
  0.00000000E+00  0.00000000E+00  0.00000000E+00
  0.00000000E+00  0.00000000E+00  0.00000000E+00
  0.00000000E+00  0.00000000E+00  0.00000000E+00
  0.00000000E+00  0.00000000E+00  0.00000000E+00
  0.00000000E+00  0.00000000E+00  0.00000000E+00
  0.00000000E+00  0.00000000E+00  0.00000000E+00
  0.00000000E+00  0.00000000E+00  0.00000000E+00
  0.00000000E+00  0.00000000E+00  0.00000000E+00
  0.00000000E+00  0.00000000E+00  0.00000000E+00
  0.00000000E+00  0.00000000E+00  0.00000000E+00
  0.00000000E+00  0.00000000E+00  0.00000000E+00
  0.00000000E+00  0.00000000E+00  0.00000000E+00
  0.00000000E+00  0.00000000E+00  0.00000000E+00
  0.00000000E+00  0.00000000E+00  0.00000000E+00
  0.00000000E+00  0.00000000E+00  0.00000000E+00
  0.00000000E+00  0.00000000E+00  0.00000000E+00
  0.00000000E+00  0.00000000E+00  0.00000000E+00
  0.00000000E+00  0.00000000E+00  0.00000000E+00
  0.00000000E+00  0.00000000E+00  0.00000000E+00
  0.00000000E+00  0.00000000E+00  0.00000000E+00
  0.00000000E+00  0.00000000E+00  0.00000000E+00
  0.00000000E+00  0.00000000E+00  0.00000000E+00
  0.00000000E+00  0.00000000E+00  0.00000000E+00
  0.00000000E+00  0.00000000E+00  0.00000000E+00
  0.00000000E+00  0.00000000E+00  0.00000000E+00
  0.00000000E+00  0.00000000E+00  0.00000000E+00
  0.00000000E+00  0.00000000E+00  0.00000000E+00
  0.00000000E+00  0.00000000E+00  0.00000000E+00
  0.00000000E+00  0.00000000E+00  0.00000000E+00
  0.00000000E+00  0.00000000E+00  0.00000000E+00
  0.00000000E+00  0.00000000E+00  0.00000000E+00
  0.00000000E+00  0.00000000E+00  0.00000000E+00
  0.00000000E+00  0.00000000E+00  0.00000000E+00
  0.00000000E+00  0.00000000E+00  0.00000000E+00
  0.00000000E+00  0.00000000E+00  0.00000000E+00
  0.00000000E+00  0.00000000E+00  0.00000000E+00
  0.00000000E+00  0.00000000E+00  0.00000000E+00
  0.00000000E+00  0.00000000E+00  0.00000000E+00
  0.00000000E+00  0.00000000E+00  0.00000000E+00
  0.00000000E+00  0.00000000E+00  0.00000000E+00
  0.00000000E+00  0.00000000E+00  0.00000000E+00
  0.00000000E+00  0.00000000E+00  0.00000000E+00
  0.00000000E+00  0.00000000E+00  0.00000000E+00
  0.00000000E+00  0.00000000E+00  0.00000000E+00
  0.00000000E+00  0.00000000E+00  0.00000000E+00
  0.00000000E+00  0.00000000E+00  0.00000000E+00
  0.00000000E+00  0.00000000E+00  0.00000000E+00
  0.00000000E+00  0.00000000E+00  0.00000000E+00
  0.00000000E+00  0.00000000E+00  0.00000000E+00
  0.00000000E+00  0.00000000E+00  0.00000000E+00
  0.00000000E+00  0.00000000E+00  0.00000000E+00
  0.00000000E+00  0.00000000E+00  0.00000000E+00
  0.00000000E+00  0.00000000E+00  0.00000000E+00
  0.00000000E+00  0.00000000E+00  0.00000000E+00
  0.00000000E+00  0.00000000E+00  0.00000000E+00
  0.00000000E+00  0.00000000E+00  0.00000000E+00
  0.00000000E+00  0.00000000E+00  0.00000000E+00
  0.00000000E+00  0.00000000E+00  0.00000000E+00
  0.00000000E+00  0.00000000E+00  0.00000000E+00
  0.00000000E+00  0.00000000E+00  0.00000000E+00
  0.00000000E+00  0.00000000E+00  0.00000000E+00
  0.00000000E+00  0.00000000E+00  0.00000000E+00
  0.00000000E+00  0.00000000E+00  0.00000000E+00
  0.00000000E+00  0.00000000E+00  0.00000000E+00
  0.00000000E+00  0.00000000E+00  0.00000000E+00
  0.00000000E+00  0.00000000E+00  0.00000000E+00
  0.00000000E+00  0.00000000E+00  0.00000000E+00
  0.00000000E+00  0.00000000E+00  0.00000000E+00
  0.00000000E+00  0.00000000E+00  0.00000000E+00
  0.00000000E+00  0.00000000E+00  0.00000000E+00
  0.00000000E+00  0.00000000E+00  0.00000000E+00
  0.00000000E+00  0.00000000E+00  0.00000000E+00
  0.00000000E+00  0.00000000E+00  0.00000000E+00
  0.00000000E+00  0.00000000E+00  0.00000000E+00
  0.00000000E+00  0.00000000E+00  0.00000000E+00
  0.00000000E+00  0.00000000E+00  0.00000000E+00
  0.00000000E+00  0.00000000E+00  0.00000000E+00
  0.00000000E+00  0.00000000E+00  0.00000000E+00
  0.00000000E+00  0.00000000E+00  0.00000000E+00
  0.00000000E+00  0.00000000E+00  0.00000000E+00
  0.00000000E+00  0.00000000E+00  0.00000000E+00
  0.00000000E+00  0.00000000E+00  0.00000000E+00
  0.00000000E+00  0.00000000E+00  0.00000000E+00
  0.00000000E+00  0.00000000E+00  0.00000000E+00
  0.00000000E+00  0.00000000E+00  0.00000000E+00
  0.00000000E+00  0.00000000E+00  0.00000000E+00
