Li42 P14 O56
1.0
5.296402 0.000000 0.000000
0.000000 6.176136 0.000000
0.000000 0.000000 59.069376
Li P O
42 14 56
Selective dynamics
direct
0.844520 0.000000 0.013843 T T T Li+
0.155480 0.500000 0.055509 T T T Li+
0.326434 0.747127 0.013755 T T T Li+
0.673566 0.752873 0.055421 T T T Li+
0.673566 0.247127 0.055421 T T T Li+
0.326434 0.252873 0.013755 T T T Li+
0.844520 0.000000 0.097176 F F F Li+
0.155480 0.500000 0.138843 F F F Li+
0.326434 0.747127 0.097088 F F F Li+
0.673566 0.752873 0.138755 F F F Li+
0.673566 0.247127 0.138755 F F F Li+
0.326434 0.252873 0.097088 F F F Li+
0.844520 0.000000 0.180509 F F F Li+
0.155480 0.500000 0.222176 F F F Li+
0.326434 0.747127 0.180421 F F F Li+
0.673566 0.752873 0.222088 F F F Li+
0.673566 0.247127 0.222088 F F F Li+
0.326434 0.252873 0.180421 F F F Li+
0.844520 0.000000 0.263843 F F F Li+
0.155480 0.500000 0.305509 F F F Li+
0.326434 0.747127 0.263755 F F F Li+
0.673566 0.752873 0.305421 F F F Li+
0.673566 0.247127 0.305421 F F F Li+
0.326434 0.252873 0.263755 F F F Li+
0.844520 0.000000 0.347176 F F F Li+
0.155480 0.500000 0.388843 F F F Li+
0.326434 0.747127 0.347088 F F F Li+
0.673566 0.752873 0.388755 F F F Li+
0.673566 0.247127 0.388755 F F F Li+
0.326434 0.252873 0.347088 F F F Li+
0.844520 0.000000 0.430509 F F F Li+
0.155480 0.500000 0.472176 F F F Li+
0.326434 0.747127 0.430421 F F F Li+
0.673566 0.752873 0.472088 F F F Li+
0.673566 0.247127 0.472088 F F F Li+
0.326434 0.252873 0.430421 F F F Li+
0.844520 0.000000 0.513843 T T T Li+
0.155480 0.500000 0.555509 T T T Li+
0.326434 0.747127 0.513755 T T T Li+
0.673566 0.752873 0.555421 T T T Li+
0.673566 0.247127 0.555421 T T T Li+
0.326434 0.252873 0.513755 T T T Li+
0.824261 0.500000 0.013176 T T T P5+
0.175739 0.000000 0.054843 T T T P5+
0.824261 0.500000 0.096510 F F F P5+
0.175739 0.000000 0.138176 F F F P5+
0.824261 0.500000 0.179843 F F F P5+
0.175739 0.000000 0.221510 F F F P5+
0.824261 0.500000 0.263176 F F F P5+
0.175739 0.000000 0.304843 F F F P5+
0.824261 0.500000 0.346510 F F F P5+
0.175739 0.000000 0.388176 F F F P5+
0.824261 0.500000 0.429843 F F F P5+
0.175739 0.000000 0.471510 F F F P5+
0.824261 0.500000 0.513176 T T T P5+
0.175739 0.000000 0.554843 T T T P5+
0.313509 0.207138 0.063642 T T T O2-
0.103508 0.500000 0.021568 T T T O2-
0.818396 0.500000 0.070157 T T T O2-
0.181604 0.000000 0.028490 T T T O2-
0.686491 0.707138 0.021975 T T T O2-
0.313509 0.792862 0.063642 T T T O2-
0.896492 0.000000 0.063235 T T T O2-
0.686491 0.292862 0.021975 T T T O2-
0.313509 0.207138 0.146975 F F F O2-
0.103508 0.500000 0.104902 F F F O2-
0.818396 0.500000 0.153490 F F F O2-
0.181604 0.000000 0.111824 F F F O2-
0.686491 0.707138 0.105309 F F F O2-
0.313509 0.792862 0.146975 F F F O2-
0.896492 0.000000 0.146568 F F F O2-
0.686491 0.292862 0.105309 F F F O2-
0.313509 0.207138 0.230309 F F F O2-
0.103508 0.500000 0.188235 F F F O2-
0.818396 0.500000 0.236824 F F F O2-
0.181604 0.000000 0.195157 F F F O2-
0.686491 0.707138 0.188642 F F F O2-
0.313509 0.792862 0.230309 F F F O2-
0.896492 0.000000 0.229902 F F F O2-
0.686491 0.292862 0.188642 F F F O2-
0.313509 0.207138 0.313642 F F F O2-
0.103508 0.500000 0.271568 F F F O2-
0.818396 0.500000 0.320157 F F F O2-
0.181604 0.000000 0.278490 F F F O2-
0.686491 0.707138 0.271975 F F F O2-
0.313509 0.792862 0.313642 F F F O2-
0.896492 0.000000 0.313235 F F F O2-
0.686491 0.292862 0.271975 F F F O2-
0.313509 0.207138 0.396975 F F F O2-
0.103508 0.500000 0.354902 F F F O2-
0.818396 0.500000 0.403490 F F F O2-
0.181604 0.000000 0.361824 F F F O2-
0.686491 0.707138 0.355309 F F F O2-
0.313509 0.792862 0.396975 F F F O2-
0.896492 0.000000 0.396568 F F F O2-
0.686491 0.292862 0.355309 F F F O2-
0.313509 0.207138 0.480309 F F F O2-
0.103508 0.500000 0.438235 F F F O2-
0.818396 0.500000 0.486824 F F F O2-
0.181604 0.000000 0.445157 F F F O2-
0.686491 0.707138 0.438642 F F F O2-
0.313509 0.792862 0.480309 F F F O2-
0.896492 0.000000 0.479902 F F F O2-
0.686491 0.292862 0.438642 F F F O2-
0.313509 0.207138 0.563642 T T T O2-
0.103508 0.500000 0.521568 T T T O2-
0.818396 0.500000 0.570157 T T T O2-
0.181604 0.000000 0.528490 T T T O2-
0.686491 0.707138 0.521975 T T T O2-
0.313509 0.792862 0.563642 T T T O2-
0.896492 0.000000 0.563235 T T T O2-
0.686491 0.292862 0.521975 T T T O2-
