P56 O140
1.0
4.933571 0.000000 -0.185066
0.000000 16.587570 0.000000
0.000000 0.000000 55.120879
P O
56 140
direct
0.147206 0.923932 0.037613 P5+
0.685466 0.576068 0.066471 P5+
0.185466 0.673932 0.066471 P5+
0.980540 0.826068 0.079279 P5+
0.480540 0.423932 0.079279 P5+
0.352133 0.076068 0.024805 P5+
0.852133 0.173932 0.024805 P5+
0.647206 0.326068 0.037613 P5+
0.813873 0.923932 0.120946 P5+
0.352133 0.576068 0.149805 P5+
0.852133 0.673932 0.149805 P5+
0.647206 0.826068 0.162613 P5+
0.147206 0.423932 0.162613 P5+
0.018800 0.076068 0.108138 P5+
0.518800 0.173932 0.108138 P5+
0.313873 0.326068 0.120946 P5+
0.480540 0.923932 0.204279 P5+
0.018800 0.576068 0.233138 P5+
0.518800 0.673932 0.233138 P5+
0.313873 0.826068 0.245946 P5+
0.813873 0.423932 0.245946 P5+
0.685466 0.076068 0.191471 P5+
0.185466 0.173932 0.191471 P5+
0.980540 0.326068 0.204279 P5+
0.147206 0.923932 0.287613 P5+
0.685466 0.576068 0.316471 P5+
0.185466 0.673932 0.316471 P5+
0.980540 0.826068 0.329279 P5+
0.480540 0.423932 0.329279 P5+
0.352133 0.076068 0.274805 P5+
0.852133 0.173932 0.274805 P5+
0.647206 0.326068 0.287613 P5+
0.813873 0.923932 0.370946 P5+
0.352133 0.576068 0.399805 P5+
0.852133 0.673932 0.399805 P5+
0.647206 0.826068 0.412613 P5+
0.147206 0.423932 0.412613 P5+
0.018800 0.076068 0.358138 P5+
0.518800 0.173932 0.358138 P5+
0.313873 0.326068 0.370946 P5+
0.480540 0.923932 0.454279 P5+
0.018800 0.576068 0.483138 P5+
0.518800 0.673932 0.483138 P5+
0.313873 0.826068 0.495946 P5+
0.813873 0.423932 0.495946 P5+
0.685466 0.076068 0.441471 P5+
0.185466 0.173932 0.441471 P5+
0.980540 0.326068 0.454279 P5+
0.147206 0.923932 0.537613 P5+
0.685466 0.576068 0.566471 P5+
0.185466 0.673932 0.566471 P5+
0.980540 0.826068 0.579279 P5+
0.480540 0.423932 0.579279 P5+
0.352133 0.076068 0.524805 P5+
0.852133 0.173932 0.524805 P5+
0.647206 0.326068 0.537613 P5+
0.880288 0.941627 0.026681 O2-
0.657839 0.558373 0.040585 O2-
0.157839 0.691627 0.040584 O2-
0.713622 0.808373 0.068348 O2-
0.508657 0.750000 0.001082 O2-
0.341991 0.000000 0.042749 O2-
0.336445 0.865488 0.022253 O2-
0.458555 0.634512 0.077122 O2-
0.958555 0.615488 0.077122 O2-
0.169778 0.884512 0.063920 O2-
0.213622 0.441627 0.068348 O2-
0.991172 0.058373 0.082251 O2-
0.491172 0.191627 0.082251 O2-
0.380288 0.308373 0.026681 O2-
0.841991 0.250000 0.042749 O2-
0.008657 0.500000 0.001082 O2-
0.669778 0.365488 0.063920 O2-
0.125222 0.134512 0.035455 O2-
0.625222 0.115488 0.035455 O2-
0.836445 0.384512 0.022253 O2-
0.546955 0.941627 0.110015 O2-
0.324506 0.558373 0.123918 O2-
0.824506 0.691627 0.123918 O2-
0.380288 0.808373 0.151681 O2-
0.175324 0.750000 0.084416 O2-
0.008657 0.000000 0.126082 O2-
0.003111 0.865488 0.105587 O2-
0.125222 0.634512 0.160455 O2-
0.625222 0.615488 0.160455 O2-
0.836445 0.884512 0.147253 O2-
0.880288 0.441627 0.151681 O2-
0.657839 0.058373 0.165584 O2-
0.157839 0.191627 0.165584 O2-
0.046955 0.308373 0.110015 O2-
0.508657 0.250000 0.126082 O2-
0.675324 0.500000 0.084416 O2-
0.336445 0.365488 0.147253 O2-
0.791889 0.134512 0.118788 O2-
0.291889 0.115488 0.118788 O2-
0.503111 0.384512 0.105587 O2-
0.213622 0.941627 0.193348 O2-
0.991172 0.558373 0.207251 O2-
0.491172 0.691627 0.207251 O2-
0.046955 0.808373 0.235015 O2-
0.841991 0.750000 0.167749 O2-
0.675324 0.000000 0.209416 O2-
0.669778 0.865488 0.188920 O2-
0.791889 0.634512 0.243788 O2-
0.291889 0.615488 0.243788 O2-
0.503111 0.884512 0.230587 O2-
0.546955 0.441627 0.235015 O2-
0.324506 0.058373 0.248918 O2-
0.824506 0.191627 0.248918 O2-
0.713622 0.308373 0.193348 O2-
0.175324 0.250000 0.209416 O2-
0.341991 0.500000 0.167749 O2-
0.003111 0.365488 0.230587 O2-
0.458555 0.134512 0.202122 O2-
0.958555 0.115488 0.202122 O2-
0.169778 0.384512 0.188920 O2-
0.880288 0.941627 0.276681 O2-
0.657839 0.558373 0.290585 O2-
0.157839 0.691627 0.290584 O2-
0.713622 0.808373 0.318348 O2-
0.508657 0.750000 0.251082 O2-
0.341991 0.000000 0.292749 O2-
0.336445 0.865488 0.272253 O2-
0.458555 0.634512 0.327122 O2-
0.958555 0.615488 0.327122 O2-
0.169778 0.884512 0.313920 O2-
0.213622 0.441627 0.318348 O2-
0.991172 0.058373 0.332251 O2-
0.491172 0.191627 0.332251 O2-
0.380288 0.308373 0.276681 O2-
0.841991 0.250000 0.292749 O2-
0.008657 0.500000 0.251082 O2-
0.669778 0.365488 0.313920 O2-
0.125222 0.134512 0.285455 O2-
0.625222 0.115488 0.285455 O2-
0.836445 0.384512 0.272253 O2-
0.546955 0.941627 0.360015 O2-
0.324506 0.558373 0.373918 O2-
0.824506 0.691627 0.373918 O2-
0.380288 0.808373 0.401681 O2-
0.175324 0.750000 0.334415 O2-
0.008657 0.000000 0.376082 O2-
0.003111 0.865488 0.355587 O2-
0.125222 0.634512 0.410455 O2-
0.625222 0.615488 0.410455 O2-
0.836445 0.884512 0.397253 O2-
0.880288 0.441627 0.401681 O2-
0.657839 0.058373 0.415585 O2-
0.157839 0.191627 0.415585 O2-
0.046955 0.308373 0.360015 O2-
0.508657 0.250000 0.376082 O2-
0.675324 0.500000 0.334415 O2-
0.336445 0.365488 0.397253 O2-
0.791889 0.134512 0.368788 O2-
0.291889 0.115488 0.368788 O2-
0.503111 0.384512 0.355587 O2-
0.213622 0.941627 0.443348 O2-
0.991172 0.558373 0.457251 O2-
0.491172 0.691627 0.457251 O2-
0.046955 0.808373 0.485015 O2-
0.841991 0.750000 0.417749 O2-
0.675324 0.000000 0.459416 O2-
0.669778 0.865488 0.438920 O2-
0.791889 0.634512 0.493788 O2-
0.291889 0.615488 0.493788 O2-
0.503111 0.884512 0.480587 O2-
0.546955 0.441627 0.485015 O2-
0.324506 0.058373 0.498918 O2-
0.824506 0.191627 0.498918 O2-
0.713622 0.308373 0.443348 O2-
0.175324 0.250000 0.459416 O2-
0.341991 0.500000 0.417749 O2-
0.003111 0.365488 0.480587 O2-
0.458555 0.134512 0.452122 O2-
0.958555 0.115488 0.452122 O2-
0.169778 0.384512 0.438920 O2-
0.880288 0.941627 0.526681 O2-
0.657839 0.558373 0.540585 O2-
0.157839 0.691627 0.540585 O2-
0.713622 0.808373 0.568348 O2-
0.508657 0.750000 0.501082 O2-
0.341991 0.000000 0.542749 O2-
0.336445 0.865488 0.522253 O2-
0.458555 0.634512 0.577122 O2-
0.958555 0.615488 0.577122 O2-
0.169778 0.884512 0.563920 O2-
0.213622 0.441627 0.568348 O2-
0.991172 0.058373 0.582251 O2-
0.491172 0.191627 0.582251 O2-
0.380288 0.308373 0.526681 O2-
0.841991 0.250000 0.542749 O2-
0.008657 0.500000 0.501082 O2-
0.669778 0.365488 0.563920 O2-
0.125222 0.134512 0.535455 O2-
0.625222 0.115488 0.535455 O2-
0.836445 0.384512 0.522253 O2-
