Li71 P24 N1 O94                         
   1.00000000000000     
    14.7037152469673913   -0.0024707116567801   -0.0048883911768828
    -0.0017920751008706   10.5866325931884990    0.0158131907134150
    -0.0040850698000278    0.0184514787137903   12.3235453958384031
   Li   P    N    O 
    71    24     1    94
Direct
  0.1704211467649003  0.4182366900302697  0.0030873186715500
  0.1709925920607939  0.4233079594426979  0.5009780403089921
  0.1700413931194054  0.9282133718778670  0.0051135403658809
  0.1738553958061156  0.9203383958585969  0.4997331852559665
  0.5024068966065308  0.4222590311811408  0.0006758109169057
  0.5028040902878497  0.4229912032372006  0.5003403837955164
  0.5033861780884321  0.9232082775379646  0.0001490076122077
  0.5022341446758561  0.9223593355723562  0.4999027256672988
  0.8374258735003389  0.4235189162788547 -0.0001708810119667
  0.8345481078067919  0.4228193539486138  0.5013388887074129
  0.8359202576512992  0.9191873631589770 -0.0007067847776024
  0.8327838124312404  0.9184466612288732  0.4990780224992136
  0.0011934535426390  0.0606679915943208  0.2331270725955361
  0.0034111776351495  0.0739664827338649  0.7537406284684643
  0.0045447921869741  0.5833081260700478  0.2480229039485081
  0.0037403755046079  0.5764983837733889  0.7521043285400539
  0.3336575870038006  0.0742894841131256  0.2396230107028047
  0.3370883313448044  0.0771346867712560  0.7523893857460069
  0.3353355321691875  0.5781556502050124  0.2493883180243263
  0.3365728375588681  0.5774674888149589  0.7514478162702735
  0.6690573229556761  0.0773954432232947  0.2485400869675705
  0.6685665038910679  0.0770467951206821  0.7502664120789165
  0.6688331120066292  0.5779229606133300  0.2497190074494074
  0.6692731859434801  0.5775821433453956  0.7506508328678287
  0.1731273763565865  0.1641410155197811  0.6288657005971389
  0.1710408683597575  0.6628447878321773  0.1269908482147863
  0.1705489926344658  0.6630177841634562  0.6279782678421872
  0.5017571983789120  0.1632757700025066  0.1250788888117743
  0.5025220978069418  0.1635810348735738  0.6268237424916586
  0.5022675206031846  0.6632125185971597  0.1261201644068617
  0.5029057093317760  0.6632834726993216  0.6266616899657095
  0.8403612091267855  0.1638738253219458  0.1245718770357754
  0.8328548030373607  0.1660481145163932  0.6280446543544499
  0.8366911413890056  0.6631999665441655  0.1263183376723648
  0.8352397675217546  0.6629565888076057  0.6271691999387481
  0.0057624321505176  0.3434690120374028  0.1247422622129158
  0.0023856281951842  0.3398700935944496  0.6266178751923761
  0.0054736087777461  0.8361509522271887  0.1215748104511124
  0.0024118037432433  0.8314936943855963  0.6272859764825153
  0.3321410047444623  0.3326018972646302  0.1231551460760803
  0.3365903011392384  0.3373627830220864  0.6246147700590456
  0.3363206752463561  0.8363311587949849  0.1221761074511882
  0.3369125964662202  0.8362356223941981  0.6242507832590211
  0.6703591749175877  0.3362777959955874  0.1237561809485444
  0.6683396196383503  0.3374316931208878  0.6243240440245859
  0.6692607563409331  0.8364284828478248  0.1233945730632199
  0.6682534565448077  0.8366177913761469  0.6237088361392468
 -0.0014629743641587  0.3620757801817562  0.3734267307451452
  0.0042692511329797  0.3345791072661235  0.8788672016744808
  0.0024574574997063  0.8331616181631621  0.3757743806852683
  0.0045311276580424  0.8362238399956357  0.8750408070769187
  0.3376259082072576  0.3415010132537414  0.3762318414335631
  0.3368547940654231  0.3347441875843634  0.8775265826333071
  0.3357244981333162  0.8358923251832316  0.3756907264638038
  0.3361360543010479  0.8370839771226189  0.8777916737349976
  0.6676438064486498  0.3373670024550784  0.3766781833453028
  0.6695724058272493  0.3369908652705642  0.8771189257182941
  0.6681148319325533  0.8364537106394231  0.3760970626324154
  0.6695324934360696  0.8367383574826442  0.8762118139205247
  0.2012345797929423  0.1677536983989390  0.3624025230000116
  0.1697560460866424  0.1622429023401967  0.8765254007019591
  0.1692201396617599  0.6621723775232889  0.3767829418023150
  0.1699964961139357  0.6632300279551440  0.8745982224060870
  0.5002040821414268  0.1631967435647807  0.3722238524115737
  0.5035726509414731  0.1629696692808331  0.8742547843400109
  0.5023016291803796  0.6631258954237332  0.3732105004423356
  0.5024299291671940  0.6631944120262675  0.8740653882699339
  0.8327036408109995  0.1643154171638209  0.3709411042514406
  0.8352745905780932  0.1639458603135127  0.8708811663577699
  0.8356346371456302  0.6623568323491086  0.3743168535908309
  0.8364828350827264  0.6633898201050064  0.8732071871246364
  0.1676839765333222  0.4175903458074441  0.2502209106244458
  0.1673785419591841  0.4119137796273113  0.7510003839229865
  0.1683876219007282  0.9087958028897880  0.2534711087581096
  0.1678539178258276  0.9115381783380067  0.7494364747153297
  0.5001350017452054  0.4120900149957958  0.2496777225111259
  0.5004795720550319  0.4123500732345445  0.7504654304987124
  0.5002467208449525  0.9119253942051684  0.2499368265312421
  0.5004990333975843  0.9118544662849742  0.7499573430248659
  0.8332637741811506  0.4131027450033506  0.2497968425807481
  0.8337245111307973  0.4123910675141957  0.7503867944257504
  0.8335514589305487  0.9111343560854793  0.2511277102067261
  0.8336377364441696  0.9121469435145039  0.7482157838322250
 -0.0012713971176483  0.0859047144173699 -0.0045247631137370
 -0.0008099429517572  0.0842156768738010  0.5067037250451580
  0.0007506907759960  0.5891094510916031 -0.0010928417595799
 -0.0005252432217768  0.5880393952127618  0.5020991058301377
  0.3342566650559838  0.0863224761442775 -0.0022559309927052
  0.3327186426975419  0.0881913512234011  0.5004246151475283
  0.3337738613819956  0.5870026887210131 -0.0000091506948298
  0.3341153403851987  0.5880700270052227  0.5011402528631455
  0.6683647565477554  0.0875769045629115 -0.0001627405269662
  0.6657349298387087  0.0883156055542247  0.4995166428783128
  0.6674682527888358  0.5880304830023076  0.0001425635069781
  0.6666520951927242  0.5881703634726519  0.5001107380459917
  0.0199067558882241  0.1625998262097482  0.1059001614964680
  0.0348379938144572  0.1526574470858867  0.8902934734661603
  0.0343238171604728  0.6566395268620395  0.3981362618569591
  0.0354530639894843  0.6581411243225358  0.8947346760683278
  0.3642461542480361  0.1584306472345241  0.3949087868052977
  0.3720829756409768  0.1561768232183280  0.8944406712533348
  0.3692589518730329  0.6567640181840443  0.3970951584439006
  0.3691790335438396  0.6567115851106409  0.8961224614779406
  0.7015726558253385  0.1573889866883164  0.3957442667677325
  0.7027145208610748  0.1565957367992453  0.8952316434693516
  0.7021752663761850  0.6572094130408001  0.3962508470429968
  0.7027987273240706  0.6573007637917284  0.8961424304570833
  0.2029757155797203  0.0454910433546021  0.2574035121958370
  0.2012482803506313  0.0512375741582976  0.7488334183231116
  0.2002669234183725  0.5582033657070953  0.2553203228607765
  0.2008882534537955  0.5517269984138452  0.7506704607219374
  0.5338971693170385  0.0518396413221949  0.2499381412466851
  0.5344377274970606  0.0515985332305727  0.7495875331490868
  0.5342621196475754  0.5518369904825714  0.2500432570358770
  0.5343714505432801  0.5521157752266747  0.7500518207815885
  0.8678139934830769  0.0509425471753100  0.2524284711656397
  0.8676493786229061  0.0519394998302089  0.7467165101360981
  0.8677813417447912  0.5524966710971246  0.2515343530259789
  0.8676234005334779  0.5519785733980733  0.7497670579962797
  0.0612004291950576  0.4161930119379952  0.2518617829993380
  0.0612736016252193  0.4092583004393457  0.7509975974204364
  0.0616762766073183  0.9051173955130851  0.2523867975681883
  0.0615436436994814  0.9088697884028432  0.7477488244531360
  0.3943795220519226  0.4096464716110307  0.2488274909761588
  0.3946369596747351  0.4095337897521898  0.7505745767830021
  0.3944975615729728  0.9084076734075545  0.2494143926986966
  0.3946913623479189  0.9089394159390732  0.7500934812202250
  0.7274964621756171  0.4101892922938578  0.2517479750973758
  0.7278578327727631  0.4094704620039610  0.7500535564661183
  0.7277885634592252  0.9088544901191650  0.2503193622966299
  0.7278243226882263  0.9095489401736291  0.7487687503539265
  0.2301747993634922  0.0856867096743078 -0.0064504495085051
  0.2264928681755873  0.0908582304743585  0.5014401628831484
  0.2279815326125978  0.5902162713510346 -0.0000680857013525
  0.2282153800710316  0.5902108529253423  0.5023185931347188
  0.5626015924619742  0.0906673174561875  0.0006363631553437
  0.5599801921631303  0.0912106302213604  0.4993635844882541
  0.5616229001686767  0.5907079629482713  0.0002518294435947
  0.5608568054577817  0.5908805683586473  0.5000000750544635
  0.8919173211885340  0.0857450388461588 -0.0065695059575572
  0.8940762810208964  0.0921480842409092  0.4991292173953843
  0.8946304589062530  0.5922201379985060 -0.0003237233458129
  0.8935794989995570  0.5896839689798073  0.5016812415843496
  0.2038628651458036  0.3555818681801279  0.1468759658762029
  0.2021711986725562  0.3434872641061953  0.6465492174686152
  0.2027867356948654  0.8406851314894844  0.1489835752717421
  0.2029610903614826  0.8425032334402029  0.6454605647283111
  0.5366568543735918  0.3428582876878253  0.1468193600541412
  0.5354473625325117  0.3433488975618917  0.6464521231585432
  0.5364669034477099  0.8427459930835782  0.1468514209834031
  0.5354097043336663  0.8431749177630455  0.6457629988199474
  0.8675634728158024  0.3457725569243514  0.1456256751586391
  0.8687977245757758  0.3430412561062526  0.6463974857651089
  0.8700036194124491  0.8431635213872102  0.1477361301257342
  0.8687190506291761  0.8434067698690594  0.6439616673499041
  0.0364635088871053  0.1582750708928926  0.6054737688500741
  0.0362025060909851  0.6582005176273843  0.1024960010648371
  0.0351363575976332  0.6560632735912421  0.6057092834485983
  0.3702397910254008  0.1558679773806751  0.1012421954974440
  0.3688492303538977  0.1573943932170312  0.6033422375200604
  0.3692127527082694  0.6561890220634556  0.1036737187210602
  0.3696449838863579  0.6569578103931225  0.6047365470218944
  0.7047294855440852  0.1563782050477937  0.1032042036604846
  0.7012763078772285  0.1573349145668793  0.6032321795624120
  0.7029885238298851  0.6570512126685762  0.1038550598987489
  0.7020390343301927  0.6571330758681632  0.6038559239026335
  0.0341898619928049  0.4498693081906679 -0.0012057710403274
  0.0335087939370728  0.4480535409052133  0.5020562121107507
  0.0341484262445706  0.9462435662894230 -0.0033930808823102
  0.0345749463793223  0.9467218748700307  0.5005640887410883
  0.3679031293835898  0.4475454298532110 -0.0001978743805097
  0.3679064732998087  0.4482301696054552  0.5010340317081976
  0.3706835696383571  0.9468403044424796 -0.0003478256786199
  0.3667885681072507  0.9488552899452702  0.4995724203713093
  0.7014896007899685  0.4484135320397879  0.0002264442401991
  0.7003762970599691  0.4482712360018268  0.5003912721136234
  0.7015805597189425  0.9474163454200616 -0.0003534472796940
  0.6997491615459435  0.9486096026533936  0.4997553741465944
  0.2012961481839148  0.3464763767708524  0.3552937067330423
  0.2027121152982149  0.3421461906851728  0.8541325822921073
  0.2015144778275524  0.8365612569603484  0.3574760200734602
  0.2021557967575388  0.8419687002510258  0.8530746003023162
  0.5345226785943441  0.3429260990045587  0.3544067772891944
  0.5363673065244249  0.3433603359809116  0.8541107582281109
  0.5352638512140215  0.8431708427615089  0.3544414874047488
  0.5364782203776739  0.8426447525550238  0.8534472534476765
  0.8697499131833683  0.3422666684327839  0.3534533263958111
  0.8692394591032803  0.3431385301750217  0.8539456246721570
  0.8683904561223076  0.8420084984009656  0.3555591083087962
  0.8695920130955329  0.8428416623793203  0.8514708175829887
 
  0.00000000E+00  0.00000000E+00  0.00000000E+00
  0.00000000E+00  0.00000000E+00  0.00000000E+00
  0.00000000E+00  0.00000000E+00  0.00000000E+00
  0.00000000E+00  0.00000000E+00  0.00000000E+00
  0.00000000E+00  0.00000000E+00  0.00000000E+00
  0.00000000E+00  0.00000000E+00  0.00000000E+00
  0.00000000E+00  0.00000000E+00  0.00000000E+00
  0.00000000E+00  0.00000000E+00  0.00000000E+00
  0.00000000E+00  0.00000000E+00  0.00000000E+00
  0.00000000E+00  0.00000000E+00  0.00000000E+00
  0.00000000E+00  0.00000000E+00  0.00000000E+00
  0.00000000E+00  0.00000000E+00  0.00000000E+00
  0.00000000E+00  0.00000000E+00  0.00000000E+00
  0.00000000E+00  0.00000000E+00  0.00000000E+00
  0.00000000E+00  0.00000000E+00  0.00000000E+00
  0.00000000E+00  0.00000000E+00  0.00000000E+00
  0.00000000E+00  0.00000000E+00  0.00000000E+00
  0.00000000E+00  0.00000000E+00  0.00000000E+00
  0.00000000E+00  0.00000000E+00  0.00000000E+00
  0.00000000E+00  0.00000000E+00  0.00000000E+00
  0.00000000E+00  0.00000000E+00  0.00000000E+00
  0.00000000E+00  0.00000000E+00  0.00000000E+00
  0.00000000E+00  0.00000000E+00  0.00000000E+00
  0.00000000E+00  0.00000000E+00  0.00000000E+00
  0.00000000E+00  0.00000000E+00  0.00000000E+00
  0.00000000E+00  0.00000000E+00  0.00000000E+00
  0.00000000E+00  0.00000000E+00  0.00000000E+00
  0.00000000E+00  0.00000000E+00  0.00000000E+00
  0.00000000E+00  0.00000000E+00  0.00000000E+00
  0.00000000E+00  0.00000000E+00  0.00000000E+00
  0.00000000E+00  0.00000000E+00  0.00000000E+00
  0.00000000E+00  0.00000000E+00  0.00000000E+00
  0.00000000E+00  0.00000000E+00  0.00000000E+00
  0.00000000E+00  0.00000000E+00  0.00000000E+00
  0.00000000E+00  0.00000000E+00  0.00000000E+00
  0.00000000E+00  0.00000000E+00  0.00000000E+00
  0.00000000E+00  0.00000000E+00  0.00000000E+00
  0.00000000E+00  0.00000000E+00  0.00000000E+00
  0.00000000E+00  0.00000000E+00  0.00000000E+00
  0.00000000E+00  0.00000000E+00  0.00000000E+00
  0.00000000E+00  0.00000000E+00  0.00000000E+00
  0.00000000E+00  0.00000000E+00  0.00000000E+00
  0.00000000E+00  0.00000000E+00  0.00000000E+00
  0.00000000E+00  0.00000000E+00  0.00000000E+00
  0.00000000E+00  0.00000000E+00  0.00000000E+00
  0.00000000E+00  0.00000000E+00  0.00000000E+00
  0.00000000E+00  0.00000000E+00  0.00000000E+00
  0.00000000E+00  0.00000000E+00  0.00000000E+00
  0.00000000E+00  0.00000000E+00  0.00000000E+00
  0.00000000E+00  0.00000000E+00  0.00000000E+00
  0.00000000E+00  0.00000000E+00  0.00000000E+00
  0.00000000E+00  0.00000000E+00  0.00000000E+00
  0.00000000E+00  0.00000000E+00  0.00000000E+00
  0.00000000E+00  0.00000000E+00  0.00000000E+00
  0.00000000E+00  0.00000000E+00  0.00000000E+00
  0.00000000E+00  0.00000000E+00  0.00000000E+00
  0.00000000E+00  0.00000000E+00  0.00000000E+00
  0.00000000E+00  0.00000000E+00  0.00000000E+00
  0.00000000E+00  0.00000000E+00  0.00000000E+00
  0.00000000E+00  0.00000000E+00  0.00000000E+00
  0.00000000E+00  0.00000000E+00  0.00000000E+00
  0.00000000E+00  0.00000000E+00  0.00000000E+00
  0.00000000E+00  0.00000000E+00  0.00000000E+00
  0.00000000E+00  0.00000000E+00  0.00000000E+00
  0.00000000E+00  0.00000000E+00  0.00000000E+00
  0.00000000E+00  0.00000000E+00  0.00000000E+00
  0.00000000E+00  0.00000000E+00  0.00000000E+00
  0.00000000E+00  0.00000000E+00  0.00000000E+00
  0.00000000E+00  0.00000000E+00  0.00000000E+00
  0.00000000E+00  0.00000000E+00  0.00000000E+00
  0.00000000E+00  0.00000000E+00  0.00000000E+00
  0.00000000E+00  0.00000000E+00  0.00000000E+00
  0.00000000E+00  0.00000000E+00  0.00000000E+00
  0.00000000E+00  0.00000000E+00  0.00000000E+00
  0.00000000E+00  0.00000000E+00  0.00000000E+00
  0.00000000E+00  0.00000000E+00  0.00000000E+00
  0.00000000E+00  0.00000000E+00  0.00000000E+00
  0.00000000E+00  0.00000000E+00  0.00000000E+00
  0.00000000E+00  0.00000000E+00  0.00000000E+00
  0.00000000E+00  0.00000000E+00  0.00000000E+00
  0.00000000E+00  0.00000000E+00  0.00000000E+00
  0.00000000E+00  0.00000000E+00  0.00000000E+00
  0.00000000E+00  0.00000000E+00  0.00000000E+00
  0.00000000E+00  0.00000000E+00  0.00000000E+00
  0.00000000E+00  0.00000000E+00  0.00000000E+00
  0.00000000E+00  0.00000000E+00  0.00000000E+00
  0.00000000E+00  0.00000000E+00  0.00000000E+00
  0.00000000E+00  0.00000000E+00  0.00000000E+00
  0.00000000E+00  0.00000000E+00  0.00000000E+00
  0.00000000E+00  0.00000000E+00  0.00000000E+00
  0.00000000E+00  0.00000000E+00  0.00000000E+00
  0.00000000E+00  0.00000000E+00  0.00000000E+00
  0.00000000E+00  0.00000000E+00  0.00000000E+00
  0.00000000E+00  0.00000000E+00  0.00000000E+00
  0.00000000E+00  0.00000000E+00  0.00000000E+00
  0.00000000E+00  0.00000000E+00  0.00000000E+00
  0.00000000E+00  0.00000000E+00  0.00000000E+00
  0.00000000E+00  0.00000000E+00  0.00000000E+00
  0.00000000E+00  0.00000000E+00  0.00000000E+00
  0.00000000E+00  0.00000000E+00  0.00000000E+00
  0.00000000E+00  0.00000000E+00  0.00000000E+00
  0.00000000E+00  0.00000000E+00  0.00000000E+00
  0.00000000E+00  0.00000000E+00  0.00000000E+00
  0.00000000E+00  0.00000000E+00  0.00000000E+00
  0.00000000E+00  0.00000000E+00  0.00000000E+00
  0.00000000E+00  0.00000000E+00  0.00000000E+00
  0.00000000E+00  0.00000000E+00  0.00000000E+00
  0.00000000E+00  0.00000000E+00  0.00000000E+00
  0.00000000E+00  0.00000000E+00  0.00000000E+00
  0.00000000E+00  0.00000000E+00  0.00000000E+00
  0.00000000E+00  0.00000000E+00  0.00000000E+00
  0.00000000E+00  0.00000000E+00  0.00000000E+00
  0.00000000E+00  0.00000000E+00  0.00000000E+00
  0.00000000E+00  0.00000000E+00  0.00000000E+00
  0.00000000E+00  0.00000000E+00  0.00000000E+00
  0.00000000E+00  0.00000000E+00  0.00000000E+00
  0.00000000E+00  0.00000000E+00  0.00000000E+00
  0.00000000E+00  0.00000000E+00  0.00000000E+00
  0.00000000E+00  0.00000000E+00  0.00000000E+00
  0.00000000E+00  0.00000000E+00  0.00000000E+00
  0.00000000E+00  0.00000000E+00  0.00000000E+00
  0.00000000E+00  0.00000000E+00  0.00000000E+00
  0.00000000E+00  0.00000000E+00  0.00000000E+00
  0.00000000E+00  0.00000000E+00  0.00000000E+00
  0.00000000E+00  0.00000000E+00  0.00000000E+00
  0.00000000E+00  0.00000000E+00  0.00000000E+00
  0.00000000E+00  0.00000000E+00  0.00000000E+00
  0.00000000E+00  0.00000000E+00  0.00000000E+00
  0.00000000E+00  0.00000000E+00  0.00000000E+00
  0.00000000E+00  0.00000000E+00  0.00000000E+00
  0.00000000E+00  0.00000000E+00  0.00000000E+00
  0.00000000E+00  0.00000000E+00  0.00000000E+00
  0.00000000E+00  0.00000000E+00  0.00000000E+00
  0.00000000E+00  0.00000000E+00  0.00000000E+00
  0.00000000E+00  0.00000000E+00  0.00000000E+00
  0.00000000E+00  0.00000000E+00  0.00000000E+00
  0.00000000E+00  0.00000000E+00  0.00000000E+00
  0.00000000E+00  0.00000000E+00  0.00000000E+00
  0.00000000E+00  0.00000000E+00  0.00000000E+00
  0.00000000E+00  0.00000000E+00  0.00000000E+00
  0.00000000E+00  0.00000000E+00  0.00000000E+00
  0.00000000E+00  0.00000000E+00  0.00000000E+00
  0.00000000E+00  0.00000000E+00  0.00000000E+00
  0.00000000E+00  0.00000000E+00  0.00000000E+00
  0.00000000E+00  0.00000000E+00  0.00000000E+00
  0.00000000E+00  0.00000000E+00  0.00000000E+00
  0.00000000E+00  0.00000000E+00  0.00000000E+00
  0.00000000E+00  0.00000000E+00  0.00000000E+00
  0.00000000E+00  0.00000000E+00  0.00000000E+00
  0.00000000E+00  0.00000000E+00  0.00000000E+00
  0.00000000E+00  0.00000000E+00  0.00000000E+00
  0.00000000E+00  0.00000000E+00  0.00000000E+00
  0.00000000E+00  0.00000000E+00  0.00000000E+00
  0.00000000E+00  0.00000000E+00  0.00000000E+00
  0.00000000E+00  0.00000000E+00  0.00000000E+00
  0.00000000E+00  0.00000000E+00  0.00000000E+00
  0.00000000E+00  0.00000000E+00  0.00000000E+00
  0.00000000E+00  0.00000000E+00  0.00000000E+00
  0.00000000E+00  0.00000000E+00  0.00000000E+00
  0.00000000E+00  0.00000000E+00  0.00000000E+00
  0.00000000E+00  0.00000000E+00  0.00000000E+00
  0.00000000E+00  0.00000000E+00  0.00000000E+00
  0.00000000E+00  0.00000000E+00  0.00000000E+00
  0.00000000E+00  0.00000000E+00  0.00000000E+00
  0.00000000E+00  0.00000000E+00  0.00000000E+00
  0.00000000E+00  0.00000000E+00  0.00000000E+00
  0.00000000E+00  0.00000000E+00  0.00000000E+00
  0.00000000E+00  0.00000000E+00  0.00000000E+00
  0.00000000E+00  0.00000000E+00  0.00000000E+00
  0.00000000E+00  0.00000000E+00  0.00000000E+00
  0.00000000E+00  0.00000000E+00  0.00000000E+00
  0.00000000E+00  0.00000000E+00  0.00000000E+00
  0.00000000E+00  0.00000000E+00  0.00000000E+00
  0.00000000E+00  0.00000000E+00  0.00000000E+00
  0.00000000E+00  0.00000000E+00  0.00000000E+00
  0.00000000E+00  0.00000000E+00  0.00000000E+00
  0.00000000E+00  0.00000000E+00  0.00000000E+00
  0.00000000E+00  0.00000000E+00  0.00000000E+00
  0.00000000E+00  0.00000000E+00  0.00000000E+00
  0.00000000E+00  0.00000000E+00  0.00000000E+00
  0.00000000E+00  0.00000000E+00  0.00000000E+00
  0.00000000E+00  0.00000000E+00  0.00000000E+00
  0.00000000E+00  0.00000000E+00  0.00000000E+00
  0.00000000E+00  0.00000000E+00  0.00000000E+00
  0.00000000E+00  0.00000000E+00  0.00000000E+00
  0.00000000E+00  0.00000000E+00  0.00000000E+00
  0.00000000E+00  0.00000000E+00  0.00000000E+00
  0.00000000E+00  0.00000000E+00  0.00000000E+00
  0.00000000E+00  0.00000000E+00  0.00000000E+00
  0.00000000E+00  0.00000000E+00  0.00000000E+00
