Li71 P24 N1 O94                         
   1.00000000000000     
    14.7073930584600703   -0.0019374702337984    0.0040346260746871
    -0.0013687582682051   10.5652773798938071   -0.0059347406213492
     0.0033784349464503   -0.0069176914141767   12.3030814566312845
   Li   P    N    O 
    71    24     1    94
Direct
  0.1667684650034032  0.4230055991198317 -0.0036293573649166
  0.1686696625876399  0.4226682668371636  0.4995829558091420
  0.1601274418113311  0.8991892523474558  0.0050078738464853
  0.1698289826913578  0.9218452933460182  0.4983693869073778
  0.5045431325140936  0.4238576435031071  0.0002965349227011
  0.5031325807000435  0.4225027083637943  0.4992330733533676
  0.5084013778653500  0.9189377861655180  0.0004275710108072
  0.5030199480862303  0.9225602215598131  0.4993095948008809
  0.8378220208199127  0.4232488844753480  0.0008775852979711
  0.8365761238873993  0.4228618667326369  0.4996520020231875
  0.8352849760564157  0.9207058054814875 -0.0005614384425937
  0.8367490194467938  0.9222681167912868  0.4993965828330694
  0.0086985567208257  0.0797454025808246  0.2473786137119365
  0.0011614491422881  0.0776368671433477  0.7502255814941126
  0.0025407707333267  0.5772526802242951  0.2508613853211779
  0.0026340685177154  0.5777504223826626  0.7500724792221409
  0.3328682738711816  0.0786055208936726  0.2509584289331408
  0.3360490463300644  0.0767253882944873  0.7470611346407480
  0.3354347106509361  0.5754842628370628  0.2504842453524856
  0.3371109467282967  0.5776547128980429  0.7492959897926701
  0.6716286802321344  0.0774308233422153  0.2506702684334658
  0.6700609815738673  0.0771965333282452  0.7490233711547029
  0.6707970675050593  0.5775488476490660  0.2503738544003948
  0.6697975608032707  0.5774401086726551  0.7498183818385776
  0.1690030619582311  0.1635023683054159  0.6245024263015576
  0.1694141631318956  0.6593957388677854  0.1279318440476026
  0.1693683419809141  0.6645735858052413  0.6263828222271977
  0.5085974631082709  0.1639675037042569  0.1292535257196993
  0.5027318694190799  0.1632797680995068  0.6255354400376145
  0.5030554113947766  0.6627639591854249  0.1272145538423230
  0.5031031342934463  0.6630557017340374  0.6260238607711480
  0.8404126771502721  0.1630008788123740  0.1249349491859058
  0.8360681955255999  0.1631576864359845  0.6255499833863898
  0.8362902082570542  0.6637324135270565  0.1270764993495417
  0.8358244448653003  0.6632995684855585  0.6266992894009380
  0.0085799414943174  0.3360429782433098  0.1241104169155080
  0.0023740533108540  0.3362221574114654  0.6237322874280568
  0.0015437768359380  0.8374164371222241  0.1256336425478960
  0.0026698420902931  0.8369881214961530  0.6237398467962946
  0.3391148414893760  0.3369907496453218  0.1232814818674234
  0.3363104927068010  0.3367203723582543  0.6226101359526665
  0.3356038026172802  0.8343839674053292  0.1265354185405519
  0.3368705396249002  0.8366686068403655  0.6230219728616824
  0.6709810233193476  0.3372506603312146  0.1236537321331465
  0.6696308909340664  0.3368169846541538  0.6232961246362277
  0.6701351365018138  0.8365195316797629  0.1245830305877505
  0.6695510594872370  0.8365894297657017  0.6231216751111638
  0.0025286532699471  0.3362327904487572  0.3776524153453444
  0.0010202815717635  0.3368781759893889  0.8768852654270479
  0.0032609663205093  0.8370394864096681  0.3761377603082167
  0.0005523102132311  0.8375445784740403  0.8765073854787512
  0.3343038041578793  0.3369042780031174  0.3749127882852592
  0.3358016514623831  0.3406443425338258  0.8767866951888398
  0.3353752495780571  0.8361313525030134  0.3756903729966868
  0.3357294905485768  0.8345356650089989  0.8745469966598231
  0.6707964063803424  0.3367322155338286  0.3763604980726153
  0.6700818146034864  0.3374822257122529  0.8764086916484362
  0.6697788278976531  0.8367472680128464  0.3763438257312880
  0.6699456253319460  0.8362270894357106  0.8754396862574497
  0.1696302812106532  0.1627083079329100  0.3692537602758076
  0.1627758094870843  0.1719934745562448  0.8652454523227581
  0.1681086733666166  0.6627768521203408  0.3760169330785634
  0.1692309354671540  0.6622393464984943  0.8730173605632862
  0.5028040125165706  0.1637944558619693  0.3739902435378875
  0.5071369184252242  0.1643171174632908  0.8718847016611260
  0.5029866608710001  0.6630974628265419  0.3738793920689484
  0.5031907574418771  0.6629686889200888  0.8735876939547792
  0.8375333102270510  0.1631438413582051  0.3730469581602842
  0.8347640331990089  0.1627084620397803  0.8724077632476021
  0.8366294472350910  0.6636708889618134  0.3740398561883569
  0.8357199396824361  0.6634066727923884  0.8731835743127160
  0.1661897585313400  0.4129319197927299  0.2514803887068037
  0.1669264635555036  0.4129261652991819  0.7486718469830688
  0.1681033561322032  0.9106516512928935  0.2513737640550193
  0.1664863054657363  0.9135831207934785  0.7525287614636106
  0.5018175342359090  0.4125333549454961  0.2506005561658752
  0.5004049222050378  0.4121573454614980  0.7497215167711587
  0.5008244425163629  0.9124360767765660  0.2503325222406116
  0.5004197201451627  0.9122072260002217  0.7498151582772944
  0.8341006111243811  0.4124184936403010  0.2498388466723902
  0.8333507803534955  0.4120078228462469  0.7498727817740559
  0.8340414721574361  0.9126078952740294  0.2500836877154656
  0.8332011339905230  0.9120316426005652  0.7492142587001246
 -0.0015839215198620  0.0879093009159699  0.0006981224999765
  0.0006009428127384  0.0873941057837090  0.5002954546507506
 -0.0004381090573237  0.5893256538305234 -0.0005417485707694
 -0.0001997241029833  0.5881677630451669  0.5010693958192347
  0.3397682290165345  0.0864977377648540  0.0009019898660765
  0.3334064638111753  0.0877394825827781  0.4996799905174960
  0.3344959973421887  0.5882897473769424 -0.0005456633331077
  0.3338985713171248  0.5876993683515812  0.5002217868992416
  0.6667641680984472  0.0875829472005054 -0.0002927776167760
  0.6672303287763071  0.0877758213068513  0.4999566010175847
  0.6674314823722588  0.5883901024274004 -0.0000285432192654
  0.6671519255503443  0.5879442246466327  0.5002213343648672
  0.2071153872611929  0.3567814265337260  0.1389057322745411
  0.0359528297773722  0.1567110762445796  0.3968904171596085
  0.0359638821299626  0.1566935387673823  0.8966953629419969
  0.0348564776191592  0.6570603905291973  0.3971170737408196
  0.0355321715004277  0.6589666345080194  0.8957466261512942
  0.3690380764765636  0.1576947159619988  0.3964704249686241
  0.3674310000157340  0.1571969255895816  0.8948293283580981
  0.3692877483947257  0.6566845010990011  0.3963435174212075
  0.3695332982181299  0.6582320166659521  0.8954519331512114
  0.7029724041498553  0.1568656622679239  0.3963160213741147
  0.7009656629834161  0.1565605996863623  0.8952274020336926
  0.7025820678169667  0.6573401186373972  0.3965308025199969
  0.7023445994073351  0.6572542528866558  0.8956853250103246
  0.2044082962829528  0.0469347570795434  0.2545631299701996
  0.2005326958329689  0.0539572712394985  0.7539076673197788
  0.2000824788374158  0.5540956726659927  0.2532598262806950
  0.2007973270579874  0.5527489308302268  0.7493401245095157
  0.5355953336928876  0.0519901812015024  0.2506601047854520
  0.5339956159539049  0.0523279631057187  0.7499132626316511
  0.5356452753451246  0.5524894897991175  0.2503733573641662
  0.5341037232730004  0.5521264321884077  0.7499829865195006
  0.8678107483902582  0.0522460824699056  0.2498353198042406
  0.8668203262977504  0.0520183228471768  0.7490352241503837
  0.8673315424886476  0.5527896164870864  0.2504620602326867
  0.8674025844866621  0.5518700982224852  0.7501516658988467
  0.0598511886507522  0.4104019381532885  0.2542778933717345
  0.0611315760155291  0.4092531893512334  0.7501791750162422
  0.0620479535630061  0.9082158664480536  0.2502592159055138
  0.0608567404729641  0.9104002007307045  0.7511740297574097
  0.3961631693951366  0.4096450443150390  0.2508319454710199
  0.3944618029956695  0.4091222713106127  0.7497597002886701
  0.3950013064513216  0.9105285901125864  0.2498056625017413
  0.3944193024418171  0.9097192300073138  0.7503356822154170
  0.7280697451993692  0.4096408572773789  0.2499255496194764
  0.7274319014053968  0.4095941772666812  0.7497278657173365
  0.7280176002618098  0.9094098147434321  0.2503745792530230
  0.7272925126055170  0.9092624785563812  0.7493280264493319
  0.2276023333844814  0.0899534876527731  0.5000830231833553
  0.2286062469926675  0.5914981193157089 -0.0013909054523232
  0.2280359036566155  0.5907727798981928  0.5012739448790881
  0.5604808209465603  0.0904190332752084  0.0000612068826209
  0.5612746066564346  0.0905355349153042  0.4998332197951250
  0.5614883276183765  0.5916079859416163  0.0001329075247695
  0.5612328918078311  0.5905414568003338  0.5000823313728773
  0.8923509537748295  0.0861849292805233 -0.0056631731173416
  0.8946570649271325  0.0900289936303518  0.5002913021777305
  0.8937125461840522  0.5934745463150177 -0.0004027662905245
  0.8939183558576718  0.5911172084320339  0.5011654264857781
  0.2020320831556236  0.3434293717035504  0.6449451288712726
  0.2026973827839120  0.8409133061319550  0.1460014971437759
  0.2032956516436230  0.8445999113395389  0.6494356805859521
  0.5369366802438235  0.3435069600485943  0.1461372941341700
  0.5356228202960597  0.3428247762023002  0.6458276601267690
  0.5361169365708928  0.8430534258370812  0.1462048233306228
  0.5353752627349616  0.8431837666029151  0.6457376266446800
  0.8694289323060425  0.3441712366197287  0.1456687838682133
  0.8686904387253672  0.3427786099316844  0.6459342522605596
  0.8686447798943018  0.8430902985793914  0.1458188171792847
  0.8687243571883568  0.8428089489899450  0.6454127824723597
  0.0273088508303374  0.1576061155179343  0.1046356735128396
  0.0354354725535391  0.1563512327419772  0.6049417551274382
  0.0355862027860386  0.6575913375391332  0.1035687377193086
  0.0354542854944843  0.6577337949321874  0.6049283903891433
  0.3727895317230120  0.1557796088754186  0.1044093142197674
  0.3686676799483133  0.1564266765435336  0.6042473005280649
  0.3692400473325572  0.6569410092569952  0.1039954811212547
  0.3695075646268165  0.6569283096382574  0.6042735637534383
  0.7023680547847783  0.1566830860911886  0.1033506266163224
  0.7021545299739985  0.1569286416288140  0.6041983853675119
  0.7027544170608725  0.6575090273433344  0.1038824305758062
  0.7020224762331392  0.6570590478450616  0.6045195196397387
  0.0319452389600037  0.4491827386740497 -0.0021423959376416
  0.0333802047210474  0.4482303819262545  0.5017301418880169
  0.0340908064127090  0.9479673750018789  0.0003710164980240
  0.0344966213261722  0.9473828802303160  0.5006463994739420
  0.3701646783089863  0.4494374215882891 -0.0016125283538651
  0.3676617717428916  0.4477208846347719  0.5000177198186889
  0.3681780484285567  0.9448730866845078 -0.0005828222476251
  0.3674885025477125  0.9477952476443888  0.4996102164016415
  0.7010447745713561  0.4483771499796263 -0.0002077843249389
  0.7010478565280008  0.4480840036379528  0.5002226091319033
  0.6994589607261822  0.9471578529513901 -0.0004917833777946
  0.7008644670047172  0.9477539552409204  0.5000803296720545
  0.2004680225686436  0.3437598885632356  0.3565640566023649
  0.2028830539755898  0.3433778838900213  0.8523494423319486
  0.2017930427136758  0.8370667058187190  0.3544218550008937
  0.2013250034034676  0.8456932740762839  0.8577542571247292
  0.5372723433009531  0.3429489127643140  0.3541503200740036
  0.5357645612508711  0.3431449873189641  0.8537869148704991
  0.5357041299430361  0.8427757575642719  0.3541263158868029
  0.5358676606153958  0.8431311739379356  0.8536663696142651
  0.8687615259263897  0.3433057539101566  0.3541080103475631
  0.8681648382653780  0.3425862215752233  0.8538429699821822
  0.8692693575370406  0.8430797331546968  0.3538406118248330
  0.8681737543035505  0.8426586238075642  0.8530815307944849
 
  0.00000000E+00  0.00000000E+00  0.00000000E+00
  0.00000000E+00  0.00000000E+00  0.00000000E+00
  0.00000000E+00  0.00000000E+00  0.00000000E+00
  0.00000000E+00  0.00000000E+00  0.00000000E+00
  0.00000000E+00  0.00000000E+00  0.00000000E+00
  0.00000000E+00  0.00000000E+00  0.00000000E+00
  0.00000000E+00  0.00000000E+00  0.00000000E+00
  0.00000000E+00  0.00000000E+00  0.00000000E+00
  0.00000000E+00  0.00000000E+00  0.00000000E+00
  0.00000000E+00  0.00000000E+00  0.00000000E+00
  0.00000000E+00  0.00000000E+00  0.00000000E+00
  0.00000000E+00  0.00000000E+00  0.00000000E+00
  0.00000000E+00  0.00000000E+00  0.00000000E+00
  0.00000000E+00  0.00000000E+00  0.00000000E+00
  0.00000000E+00  0.00000000E+00  0.00000000E+00
  0.00000000E+00  0.00000000E+00  0.00000000E+00
  0.00000000E+00  0.00000000E+00  0.00000000E+00
  0.00000000E+00  0.00000000E+00  0.00000000E+00
  0.00000000E+00  0.00000000E+00  0.00000000E+00
  0.00000000E+00  0.00000000E+00  0.00000000E+00
  0.00000000E+00  0.00000000E+00  0.00000000E+00
  0.00000000E+00  0.00000000E+00  0.00000000E+00
  0.00000000E+00  0.00000000E+00  0.00000000E+00
  0.00000000E+00  0.00000000E+00  0.00000000E+00
  0.00000000E+00  0.00000000E+00  0.00000000E+00
  0.00000000E+00  0.00000000E+00  0.00000000E+00
  0.00000000E+00  0.00000000E+00  0.00000000E+00
  0.00000000E+00  0.00000000E+00  0.00000000E+00
  0.00000000E+00  0.00000000E+00  0.00000000E+00
  0.00000000E+00  0.00000000E+00  0.00000000E+00
  0.00000000E+00  0.00000000E+00  0.00000000E+00
  0.00000000E+00  0.00000000E+00  0.00000000E+00
  0.00000000E+00  0.00000000E+00  0.00000000E+00
  0.00000000E+00  0.00000000E+00  0.00000000E+00
  0.00000000E+00  0.00000000E+00  0.00000000E+00
  0.00000000E+00  0.00000000E+00  0.00000000E+00
  0.00000000E+00  0.00000000E+00  0.00000000E+00
  0.00000000E+00  0.00000000E+00  0.00000000E+00
  0.00000000E+00  0.00000000E+00  0.00000000E+00
  0.00000000E+00  0.00000000E+00  0.00000000E+00
  0.00000000E+00  0.00000000E+00  0.00000000E+00
  0.00000000E+00  0.00000000E+00  0.00000000E+00
  0.00000000E+00  0.00000000E+00  0.00000000E+00
  0.00000000E+00  0.00000000E+00  0.00000000E+00
  0.00000000E+00  0.00000000E+00  0.00000000E+00
  0.00000000E+00  0.00000000E+00  0.00000000E+00
  0.00000000E+00  0.00000000E+00  0.00000000E+00
  0.00000000E+00  0.00000000E+00  0.00000000E+00
  0.00000000E+00  0.00000000E+00  0.00000000E+00
  0.00000000E+00  0.00000000E+00  0.00000000E+00
  0.00000000E+00  0.00000000E+00  0.00000000E+00
  0.00000000E+00  0.00000000E+00  0.00000000E+00
  0.00000000E+00  0.00000000E+00  0.00000000E+00
  0.00000000E+00  0.00000000E+00  0.00000000E+00
  0.00000000E+00  0.00000000E+00  0.00000000E+00
  0.00000000E+00  0.00000000E+00  0.00000000E+00
  0.00000000E+00  0.00000000E+00  0.00000000E+00
  0.00000000E+00  0.00000000E+00  0.00000000E+00
  0.00000000E+00  0.00000000E+00  0.00000000E+00
  0.00000000E+00  0.00000000E+00  0.00000000E+00
  0.00000000E+00  0.00000000E+00  0.00000000E+00
  0.00000000E+00  0.00000000E+00  0.00000000E+00
  0.00000000E+00  0.00000000E+00  0.00000000E+00
  0.00000000E+00  0.00000000E+00  0.00000000E+00
  0.00000000E+00  0.00000000E+00  0.00000000E+00
  0.00000000E+00  0.00000000E+00  0.00000000E+00
  0.00000000E+00  0.00000000E+00  0.00000000E+00
  0.00000000E+00  0.00000000E+00  0.00000000E+00
  0.00000000E+00  0.00000000E+00  0.00000000E+00
  0.00000000E+00  0.00000000E+00  0.00000000E+00
  0.00000000E+00  0.00000000E+00  0.00000000E+00
  0.00000000E+00  0.00000000E+00  0.00000000E+00
  0.00000000E+00  0.00000000E+00  0.00000000E+00
  0.00000000E+00  0.00000000E+00  0.00000000E+00
  0.00000000E+00  0.00000000E+00  0.00000000E+00
  0.00000000E+00  0.00000000E+00  0.00000000E+00
  0.00000000E+00  0.00000000E+00  0.00000000E+00
  0.00000000E+00  0.00000000E+00  0.00000000E+00
  0.00000000E+00  0.00000000E+00  0.00000000E+00
  0.00000000E+00  0.00000000E+00  0.00000000E+00
  0.00000000E+00  0.00000000E+00  0.00000000E+00
  0.00000000E+00  0.00000000E+00  0.00000000E+00
  0.00000000E+00  0.00000000E+00  0.00000000E+00
  0.00000000E+00  0.00000000E+00  0.00000000E+00
  0.00000000E+00  0.00000000E+00  0.00000000E+00
  0.00000000E+00  0.00000000E+00  0.00000000E+00
  0.00000000E+00  0.00000000E+00  0.00000000E+00
  0.00000000E+00  0.00000000E+00  0.00000000E+00
  0.00000000E+00  0.00000000E+00  0.00000000E+00
  0.00000000E+00  0.00000000E+00  0.00000000E+00
  0.00000000E+00  0.00000000E+00  0.00000000E+00
  0.00000000E+00  0.00000000E+00  0.00000000E+00
  0.00000000E+00  0.00000000E+00  0.00000000E+00
  0.00000000E+00  0.00000000E+00  0.00000000E+00
  0.00000000E+00  0.00000000E+00  0.00000000E+00
  0.00000000E+00  0.00000000E+00  0.00000000E+00
  0.00000000E+00  0.00000000E+00  0.00000000E+00
  0.00000000E+00  0.00000000E+00  0.00000000E+00
  0.00000000E+00  0.00000000E+00  0.00000000E+00
  0.00000000E+00  0.00000000E+00  0.00000000E+00
  0.00000000E+00  0.00000000E+00  0.00000000E+00
  0.00000000E+00  0.00000000E+00  0.00000000E+00
  0.00000000E+00  0.00000000E+00  0.00000000E+00
  0.00000000E+00  0.00000000E+00  0.00000000E+00
  0.00000000E+00  0.00000000E+00  0.00000000E+00
  0.00000000E+00  0.00000000E+00  0.00000000E+00
  0.00000000E+00  0.00000000E+00  0.00000000E+00
  0.00000000E+00  0.00000000E+00  0.00000000E+00
  0.00000000E+00  0.00000000E+00  0.00000000E+00
  0.00000000E+00  0.00000000E+00  0.00000000E+00
  0.00000000E+00  0.00000000E+00  0.00000000E+00
  0.00000000E+00  0.00000000E+00  0.00000000E+00
  0.00000000E+00  0.00000000E+00  0.00000000E+00
  0.00000000E+00  0.00000000E+00  0.00000000E+00
  0.00000000E+00  0.00000000E+00  0.00000000E+00
  0.00000000E+00  0.00000000E+00  0.00000000E+00
  0.00000000E+00  0.00000000E+00  0.00000000E+00
  0.00000000E+00  0.00000000E+00  0.00000000E+00
  0.00000000E+00  0.00000000E+00  0.00000000E+00
  0.00000000E+00  0.00000000E+00  0.00000000E+00
  0.00000000E+00  0.00000000E+00  0.00000000E+00
  0.00000000E+00  0.00000000E+00  0.00000000E+00
  0.00000000E+00  0.00000000E+00  0.00000000E+00
  0.00000000E+00  0.00000000E+00  0.00000000E+00
  0.00000000E+00  0.00000000E+00  0.00000000E+00
  0.00000000E+00  0.00000000E+00  0.00000000E+00
  0.00000000E+00  0.00000000E+00  0.00000000E+00
  0.00000000E+00  0.00000000E+00  0.00000000E+00
  0.00000000E+00  0.00000000E+00  0.00000000E+00
  0.00000000E+00  0.00000000E+00  0.00000000E+00
  0.00000000E+00  0.00000000E+00  0.00000000E+00
  0.00000000E+00  0.00000000E+00  0.00000000E+00
  0.00000000E+00  0.00000000E+00  0.00000000E+00
  0.00000000E+00  0.00000000E+00  0.00000000E+00
  0.00000000E+00  0.00000000E+00  0.00000000E+00
  0.00000000E+00  0.00000000E+00  0.00000000E+00
  0.00000000E+00  0.00000000E+00  0.00000000E+00
  0.00000000E+00  0.00000000E+00  0.00000000E+00
  0.00000000E+00  0.00000000E+00  0.00000000E+00
  0.00000000E+00  0.00000000E+00  0.00000000E+00
  0.00000000E+00  0.00000000E+00  0.00000000E+00
  0.00000000E+00  0.00000000E+00  0.00000000E+00
  0.00000000E+00  0.00000000E+00  0.00000000E+00
  0.00000000E+00  0.00000000E+00  0.00000000E+00
  0.00000000E+00  0.00000000E+00  0.00000000E+00
  0.00000000E+00  0.00000000E+00  0.00000000E+00
  0.00000000E+00  0.00000000E+00  0.00000000E+00
  0.00000000E+00  0.00000000E+00  0.00000000E+00
  0.00000000E+00  0.00000000E+00  0.00000000E+00
  0.00000000E+00  0.00000000E+00  0.00000000E+00
  0.00000000E+00  0.00000000E+00  0.00000000E+00
  0.00000000E+00  0.00000000E+00  0.00000000E+00
  0.00000000E+00  0.00000000E+00  0.00000000E+00
  0.00000000E+00  0.00000000E+00  0.00000000E+00
  0.00000000E+00  0.00000000E+00  0.00000000E+00
  0.00000000E+00  0.00000000E+00  0.00000000E+00
  0.00000000E+00  0.00000000E+00  0.00000000E+00
  0.00000000E+00  0.00000000E+00  0.00000000E+00
  0.00000000E+00  0.00000000E+00  0.00000000E+00
  0.00000000E+00  0.00000000E+00  0.00000000E+00
  0.00000000E+00  0.00000000E+00  0.00000000E+00
  0.00000000E+00  0.00000000E+00  0.00000000E+00
  0.00000000E+00  0.00000000E+00  0.00000000E+00
  0.00000000E+00  0.00000000E+00  0.00000000E+00
  0.00000000E+00  0.00000000E+00  0.00000000E+00
  0.00000000E+00  0.00000000E+00  0.00000000E+00
  0.00000000E+00  0.00000000E+00  0.00000000E+00
  0.00000000E+00  0.00000000E+00  0.00000000E+00
  0.00000000E+00  0.00000000E+00  0.00000000E+00
  0.00000000E+00  0.00000000E+00  0.00000000E+00
  0.00000000E+00  0.00000000E+00  0.00000000E+00
  0.00000000E+00  0.00000000E+00  0.00000000E+00
  0.00000000E+00  0.00000000E+00  0.00000000E+00
  0.00000000E+00  0.00000000E+00  0.00000000E+00
  0.00000000E+00  0.00000000E+00  0.00000000E+00
  0.00000000E+00  0.00000000E+00  0.00000000E+00
  0.00000000E+00  0.00000000E+00  0.00000000E+00
  0.00000000E+00  0.00000000E+00  0.00000000E+00
  0.00000000E+00  0.00000000E+00  0.00000000E+00
  0.00000000E+00  0.00000000E+00  0.00000000E+00
  0.00000000E+00  0.00000000E+00  0.00000000E+00
  0.00000000E+00  0.00000000E+00  0.00000000E+00
  0.00000000E+00  0.00000000E+00  0.00000000E+00
  0.00000000E+00  0.00000000E+00  0.00000000E+00
  0.00000000E+00  0.00000000E+00  0.00000000E+00
  0.00000000E+00  0.00000000E+00  0.00000000E+00
  0.00000000E+00  0.00000000E+00  0.00000000E+00
  0.00000000E+00  0.00000000E+00  0.00000000E+00
  0.00000000E+00  0.00000000E+00  0.00000000E+00
  0.00000000E+00  0.00000000E+00  0.00000000E+00
