Li7 P2 N1 O7                            
   1.00000000000000     
     5.0030528183024359    0.0475347196855331    0.0050952680299703
     0.0591249040828236    6.1572036588026950   -0.0722392558736941
     0.0074709201849215   -0.0607923435130257    5.4014080003785221
   Li   P    N    O 
     7     2     1     7
Direct
  0.0129153390802949  0.5036912480931958  0.1375941031434988
  0.5118180861677163  0.7220861221720803  0.3208311066692249
  0.5044930710742507  0.2807400392994491  0.3117577286629822
  0.0381563982521407  0.7325495306525776  0.6730681711528135
  0.0380996051532908  0.2643416224507981  0.6771460592839258
  0.4763334781980501 -0.0365800495969237  0.9130793333884188
  0.7001608076136475  0.0020857834403231  0.5667787653593882
  0.5259087209705245  0.5101352674841604  0.8096843534500383
  0.0063217223824298  0.0043726367015156  0.1738171916269494
  0.6199563107403392  0.7225035412957039  0.6783948633100875
  0.1136452569065762  0.2106539253595931  0.3120693410387467
  0.1211756727024659  0.7964503250305063  0.2968803915911950
  0.6233619323691354  0.4939332840074024  0.0892482552910526
  0.2097849648048331  0.4950427009042221  0.8238717729106048
  0.6934909694324645  0.0044903554649583  0.2083979243212399
  0.6224447013874279  0.2865490660565384  0.6745767596032310
  0.0864529627644392  0.0069546011838983  0.8954938791966063
 
  0.00000000E+00  0.00000000E+00  0.00000000E+00
  0.00000000E+00  0.00000000E+00  0.00000000E+00
  0.00000000E+00  0.00000000E+00  0.00000000E+00
  0.00000000E+00  0.00000000E+00  0.00000000E+00
  0.00000000E+00  0.00000000E+00  0.00000000E+00
  0.00000000E+00  0.00000000E+00  0.00000000E+00
  0.00000000E+00  0.00000000E+00  0.00000000E+00
  0.00000000E+00  0.00000000E+00  0.00000000E+00
  0.00000000E+00  0.00000000E+00  0.00000000E+00
  0.00000000E+00  0.00000000E+00  0.00000000E+00
  0.00000000E+00  0.00000000E+00  0.00000000E+00
  0.00000000E+00  0.00000000E+00  0.00000000E+00
  0.00000000E+00  0.00000000E+00  0.00000000E+00
  0.00000000E+00  0.00000000E+00  0.00000000E+00
  0.00000000E+00  0.00000000E+00  0.00000000E+00
  0.00000000E+00  0.00000000E+00  0.00000000E+00
  0.00000000E+00  0.00000000E+00  0.00000000E+00
