Li6 P2 O8
1.0
4.729501 0.000000 0.000000
0.000000 5.089226 0.000000
0.000000 0.000000 5.934807
Li P O
6 2 8
direct
0.509409 0.845062 0.000000 Li
0.009409 0.154939 0.500000 Li
0.508550 0.326293 0.252664 Li
0.008550 0.673707 0.247336 Li
0.008550 0.673707 0.752664 Li
0.508550 0.326293 0.747336 Li
0.501342 0.824264 0.500000 P
0.001342 0.175736 0.000000 P
0.107494 0.314212 0.791956 O
0.602699 0.104876 0.500000 O
0.183362 0.818541 0.500000 O
0.683362 0.181459 0.000000 O
0.607494 0.685788 0.291956 O
0.107494 0.314212 0.208044 O
0.102699 0.895124 0.000000 O
0.607494 0.685788 0.708044 O
