Li56 P56
1.0
5.593872 0.000000 -4.970385
0.756887 9.037780 0.000000
0.000000 0.000000 64.615005
Li P
56 56
direct
0.112292 0.670700 0.031718 Li+
0.387708 0.829300 0.014442 Li+
0.887708 0.329300 0.074173 Li+
0.612292 0.170700 0.014525 Li+
0.804018 0.970214 0.064153 Li+
0.695982 0.529786 0.017381 Li+
0.195982 0.029786 0.041737 Li+
0.304018 0.470214 0.011586 Li+
0.112292 0.670700 0.108641 Li+
0.387708 0.829300 0.091365 Li+
0.887708 0.329300 0.151096 Li+
0.612292 0.170700 0.091448 Li+
0.804018 0.970214 0.141076 Li+
0.695982 0.529786 0.094304 Li+
0.195982 0.029786 0.118661 Li+
0.304018 0.470214 0.088509 Li+
0.112292 0.670700 0.185564 Li+
0.387708 0.829300 0.168288 Li+
0.887708 0.329300 0.228019 Li+
0.612292 0.170700 0.168371 Li+
0.804018 0.970214 0.217999 Li+
0.695982 0.529786 0.171227 Li+
0.195982 0.029786 0.195584 Li+
0.304018 0.470214 0.165433 Li+
0.112292 0.670700 0.262487 Li+
0.387708 0.829300 0.245212 Li+
0.887708 0.329300 0.304942 Li+
0.612292 0.170700 0.245294 Li+
0.804018 0.970214 0.294922 Li+
0.695982 0.529786 0.248150 Li+
0.195982 0.029786 0.272507 Li+
0.304018 0.470214 0.242356 Li+
0.112292 0.670700 0.339410 Li+
0.387708 0.829300 0.322135 Li+
0.887708 0.329300 0.381865 Li+
0.612292 0.170700 0.322218 Li+
0.804018 0.970214 0.371845 Li+
0.695982 0.529786 0.325073 Li+
0.195982 0.029786 0.349430 Li+
0.304018 0.470214 0.319279 Li+
0.112292 0.670700 0.416333 Li+
0.387708 0.829300 0.399058 Li+
0.887708 0.329300 0.458788 Li+
0.612292 0.170700 0.399141 Li+
0.804018 0.970214 0.448769 Li+
0.695982 0.529786 0.401997 Li+
0.195982 0.029786 0.426353 Li+
0.304018 0.470214 0.396202 Li+
0.112292 0.670700 0.493256 Li+
0.387708 0.829300 0.475981 Li+
0.887708 0.329300 0.535711 Li+
0.612292 0.170700 0.476064 Li+
0.804018 0.970214 0.525692 Li+
0.695982 0.529786 0.478920 Li+
0.195982 0.029786 0.503276 Li+
0.304018 0.470214 0.473125 Li+
0.976271 0.707084 0.059204 P-
0.523729 0.792916 0.062855 P-
0.023729 0.292916 0.046686 P-
0.476271 0.207084 0.043036 P-
0.808560 0.888258 0.026217 P-
0.691440 0.611742 0.055669 P-
0.191440 0.111742 0.002750 P-
0.308560 0.388258 0.050221 P-
0.976271 0.707084 0.136127 P-
0.523729 0.792916 0.139778 P-
0.023729 0.292916 0.123609 P-
0.476271 0.207084 0.119959 P-
0.808560 0.888258 0.103140 P-
0.691440 0.611742 0.132592 P-
0.191440 0.111742 0.079674 P-
0.308560 0.388258 0.127144 P-
0.976271 0.707084 0.213050 P-
0.523729 0.792916 0.216701 P-
0.023729 0.292916 0.200532 P-
0.476271 0.207084 0.196882 P-
0.808560 0.888258 0.180063 P-
0.691440 0.611742 0.209516 P-
0.191440 0.111742 0.156597 P-
0.308560 0.388258 0.204067 P-
0.976271 0.707084 0.289974 P-
0.523729 0.792916 0.293624 P-
0.023729 0.292916 0.277456 P-
0.476271 0.207084 0.273805 P-
0.808560 0.888258 0.256986 P-
0.691440 0.611742 0.286439 P-
0.191440 0.111742 0.233520 P-
0.308560 0.388258 0.280990 P-
0.976271 0.707084 0.366897 P-
0.523729 0.792916 0.370547 P-
0.023729 0.292916 0.354379 P-
0.476271 0.207084 0.350728 P-
0.808560 0.888258 0.333909 P-
0.691440 0.611742 0.363362 P-
0.191440 0.111742 0.310443 P-
0.308560 0.388258 0.357914 P-
0.976271 0.707084 0.443820 P-
0.523729 0.792916 0.447470 P-
0.023729 0.292916 0.431302 P-
0.476271 0.207084 0.427651 P-
0.808560 0.888258 0.410832 P-
0.691440 0.611742 0.440285 P-
0.191440 0.111742 0.387366 P-
0.308560 0.388258 0.434837 P-
0.976271 0.707084 0.520743 P-
0.523729 0.792916 0.524393 P-
0.023729 0.292916 0.508225 P-
0.476271 0.207084 0.504574 P-
0.808560 0.888258 0.487756 P-
0.691440 0.611742 0.517208 P-
0.191440 0.111742 0.464289 P-
0.308560 0.388258 0.511760 P-
