P28 N28 O28
1.0
4.831544 0.000000 -4.524130
-0.000000 7.043614 -4.524130
0.000000 0.000000 63.337820
P N O
28 28 28
direct
0.250000 0.639517 0.045680 P5+
0.750000 0.860483 0.025749 P5+
0.750000 0.139517 0.009965 P5+
0.250000 0.360483 0.061463 P5+
0.250000 0.639517 0.117108 P5+
0.750000 0.860483 0.097177 P5+
0.750000 0.139517 0.081394 P5+
0.250000 0.360483 0.132892 P5+
0.250000 0.639517 0.188537 P5+
0.750000 0.860483 0.168606 P5+
0.750000 0.139517 0.152823 P5+
0.250000 0.360483 0.204320 P5+
0.250000 0.639517 0.259965 P5+
0.750000 0.860483 0.240034 P5+
0.750000 0.139517 0.224251 P5+
0.250000 0.360483 0.275749 P5+
0.250000 0.639517 0.331394 P5+
0.750000 0.860483 0.311463 P5+
0.750000 0.139517 0.295680 P5+
0.250000 0.360483 0.347177 P5+
0.250000 0.639517 0.402823 P5+
0.750000 0.860483 0.382892 P5+
0.750000 0.139517 0.367108 P5+
0.250000 0.360483 0.418606 P5+
0.250000 0.639517 0.474251 P5+
0.750000 0.860483 0.454320 P5+
0.750000 0.139517 0.438537 P5+
0.250000 0.360483 0.490034 P5+
0.500000 0.750000 0.061374 N3-
0.000000 0.750000 0.045769 N3-
0.000000 0.250000 0.025659 N3-
0.500000 0.250000 0.010055 N3-
0.500000 0.750000 0.132802 N3-
0.000000 0.750000 0.117198 N3-
0.000000 0.250000 0.097088 N3-
0.500000 0.250000 0.081483 N3-
0.500000 0.750000 0.204231 N3-
0.000000 0.750000 0.188626 N3-
0.000000 0.250000 0.168516 N3-
0.500000 0.250000 0.152912 N3-
0.500000 0.750000 0.275659 N3-
0.000000 0.750000 0.260055 N3-
0.000000 0.250000 0.239945 N3-
0.500000 0.250000 0.224341 N3-
0.500000 0.750000 0.347088 N3-
0.000000 0.750000 0.331483 N3-
0.000000 0.250000 0.311374 N3-
0.500000 0.250000 0.295769 N3-
0.500000 0.750000 0.418517 N3-
0.000000 0.750000 0.402912 N3-
0.000000 0.250000 0.382802 N3-
0.500000 0.250000 0.367198 N3-
0.500000 0.750000 0.489945 N3-
0.000000 0.750000 0.474341 N3-
0.000000 0.250000 0.454231 N3-
0.500000 0.250000 0.438626 N3-
0.627000 0.000000 0.044786 O2-
0.873000 0.000000 0.026643 O2-
0.127000 0.500000 0.009071 O2-
0.373000 0.500000 0.062357 O2-
0.627000 0.000000 0.116214 O2-
0.873000 0.000000 0.098071 O2-
0.127000 0.500000 0.080500 O2-
0.373000 0.500000 0.133786 O2-
0.627000 0.000000 0.187643 O2-
0.873000 0.000000 0.169500 O2-
0.127000 0.500000 0.151929 O2-
0.373000 0.500000 0.205214 O2-
0.627000 0.000000 0.259071 O2-
0.873000 0.000000 0.240929 O2-
0.127000 0.500000 0.223357 O2-
0.373000 0.500000 0.276643 O2-
0.627000 0.000000 0.330500 O2-
0.873000 0.000000 0.312357 O2-
0.127000 0.500000 0.294786 O2-
0.373000 0.500000 0.348071 O2-
0.627000 0.000000 0.401929 O2-
0.873000 0.000000 0.383786 O2-
0.127000 0.500000 0.366214 O2-
0.373000 0.500000 0.419500 O2-
0.627000 0.000000 0.473357 O2-
0.873000 0.000000 0.455214 O2-
0.127000 0.500000 0.437643 O2-
0.373000 0.500000 0.490929 O2-
