Li42 P14
1.0
3.668361 0.000000 -2.117929
0.000000 7.570718 0.000000
0.000000 0.000000 55.066156
Li P
42 14
Selective dynamics
direct
0.000000 0.750000 0.038462 T T T Li+
0.000000 0.250000 0.038462 T T T Li+
0.333333 0.084119 0.012821 T T T Li+
0.666667 0.584119 0.064103 T T T Li+
0.666667 0.915881 0.064103 T T T Li+
0.333333 0.415881 0.012821 T T T Li+
0.000000 0.750000 0.115385 F F F Li+
0.000000 0.250000 0.115385 F F F Li+
0.333333 0.084119 0.089744 F F F Li+
0.666667 0.584119 0.141026 F F F Li+
0.666667 0.915881 0.141026 F F F Li+
0.333333 0.415881 0.089744 F F F Li+
0.000000 0.750000 0.192308 F F F Li+
0.000000 0.250000 0.192308 F F F Li+
0.333333 0.084119 0.166667 F F F Li+
0.666667 0.584119 0.217949 F F F Li+
0.666667 0.915881 0.217949 F F F Li+
0.333333 0.415881 0.166667 F F F Li+
0.000000 0.750000 0.269231 F F F Li+
0.000000 0.250000 0.269231 F F F Li+
0.333333 0.084119 0.243590 F F F Li+
0.666667 0.584119 0.294872 F F F Li+
0.666667 0.915881 0.294872 F F F Li+
0.333333 0.415881 0.243590 F F F Li+
0.000000 0.750000 0.346154 F F F Li+
0.000000 0.250000 0.346154 F F F Li+
0.333333 0.084119 0.320513 F F F Li+
0.666667 0.584119 0.371795 F F F Li+
0.666667 0.915881 0.371795 F F F Li+
0.333333 0.415881 0.320513 F F F Li+
0.000000 0.750000 0.423077 F F F Li+
0.000000 0.250000 0.423077 F F F Li+
0.333333 0.084119 0.397436 F F F Li+
0.666667 0.584119 0.448718 F F F Li+
0.666667 0.915881 0.448718 F F F Li+
0.333333 0.415881 0.397436 F F F Li+
0.000000 0.750000 0.500000 T T T Li+
0.000000 0.250000 0.500000 T T T Li+
0.333333 0.084119 0.474359 T T T Li+
0.666667 0.584119 0.525641 T T T Li+
0.666667 0.915881 0.525641 T T T Li+
0.333333 0.415881 0.474359 T T T Li+
0.333333 0.750000 0.012821 T T T P3-
0.666667 0.250000 0.064103 T T T P3-
0.333333 0.750000 0.089744 F F F P3-
0.666667 0.250000 0.141026 F F F P3-
0.333333 0.750000 0.166667 F F F P3-
0.666667 0.250000 0.217949 F F F P3-
0.333333 0.750000 0.243590 F F F P3-
0.666667 0.250000 0.294872 F F F P3-
0.333333 0.750000 0.320513 F F F P3-
0.666667 0.250000 0.371795 F F F P3-
0.333333 0.750000 0.397436 F F F P3-
0.666667 0.250000 0.448718 F F F P3-
0.333333 0.750000 0.474359 T T T P3-
0.666667 0.250000 0.525641 T T T P3-
