(2, 1, 1)                               
   1.00000000000000     
     8.5907487006633811   -0.0150399180892457    0.1076562667456495
     3.4420009672559013    9.8717446551797217    0.9822914248655557
     0.0068742558073411    0.2016978781267669   32.7180040145316511
   Li   P 
    48    16
Selective dynamics
Direct
  0.5417019099622546  0.7352776529037401  0.9686456883197359   T   T   T
  0.9232032086638463  0.4136980025783186  0.9288014766350051   T   T   T
  0.8453922265911955  0.9388286157746278  0.9913245240461898   T   T   T
  0.2428854948504877  0.5965992839330887  0.9474128396584318   T   T   T
  0.9057590000000033  0.0830709999999968  0.9270509999999987   F   F   F
  0.5728242021497152  0.3918888549622453  0.9685034594980940   T   T   T
  0.8015919999999994  0.6941830000000024  0.9201059999999970   F   F   F
  0.4311634055165668  0.0402963381697416  0.9592450985354735   T   T   T
  0.8750867654767646  0.2559834875794110  0.9896277853155818   T   T   T
  0.2024121838311533  0.9294338479411377  0.9431092824027694   T   T   T
  0.9270034557591484  0.6361067788727405  0.9919704468792077   T   T   T
  0.3343209381148522  0.2883297009727663  0.9533486729520693   T   T   T
  0.2812500000000000  0.0833330000000032  0.8854169999999968   F   F   F
  0.6562500000000000  0.7500000000000000  0.8437500000000000   F   F   F
  0.5937500000000000  0.2500000000000000  0.9062500000000000   F   F   F
  0.9687500000000000  0.9166669999999968  0.8645830000000032   F   F   F
  0.6557590000000033  0.4164049999999975  0.8437169999999981   F   F   F
  0.2807590000000033  0.7497380000000007  0.8853840000000019   F   F   F
  0.5515919999999994  0.0275159999999985  0.8367730000000009   F   F   F
  0.1765919999999994  0.3608490000000018  0.8784390000000002   F   F   F
  0.5942409999999967  0.5835950000000025  0.9062830000000019   F   F   F
  0.9692409999999967  0.2502619999999993  0.8646159999999981   F   F   F
  0.6984080000000006  0.9724840000000015  0.9132269999999991   F   F   F
  0.0734080000000006  0.6391509999999982  0.8715609999999998   F   F   F
  0.0312500000000000  0.4166669999999968  0.8020830000000032   F   F   F
  0.4062500000000000  0.0833330000000032  0.7604169999999968   F   F   F
  0.3437500000000000  0.5833330000000032  0.8229169999999968   F   F   F
  0.7187500000000000  0.2500000000000000  0.7812500000000000   F   F   F
  0.4057590000000033  0.7497380000000007  0.7603840000000019   F   F   F
  0.0307590000000033  0.0830709999999968  0.8020509999999987   F   F   F
  0.3015919999999994  0.3608490000000018  0.7534390000000002   F   F   F
  0.9265919999999994  0.6941830000000024  0.7951059999999970   F   F   F
  0.3442409999999967  0.9169290000000032  0.8229490000000013   F   F   F
  0.7192409999999967  0.5835950000000025  0.7812830000000019   F   F   F
  0.4484080000000006  0.3058169999999976  0.8298940000000030   F   F   F
  0.8234080000000006  0.9724840000000015  0.7882269999999991   F   F   F
  0.7572164872075627  0.7367371829096195  0.7193347599645068   T   T   T
  0.1546771397059979  0.3942903814056179  0.6753229259145437   T   T   T
  0.0765317459913401  0.9195138986715216  0.7377718364652786   T   T   T
  0.4584752037985630  0.5980316886647429  0.6979935958809225   T   T   T
  0.1248133459527295  0.0776123975256117  0.6769868740385551   T   T   T
  0.7974762160982827  0.4038626766216275  0.7235956398999157   T   T   T
  0.0732611951808849  0.6967395992938770  0.6746843523926934   T   T   T
  0.6657010872210377  0.0447355437872113  0.7132314447784802   T   T   T
  0.0942409999999967  0.2502619999999993  0.7396159999999981   F   F   F
  0.4268810077569410  0.9414072259854322  0.6982064815447840   T   T   T
  0.1984080000000006  0.6391509999999982  0.7465609999999998   F   F   F
  0.5686089483060659  0.2928904405799027  0.7075251910034555   T   T   T
  0.7400931708948254  0.5250888746816954  0.9795371952723444   T   T   T
  0.1240044652023255  0.1818588585257802  0.9412648677733059   T   T   T
  0.0105117452850717  0.7998965515856383  0.9387532386619606   T   T   T
  0.6375809300162449  0.1440628453475807  0.9739720702041449   T   T   T
  0.4895830000000032  0.8611110000000011  0.8993060000000028   F   F   F
  0.8645830000000032  0.5277779999999979  0.8576389999999989   F   F   F
  0.7604169999999968  0.1388889999999989  0.8506939999999972   F   F   F
  0.3854169999999968  0.4722220000000021  0.8923610000000011   F   F   F
  0.2395830000000032  0.1944439999999972  0.8159720000000021   F   F   F
  0.6145830000000032  0.8611110000000011  0.7743060000000028   F   F   F
  0.5104169999999968  0.4722220000000021  0.7673610000000011   F   F   F
  0.1354169999999968  0.8055560000000028  0.8090279999999979   F   F   F
  0.9894591363574593  0.5333988214177463  0.7279123979772945   T   T   T
  0.3624708406348066  0.1891152111209449  0.6926733391179198   T   T   T
  0.2596815992803865  0.8082452313997288  0.6870618364213041   T   T   T
  0.8758863996301010  0.1515036377998752  0.7254492366296451   T   T   T
 
  0.00000000E+00  0.00000000E+00  0.00000000E+00
  0.00000000E+00  0.00000000E+00  0.00000000E+00
  0.00000000E+00  0.00000000E+00  0.00000000E+00
  0.00000000E+00  0.00000000E+00  0.00000000E+00
  0.00000000E+00  0.00000000E+00  0.00000000E+00
  0.00000000E+00  0.00000000E+00  0.00000000E+00
  0.00000000E+00  0.00000000E+00  0.00000000E+00
  0.00000000E+00  0.00000000E+00  0.00000000E+00
  0.00000000E+00  0.00000000E+00  0.00000000E+00
  0.00000000E+00  0.00000000E+00  0.00000000E+00
  0.00000000E+00  0.00000000E+00  0.00000000E+00
  0.00000000E+00  0.00000000E+00  0.00000000E+00
  0.00000000E+00  0.00000000E+00  0.00000000E+00
  0.00000000E+00  0.00000000E+00  0.00000000E+00
  0.00000000E+00  0.00000000E+00  0.00000000E+00
  0.00000000E+00  0.00000000E+00  0.00000000E+00
  0.00000000E+00  0.00000000E+00  0.00000000E+00
  0.00000000E+00  0.00000000E+00  0.00000000E+00
  0.00000000E+00  0.00000000E+00  0.00000000E+00
  0.00000000E+00  0.00000000E+00  0.00000000E+00
  0.00000000E+00  0.00000000E+00  0.00000000E+00
  0.00000000E+00  0.00000000E+00  0.00000000E+00
  0.00000000E+00  0.00000000E+00  0.00000000E+00
  0.00000000E+00  0.00000000E+00  0.00000000E+00
  0.00000000E+00  0.00000000E+00  0.00000000E+00
  0.00000000E+00  0.00000000E+00  0.00000000E+00
  0.00000000E+00  0.00000000E+00  0.00000000E+00
  0.00000000E+00  0.00000000E+00  0.00000000E+00
  0.00000000E+00  0.00000000E+00  0.00000000E+00
  0.00000000E+00  0.00000000E+00  0.00000000E+00
  0.00000000E+00  0.00000000E+00  0.00000000E+00
  0.00000000E+00  0.00000000E+00  0.00000000E+00
  0.00000000E+00  0.00000000E+00  0.00000000E+00
  0.00000000E+00  0.00000000E+00  0.00000000E+00
  0.00000000E+00  0.00000000E+00  0.00000000E+00
  0.00000000E+00  0.00000000E+00  0.00000000E+00
  0.00000000E+00  0.00000000E+00  0.00000000E+00
  0.00000000E+00  0.00000000E+00  0.00000000E+00
  0.00000000E+00  0.00000000E+00  0.00000000E+00
  0.00000000E+00  0.00000000E+00  0.00000000E+00
  0.00000000E+00  0.00000000E+00  0.00000000E+00
  0.00000000E+00  0.00000000E+00  0.00000000E+00
  0.00000000E+00  0.00000000E+00  0.00000000E+00
  0.00000000E+00  0.00000000E+00  0.00000000E+00
  0.00000000E+00  0.00000000E+00  0.00000000E+00
  0.00000000E+00  0.00000000E+00  0.00000000E+00
  0.00000000E+00  0.00000000E+00  0.00000000E+00
  0.00000000E+00  0.00000000E+00  0.00000000E+00
  0.00000000E+00  0.00000000E+00  0.00000000E+00
  0.00000000E+00  0.00000000E+00  0.00000000E+00
  0.00000000E+00  0.00000000E+00  0.00000000E+00
  0.00000000E+00  0.00000000E+00  0.00000000E+00
  0.00000000E+00  0.00000000E+00  0.00000000E+00
  0.00000000E+00  0.00000000E+00  0.00000000E+00
  0.00000000E+00  0.00000000E+00  0.00000000E+00
  0.00000000E+00  0.00000000E+00  0.00000000E+00
  0.00000000E+00  0.00000000E+00  0.00000000E+00
  0.00000000E+00  0.00000000E+00  0.00000000E+00
  0.00000000E+00  0.00000000E+00  0.00000000E+00
  0.00000000E+00  0.00000000E+00  0.00000000E+00
  0.00000000E+00  0.00000000E+00  0.00000000E+00
  0.00000000E+00  0.00000000E+00  0.00000000E+00
  0.00000000E+00  0.00000000E+00  0.00000000E+00
  0.00000000E+00  0.00000000E+00  0.00000000E+00
