Li140 P140 O420
1.0
13.312980 0.000000 5.521558
23.948210 16.540545 0.000000
0.000000 0.000000 66.258696
Li P O
140 140 420
direct
0.308258 0.818220 0.055517 Li+
0.808258 0.318220 0.014749 Li+
0.954826 0.934004 0.000787 Li+
0.454826 0.434004 0.045051 Li+
0.603500 0.049457 0.031845 Li+
0.103500 0.549457 0.072548 Li+
0.253749 0.164548 0.061111 Li+
0.753749 0.664548 0.018240 Li+
0.029328 0.241566 0.036943 Li+
0.529328 0.741566 0.079812 Li+
0.305977 0.318286 0.057923 Li+
0.805977 0.818286 0.012724 Li+
0.953995 0.433730 0.000181 Li+
0.453995 0.933730 0.045796 Li+
0.601365 0.550453 0.034312 Li+
0.101365 0.050453 0.070437 Li+
0.248464 0.667016 0.059094 Li+
0.748464 0.167016 0.021138 Li+
0.023195 0.743634 0.034796 Li+
0.523195 0.243634 0.082981 Li+
0.308258 0.818220 0.138850 Li+
0.808258 0.318220 0.098083 Li+
0.954826 0.934004 0.084121 Li+
0.454826 0.434004 0.128384 Li+
0.603500 0.049457 0.115178 Li+
0.103500 0.549457 0.155881 Li+
0.253749 0.164548 0.144444 Li+
0.753749 0.664548 0.101574 Li+
0.029328 0.241566 0.120276 Li+
0.529328 0.741566 0.163145 Li+
0.305977 0.318286 0.141256 Li+
0.805977 0.818286 0.096057 Li+
0.953995 0.433730 0.083514 Li+
0.453995 0.933730 0.129129 Li+
0.601365 0.550453 0.117645 Li+
0.101365 0.050453 0.153770 Li+
0.248464 0.667016 0.142427 Li+
0.748464 0.167016 0.104471 Li+
0.023195 0.743634 0.118129 Li+
0.523195 0.243634 0.166314 Li+
0.308258 0.818220 0.222184 Li+
0.808258 0.318220 0.181416 Li+
0.954826 0.934004 0.167454 Li+
0.454826 0.434004 0.211718 Li+
0.603500 0.049457 0.198512 Li+
0.103500 0.549457 0.239214 Li+
0.253749 0.164548 0.227777 Li+
0.753749 0.664548 0.184907 Li+
0.029328 0.241566 0.203609 Li+
0.529328 0.741566 0.246479 Li+
0.305977 0.318286 0.224589 Li+
0.805977 0.818286 0.179390 Li+
0.953995 0.433730 0.166848 Li+
0.453995 0.933730 0.212462 Li+
0.601365 0.550453 0.200978 Li+
0.101365 0.050453 0.237103 Li+
0.248464 0.667016 0.225761 Li+
0.748464 0.167016 0.187805 Li+
0.023195 0.743634 0.201462 Li+
0.523195 0.243634 0.249648 Li+
0.308258 0.818220 0.305517 Li+
0.808258 0.318220 0.264749 Li+
0.954826 0.934004 0.250787 Li+
0.454826 0.434004 0.295051 Li+
0.603500 0.049457 0.281845 Li+
0.103500 0.549457 0.322548 Li+
0.253749 0.164548 0.311111 Li+
0.753749 0.664548 0.268240 Li+
0.029328 0.241566 0.286943 Li+
0.529328 0.741566 0.329812 Li+
0.305977 0.318286 0.307923 Li+
0.805977 0.818286 0.262724 Li+
0.953995 0.433730 0.250181 Li+
0.453995 0.933730 0.295796 Li+
0.601365 0.550453 0.284312 Li+
0.101365 0.050453 0.320437 Li+
0.248464 0.667016 0.309094 Li+
0.748464 0.167016 0.271138 Li+
0.023195 0.743634 0.284796 Li+
0.523195 0.243634 0.332981 Li+
0.308258 0.818220 0.388850 Li+
0.808258 0.318220 0.348082 Li+
0.954826 0.934004 0.334121 Li+
0.454826 0.434004 0.378384 Li+
0.603500 0.049457 0.365178 Li+
0.103500 0.549457 0.405881 Li+
0.253749 0.164548 0.394444 Li+
0.753749 0.664548 0.351573 Li+
0.029328 0.241566 0.370276 Li+
0.529328 0.741566 0.413145 Li+
0.305977 0.318286 0.391256 Li+
0.805977 0.818286 0.346057 Li+
0.953995 0.433730 0.333514 Li+
0.453995 0.933730 0.379129 Li+
0.601365 0.550453 0.367645 Li+
0.101365 0.050453 0.403770 Li+
0.248464 0.667016 0.392427 Li+
0.748464 0.167016 0.354471 Li+
0.023195 0.743634 0.368129 Li+
0.523195 0.243634 0.416314 Li+
0.308258 0.818220 0.472184 Li+
0.808258 0.318220 0.431416 Li+
0.954826 0.934004 0.417454 Li+
0.454826 0.434004 0.461718 Li+
0.603500 0.049457 0.448512 Li+
0.103500 0.549457 0.489214 Li+
0.253749 0.164548 0.477778 Li+
0.753749 0.664548 0.434907 Li+
0.029328 0.241566 0.453609 Li+
0.529328 0.741566 0.496479 Li+
0.305977 0.318286 0.474589 Li+
0.805977 0.818286 0.429390 Li+
0.953995 0.433730 0.416848 Li+
0.453995 0.933730 0.462462 Li+
0.601365 0.550453 0.450978 Li+
0.101365 0.050453 0.487103 Li+
0.248464 0.667016 0.475761 Li+
0.748464 0.167016 0.437805 Li+
0.023195 0.743634 0.451462 Li+
0.523195 0.243634 0.499648 Li+
0.308258 0.818220 0.555517 Li+
0.808258 0.318220 0.514749 Li+
0.954826 0.934004 0.500787 Li+
0.454826 0.434004 0.545051 Li+
0.603500 0.049457 0.531845 Li+
0.103500 0.549457 0.572548 Li+
0.253749 0.164548 0.561111 Li+
0.753749 0.664548 0.518240 Li+
0.029328 0.241566 0.536942 Li+
0.529328 0.741566 0.579812 Li+
0.305977 0.318286 0.557923 Li+
0.805977 0.818286 0.512724 Li+
0.953995 0.433730 0.500181 Li+
0.453995 0.933730 0.545796 Li+
0.601365 0.550453 0.534312 Li+
0.101365 0.050453 0.570437 Li+
0.248464 0.667016 0.559094 Li+
0.748464 0.167016 0.521138 Li+
0.023195 0.743634 0.534796 Li+
0.523195 0.243634 0.582981 Li+
0.000366 0.000413 0.055406 P5+
0.500366 0.500413 0.066176 P5+
0.701107 0.093280 0.051839 P5+
0.201107 0.593280 0.036286 P5+
0.401802 0.197061 0.022208 P5+
0.901802 0.697061 0.032467 P5+
0.100084 0.308311 0.017396 P5+
0.600084 0.808311 0.004233 P5+
0.800152 0.408249 0.069954 P5+
0.300152 0.908249 0.001664 P5+
0.760353 0.574567 0.046953 P5+
0.260353 0.074567 0.031298 P5+
0.460110 0.674438 0.016172 P5+
0.960110 0.174438 0.028785 P5+
0.157222 0.786455 0.011243 P5+
0.657222 0.286455 0.000863 P5+
0.858010 0.889856 0.064479 P5+
0.358010 0.389856 0.080829 P5+
0.558735 0.982845 0.060916 P5+
0.058735 0.482845 0.050938 P5+
0.000366 0.000413 0.138739 P5+
0.500366 0.500413 0.149509 P5+
0.701107 0.093280 0.135172 P5+
0.201107 0.593280 0.119619 P5+
0.401802 0.197061 0.105541 P5+
0.901802 0.697061 0.115801 P5+
0.100084 0.308311 0.100729 P5+
0.600084 0.808311 0.087566 P5+
0.800152 0.408249 0.153287 P5+
0.300152 0.908249 0.084997 P5+
0.760353 0.574567 0.130286 P5+
0.260353 0.074567 0.114631 P5+
0.460110 0.674438 0.099506 P5+
0.960110 0.174438 0.112119 P5+
0.157222 0.786455 0.094576 P5+
0.657222 0.286455 0.084196 P5+
0.858010 0.889856 0.147812 P5+
0.358010 0.389856 0.164162 P5+
0.558735 0.982845 0.144249 P5+
0.058735 0.482845 0.134271 P5+
0.000366 0.000413 0.222072 P5+
0.500366 0.500413 0.232843 P5+
0.701107 0.093280 0.218505 P5+
0.201107 0.593280 0.202953 P5+
0.401802 0.197061 0.188875 P5+
0.901802 0.697061 0.199134 P5+
0.100084 0.308311 0.184062 P5+
0.600084 0.808311 0.170900 P5+
0.800152 0.408249 0.236620 P5+
0.300152 0.908249 0.168330 P5+
0.760353 0.574567 0.213619 P5+
0.260353 0.074567 0.197964 P5+
0.460110 0.674438 0.182839 P5+
0.960110 0.174438 0.195452 P5+
0.157222 0.786455 0.177909 P5+
0.657222 0.286455 0.167530 P5+
0.858010 0.889856 0.231145 P5+
0.358010 0.389856 0.247495 P5+
0.558735 0.982845 0.227582 P5+
0.058735 0.482845 0.217604 P5+
0.000366 0.000413 0.305405 P5+
0.500366 0.500413 0.316176 P5+
0.701107 0.093280 0.301839 P5+
0.201107 0.593280 0.286286 P5+
0.401802 0.197061 0.272208 P5+
0.901802 0.697061 0.282467 P5+
0.100084 0.308311 0.267396 P5+
0.600084 0.808311 0.254233 P5+
0.800152 0.408249 0.319954 P5+
0.300152 0.908249 0.251664 P5+
0.760353 0.574567 0.296953 P5+
0.260353 0.074567 0.281298 P5+
0.460110 0.674438 0.266172 P5+
0.960110 0.174438 0.278785 P5+
0.157222 0.786455 0.261243 P5+
0.657222 0.286455 0.250863 P5+
0.858010 0.889856 0.314479 P5+
0.358010 0.389856 0.330829 P5+
0.558735 0.982845 0.310916 P5+
0.058735 0.482845 0.300938 P5+
0.000366 0.000413 0.388739 P5+
0.500366 0.500413 0.399509 P5+
0.701107 0.093280 0.385172 P5+
0.201107 0.593280 0.369619 P5+
0.401802 0.197061 0.355541 P5+
0.901802 0.697061 0.365801 P5+
0.100084 0.308311 0.350729 P5+
0.600084 0.808311 0.337566 P5+
0.800152 0.408249 0.403287 P5+
0.300152 0.908249 0.334997 P5+
0.760353 0.574567 0.380286 P5+
0.260353 0.074567 0.364631 P5+
0.460110 0.674438 0.349506 P5+
0.960110 0.174438 0.362119 P5+
0.157222 0.786455 0.344576 P5+
0.657222 0.286455 0.334196 P5+
0.858010 0.889856 0.397812 P5+
0.358010 0.389856 0.414162 P5+
0.558735 0.982845 0.394249 P5+
0.058735 0.482845 0.384271 P5+
0.000366 0.000413 0.472072 P5+
0.500366 0.500413 0.482843 P5+
0.701107 0.093280 0.468505 P5+
0.201107 0.593280 0.452953 P5+
0.401802 0.197061 0.438875 P5+
0.901802 0.697061 0.449134 P5+
0.100084 0.308311 0.434062 P5+
0.600084 0.808311 0.420900 P5+
0.800152 0.408249 0.486620 P5+
0.300152 0.908249 0.418330 P5+
0.760353 0.574567 0.463619 P5+
0.260353 0.074567 0.447964 P5+
0.460110 0.674438 0.432839 P5+
0.960110 0.174438 0.445452 P5+
0.157222 0.786455 0.427909 P5+
0.657222 0.286455 0.417530 P5+
0.858010 0.889856 0.481146 P5+
0.358010 0.389856 0.497495 P5+
0.558735 0.982845 0.477582 P5+
0.058735 0.482845 0.467604 P5+
0.000366 0.000413 0.555405 P5+
0.500366 0.500413 0.566176 P5+
0.701107 0.093280 0.551839 P5+
0.201107 0.593280 0.536286 P5+
0.401802 0.197061 0.522208 P5+
0.901802 0.697061 0.532467 P5+
0.100084 0.308311 0.517396 P5+
0.600084 0.808311 0.504233 P5+
0.800152 0.408249 0.569954 P5+
0.300152 0.908249 0.501664 P5+
0.760353 0.574567 0.546953 P5+
0.260353 0.074567 0.531298 P5+
0.460110 0.674438 0.516172 P5+
0.960110 0.174438 0.528785 P5+
0.157222 0.786455 0.511243 P5+
0.657222 0.286455 0.500863 P5+
0.858010 0.889856 0.564479 P5+
0.358010 0.389856 0.580829 P5+
0.558735 0.982845 0.560916 P5+
0.058735 0.482845 0.550938 P5+
0.834602 0.035413 0.059521 O2-
0.334602 0.535413 0.006354 O2-
0.519193 0.140628 0.075979 O2-
0.019193 0.640628 0.042465 O2-
0.205494 0.275856 0.029532 O2-
0.705494 0.775856 0.057862 O2-
0.900837 0.392259 0.042142 O2-
0.400837 0.892259 0.012695 O2-
0.102004 0.978148 0.026656 O2-
0.602004 0.478148 0.077986 O2-
0.659442 0.590622 0.074766 O2-
0.159442 0.090622 0.020303 O2-
0.353822 0.709404 0.003989 O2-
0.853822 0.209404 0.058683 O2-
0.039646 0.843555 0.040790 O2-
0.539646 0.343555 0.074245 O2-
0.731088 0.943480 0.055630 O2-
0.231088 0.443480 0.027498 O2-
0.959302 0.504327 0.038770 O2-
0.459302 0.004327 0.006322 O2-
0.103062 0.926111 0.058299 O2-
0.603062 0.426111 0.046167 O2-
0.939017 0.066074 0.071230 O2-
0.439017 0.566074 0.060577 O2-
0.754026 0.041349 0.030784 O2-
0.254026 0.541349 0.048521 O2-
0.675687 0.153257 0.049956 O2-
0.175687 0.653257 0.042405 O2-
0.405695 0.154647 0.035511 O2-
0.905695 0.654647 0.018515 O2-
0.452827 0.224590 0.025734 O2-
0.952827 0.724590 0.020437 O2-
0.116625 0.252705 0.009565 O2-
0.616625 0.752705 0.009307 O2-
0.141832 0.330648 0.082859 O2-
0.641832 0.830648 0.015144 O2-
0.876575 0.332841 0.068200 O2-
0.376575 0.832841 0.074013 O2-
0.792187 0.446708 0.003620 O2-
0.292187 0.946708 0.069324 O2-
0.765726 0.536665 0.030335 O2-
0.265726 0.036665 0.047020 O2-
0.685519 0.649394 0.048361 O2-
0.185519 0.149394 0.042362 O2-
0.416809 0.651785 0.033653 O2-
0.916809 0.151785 0.018521 O2-
0.446770 0.728542 0.024261 O2-
0.946770 0.228542 0.022920 O2-
0.106345 0.758375 0.008270 O2-
0.606345 0.258375 0.012315 O2-
0.151319 0.828801 0.080957 O2-
0.651319 0.328801 0.015466 O2-
0.883647 0.829973 0.066790 O2-
0.383647 0.329973 0.074245 O2-
0.798636 0.944360 0.002376 O2-
0.298636 0.444360 0.069494 O2-
0.613260 0.919559 0.045339 O2-
0.113260 0.419559 0.057427 O2-
0.457676 0.057634 0.058424 O2-
0.957676 0.557634 0.070272 O2-
0.834602 0.035413 0.142854 O2-
0.334602 0.535413 0.089688 O2-
0.519193 0.140628 0.159312 O2-
0.019193 0.640628 0.125798 O2-
0.205494 0.275856 0.112865 O2-
0.705494 0.775856 0.141195 O2-
0.900837 0.392259 0.125475 O2-
0.400837 0.892259 0.096028 O2-
0.102004 0.978148 0.109989 O2-
0.602004 0.478148 0.161319 O2-
0.659442 0.590622 0.158100 O2-
0.159442 0.090622 0.103636 O2-
0.353822 0.709404 0.087323 O2-
0.853822 0.209404 0.142016 O2-
0.039646 0.843555 0.124123 O2-
0.539646 0.343555 0.157579 O2-
0.731088 0.943480 0.138963 O2-
0.231088 0.443480 0.110832 O2-
0.959302 0.504327 0.122104 O2-
0.459302 0.004327 0.089655 O2-
0.103062 0.926111 0.141632 O2-
0.603062 0.426111 0.129500 O2-
0.939017 0.066074 0.154563 O2-
0.439017 0.566074 0.143910 O2-
0.754026 0.041349 0.114117 O2-
0.254026 0.541349 0.131854 O2-
0.675687 0.153257 0.133289 O2-
0.175687 0.653257 0.125739 O2-
0.405695 0.154647 0.118845 O2-
0.905695 0.654647 0.101849 O2-
0.452827 0.224590 0.109067 O2-
0.952827 0.724590 0.103771 O2-
0.116625 0.252705 0.092898 O2-
0.616625 0.752705 0.092640 O2-
0.141832 0.330648 0.166193 O2-
0.641832 0.830648 0.098478 O2-
0.876575 0.332841 0.151533 O2-
0.376575 0.832841 0.157347 O2-
0.792187 0.446708 0.086954 O2-
0.292187 0.946708 0.152658 O2-
0.765726 0.536665 0.113668 O2-
0.265726 0.036665 0.130353 O2-
0.685519 0.649394 0.131694 O2-
0.185519 0.149394 0.125695 O2-
0.416809 0.651785 0.116987 O2-
0.916809 0.151785 0.101854 O2-
0.446770 0.728542 0.107594 O2-
0.946770 0.228542 0.106253 O2-
0.106345 0.758375 0.091604 O2-
0.606345 0.258375 0.095648 O2-
0.151319 0.828801 0.164291 O2-
0.651319 0.328801 0.098799 O2-
0.883647 0.829973 0.150123 O2-
0.383647 0.329973 0.157578 O2-
0.798636 0.944360 0.085709 O2-
0.298636 0.444360 0.152827 O2-
0.613260 0.919559 0.128672 O2-
0.113260 0.419559 0.140760 O2-
0.457676 0.057634 0.141758 O2-
0.957676 0.557634 0.153605 O2-
0.834602 0.035413 0.226188 O2-
0.334602 0.535413 0.173021 O2-
0.519193 0.140628 0.242646 O2-
0.019193 0.640628 0.209131 O2-
0.205494 0.275856 0.196198 O2-
0.705494 0.775856 0.224529 O2-
0.900837 0.392259 0.208808 O2-
0.400837 0.892259 0.179361 O2-
0.102004 0.978148 0.193323 O2-
0.602004 0.478148 0.244652 O2-
0.659442 0.590622 0.241433 O2-
0.159442 0.090622 0.186969 O2-
0.353822 0.709404 0.170656 O2-
0.853822 0.209404 0.225349 O2-
0.039646 0.843555 0.207456 O2-
0.539646 0.343555 0.240912 O2-
0.731088 0.943480 0.222296 O2-
0.231088 0.443480 0.194165 O2-
0.959302 0.504327 0.205437 O2-
0.459302 0.004327 0.172989 O2-
0.103062 0.926111 0.224966 O2-
0.603062 0.426111 0.212833 O2-
0.939017 0.066074 0.237896 O2-
0.439017 0.566074 0.227243 O2-
0.754026 0.041349 0.197450 O2-
0.254026 0.541349 0.215188 O2-
0.675687 0.153257 0.216623 O2-
0.175687 0.653257 0.209072 O2-
0.405695 0.154647 0.202178 O2-
0.905695 0.654647 0.185182 O2-
0.452827 0.224590 0.192401 O2-
0.952827 0.724590 0.187104 O2-
0.116625 0.252705 0.176231 O2-
0.616625 0.752705 0.175974 O2-
0.141832 0.330648 0.249526 O2-
0.641832 0.830648 0.181811 O2-
0.876575 0.332841 0.234867 O2-
0.376575 0.832841 0.240680 O2-
0.792187 0.446708 0.170287 O2-
0.292187 0.946708 0.235991 O2-
0.765726 0.536665 0.197002 O2-
0.265726 0.036665 0.213687 O2-
0.685519 0.649394 0.215028 O2-
0.185519 0.149394 0.209028 O2-
0.416809 0.651785 0.200320 O2-
0.916809 0.151785 0.185188 O2-
0.446770 0.728542 0.190927 O2-
0.946770 0.228542 0.189587 O2-
0.106345 0.758375 0.174937 O2-
0.606345 0.258375 0.178981 O2-
0.151319 0.828801 0.247624 O2-
0.651319 0.328801 0.182132 O2-
0.883647 0.829973 0.233457 O2-
0.383647 0.329973 0.240911 O2-
0.798636 0.944360 0.169043 O2-
0.298636 0.444360 0.236160 O2-
0.613260 0.919559 0.212005 O2-
0.113260 0.419559 0.224094 O2-
0.457676 0.057634 0.225091 O2-
0.957676 0.557634 0.236939 O2-
0.834602 0.035413 0.309521 O2-
0.334602 0.535413 0.256354 O2-
0.519193 0.140628 0.325979 O2-
0.019193 0.640628 0.292465 O2-
0.205494 0.275856 0.279532 O2-
0.705494 0.775856 0.307862 O2-
0.900837 0.392259 0.292142 O2-
0.400837 0.892259 0.262695 O2-
0.102004 0.978148 0.276656 O2-
0.602004 0.478148 0.327986 O2-
0.659442 0.590622 0.324766 O2-
0.159442 0.090622 0.270303 O2-
0.353822 0.709404 0.253989 O2-
0.853822 0.209404 0.308683 O2-
0.039646 0.843555 0.290790 O2-
0.539646 0.343555 0.324245 O2-
0.731088 0.943480 0.305629 O2-
0.231088 0.443480 0.277498 O2-
0.959302 0.504327 0.288770 O2-
0.459302 0.004327 0.256322 O2-
0.103062 0.926111 0.308299 O2-
0.603062 0.426111 0.296166 O2-
0.939017 0.066074 0.321230 O2-
0.439017 0.566074 0.310577 O2-
0.754026 0.041349 0.280784 O2-
0.254026 0.541349 0.298521 O2-
0.675687 0.153257 0.299956 O2-
0.175687 0.653257 0.292405 O2-
0.405695 0.154647 0.285511 O2-
0.905695 0.654647 0.268516 O2-
0.452827 0.224590 0.275734 O2-
0.952827 0.724590 0.270437 O2-
0.116625 0.252705 0.259565 O2-
0.616625 0.752705 0.259307 O2-
0.141832 0.330648 0.332859 O2-
0.641832 0.830648 0.265144 O2-
0.876575 0.332841 0.318200 O2-
0.376575 0.832841 0.324013 O2-
0.792187 0.446708 0.253620 O2-
0.292187 0.946708 0.319324 O2-
0.765726 0.536665 0.280335 O2-
0.265726 0.036665 0.297020 O2-
0.685519 0.649394 0.298361 O2-
0.185519 0.149394 0.292362 O2-
0.416809 0.651785 0.283653 O2-
0.916809 0.151785 0.268521 O2-
0.446770 0.728542 0.274261 O2-
0.946770 0.228542 0.272920 O2-
0.106345 0.758375 0.258270 O2-
0.606345 0.258375 0.262315 O2-
0.151319 0.828801 0.330957 O2-
0.651319 0.328801 0.265466 O2-
0.883647 0.829973 0.316790 O2-
0.383647 0.329973 0.324245 O2-
0.798636 0.944360 0.252376 O2-
0.298636 0.444360 0.319494 O2-
0.613260 0.919559 0.295339 O2-
0.113260 0.419559 0.307427 O2-
0.457676 0.057634 0.308424 O2-
0.957676 0.557634 0.320272 O2-
0.834602 0.035413 0.392854 O2-
0.334602 0.535413 0.339688 O2-
0.519193 0.140628 0.409312 O2-
0.019193 0.640628 0.375798 O2-
0.205494 0.275856 0.362865 O2-
0.705494 0.775856 0.391195 O2-
0.900837 0.392259 0.375475 O2-
0.400837 0.892259 0.346028 O2-
0.102004 0.978148 0.359989 O2-
0.602004 0.478148 0.411319 O2-
0.659442 0.590622 0.408099 O2-
0.159442 0.090622 0.353636 O2-
0.353822 0.709404 0.337323 O2-
0.853822 0.209404 0.392016 O2-
0.039646 0.843555 0.374123 O2-
0.539646 0.343555 0.407579 O2-
0.731088 0.943480 0.388963 O2-
0.231088 0.443480 0.360832 O2-
0.959302 0.504327 0.372104 O2-
0.459302 0.004327 0.339655 O2-
0.103062 0.926111 0.391632 O2-
0.603062 0.426111 0.379500 O2-
0.939017 0.066074 0.404563 O2-
0.439017 0.566074 0.393910 O2-
0.754026 0.041349 0.364117 O2-
0.254026 0.541349 0.381854 O2-
0.675687 0.153257 0.383289 O2-
0.175687 0.653257 0.375739 O2-
0.405695 0.154647 0.368845 O2-
0.905695 0.654647 0.351849 O2-
0.452827 0.224590 0.359067 O2-
0.952827 0.724590 0.353771 O2-
0.116625 0.252705 0.342898 O2-
0.616625 0.752705 0.342640 O2-
0.141832 0.330648 0.416193 O2-
0.641832 0.830648 0.348478 O2-
0.876575 0.332841 0.401533 O2-
0.376575 0.832841 0.407347 O2-
0.792187 0.446708 0.336954 O2-
0.292187 0.946708 0.402658 O2-
0.765726 0.536665 0.363668 O2-
0.265726 0.036665 0.380353 O2-
0.685519 0.649394 0.381694 O2-
0.185519 0.149394 0.375695 O2-
0.416809 0.651785 0.366987 O2-
0.916809 0.151785 0.351854 O2-
0.446770 0.728542 0.357594 O2-
0.946770 0.228542 0.356253 O2-
0.106345 0.758375 0.341604 O2-
0.606345 0.258375 0.345648 O2-
0.151319 0.828801 0.414291 O2-
0.651319 0.328801 0.348799 O2-
0.883647 0.829973 0.400123 O2-
0.383647 0.329973 0.407578 O2-
0.798636 0.944360 0.335709 O2-
0.298636 0.444360 0.402827 O2-
0.613260 0.919559 0.378672 O2-
0.113260 0.419559 0.390760 O2-
0.457676 0.057634 0.391758 O2-
0.957676 0.557634 0.403605 O2-
0.834602 0.035413 0.476188 O2-
0.334602 0.535413 0.423021 O2-
0.519193 0.140628 0.492646 O2-
0.019193 0.640628 0.459131 O2-
0.205494 0.275856 0.446198 O2-
0.705494 0.775856 0.474529 O2-
0.900837 0.392259 0.458808 O2-
0.400837 0.892259 0.429361 O2-
0.102004 0.978148 0.443323 O2-
0.602004 0.478148 0.494652 O2-
0.659442 0.590622 0.491433 O2-
0.159442 0.090622 0.436969 O2-
0.353822 0.709404 0.420656 O2-
0.853822 0.209404 0.475349 O2-
0.039646 0.843555 0.457456 O2-
0.539646 0.343555 0.490912 O2-
0.731088 0.943480 0.472296 O2-
0.231088 0.443480 0.444165 O2-
0.959302 0.504327 0.455437 O2-
0.459302 0.004327 0.422989 O2-
0.103062 0.926111 0.474966 O2-
0.603062 0.426111 0.462833 O2-
0.939017 0.066074 0.487896 O2-
0.439017 0.566074 0.477243 O2-
0.754026 0.041349 0.447450 O2-
0.254026 0.541349 0.465188 O2-
0.675687 0.153257 0.466623 O2-
0.175687 0.653257 0.459072 O2-
0.405695 0.154647 0.452178 O2-
0.905695 0.654647 0.435182 O2-
0.452827 0.224590 0.442401 O2-
0.952827 0.724590 0.437104 O2-
0.116625 0.252705 0.426231 O2-
0.616625 0.752705 0.425974 O2-
0.141832 0.330648 0.499526 O2-
0.641832 0.830648 0.431811 O2-
0.876575 0.332841 0.484867 O2-
0.376575 0.832841 0.490680 O2-
0.792187 0.446708 0.420287 O2-
0.292187 0.946708 0.485991 O2-
0.765726 0.536665 0.447002 O2-
0.265726 0.036665 0.463687 O2-
0.685519 0.649394 0.465028 O2-
0.185519 0.149394 0.459028 O2-
0.416809 0.651785 0.450320 O2-
0.916809 0.151785 0.435188 O2-
0.446770 0.728542 0.440927 O2-
0.946770 0.228542 0.439587 O2-
0.106345 0.758375 0.424937 O2-
0.606345 0.258375 0.428981 O2-
0.151319 0.828801 0.497624 O2-
0.651319 0.328801 0.432132 O2-
0.883647 0.829973 0.483457 O2-
0.383647 0.329973 0.490911 O2-
0.798636 0.944360 0.419043 O2-
0.298636 0.444360 0.486160 O2-
0.613260 0.919559 0.462005 O2-
0.113260 0.419559 0.474094 O2-
0.457676 0.057634 0.475091 O2-
0.957676 0.557634 0.486939 O2-
0.834602 0.035413 0.559521 O2-
0.334602 0.535413 0.506354 O2-
0.519193 0.140628 0.575979 O2-
0.019193 0.640628 0.542465 O2-
0.205494 0.275856 0.529532 O2-
0.705494 0.775856 0.557862 O2-
0.900837 0.392259 0.542142 O2-
0.400837 0.892259 0.512695 O2-
0.102004 0.978148 0.526656 O2-
0.602004 0.478148 0.577986 O2-
0.659442 0.590622 0.574766 O2-
0.159442 0.090622 0.520303 O2-
0.353822 0.709404 0.503989 O2-
0.853822 0.209404 0.558683 O2-
0.039646 0.843555 0.540790 O2-
0.539646 0.343555 0.574245 O2-
0.731088 0.943480 0.555629 O2-
0.231088 0.443480 0.527498 O2-
0.959302 0.504327 0.538770 O2-
0.459302 0.004327 0.506322 O2-
0.103062 0.926111 0.558299 O2-
0.603062 0.426111 0.546166 O2-
0.939017 0.066074 0.571230 O2-
0.439017 0.566074 0.560577 O2-
0.754026 0.041349 0.530784 O2-
0.254026 0.541349 0.548521 O2-
0.675687 0.153257 0.549956 O2-
0.175687 0.653257 0.542405 O2-
0.405695 0.154647 0.535511 O2-
0.905695 0.654647 0.518516 O2-
0.452827 0.224590 0.525734 O2-
0.952827 0.724590 0.520437 O2-
0.116625 0.252705 0.509565 O2-
0.616625 0.752705 0.509307 O2-
0.141832 0.330648 0.582859 O2-
0.641832 0.830648 0.515144 O2-
0.876575 0.332841 0.568200 O2-
0.376575 0.832841 0.574013 O2-
0.792187 0.446708 0.503620 O2-
0.292187 0.946708 0.569324 O2-
0.765726 0.536665 0.530335 O2-
0.265726 0.036665 0.547020 O2-
0.685519 0.649394 0.548361 O2-
0.185519 0.149394 0.542362 O2-
0.416809 0.651785 0.533653 O2-
0.916809 0.151785 0.518521 O2-
0.446770 0.728542 0.524261 O2-
0.946770 0.228542 0.522920 O2-
0.106345 0.758375 0.508270 O2-
0.606345 0.258375 0.512315 O2-
0.151319 0.828801 0.580957 O2-
0.651319 0.328801 0.515466 O2-
0.883647 0.829973 0.566790 O2-
0.383647 0.329973 0.574245 O2-
0.798636 0.944360 0.502376 O2-
0.298636 0.444360 0.569494 O2-
0.613260 0.919559 0.545339 O2-
0.113260 0.419559 0.557427 O2-
0.457676 0.057634 0.558424 O2-
0.957676 0.557634 0.570272 O2-
