Li42 P14 O56
1.0
6.176136 0.000000 0.000000
0.000000 5.296402 -4.922448
0.000000 0.000000 63.991824
Li P O
42 14 56
direct
0.000000 0.155480 0.075836 Li+
0.500000 0.844520 0.013455 Li+
0.252873 0.673566 0.038847 Li+
0.247127 0.326434 0.050606 Li+
0.752873 0.326434 0.050606 Li+
0.747127 0.673566 0.038847 Li+
0.000000 0.155480 0.152759 Li+
0.500000 0.844520 0.090378 Li+
0.252873 0.673566 0.115770 Li+
0.247127 0.326434 0.127529 Li+
0.752873 0.326434 0.127529 Li+
0.747127 0.673566 0.115770 Li+
0.000000 0.155480 0.229682 Li+
0.500000 0.844520 0.167301 Li+
0.252873 0.673566 0.192693 Li+
0.247127 0.326434 0.204452 Li+
0.752873 0.326434 0.204452 Li+
0.747127 0.673566 0.192693 Li+
0.000000 0.155480 0.306606 Li+
0.500000 0.844520 0.244224 Li+
0.252873 0.673566 0.269616 Li+
0.247127 0.326434 0.281375 Li+
0.752873 0.326434 0.281375 Li+
0.747127 0.673566 0.269616 Li+
0.000000 0.155480 0.383529 Li+
0.500000 0.844520 0.321147 Li+
0.252873 0.673566 0.346539 Li+
0.247127 0.326434 0.358298 Li+
0.752873 0.326434 0.358298 Li+
0.747127 0.673566 0.346539 Li+
0.000000 0.155480 0.460452 Li+
0.500000 0.844520 0.398070 Li+
0.252873 0.673566 0.423462 Li+
0.247127 0.326434 0.435222 Li+
0.752873 0.326434 0.435222 Li+
0.747127 0.673566 0.423462 Li+
0.000000 0.155480 0.537375 Li+
0.500000 0.844520 0.474993 Li+
0.252873 0.673566 0.500386 Li+
0.247127 0.326434 0.512145 Li+
0.752873 0.326434 0.512145 Li+
0.747127 0.673566 0.500386 Li+
0.500000 0.175739 0.001087 P5+
0.000000 0.824261 0.012512 P5+
0.500000 0.175739 0.078010 P5+
0.000000 0.824261 0.089435 P5+
0.500000 0.175739 0.154933 P5+
0.000000 0.824261 0.166358 P5+
0.500000 0.175739 0.231856 P5+
0.000000 0.824261 0.243281 P5+
0.500000 0.175739 0.308779 P5+
0.000000 0.824261 0.320204 P5+
0.500000 0.175739 0.385702 P5+
0.000000 0.824261 0.397127 P5+
0.500000 0.175739 0.462625 P5+
0.000000 0.824261 0.474050 P5+
0.792862 0.686491 0.070715 O2-
0.500000 0.896492 0.048783 O2-
0.500000 0.181604 0.025863 O2-
0.000000 0.818396 0.036386 O2-
0.292862 0.313509 0.003562 O2-
0.207138 0.686491 0.070715 O2-
0.000000 0.103508 0.026245 O2-
0.707138 0.313509 0.003562 O2-
0.792862 0.686491 0.147638 O2-
0.500000 0.896492 0.125706 O2-
0.500000 0.181604 0.102786 O2-
0.000000 0.818396 0.113309 O2-
0.292862 0.313509 0.080485 O2-
0.207138 0.686491 0.147638 O2-
0.000000 0.103508 0.103169 O2-
0.707138 0.313509 0.080485 O2-
0.792862 0.686491 0.224561 O2-
0.500000 0.896492 0.202629 O2-
0.500000 0.181604 0.179709 O2-
0.000000 0.818396 0.190232 O2-
0.292862 0.313509 0.157408 O2-
0.207138 0.686491 0.224561 O2-
0.000000 0.103508 0.180092 O2-
0.707138 0.313509 0.157408 O2-
0.792862 0.686491 0.301484 O2-
0.500000 0.896492 0.279552 O2-
0.500000 0.181604 0.256632 O2-
0.000000 0.818396 0.267155 O2-
0.292862 0.313509 0.234331 O2-
0.207138 0.686491 0.301484 O2-
0.000000 0.103508 0.257015 O2-
0.707138 0.313509 0.234331 O2-
0.792862 0.686491 0.378407 O2-
0.500000 0.896492 0.356475 O2-
0.500000 0.181604 0.333556 O2-
0.000000 0.818396 0.344078 O2-
0.292862 0.313509 0.311254 O2-
0.207138 0.686491 0.378407 O2-
0.000000 0.103508 0.333938 O2-
0.707138 0.313509 0.311254 O2-
0.792862 0.686491 0.455330 O2-
0.500000 0.896492 0.433398 O2-
0.500000 0.181604 0.410479 O2-
0.000000 0.818396 0.421001 O2-
0.292862 0.313509 0.388178 O2-
0.207138 0.686491 0.455330 O2-
0.000000 0.103508 0.410861 O2-
0.707138 0.313509 0.388178 O2-
0.792862 0.686491 0.532253 O2-
0.500000 0.896492 0.510321 O2-
0.500000 0.181604 0.487402 O2-
0.000000 0.818396 0.497924 O2-
0.292862 0.313509 0.465101 O2-
0.207138 0.686491 0.532253 O2-
0.000000 0.103508 0.487784 O2-
0.707138 0.313509 0.465101 O2-
