Li140 P140 O420
1.0
5.521558 0.000000 0.000000
0.000000 16.540545 -10.635230
0.000000 0.000000 119.816820
Li P O
140 140 420
direct
0.494607 0.818220 0.076187 Li+
0.505393 0.318220 0.076187 Li+
0.484419 0.934004 0.102592 Li+
0.515581 0.434004 0.102592 Li+
0.505784 0.049457 0.017689 Li+
0.494216 0.549457 0.017689 Li+
0.507224 0.164548 0.043762 Li+
0.492776 0.664548 0.043762 Li+
0.992783 0.241566 0.060141 Li+
0.007217 0.741566 0.060141 Li+
0.521194 0.318286 0.020877 Li+
0.478806 0.818286 0.020877 Li+
0.476313 0.433730 0.047159 Li+
0.523687 0.933730 0.047159 Li+
0.533250 0.550453 0.073371 Li+
0.466750 0.050453 0.073371 Li+
0.477737 0.667016 0.099631 Li+
0.522263 0.167016 0.099631 Li+
0.960889 0.743634 0.005037 Li+
0.039111 0.243634 0.005037 Li+
0.494607 0.818220 0.187298 Li+
0.505393 0.318220 0.187298 Li+
0.484419 0.934004 0.213703 Li+
0.515581 0.434004 0.213703 Li+
0.505784 0.049457 0.128800 Li+
0.494216 0.549457 0.128800 Li+
0.507224 0.164548 0.154874 Li+
0.492776 0.664548 0.154874 Li+
0.992783 0.241566 0.171252 Li+
0.007217 0.741566 0.171252 Li+
0.521194 0.318286 0.131988 Li+
0.478806 0.818286 0.131988 Li+
0.476313 0.433730 0.158271 Li+
0.523687 0.933730 0.158271 Li+
0.533250 0.550453 0.184482 Li+
0.466750 0.050453 0.184482 Li+
0.477737 0.667016 0.210742 Li+
0.522263 0.167016 0.210742 Li+
0.960889 0.743634 0.116148 Li+
0.039111 0.243634 0.116148 Li+
0.494607 0.818220 0.298409 Li+
0.505393 0.318220 0.298409 Li+
0.484419 0.934004 0.324814 Li+
0.515581 0.434004 0.324814 Li+
0.505784 0.049457 0.239911 Li+
0.494216 0.549457 0.239911 Li+
0.507224 0.164548 0.265985 Li+
0.492776 0.664548 0.265985 Li+
0.992783 0.241566 0.282363 Li+
0.007217 0.741566 0.282363 Li+
0.521194 0.318286 0.243100 Li+
0.478806 0.818286 0.243100 Li+
0.476313 0.433730 0.269382 Li+
0.523687 0.933730 0.269382 Li+
0.533250 0.550453 0.295593 Li+
0.466750 0.050453 0.295593 Li+
0.477737 0.667016 0.321853 Li+
0.522263 0.167016 0.321853 Li+
0.960889 0.743634 0.227259 Li+
0.039111 0.243634 0.227259 Li+
0.494607 0.818220 0.409520 Li+
0.505393 0.318220 0.409520 Li+
0.484419 0.934004 0.435925 Li+
0.515581 0.434004 0.435925 Li+
0.505784 0.049457 0.351022 Li+
0.494216 0.549457 0.351022 Li+
0.507224 0.164548 0.377096 Li+
0.492776 0.664548 0.377096 Li+
0.992783 0.241566 0.393474 Li+
0.007217 0.741566 0.393474 Li+
0.521194 0.318286 0.354211 Li+
0.478806 0.818286 0.354211 Li+
0.476313 0.433730 0.380493 Li+
0.523687 0.933730 0.380493 Li+
0.533250 0.550453 0.406705 Li+
0.466750 0.050453 0.406705 Li+
0.477737 0.667016 0.432964 Li+
0.522263 0.167016 0.432964 Li+
0.960889 0.743634 0.338370 Li+
0.039111 0.243634 0.338370 Li+
0.494607 0.818220 0.520631 Li+
0.505393 0.318220 0.520631 Li+
0.484419 0.934004 0.547037 Li+
0.515581 0.434004 0.547037 Li+
0.505784 0.049457 0.462134 Li+
0.494216 0.549457 0.462134 Li+
0.507224 0.164548 0.488207 Li+
0.492776 0.664548 0.488207 Li+
0.992783 0.241566 0.504585 Li+
0.007217 0.741566 0.504585 Li+
0.521194 0.318286 0.465322 Li+
0.478806 0.818286 0.465322 Li+
0.476313 0.433730 0.491604 Li+
0.523687 0.933730 0.491604 Li+
0.533250 0.550453 0.517816 Li+
0.466750 0.050453 0.517816 Li+
0.477737 0.667016 0.544075 Li+
0.522263 0.167016 0.544075 Li+
0.960889 0.743634 0.449481 Li+
0.039111 0.243634 0.449481 Li+
0.494607 0.818220 0.631742 Li+
0.505393 0.318220 0.631742 Li+
0.484419 0.934004 0.658148 Li+
0.515581 0.434004 0.658148 Li+
0.505784 0.049457 0.573245 Li+
0.494216 0.549457 0.573245 Li+
0.507224 0.164548 0.599318 Li+
0.492776 0.664548 0.599318 Li+
0.992783 0.241566 0.615696 Li+
0.007217 0.741566 0.615696 Li+
0.521194 0.318286 0.576433 Li+
0.478806 0.818286 0.576433 Li+
0.476313 0.433730 0.602715 Li+
0.523687 0.933730 0.602715 Li+
0.533250 0.550453 0.628927 Li+
0.466750 0.050453 0.628927 Li+
0.477737 0.667016 0.655187 Li+
0.522263 0.167016 0.655187 Li+
0.960889 0.743634 0.560592 Li+
0.039111 0.243634 0.560592 Li+
0.494607 0.818220 0.742853 Li+
0.505393 0.318220 0.742853 Li+
0.484419 0.934004 0.769259 Li+
0.515581 0.434004 0.769259 Li+
0.505784 0.049457 0.684356 Li+
0.494216 0.549457 0.684356 Li+
0.507224 0.164548 0.710429 Li+
0.492776 0.664548 0.710429 Li+
0.992783 0.241566 0.726807 Li+
0.007217 0.741566 0.726807 Li+
0.521194 0.318286 0.687544 Li+
0.478806 0.818286 0.687544 Li+
0.476313 0.433730 0.713826 Li+
0.523687 0.933730 0.713826 Li+
0.533250 0.550453 0.740038 Li+
0.466750 0.050453 0.740038 Li+
0.477737 0.667016 0.766298 Li+
0.522263 0.167016 0.766298 Li+
0.960889 0.743634 0.671703 Li+
0.039111 0.243634 0.671703 Li+
0.185377 0.000413 0.090153 P5+
0.814623 0.500413 0.090153 P5+
0.843317 0.093280 0.001975 P5+
0.156683 0.593280 0.001975 P5+
0.188444 0.197061 0.023700 P5+
0.811556 0.697061 0.023700 P5+
0.828977 0.308311 0.044863 P5+
0.171023 0.808311 0.044863 P5+
0.159739 0.408249 0.067084 P5+
0.840261 0.908249 0.067084 P5+
0.843930 0.574567 0.053027 P5+
0.156070 0.074567 0.053027 P5+
0.174322 0.674438 0.075290 P5+
0.825678 0.174438 0.075290 P5+
0.812278 0.786455 0.096498 P5+
0.187722 0.286455 0.096498 P5+
0.151901 0.889856 0.007144 P5+
0.848099 0.389856 0.007144 P5+
0.809867 0.982845 0.030064 P5+
0.190133 0.482845 0.030064 P5+
0.185377 0.000413 0.201264 P5+
0.814623 0.500413 0.201265 P5+
0.843317 0.093280 0.113086 P5+
0.156683 0.593280 0.113086 P5+
0.188444 0.197061 0.134811 P5+
0.811556 0.697061 0.134811 P5+
0.828977 0.308311 0.155974 P5+
0.171023 0.808311 0.155974 P5+
0.159739 0.408249 0.178195 P5+
0.840261 0.908249 0.178195 P5+
0.843930 0.574567 0.164138 P5+
0.156070 0.074567 0.164138 P5+
0.174322 0.674438 0.186401 P5+
0.825678 0.174438 0.186401 P5+
0.812278 0.786455 0.207609 P5+
0.187722 0.286455 0.207609 P5+
0.151901 0.889856 0.118255 P5+
0.848099 0.389856 0.118255 P5+
0.809867 0.982845 0.141175 P5+
0.190133 0.482845 0.141175 P5+
0.185377 0.000413 0.312376 P5+
0.814623 0.500413 0.312376 P5+
0.843317 0.093280 0.224197 P5+
0.156683 0.593280 0.224197 P5+
0.188444 0.197061 0.245922 P5+
0.811556 0.697061 0.245922 P5+
0.828977 0.308311 0.267085 P5+
0.171023 0.808311 0.267085 P5+
0.159739 0.408249 0.289307 P5+
0.840261 0.908249 0.289307 P5+
0.843930 0.574567 0.275249 P5+
0.156070 0.074567 0.275249 P5+
0.174322 0.674438 0.297512 P5+
0.825678 0.174438 0.297512 P5+
0.812278 0.786455 0.318720 P5+
0.187722 0.286455 0.318720 P5+
0.151901 0.889856 0.229366 P5+
0.848099 0.389856 0.229366 P5+
0.809867 0.982845 0.252287 P5+
0.190133 0.482845 0.252287 P5+
0.185377 0.000413 0.423487 P5+
0.814623 0.500413 0.423487 P5+
0.843317 0.093280 0.335308 P5+
0.156683 0.593280 0.335308 P5+
0.188444 0.197061 0.357033 P5+
0.811556 0.697061 0.357033 P5+
0.828977 0.308311 0.378196 P5+
0.171023 0.808311 0.378196 P5+
0.159739 0.408249 0.400418 P5+
0.840261 0.908249 0.400418 P5+
0.843930 0.574567 0.386360 P5+
0.156070 0.074567 0.386360 P5+
0.174322 0.674438 0.408624 P5+
0.825678 0.174438 0.408623 P5+
0.812278 0.786455 0.429831 P5+
0.187722 0.286455 0.429831 P5+
0.151901 0.889856 0.340477 P5+
0.848099 0.389856 0.340477 P5+
0.809867 0.982845 0.363398 P5+
0.190133 0.482845 0.363398 P5+
0.185377 0.000413 0.534598 P5+
0.814623 0.500413 0.534598 P5+
0.843317 0.093280 0.446419 P5+
0.156683 0.593280 0.446419 P5+
0.188444 0.197061 0.468144 P5+
0.811556 0.697061 0.468144 P5+
0.828977 0.308311 0.489307 P5+
0.171023 0.808311 0.489307 P5+
0.159739 0.408249 0.511529 P5+
0.840261 0.908249 0.511529 P5+
0.843930 0.574567 0.497471 P5+
0.156070 0.074567 0.497471 P5+
0.174322 0.674438 0.519735 P5+
0.825678 0.174438 0.519735 P5+
0.812278 0.786455 0.540942 P5+
0.187722 0.286455 0.540942 P5+
0.151901 0.889856 0.451588 P5+
0.848099 0.389856 0.451588 P5+
0.809867 0.982845 0.474509 P5+
0.190133 0.482845 0.474509 P5+
0.185377 0.000413 0.645709 P5+
0.814623 0.500413 0.645709 P5+
0.843317 0.093280 0.557530 P5+
0.156683 0.593280 0.557530 P5+
0.188444 0.197061 0.579255 P5+
0.811556 0.697061 0.579255 P5+
0.828977 0.308311 0.600418 P5+
0.171023 0.808311 0.600418 P5+
0.159739 0.408249 0.622640 P5+
0.840261 0.908249 0.622640 P5+
0.843930 0.574567 0.608582 P5+
0.156070 0.074567 0.608582 P5+
0.174322 0.674438 0.630846 P5+
0.825678 0.174438 0.630846 P5+
0.812278 0.786455 0.652054 P5+
0.187722 0.286455 0.652054 P5+
0.151901 0.889856 0.562699 P5+
0.848099 0.389856 0.562699 P5+
0.809867 0.982845 0.585620 P5+
0.190133 0.482845 0.585620 P5+
0.185377 0.000413 0.756820 P5+
0.814623 0.500413 0.756820 P5+
0.843317 0.093280 0.668641 P5+
0.156683 0.593280 0.668641 P5+
0.188444 0.197061 0.690366 P5+
0.811556 0.697061 0.690366 P5+
0.828977 0.308311 0.711529 P5+
0.171023 0.808311 0.711529 P5+
0.159739 0.408249 0.733751 P5+
0.840261 0.908249 0.733751 P5+
0.843930 0.574567 0.719693 P5+
0.156070 0.074567 0.719693 P5+
0.174322 0.674438 0.741957 P5+
0.825678 0.174438 0.741957 P5+
0.812278 0.786455 0.763165 P5+
0.187722 0.286455 0.763165 P5+
0.151901 0.889856 0.673810 P5+
0.848099 0.389856 0.673810 P5+
0.809867 0.982845 0.696731 P5+
0.190133 0.482845 0.696731 P5+
0.069000 0.035413 0.104683 O2-
0.931000 0.535413 0.104683 O2-
0.951087 0.140628 0.016927 O2-
0.048913 0.640628 0.016927 O2-
0.080018 0.275856 0.036757 O2-
0.919982 0.775856 0.036757 O2-
0.926681 0.392259 0.057674 O2-
0.073319 0.892259 0.057674 O2-
0.942022 0.978148 0.081334 O2-
0.057978 0.478148 0.081334 O2-
0.076781 0.590622 0.062455 O2-
0.923219 0.090622 0.062455 O2-
0.921841 0.709404 0.083215 O2-
0.078159 0.209404 0.083215 O2-
0.049265 0.843555 0.103218 O2-
0.950735 0.343555 0.103218 O2-
0.918787 0.943480 0.015288 O2-
0.081213 0.443480 0.015288 O2-
0.944691 0.504327 0.038726 O2-
0.055309 0.004327 0.038726 O2-
0.322795 0.926111 0.086999 O2-
0.677205 0.426111 0.086999 O2-
0.313918 0.066074 0.089674 O2-
0.686082 0.566074 0.089674 O2-
0.643576 0.041349 0.001865 O2-
0.356424 0.541349 0.001865 O2-
0.795305 0.153257 0.109246 O2-
0.204695 0.653257 0.109246 O2-
0.351974 0.154647 0.027980 O2-
0.648026 0.654647 0.027980 O2-
0.281781 0.224590 0.014971 O2-
0.718219 0.724590 0.014971 O2-
0.751546 0.252705 0.049203 O2-
0.248454 0.752705 0.049203 O2-
0.656290 0.330648 0.037742 O2-
0.343710 0.830648 0.037742 O2-
0.215121 0.332841 0.066971 O2-
0.784879 0.832841 0.066971 O2-
0.355777 0.446708 0.063696 O2-
0.644223 0.946708 0.063696 O2-
0.649890 0.536665 0.056641 O2-
0.350110 0.036665 0.056641 O2-
0.785996 0.649394 0.053027 O2-
0.214004 0.149394 0.053027 O2-
0.340793 0.651785 0.082618 O2-
0.659207 0.151785 0.082618 O2-
0.258044 0.728542 0.070761 O2-
0.741956 0.228542 0.070761 O2-
0.725734 0.758375 0.105271 O2-
0.274266 0.258375 0.105271 O2-
0.642950 0.828801 0.092449 O2-
0.357050 0.328801 0.092449 O2-
0.205272 0.829973 0.010949 O2-
0.794728 0.329973 0.010949 O2-
0.347295 0.944360 0.007685 O2-
0.652705 0.444360 0.007685 O2-
0.677470 0.919559 0.031038 O2-
0.322530 0.419559 0.031038 O2-
0.678914 0.057634 0.032983 O2-
0.321086 0.557634 0.032983 O2-
0.069000 0.035413 0.215794 O2-
0.931000 0.535413 0.215794 O2-
0.951087 0.140628 0.128038 O2-
0.048913 0.640628 0.128038 O2-
0.080018 0.275856 0.147868 O2-
0.919982 0.775856 0.147868 O2-
0.926681 0.392259 0.168785 O2-
0.073319 0.892259 0.168785 O2-
0.942022 0.978148 0.192445 O2-
0.057978 0.478148 0.192445 O2-
0.076781 0.590622 0.173566 O2-
0.923219 0.090622 0.173566 O2-
0.921841 0.709404 0.194326 O2-
0.078159 0.209404 0.194326 O2-
0.049265 0.843555 0.214329 O2-
0.950735 0.343555 0.214329 O2-
0.918787 0.943480 0.126399 O2-
0.081213 0.443480 0.126399 O2-
0.944691 0.504327 0.149837 O2-
0.055309 0.004327 0.149837 O2-
0.322795 0.926111 0.198110 O2-
0.677205 0.426111 0.198110 O2-
0.313918 0.066074 0.200785 O2-
0.686082 0.566074 0.200785 O2-
0.643576 0.041349 0.112976 O2-
0.356424 0.541349 0.112976 O2-
0.795305 0.153257 0.220357 O2-
0.204695 0.653257 0.220357 O2-
0.351974 0.154647 0.139091 O2-
0.648026 0.654647 0.139091 O2-
0.281781 0.224590 0.126082 O2-
0.718219 0.724590 0.126082 O2-
0.751546 0.252705 0.160314 O2-
0.248454 0.752705 0.160314 O2-
0.656290 0.330648 0.148853 O2-
0.343710 0.830648 0.148853 O2-
0.215121 0.332841 0.178083 O2-
0.784879 0.832841 0.178083 O2-
0.355777 0.446708 0.174807 O2-
0.644223 0.946708 0.174807 O2-
0.649890 0.536665 0.167752 O2-
0.350110 0.036665 0.167752 O2-
0.785996 0.649394 0.164138 O2-
0.214004 0.149394 0.164138 O2-
0.340793 0.651785 0.193729 O2-
0.659207 0.151785 0.193729 O2-
0.258044 0.728542 0.181872 O2-
0.741956 0.228542 0.181872 O2-
0.725734 0.758375 0.216382 O2-
0.274266 0.258375 0.216382 O2-
0.642950 0.828801 0.203560 O2-
0.357050 0.328801 0.203560 O2-
0.205272 0.829973 0.122060 O2-
0.794728 0.329973 0.122060 O2-
0.347295 0.944360 0.118796 O2-
0.652705 0.444360 0.118796 O2-
0.677470 0.919559 0.142149 O2-
0.322530 0.419559 0.142149 O2-
0.678914 0.057634 0.144094 O2-
0.321086 0.557634 0.144094 O2-
0.069000 0.035413 0.326905 O2-
0.931000 0.535413 0.326905 O2-
0.951087 0.140628 0.239149 O2-
0.048913 0.640628 0.239149 O2-
0.080018 0.275856 0.258979 O2-
0.919982 0.775856 0.258979 O2-
0.926681 0.392259 0.279896 O2-
0.073319 0.892259 0.279896 O2-
0.942022 0.978148 0.303556 O2-
0.057978 0.478148 0.303556 O2-
0.076781 0.590622 0.284677 O2-
0.923219 0.090622 0.284677 O2-
0.921841 0.709404 0.305437 O2-
0.078159 0.209404 0.305437 O2-
0.049265 0.843555 0.325440 O2-
0.950735 0.343555 0.325440 O2-
0.918787 0.943480 0.237510 O2-
0.081213 0.443480 0.237510 O2-
0.944691 0.504327 0.260948 O2-
0.055309 0.004327 0.260948 O2-
0.322795 0.926111 0.309221 O2-
0.677205 0.426111 0.309221 O2-
0.313918 0.066074 0.311896 O2-
0.686082 0.566074 0.311896 O2-
0.643576 0.041349 0.224087 O2-
0.356424 0.541349 0.224087 O2-
0.795305 0.153257 0.331468 O2-
0.204695 0.653257 0.331468 O2-
0.351974 0.154647 0.250202 O2-
0.648026 0.654647 0.250202 O2-
0.281781 0.224590 0.237194 O2-
0.718219 0.724590 0.237194 O2-
0.751546 0.252705 0.271425 O2-
0.248454 0.752705 0.271425 O2-
0.656290 0.330648 0.259964 O2-
0.343710 0.830648 0.259964 O2-
0.215121 0.332841 0.289194 O2-
0.784879 0.832841 0.289194 O2-
0.355777 0.446708 0.285918 O2-
0.644223 0.946708 0.285918 O2-
0.649890 0.536665 0.278863 O2-
0.350110 0.036665 0.278863 O2-
0.785996 0.649394 0.275250 O2-
0.214004 0.149394 0.275250 O2-
0.340793 0.651785 0.304841 O2-
0.659207 0.151785 0.304841 O2-
0.258044 0.728542 0.292983 O2-
0.741956 0.228542 0.292983 O2-
0.725734 0.758375 0.327493 O2-
0.274266 0.258375 0.327493 O2-
0.642950 0.828801 0.314671 O2-
0.357050 0.328801 0.314671 O2-
0.205272 0.829973 0.233171 O2-
0.794728 0.329973 0.233171 O2-
0.347295 0.944360 0.229907 O2-
0.652705 0.444360 0.229907 O2-
0.677470 0.919559 0.253260 O2-
0.322530 0.419559 0.253260 O2-
0.678914 0.057634 0.255205 O2-
0.321086 0.557634 0.255205 O2-
0.069000 0.035413 0.438016 O2-
0.931000 0.535413 0.438016 O2-
0.951087 0.140628 0.350260 O2-
0.048913 0.640628 0.350260 O2-
0.080018 0.275856 0.370090 O2-
0.919982 0.775856 0.370090 O2-
0.926681 0.392259 0.391007 O2-
0.073319 0.892259 0.391007 O2-
0.942022 0.978148 0.414667 O2-
0.057978 0.478148 0.414667 O2-
0.076781 0.590622 0.395788 O2-
0.923219 0.090622 0.395788 O2-
0.921841 0.709404 0.416548 O2-
0.078159 0.209404 0.416548 O2-
0.049265 0.843555 0.436551 O2-
0.950735 0.343555 0.436551 O2-
0.918787 0.943480 0.348621 O2-
0.081213 0.443480 0.348621 O2-
0.944691 0.504327 0.372059 O2-
0.055309 0.004327 0.372059 O2-
0.322795 0.926111 0.420332 O2-
0.677205 0.426111 0.420332 O2-
0.313918 0.066074 0.423008 O2-
0.686082 0.566074 0.423008 O2-
0.643576 0.041349 0.335198 O2-
0.356424 0.541349 0.335198 O2-
0.795305 0.153257 0.442580 O2-
0.204695 0.653257 0.442580 O2-
0.351974 0.154647 0.361313 O2-
0.648026 0.654647 0.361313 O2-
0.281781 0.224590 0.348305 O2-
0.718219 0.724590 0.348305 O2-
0.751546 0.252705 0.382537 O2-
0.248454 0.752705 0.382537 O2-
0.656290 0.330648 0.371076 O2-
0.343710 0.830648 0.371076 O2-
0.215121 0.332841 0.400305 O2-
0.784879 0.832841 0.400305 O2-
0.355777 0.446708 0.397029 O2-
0.644223 0.946708 0.397029 O2-
0.649890 0.536665 0.389974 O2-
0.350110 0.036665 0.389974 O2-
0.785996 0.649394 0.386361 O2-
0.214004 0.149394 0.386361 O2-
0.340793 0.651785 0.415952 O2-
0.659207 0.151785 0.415952 O2-
0.258044 0.728542 0.404094 O2-
0.741956 0.228542 0.404094 O2-
0.725734 0.758375 0.438604 O2-
0.274266 0.258375 0.438604 O2-
0.642950 0.828801 0.425782 O2-
0.357050 0.328801 0.425782 O2-
0.205272 0.829973 0.344282 O2-
0.794728 0.329973 0.344282 O2-
0.347295 0.944360 0.341018 O2-
0.652705 0.444360 0.341018 O2-
0.677470 0.919559 0.364371 O2-
0.322530 0.419559 0.364371 O2-
0.678914 0.057634 0.366317 O2-
0.321086 0.557634 0.366317 O2-
0.069000 0.035413 0.549127 O2-
0.931000 0.535413 0.549127 O2-
0.951087 0.140628 0.461371 O2-
0.048913 0.640628 0.461371 O2-
0.080018 0.275856 0.481201 O2-
0.919982 0.775856 0.481201 O2-
0.926681 0.392259 0.502118 O2-
0.073319 0.892259 0.502118 O2-
0.942022 0.978148 0.525779 O2-
0.057978 0.478148 0.525779 O2-
0.076781 0.590622 0.506899 O2-
0.923219 0.090622 0.506899 O2-
0.921841 0.709404 0.527659 O2-
0.078159 0.209404 0.527659 O2-
0.049265 0.843555 0.547662 O2-
0.950735 0.343555 0.547662 O2-
0.918787 0.943480 0.459732 O2-
0.081213 0.443480 0.459732 O2-
0.944691 0.504327 0.483170 O2-
0.055309 0.004327 0.483170 O2-
0.322795 0.926111 0.531443 O2-
0.677205 0.426111 0.531443 O2-
0.313918 0.066074 0.534119 O2-
0.686082 0.566074 0.534119 O2-
0.643576 0.041349 0.446309 O2-
0.356424 0.541349 0.446309 O2-
0.795305 0.153257 0.553691 O2-
0.204695 0.653257 0.553691 O2-
0.351974 0.154647 0.472424 O2-
0.648026 0.654647 0.472424 O2-
0.281781 0.224590 0.459416 O2-
0.718219 0.724590 0.459416 O2-
0.751546 0.252705 0.493648 O2-
0.248454 0.752705 0.493648 O2-
0.656290 0.330648 0.482187 O2-
0.343710 0.830648 0.482187 O2-
0.215121 0.332841 0.511416 O2-
0.784879 0.832841 0.511416 O2-
0.355777 0.446708 0.508140 O2-
0.644223 0.946708 0.508140 O2-
0.649890 0.536665 0.501085 O2-
0.350110 0.036665 0.501085 O2-
0.785996 0.649394 0.497472 O2-
0.214004 0.149394 0.497472 O2-
0.340793 0.651785 0.527063 O2-
0.659207 0.151785 0.527063 O2-
0.258044 0.728542 0.515205 O2-
0.741956 0.228542 0.515205 O2-
0.725734 0.758375 0.549716 O2-
0.274266 0.258375 0.549715 O2-
0.642950 0.828801 0.536893 O2-
0.357050 0.328801 0.536893 O2-
0.205272 0.829973 0.455393 O2-
0.794728 0.329973 0.455393 O2-
0.347295 0.944360 0.452129 O2-
0.652705 0.444360 0.452129 O2-
0.677470 0.919559 0.475482 O2-
0.322530 0.419559 0.475482 O2-
0.678914 0.057634 0.477428 O2-
0.321086 0.557634 0.477428 O2-
0.069000 0.035413 0.660238 O2-
0.931000 0.535413 0.660238 O2-
0.951087 0.140628 0.572482 O2-
0.048913 0.640628 0.572482 O2-
0.080018 0.275856 0.592312 O2-
0.919982 0.775856 0.592312 O2-
0.926681 0.392259 0.613229 O2-
0.073319 0.892259 0.613229 O2-
0.942022 0.978148 0.636890 O2-
0.057978 0.478148 0.636890 O2-
0.076781 0.590622 0.618011 O2-
0.923219 0.090622 0.618011 O2-
0.921841 0.709404 0.638770 O2-
0.078159 0.209404 0.638770 O2-
0.049265 0.843555 0.658773 O2-
0.950735 0.343555 0.658773 O2-
0.918787 0.943480 0.570844 O2-
0.081213 0.443480 0.570844 O2-
0.944691 0.504327 0.594281 O2-
0.055309 0.004327 0.594281 O2-
0.322795 0.926111 0.642554 O2-
0.677205 0.426111 0.642554 O2-
0.313918 0.066074 0.645230 O2-
0.686082 0.566074 0.645230 O2-
0.643576 0.041349 0.557420 O2-
0.356424 0.541349 0.557420 O2-
0.795305 0.153257 0.664802 O2-
0.204695 0.653257 0.664802 O2-
0.351974 0.154647 0.583535 O2-
0.648026 0.654647 0.583535 O2-
0.281781 0.224590 0.570527 O2-
0.718219 0.724590 0.570527 O2-
0.751546 0.252705 0.604759 O2-
0.248454 0.752705 0.604759 O2-
0.656290 0.330648 0.593298 O2-
0.343710 0.830648 0.593298 O2-
0.215121 0.332841 0.622527 O2-
0.784879 0.832841 0.622527 O2-
0.355777 0.446708 0.619252 O2-
0.644223 0.946708 0.619252 O2-
0.649890 0.536665 0.612197 O2-
0.350110 0.036665 0.612197 O2-
0.785996 0.649394 0.608583 O2-
0.214004 0.149394 0.608583 O2-
0.340793 0.651785 0.638174 O2-
0.659207 0.151785 0.638174 O2-
0.258044 0.728542 0.626316 O2-
0.741956 0.228542 0.626316 O2-
0.725734 0.758375 0.660827 O2-
0.274266 0.258375 0.660827 O2-
0.642950 0.828801 0.648004 O2-
0.357050 0.328801 0.648004 O2-
0.205272 0.829973 0.566504 O2-
0.794728 0.329973 0.566504 O2-
0.347295 0.944360 0.563240 O2-
0.652705 0.444360 0.563240 O2-
0.677470 0.919559 0.586593 O2-
0.322530 0.419559 0.586593 O2-
0.678914 0.057634 0.588539 O2-
0.321086 0.557634 0.588539 O2-
0.069000 0.035413 0.771349 O2-
0.931000 0.535413 0.771349 O2-
0.951087 0.140628 0.683593 O2-
0.048913 0.640628 0.683593 O2-
0.080018 0.275856 0.703423 O2-
0.919982 0.775856 0.703423 O2-
0.926681 0.392259 0.724340 O2-
0.073319 0.892259 0.724340 O2-
0.942022 0.978148 0.748001 O2-
0.057978 0.478148 0.748001 O2-
0.076781 0.590622 0.729122 O2-
0.923219 0.090622 0.729122 O2-
0.921841 0.709404 0.749881 O2-
0.078159 0.209404 0.749881 O2-
0.049265 0.843555 0.769884 O2-
0.950735 0.343555 0.769884 O2-
0.918787 0.943480 0.681955 O2-
0.081213 0.443480 0.681955 O2-
0.944691 0.504327 0.705392 O2-
0.055309 0.004327 0.705392 O2-
0.322795 0.926111 0.753665 O2-
0.677205 0.426111 0.753665 O2-
0.313918 0.066074 0.756341 O2-
0.686082 0.566074 0.756341 O2-
0.643576 0.041349 0.668532 O2-
0.356424 0.541349 0.668532 O2-
0.795305 0.153257 0.775913 O2-
0.204695 0.653257 0.775913 O2-
0.351974 0.154647 0.694646 O2-
0.648026 0.654647 0.694646 O2-
0.281781 0.224590 0.681638 O2-
0.718219 0.724590 0.681638 O2-
0.751546 0.252705 0.715870 O2-
0.248454 0.752705 0.715870 O2-
0.656290 0.330648 0.704409 O2-
0.343710 0.830648 0.704409 O2-
0.215121 0.332841 0.733638 O2-
0.784879 0.832841 0.733638 O2-
0.355777 0.446708 0.730363 O2-
0.644223 0.946708 0.730363 O2-
0.649890 0.536665 0.723308 O2-
0.350110 0.036665 0.723308 O2-
0.785996 0.649394 0.719694 O2-
0.214004 0.149394 0.719694 O2-
0.340793 0.651785 0.749285 O2-
0.659207 0.151785 0.749285 O2-
0.258044 0.728542 0.737427 O2-
0.741956 0.228542 0.737427 O2-
0.725734 0.758375 0.771938 O2-
0.274266 0.258375 0.771938 O2-
0.642950 0.828801 0.759115 O2-
0.357050 0.328801 0.759115 O2-
0.205272 0.829973 0.677615 O2-
0.794728 0.329973 0.677615 O2-
0.347295 0.944360 0.674351 O2-
0.652705 0.444360 0.674351 O2-
0.677470 0.919559 0.697704 O2-
0.322530 0.419559 0.697704 O2-
0.678914 0.057634 0.699650 O2-
0.321086 0.557634 0.699650 O2-
