P56 O140
1.0
4.937041 0.000000 0.000000
-1.817865 4.590178 0.000000
0.000000 0.000000 149.288130
P O
56 140
direct
0.679111 0.525416 0.894326 P5+
0.025416 0.179111 0.966785 P5+
0.025416 0.679111 0.977659 P5+
0.179111 0.525416 0.994563 P5+
0.179111 0.025416 0.949881 P5+
0.525416 0.679111 0.911230 P5+
0.525416 0.179111 0.922104 P5+
0.679111 0.025416 0.939008 P5+
0.679111 0.525416 0.783215 P5+
0.025416 0.179111 0.855674 P5+
0.025416 0.679111 0.866548 P5+
0.179111 0.525416 0.883452 P5+
0.179111 0.025416 0.838770 P5+
0.525416 0.679111 0.800119 P5+
0.525416 0.179111 0.810992 P5+
0.679111 0.025416 0.827896 P5+
0.679111 0.525416 0.672104 P5+
0.025416 0.179111 0.744563 P5+
0.025416 0.679111 0.755437 P5+
0.179111 0.525416 0.772341 P5+
0.179111 0.025416 0.727659 P5+
0.525416 0.679111 0.689008 P5+
0.525416 0.179111 0.699881 P5+
0.679111 0.025416 0.716785 P5+
0.679111 0.525416 0.560992 P5+
0.025416 0.179111 0.633452 P5+
0.025416 0.679111 0.644326 P5+
0.179111 0.525416 0.661230 P5+
0.179111 0.025416 0.616548 P5+
0.525416 0.679111 0.577896 P5+
0.525416 0.179111 0.588770 P5+
0.679111 0.025416 0.605674 P5+
0.679111 0.525416 0.449881 P5+
0.025416 0.179111 0.522341 P5+
0.025416 0.679111 0.533215 P5+
0.179111 0.525416 0.550119 P5+
0.179111 0.025416 0.505437 P5+
0.525416 0.679111 0.466785 P5+
0.525416 0.179111 0.477659 P5+
0.679111 0.025416 0.494563 P5+
0.679111 0.525416 0.338770 P5+
0.025416 0.179111 0.411230 P5+
0.025416 0.679111 0.422104 P5+
0.179111 0.525416 0.439008 P5+
0.179111 0.025416 0.394326 P5+
0.525416 0.679111 0.355674 P5+
0.525416 0.179111 0.366548 P5+
0.679111 0.025416 0.383452 P5+
0.679111 0.525416 0.227659 P5+
0.025416 0.179111 0.300119 P5+
0.025416 0.679111 0.310992 P5+
0.179111 0.525416 0.327896 P5+
0.179111 0.025416 0.283215 P5+
0.525416 0.679111 0.244563 P5+
0.525416 0.179111 0.255437 P5+
0.679111 0.025416 0.272341 P5+
0.547936 0.214773 0.896292 O2-
0.714773 0.047936 0.964819 O2-
0.714773 0.547936 0.979625 O2-
0.047936 0.214773 0.992597 O2-
0.240745 0.740745 0.986111 O2-
0.740745 0.740745 0.902778 O2-
0.494801 0.653218 0.998943 O2-
0.153218 0.994801 0.973279 O2-
0.153218 0.494801 0.971165 O2-
0.994801 0.653218 0.889946 O2-
0.047936 0.714773 0.951847 O2-
0.214773 0.547936 0.909264 O2-
0.214773 0.047936 0.924070 O2-
0.547936 0.714773 0.937041 O2-
0.740745 0.240745 0.930556 O2-
0.240745 0.240745 0.958333 O2-
0.994801 0.153218 0.943388 O2-
0.653218 0.494801 0.917724 O2-
0.653218 0.994801 0.915610 O2-
0.494801 0.153218 0.945501 O2-
0.547936 0.214773 0.785181 O2-
0.714773 0.047936 0.853708 O2-
0.714773 0.547936 0.868514 O2-
0.047936 0.214773 0.881486 O2-
0.240745 0.740745 0.875000 O2-
0.740745 0.740745 0.791667 O2-
0.494801 0.653218 0.887832 O2-
0.153218 0.994801 0.862168 O2-
0.153218 0.494801 0.860054 O2-
0.994801 0.653218 0.778835 O2-
0.047936 0.714773 0.840736 O2-
0.214773 0.547936 0.798153 O2-
0.214773 0.047936 0.812959 O2-
0.547936 0.714773 0.825930 O2-
0.740745 0.240745 0.819444 O2-
0.240745 0.240745 0.847222 O2-
0.994801 0.153218 0.832276 O2-
0.653218 0.494801 0.806612 O2-
0.653218 0.994801 0.804499 O2-
0.494801 0.153218 0.834390 O2-
0.547936 0.214773 0.674070 O2-
0.714773 0.047936 0.742597 O2-
0.714773 0.547936 0.757403 O2-
0.047936 0.214773 0.770375 O2-
0.240745 0.740745 0.763889 O2-
0.740745 0.740745 0.680556 O2-
0.494801 0.653218 0.776721 O2-
0.153218 0.994801 0.751057 O2-
0.153218 0.494801 0.748943 O2-
0.994801 0.653218 0.667724 O2-
0.047936 0.714773 0.729625 O2-
0.214773 0.547936 0.687041 O2-
0.214773 0.047936 0.701847 O2-
0.547936 0.714773 0.714819 O2-
0.740745 0.240745 0.708333 O2-
0.240745 0.240745 0.736111 O2-
0.994801 0.153218 0.721165 O2-
0.653218 0.494801 0.695501 O2-
0.653218 0.994801 0.693388 O2-
0.494801 0.153218 0.723279 O2-
0.547936 0.214773 0.562959 O2-
0.714773 0.047936 0.631486 O2-
0.714773 0.547936 0.646292 O2-
0.047936 0.214773 0.659264 O2-
0.240745 0.740745 0.652778 O2-
0.740745 0.740745 0.569444 O2-
0.494801 0.653218 0.665610 O2-
0.153218 0.994801 0.639946 O2-
0.153218 0.494801 0.637832 O2-
0.994801 0.653218 0.556612 O2-
0.047936 0.714773 0.618514 O2-
0.214773 0.547936 0.575930 O2-
0.214773 0.047936 0.590736 O2-
0.547936 0.714773 0.603708 O2-
0.740745 0.240745 0.597222 O2-
0.240745 0.240745 0.625000 O2-
0.994801 0.153218 0.610054 O2-
0.653218 0.494801 0.584390 O2-
0.653218 0.994801 0.582276 O2-
0.494801 0.153218 0.612168 O2-
0.547936 0.214773 0.451847 O2-
0.714773 0.047936 0.520375 O2-
0.714773 0.547936 0.535181 O2-
0.047936 0.214773 0.548153 O2-
0.240745 0.740745 0.541667 O2-
0.740745 0.740745 0.458333 O2-
0.494801 0.653218 0.554499 O2-
0.153218 0.994801 0.528835 O2-
0.153218 0.494801 0.526721 O2-
0.994801 0.653218 0.445501 O2-
0.047936 0.714773 0.507403 O2-
0.214773 0.547936 0.464819 O2-
0.214773 0.047936 0.479625 O2-
0.547936 0.714773 0.492597 O2-
0.740745 0.240745 0.486111 O2-
0.240745 0.240745 0.513889 O2-
0.994801 0.153218 0.498943 O2-
0.653218 0.494801 0.473279 O2-
0.653218 0.994801 0.471165 O2-
0.494801 0.153218 0.501057 O2-
0.547936 0.214773 0.340736 O2-
0.714773 0.047936 0.409264 O2-
0.714773 0.547936 0.424070 O2-
0.047936 0.214773 0.437041 O2-
0.240745 0.740745 0.430556 O2-
0.740745 0.740745 0.347222 O2-
0.494801 0.653218 0.443388 O2-
0.153218 0.994801 0.417724 O2-
0.153218 0.494801 0.415610 O2-
0.994801 0.653218 0.334390 O2-
0.047936 0.714773 0.396292 O2-
0.214773 0.547936 0.353708 O2-
0.214773 0.047936 0.368514 O2-
0.547936 0.714773 0.381486 O2-
0.740745 0.240745 0.375000 O2-
0.240745 0.240745 0.402778 O2-
0.994801 0.153218 0.387832 O2-
0.653218 0.494801 0.362168 O2-
0.653218 0.994801 0.360054 O2-
0.494801 0.153218 0.389946 O2-
0.547936 0.214773 0.229625 O2-
0.714773 0.047936 0.298153 O2-
0.714773 0.547936 0.312959 O2-
0.047936 0.214773 0.325930 O2-
0.240745 0.740745 0.319444 O2-
0.740745 0.740745 0.236111 O2-
0.494801 0.653218 0.332276 O2-
0.153218 0.994801 0.306612 O2-
0.153218 0.494801 0.304499 O2-
0.994801 0.653218 0.223279 O2-
0.047936 0.714773 0.285181 O2-
0.214773 0.547936 0.242597 O2-
0.214773 0.047936 0.257403 O2-
0.547936 0.714773 0.270375 O2-
0.740745 0.240745 0.263889 O2-
0.240745 0.240745 0.291667 O2-
0.994801 0.153218 0.276721 O2-
0.653218 0.494801 0.251057 O2-
0.653218 0.994801 0.248943 O2-
0.494801 0.153218 0.278835 O2-
