Li1
1.0
-1.666442 1.666442 1.666442
1.666442 -1.666442 1.666442
1.666442 1.666442 -1.666442
Li
1
direct
0.000000 0.000000 0.000000 Li
