Li1
1.0
-1.684363 1.684363 1.684363
1.684363 -1.684363 1.684363
1.684363 1.684363 -1.684363
Li
1
direct
0.000000 0.000000 0.000000 Li
