Li4 O4
1.0
1.548771 -2.682550 -0.000000
1.548771 2.682550 0.000000
-0.000000 -0.000000 7.529313
Li O
4 4
direct
-0.000000 0.000000 0.000000 Li
-0.000000 -0.000000 0.500000 Li
0.333333 0.666667 0.250000 Li
0.666667 0.333333 0.750000 Li
0.333333 0.666667 0.649147 O
0.666667 0.333333 0.149147 O
0.666667 0.333333 0.350853 O
0.333333 0.666667 0.850853 O
