Li5 P2 N1 O6                            
   1.00000000000000     
    -0.0000019811837144    0.0436711896240129    5.0486734381040312
     6.5174918298643982    0.0000000135703568   -0.0000070212874317
     0.0000009270218604    5.3336043721947881    0.0498408197261405
   Li   P    N    O 
     5     2     1     6
Direct
  0.4778541225881062 -0.0000001158259686  0.7532860747286497
  0.4683190819255516  0.6840352281302220  0.3516737455565829
 -0.0007034391954542  0.7405176862236650  0.6997895697784504
 -0.0007043231724273  0.2594806070901016  0.6997881997028075
  0.4683165812073724  0.3159672653057550  0.3516751021303985
  0.4928346166004311  0.4999986143976344  0.8158568250943411
  0.1143527521423122  0.0000000162653844  0.1803592855854254
  0.1024780906007136 -0.0000007676080487  0.8938473369458498
  0.1302372607948794  0.1917734843871943  0.3435217932014932
  0.6150722341317443  0.6991069547560119  0.6872545008797363
  0.1302372335901716  0.8082293327021408  0.3435238418153170
  0.6150691342166122  0.3008921750623161  0.6872584256777942
  0.5537988046558299  0.4999997928465482  0.0982998330544832
  0.1960298499141834  0.4999997262670445  0.7567814658486737
 
  0.00000000E+00  0.00000000E+00  0.00000000E+00
  0.00000000E+00  0.00000000E+00  0.00000000E+00
  0.00000000E+00  0.00000000E+00  0.00000000E+00
  0.00000000E+00  0.00000000E+00  0.00000000E+00
  0.00000000E+00  0.00000000E+00  0.00000000E+00
  0.00000000E+00  0.00000000E+00  0.00000000E+00
  0.00000000E+00  0.00000000E+00  0.00000000E+00
  0.00000000E+00  0.00000000E+00  0.00000000E+00
  0.00000000E+00  0.00000000E+00  0.00000000E+00
  0.00000000E+00  0.00000000E+00  0.00000000E+00
  0.00000000E+00  0.00000000E+00  0.00000000E+00
  0.00000000E+00  0.00000000E+00  0.00000000E+00
  0.00000000E+00  0.00000000E+00  0.00000000E+00
  0.00000000E+00  0.00000000E+00  0.00000000E+00
