Li1 O8
1.0
4.489665 0.033542 1.843603
1.907626 4.301075 1.477870
0.540934 -0.335916 4.890494
Li O
1 8
direct
0.492984 0.804430 0.804430 Li
0.841361 0.333115 0.820647 O
0.151779 0.231386 0.699762 O
0.151779 0.699762 0.231386 O
0.841361 0.820647 0.333115 O
0.837960 0.256273 0.256273 O
0.154752 0.741977 0.741977 O
0.143998 0.152143 0.152143 O
0.842360 0.865028 0.865028 O
