Li71 P24 N1 O94                         
   1.00000000000000     
    14.7203596493615532    0.0030319513000657    0.0068626745096750
     0.0021769577041458   10.5624774039896909    0.0030563024653998
     0.0057005286668686    0.0035880998605205   12.3168814371691901
   Li   P    N    O 
    71    24     1    94
Direct
  0.1636310017442764  0.4291453241081842 -0.0198948241348493
  0.1687797790027568  0.4247634011942411  0.5057846869560286
  0.1681698361687571  0.9322208049958153  0.0053388472495147
  0.1698868148029984  0.9251541037924530  0.4989849884601492
  0.5056284043691219  0.4232395510749604 -0.0025872987378103
  0.5037889349371611  0.4224888552095882  0.5009275068806023
  0.5036517576122387  0.9226951083138925  0.0000884367570419
  0.5030817457289662  0.9226122139673537  0.4999172059768350
  0.8350677707735005  0.4211406689604716 -0.0003579048001889
  0.8353197568228355  0.4219130275297960  0.5002439694963486
  0.8362735554335634  0.9213214137293402 -0.0010470347423568
  0.8366055034253393  0.9222199040240423  0.4998764499391175
  0.0111965117821121  0.0776332461831240  0.2472257184258181
  0.0030936126798509  0.0768413928936099  0.7514595869993189
 -0.0004185735982560  0.5824210711500434  0.2492123452998174
  0.0028174910032131  0.5779028677851838  0.7496725581225957
  0.3389096067864342  0.0789309479223373  0.2467334355590313
  0.3362277534742166  0.0773074380691067  0.7514521108005044
  0.3388065428230391  0.5807709700726780  0.2511628241898138
  0.3363810539824825  0.5775794378044464  0.7499447691536140
  0.6711910746983657  0.0770174461860281  0.2497911204847708
  0.6699146929149671  0.0764821672870721  0.7498699676202663
  0.6694580125652373  0.5788651379494840  0.2500766157187807
  0.6692043812448611  0.5781978458266831  0.7498616961243479
  0.1693078482507752  0.1626688382321645  0.6267738301464032
  0.1675268412676894  0.6645841433762363  0.1238575321755413
  0.1696957734815014  0.6651543462189712  0.6266949021278762
  0.5053154908046373  0.1597544103884569  0.1260419897596970
  0.5029457182259570  0.1627040508226065  0.6267952201087561
  0.5026995149075564  0.6644669201811798  0.1258015928265408
  0.5028302869001653  0.6637740393702359  0.6264388816107159
  0.8395215650593681  0.1617232445069965  0.1254401577161506
  0.8359834063797320  0.1627273012445701  0.6263854414320089
  0.8353913799122041  0.6632681612711141  0.1256703712614068
  0.8357947157645349  0.6632830533344449  0.6261492689383119
  0.0011581481886024  0.3336663402946584  0.1228691514364687
  0.0018987154040477  0.3354504915862170  0.6240424980440159
  0.0019719003310282  0.8371424283207284  0.1223333268188863
  0.0030119140215332  0.8372241143988223  0.6234409334377198
  0.3599747387115308  0.3322013936372156  0.1195386989790536
  0.3370270043422344  0.3358653225610441  0.6239841928721047
  0.3349363000692442  0.8394225197170905  0.1236118687833615
  0.3360257148523492  0.8378653808197510  0.6237125229714193
  0.6693404541320351  0.3360399840412782  0.1236032355453401
  0.6693891034439496  0.3365796799975291  0.6239361436308292
  0.6705822620831694  0.8371729372372637  0.1235586146760616
  0.6693883082694532  0.8367588285295642  0.6236139156179716
 -0.0004999751069044  0.3349858070851626  0.3779767722229990
  0.0007633157092639  0.3345394462318618  0.8751939280535884
  0.0021151946016914  0.8369642927987492  0.3761109534917721
  0.0030997169405544  0.8380031119081182  0.8773418242125669
  0.3388040013721638  0.3360653773827803  0.3789561906618354
  0.3367681699198686  0.3334922755188237  0.8751075296212635
  0.3358443487299764  0.8388725330489604  0.3755218368960963
  0.3358545853630434  0.8382746617409791  0.8776734534344925
  0.6700218192553442  0.3365230675023061  0.3767480142286486
  0.6697626526309143  0.3364121849597628  0.8755467744374250
  0.6701899289599103  0.8372094503405426  0.3765937224237449
  0.6694627800012342  0.8367380895367136  0.8761513326573892
  0.1672737895151126  0.1665856071983984  0.3748009777708978
  0.1680208624197763  0.1617816868359757  0.8779808588141003
  0.1682070850262473  0.6662072703032977  0.3783727909946167
  0.1698684430809906  0.6663500371980161  0.8734923220907543
  0.5040672102805402  0.1624089067444732  0.3738437485867003
  0.5038120351023652  0.1625386427574241  0.8734828321138650
  0.5033279145842974  0.6644898192188656  0.3745476572927067
  0.5021602055700849  0.6637890120466240  0.8734839694871739
  0.8370213563925921  0.1618529561791734  0.3726913461479104
  0.8355317041242242  0.1622604733818187  0.8718284040826979
  0.8353423896404056  0.6635316044530323  0.3741792753356983
  0.8357840303106063  0.6629425795694223  0.8729897169428152
  0.1664454848331052  0.4175257829159190  0.2579769910954017
  0.1668313478414065  0.4121006691475734  0.7483861415612894
  0.1666525758460712  0.9086534449885822  0.2498566924093659
  0.1669395436690530  0.9126563133798045  0.7503346096256370
  0.5003058047263081  0.4131785632456945  0.2509110492174363
  0.5004090713321404  0.4124762248597614  0.7499070875907980
  0.5019027806160323  0.9112343320228911  0.2500798210875221
  0.5005212769393760  0.9117467460508538  0.7499644312033743
  0.8324197120468736  0.4128754671118860  0.2497283518453105
  0.8332330678213558  0.4125648441736781  0.7495894079212048
  0.8341771543091867  0.9116549113875663  0.2499931468004324
  0.8338574790600086  0.9111786309539244  0.7493078298683137
 -0.0026215349296278  0.0887476052960491  0.0006141937378730
 -0.0001678273469139  0.0882497674555111  0.5006109637806245
 -0.0004143364790028  0.5868777649027808 -0.0002654545138616
 -0.0001248404811043  0.5869626272773987  0.4999691755827411
  0.3348296533889690  0.0875951830189732 -0.0010327927074844
  0.3345746478353260  0.0888046775847185  0.5004241577137293
  0.3330827451224420  0.5860017017897530  0.0004786512913282
  0.3342002976481783  0.5882689465420013  0.5007693160725326
  0.6680039336075039  0.0876959082649938 -0.0005288607002189
  0.6674470377058767  0.0878390371957278  0.5002415362275632
  0.6665929575094183  0.5878257908707214 -0.0002552201864527
  0.6668176756359515  0.5877909712987606  0.5001819210619609
  0.2065027833486793  0.0508822118697373  0.2604964758700363
  0.0345104032906199  0.1593782641693669  0.3976275595673683
  0.0339491626491909  0.1575272394481273  0.8965248835763708
  0.0352458945627065  0.6552668456675045  0.3955992230243850
  0.0358883087752253  0.6558352338564775  0.8963272809680241
  0.3717151339924302  0.1587676275654358  0.3980186508557144
  0.3720409494110213  0.1565655217026034  0.8950955629982736
  0.3693352887939045  0.6575096717157641  0.3968731937521373
  0.3673354878281597  0.6553806953148136  0.8964884952152918
  0.7026968257269487  0.1569732245735651  0.3962501454408728
  0.7024432305922689  0.1569154483328656  0.8951434658667453
  0.7020610214138578  0.6567582441680898  0.3962288440200991
  0.7021776743670343  0.6565393377488432  0.8958720815333777
  0.2000070346041491  0.0528413119560017  0.7502170548650959
  0.2015951012908721  0.5560625892014179  0.2509642649082257
  0.2002507700508036  0.5522606248089261  0.7498308840556115
  0.5355307701443902  0.0514732004739251  0.2501639335502986
  0.5347329095716903  0.0514826400598792  0.7498486258262949
  0.5336977661823082  0.5530160694669231  0.2500135692268279
  0.5337953197911935  0.5526559425491235  0.7499735517539204
  0.8683967099865748  0.0510548077091546  0.2501127270906988
  0.8674139250854386  0.0511540514269385  0.7489067408897291
  0.8662452146262226  0.5529535546734738  0.2501784074335332
  0.8675663761676431  0.5522848508496233  0.7495316879304990
  0.0614586507499958  0.4099821320131664  0.2500698312610390
  0.0610738313534463  0.4091655473116703  0.7495036610617478
  0.0603547702120867  0.9022617271308478  0.2487013892510805
  0.0610760627167425  0.9086276792157321  0.7500972250848910
  0.3940909329418021  0.4106639463320668  0.2517466676540935
  0.3945857967976492  0.4096244121713336  0.7501643648532708
  0.3963941611653296  0.9076251784881763  0.2497494051200405
  0.3947440524982741  0.9088869351789205  0.7501838649923507
  0.7266194330261248  0.4102109462370468  0.2499397270775102
  0.7274517160411479  0.4105280247843396  0.7495434237563934
  0.7282211119752759  0.9092411285464305  0.2502214971177807
  0.7280052327967717  0.9083895650706232  0.7496620482939997
  0.2306588088542438  0.0907375219932604 -0.0024578195325821
  0.2287409717770411  0.0928214646439620  0.5001988152835019
  0.2269080684850385  0.5855627968360445  0.0007723243017568
  0.2282018627483459  0.5904470678857980  0.5007396316990644
  0.5622329448827247  0.0903522812678116 -0.0003425059828040
  0.5616392182601360  0.0905477217672287  0.5003261798143733
  0.5607033814067141  0.5912813964935391 -0.0002669627364514
  0.5610054981171551  0.5905732940654452  0.5002690878895865
  0.8911965913758675  0.0874640871158569 -0.0045491994726505
  0.8940209178480075  0.0904092530289556  0.5005531168783482
  0.8939610101358691  0.5890779378285161 -0.0007516806214068
  0.8942024636900285  0.5897362983379545  0.5000991246391960
  0.2023104421481990  0.3436437070970267  0.6446275210483400
  0.2009299712895796  0.8390212293831764  0.1449286815042749
  0.2023057933369219  0.8439807501314768  0.6459838150639958
  0.5329366436966917  0.3435063538631216  0.1457568961838337
  0.5356790348321947  0.3432809121144756  0.6460935998048130
  0.5376444249384198  0.8422883840931353  0.1462815900669633
  0.5357133771211415  0.8427053567131964  0.6459021476706395
  0.8677757668547081  0.3445878794229304  0.1457664056867129
  0.8684780638829792  0.3430718259519872  0.6458467556080361
  0.8685299580536303  0.8416360993026534  0.1460245682564354
  0.8690416436221460  0.8421360300193683  0.6452552748021887
  0.0259073668081407  0.1589522339004642  0.1048183413491698
  0.0350828515961418  0.1564377125494225  0.6049778188253979
  0.0344288958607239  0.6551235391194019  0.1039770882146982
  0.0357655595041069  0.6562900134147227  0.6032754856395336
  0.3729586037059345  0.1567915624361158  0.1019934226597036
  0.3693944748007995  0.1564987049288029  0.6053262009833088
  0.3678956563512694  0.6555870957284258  0.1039725320905137
  0.3688895795342761  0.6574655298082973  0.6046468401334132
  0.7031073975376556  0.1570483041732933  0.1033157168541813
  0.7024550078997313  0.1571141623709528  0.6041234420513734
  0.7020191254600826  0.6564610224111767  0.1035725891368953
  0.7021418436624289  0.6568364113288320  0.6039244666749702
  0.0339510176564878  0.4465749560119672 -0.0003214558752286
  0.0337568357366624  0.4467986477501799  0.4998649399497489
  0.0326604960727913  0.9490235057365067  0.0004694290325360
  0.0340705157415233  0.9484093222828763  0.4994980071011554
  0.3673926104290424  0.4459052034936728  0.0002862576803405
  0.3682519638859638  0.4483820785517487  0.5009237231304761
  0.3698862003886689  0.9475076382062370  0.0001712466651565
  0.3675171344548120  0.9483018665832184  0.4998576155977233
  0.6994162303377478  0.4473081009778335 -0.0001623178467124
  0.7003777716914672  0.4476463494445460  0.5001918796266820
  0.7013585707321341  0.9475084137635368 -0.0006112825213589
  0.7012489784178683  0.9478659018009072  0.5003601425318761
  0.2030928470510971  0.3471315946793998  0.3594572987996578
  0.2026491706359907  0.3421712864981841  0.8516241788828293
  0.2016953367026198  0.8392606995989392  0.3550299555934022
  0.2023273787385369  0.8435284057936790  0.8540645670530967
  0.5360590795782165  0.3435710914053782  0.3538787207261309
  0.5360304228311118  0.3435114029964694  0.8536644547054369
  0.5370931053613125  0.8426631726850095  0.3543594259398954
  0.5358601294080342  0.8423011439125960  0.8537020663831206
  0.8677258841754550  0.3435865514496655  0.3535822656546416
  0.8680078672047753  0.3431927689979752  0.8535345911294325
  0.8688104932105181  0.8419181838543967  0.3540882868586635
  0.8691925262866458  0.8415302584144574  0.8528688266843821
 
  0.00000000E+00  0.00000000E+00  0.00000000E+00
  0.00000000E+00  0.00000000E+00  0.00000000E+00
  0.00000000E+00  0.00000000E+00  0.00000000E+00
  0.00000000E+00  0.00000000E+00  0.00000000E+00
  0.00000000E+00  0.00000000E+00  0.00000000E+00
  0.00000000E+00  0.00000000E+00  0.00000000E+00
  0.00000000E+00  0.00000000E+00  0.00000000E+00
  0.00000000E+00  0.00000000E+00  0.00000000E+00
  0.00000000E+00  0.00000000E+00  0.00000000E+00
  0.00000000E+00  0.00000000E+00  0.00000000E+00
  0.00000000E+00  0.00000000E+00  0.00000000E+00
  0.00000000E+00  0.00000000E+00  0.00000000E+00
  0.00000000E+00  0.00000000E+00  0.00000000E+00
  0.00000000E+00  0.00000000E+00  0.00000000E+00
  0.00000000E+00  0.00000000E+00  0.00000000E+00
  0.00000000E+00  0.00000000E+00  0.00000000E+00
  0.00000000E+00  0.00000000E+00  0.00000000E+00
  0.00000000E+00  0.00000000E+00  0.00000000E+00
  0.00000000E+00  0.00000000E+00  0.00000000E+00
  0.00000000E+00  0.00000000E+00  0.00000000E+00
  0.00000000E+00  0.00000000E+00  0.00000000E+00
  0.00000000E+00  0.00000000E+00  0.00000000E+00
  0.00000000E+00  0.00000000E+00  0.00000000E+00
  0.00000000E+00  0.00000000E+00  0.00000000E+00
  0.00000000E+00  0.00000000E+00  0.00000000E+00
  0.00000000E+00  0.00000000E+00  0.00000000E+00
  0.00000000E+00  0.00000000E+00  0.00000000E+00
  0.00000000E+00  0.00000000E+00  0.00000000E+00
  0.00000000E+00  0.00000000E+00  0.00000000E+00
  0.00000000E+00  0.00000000E+00  0.00000000E+00
  0.00000000E+00  0.00000000E+00  0.00000000E+00
  0.00000000E+00  0.00000000E+00  0.00000000E+00
  0.00000000E+00  0.00000000E+00  0.00000000E+00
  0.00000000E+00  0.00000000E+00  0.00000000E+00
  0.00000000E+00  0.00000000E+00  0.00000000E+00
  0.00000000E+00  0.00000000E+00  0.00000000E+00
  0.00000000E+00  0.00000000E+00  0.00000000E+00
  0.00000000E+00  0.00000000E+00  0.00000000E+00
  0.00000000E+00  0.00000000E+00  0.00000000E+00
  0.00000000E+00  0.00000000E+00  0.00000000E+00
  0.00000000E+00  0.00000000E+00  0.00000000E+00
  0.00000000E+00  0.00000000E+00  0.00000000E+00
  0.00000000E+00  0.00000000E+00  0.00000000E+00
  0.00000000E+00  0.00000000E+00  0.00000000E+00
  0.00000000E+00  0.00000000E+00  0.00000000E+00
  0.00000000E+00  0.00000000E+00  0.00000000E+00
  0.00000000E+00  0.00000000E+00  0.00000000E+00
  0.00000000E+00  0.00000000E+00  0.00000000E+00
  0.00000000E+00  0.00000000E+00  0.00000000E+00
  0.00000000E+00  0.00000000E+00  0.00000000E+00
  0.00000000E+00  0.00000000E+00  0.00000000E+00
  0.00000000E+00  0.00000000E+00  0.00000000E+00
  0.00000000E+00  0.00000000E+00  0.00000000E+00
  0.00000000E+00  0.00000000E+00  0.00000000E+00
  0.00000000E+00  0.00000000E+00  0.00000000E+00
  0.00000000E+00  0.00000000E+00  0.00000000E+00
  0.00000000E+00  0.00000000E+00  0.00000000E+00
  0.00000000E+00  0.00000000E+00  0.00000000E+00
  0.00000000E+00  0.00000000E+00  0.00000000E+00
  0.00000000E+00  0.00000000E+00  0.00000000E+00
  0.00000000E+00  0.00000000E+00  0.00000000E+00
  0.00000000E+00  0.00000000E+00  0.00000000E+00
  0.00000000E+00  0.00000000E+00  0.00000000E+00
  0.00000000E+00  0.00000000E+00  0.00000000E+00
  0.00000000E+00  0.00000000E+00  0.00000000E+00
  0.00000000E+00  0.00000000E+00  0.00000000E+00
  0.00000000E+00  0.00000000E+00  0.00000000E+00
  0.00000000E+00  0.00000000E+00  0.00000000E+00
  0.00000000E+00  0.00000000E+00  0.00000000E+00
  0.00000000E+00  0.00000000E+00  0.00000000E+00
  0.00000000E+00  0.00000000E+00  0.00000000E+00
  0.00000000E+00  0.00000000E+00  0.00000000E+00
  0.00000000E+00  0.00000000E+00  0.00000000E+00
  0.00000000E+00  0.00000000E+00  0.00000000E+00
  0.00000000E+00  0.00000000E+00  0.00000000E+00
  0.00000000E+00  0.00000000E+00  0.00000000E+00
  0.00000000E+00  0.00000000E+00  0.00000000E+00
  0.00000000E+00  0.00000000E+00  0.00000000E+00
  0.00000000E+00  0.00000000E+00  0.00000000E+00
  0.00000000E+00  0.00000000E+00  0.00000000E+00
  0.00000000E+00  0.00000000E+00  0.00000000E+00
  0.00000000E+00  0.00000000E+00  0.00000000E+00
  0.00000000E+00  0.00000000E+00  0.00000000E+00
  0.00000000E+00  0.00000000E+00  0.00000000E+00
  0.00000000E+00  0.00000000E+00  0.00000000E+00
  0.00000000E+00  0.00000000E+00  0.00000000E+00
  0.00000000E+00  0.00000000E+00  0.00000000E+00
  0.00000000E+00  0.00000000E+00  0.00000000E+00
  0.00000000E+00  0.00000000E+00  0.00000000E+00
  0.00000000E+00  0.00000000E+00  0.00000000E+00
  0.00000000E+00  0.00000000E+00  0.00000000E+00
  0.00000000E+00  0.00000000E+00  0.00000000E+00
  0.00000000E+00  0.00000000E+00  0.00000000E+00
  0.00000000E+00  0.00000000E+00  0.00000000E+00
  0.00000000E+00  0.00000000E+00  0.00000000E+00
  0.00000000E+00  0.00000000E+00  0.00000000E+00
  0.00000000E+00  0.00000000E+00  0.00000000E+00
  0.00000000E+00  0.00000000E+00  0.00000000E+00
  0.00000000E+00  0.00000000E+00  0.00000000E+00
  0.00000000E+00  0.00000000E+00  0.00000000E+00
  0.00000000E+00  0.00000000E+00  0.00000000E+00
  0.00000000E+00  0.00000000E+00  0.00000000E+00
  0.00000000E+00  0.00000000E+00  0.00000000E+00
  0.00000000E+00  0.00000000E+00  0.00000000E+00
  0.00000000E+00  0.00000000E+00  0.00000000E+00
  0.00000000E+00  0.00000000E+00  0.00000000E+00
  0.00000000E+00  0.00000000E+00  0.00000000E+00
  0.00000000E+00  0.00000000E+00  0.00000000E+00
  0.00000000E+00  0.00000000E+00  0.00000000E+00
  0.00000000E+00  0.00000000E+00  0.00000000E+00
  0.00000000E+00  0.00000000E+00  0.00000000E+00
  0.00000000E+00  0.00000000E+00  0.00000000E+00
  0.00000000E+00  0.00000000E+00  0.00000000E+00
  0.00000000E+00  0.00000000E+00  0.00000000E+00
  0.00000000E+00  0.00000000E+00  0.00000000E+00
  0.00000000E+00  0.00000000E+00  0.00000000E+00
  0.00000000E+00  0.00000000E+00  0.00000000E+00
  0.00000000E+00  0.00000000E+00  0.00000000E+00
  0.00000000E+00  0.00000000E+00  0.00000000E+00
  0.00000000E+00  0.00000000E+00  0.00000000E+00
  0.00000000E+00  0.00000000E+00  0.00000000E+00
  0.00000000E+00  0.00000000E+00  0.00000000E+00
  0.00000000E+00  0.00000000E+00  0.00000000E+00
  0.00000000E+00  0.00000000E+00  0.00000000E+00
  0.00000000E+00  0.00000000E+00  0.00000000E+00
  0.00000000E+00  0.00000000E+00  0.00000000E+00
  0.00000000E+00  0.00000000E+00  0.00000000E+00
  0.00000000E+00  0.00000000E+00  0.00000000E+00
  0.00000000E+00  0.00000000E+00  0.00000000E+00
  0.00000000E+00  0.00000000E+00  0.00000000E+00
  0.00000000E+00  0.00000000E+00  0.00000000E+00
  0.00000000E+00  0.00000000E+00  0.00000000E+00
  0.00000000E+00  0.00000000E+00  0.00000000E+00
  0.00000000E+00  0.00000000E+00  0.00000000E+00
  0.00000000E+00  0.00000000E+00  0.00000000E+00
  0.00000000E+00  0.00000000E+00  0.00000000E+00
  0.00000000E+00  0.00000000E+00  0.00000000E+00
  0.00000000E+00  0.00000000E+00  0.00000000E+00
  0.00000000E+00  0.00000000E+00  0.00000000E+00
  0.00000000E+00  0.00000000E+00  0.00000000E+00
  0.00000000E+00  0.00000000E+00  0.00000000E+00
  0.00000000E+00  0.00000000E+00  0.00000000E+00
  0.00000000E+00  0.00000000E+00  0.00000000E+00
  0.00000000E+00  0.00000000E+00  0.00000000E+00
  0.00000000E+00  0.00000000E+00  0.00000000E+00
  0.00000000E+00  0.00000000E+00  0.00000000E+00
  0.00000000E+00  0.00000000E+00  0.00000000E+00
  0.00000000E+00  0.00000000E+00  0.00000000E+00
  0.00000000E+00  0.00000000E+00  0.00000000E+00
  0.00000000E+00  0.00000000E+00  0.00000000E+00
  0.00000000E+00  0.00000000E+00  0.00000000E+00
  0.00000000E+00  0.00000000E+00  0.00000000E+00
  0.00000000E+00  0.00000000E+00  0.00000000E+00
  0.00000000E+00  0.00000000E+00  0.00000000E+00
  0.00000000E+00  0.00000000E+00  0.00000000E+00
  0.00000000E+00  0.00000000E+00  0.00000000E+00
  0.00000000E+00  0.00000000E+00  0.00000000E+00
  0.00000000E+00  0.00000000E+00  0.00000000E+00
  0.00000000E+00  0.00000000E+00  0.00000000E+00
  0.00000000E+00  0.00000000E+00  0.00000000E+00
  0.00000000E+00  0.00000000E+00  0.00000000E+00
  0.00000000E+00  0.00000000E+00  0.00000000E+00
  0.00000000E+00  0.00000000E+00  0.00000000E+00
  0.00000000E+00  0.00000000E+00  0.00000000E+00
  0.00000000E+00  0.00000000E+00  0.00000000E+00
  0.00000000E+00  0.00000000E+00  0.00000000E+00
  0.00000000E+00  0.00000000E+00  0.00000000E+00
  0.00000000E+00  0.00000000E+00  0.00000000E+00
  0.00000000E+00  0.00000000E+00  0.00000000E+00
  0.00000000E+00  0.00000000E+00  0.00000000E+00
  0.00000000E+00  0.00000000E+00  0.00000000E+00
  0.00000000E+00  0.00000000E+00  0.00000000E+00
  0.00000000E+00  0.00000000E+00  0.00000000E+00
  0.00000000E+00  0.00000000E+00  0.00000000E+00
  0.00000000E+00  0.00000000E+00  0.00000000E+00
  0.00000000E+00  0.00000000E+00  0.00000000E+00
  0.00000000E+00  0.00000000E+00  0.00000000E+00
  0.00000000E+00  0.00000000E+00  0.00000000E+00
  0.00000000E+00  0.00000000E+00  0.00000000E+00
  0.00000000E+00  0.00000000E+00  0.00000000E+00
  0.00000000E+00  0.00000000E+00  0.00000000E+00
  0.00000000E+00  0.00000000E+00  0.00000000E+00
  0.00000000E+00  0.00000000E+00  0.00000000E+00
  0.00000000E+00  0.00000000E+00  0.00000000E+00
  0.00000000E+00  0.00000000E+00  0.00000000E+00
  0.00000000E+00  0.00000000E+00  0.00000000E+00
  0.00000000E+00  0.00000000E+00  0.00000000E+00
  0.00000000E+00  0.00000000E+00  0.00000000E+00
  0.00000000E+00  0.00000000E+00  0.00000000E+00
  0.00000000E+00  0.00000000E+00  0.00000000E+00
