Li4 O4
1.0
1.590246 -2.754387 0.000000
1.590246 2.754387 0.000000
0.000000 -0.121007 7.702888
Li O
4 4
direct
0.000000 0.000000 0.000000 Li
0.000000 0.000000 0.500000 Li
0.333333 0.666667 0.250000 Li
0.666667 0.333333 0.750000 Li
0.333333 0.666667 0.649310 O
0.666667 0.333333 0.149310 O
0.666667 0.333333 0.350690 O
0.333333 0.666667 0.850690 O
