Li42 P14 O56
1.0
5.296402 0.000000 0.000000
0.000000 6.176136 0.000000
0.000000 0.000000 59.069376
Li P O
42 14 56
direct
0.844520 0.000000 0.013843 Li+
0.155480 0.500000 0.055509 Li+
0.326434 0.747127 0.013755 Li+
0.673566 0.752873 0.055421 Li+
0.673566 0.247127 0.055421 Li+
0.326434 0.252873 0.013755 Li+
0.844520 0.000000 0.097176 Li+
0.155480 0.500000 0.138843 Li+
0.326434 0.747127 0.097088 Li+
0.673566 0.752873 0.138755 Li+
0.673566 0.247127 0.138755 Li+
0.326434 0.252873 0.097088 Li+
0.844520 0.000000 0.180509 Li+
0.155480 0.500000 0.222176 Li+
0.326434 0.747127 0.180421 Li+
0.673566 0.752873 0.222088 Li+
0.673566 0.247127 0.222088 Li+
0.326434 0.252873 0.180421 Li+
0.844520 0.000000 0.263843 Li+
0.155480 0.500000 0.305509 Li+
0.326434 0.747127 0.263755 Li+
0.673566 0.752873 0.305421 Li+
0.673566 0.247127 0.305421 Li+
0.326434 0.252873 0.263755 Li+
0.844520 0.000000 0.347176 Li+
0.155480 0.500000 0.388843 Li+
0.326434 0.747127 0.347088 Li+
0.673566 0.752873 0.388755 Li+
0.673566 0.247127 0.388755 Li+
0.326434 0.252873 0.347088 Li+
0.844520 0.000000 0.430509 Li+
0.155480 0.500000 0.472176 Li+
0.326434 0.747127 0.430421 Li+
0.673566 0.752873 0.472088 Li+
0.673566 0.247127 0.472088 Li+
0.326434 0.252873 0.430421 Li+
0.844520 0.000000 0.513843 Li+
0.155480 0.500000 0.555509 Li+
0.326434 0.747127 0.513755 Li+
0.673566 0.752873 0.555421 Li+
0.673566 0.247127 0.555421 Li+
0.326434 0.252873 0.513755 Li+
0.824261 0.500000 0.013176 P5+
0.175739 0.000000 0.054843 P5+
0.824261 0.500000 0.096510 P5+
0.175739 0.000000 0.138176 P5+
0.824261 0.500000 0.179843 P5+
0.175739 0.000000 0.221510 P5+
0.824261 0.500000 0.263176 P5+
0.175739 0.000000 0.304843 P5+
0.824261 0.500000 0.346510 P5+
0.175739 0.000000 0.388176 P5+
0.824261 0.500000 0.429843 P5+
0.175739 0.000000 0.471510 P5+
0.824261 0.500000 0.513176 P5+
0.175739 0.000000 0.554843 P5+
0.313509 0.207138 0.063642 O2-
0.103508 0.500000 0.021568 O2-
0.818396 0.500000 0.070157 O2-
0.181604 0.000000 0.028490 O2-
0.686491 0.707138 0.021975 O2-
0.313509 0.792862 0.063642 O2-
0.896492 0.000000 0.063235 O2-
0.686491 0.292862 0.021975 O2-
0.313509 0.207138 0.146975 O2-
0.103508 0.500000 0.104902 O2-
0.818396 0.500000 0.153490 O2-
0.181604 0.000000 0.111824 O2-
0.686491 0.707138 0.105309 O2-
0.313509 0.792862 0.146975 O2-
0.896492 0.000000 0.146568 O2-
0.686491 0.292862 0.105309 O2-
0.313509 0.207138 0.230309 O2-
0.103508 0.500000 0.188235 O2-
0.818396 0.500000 0.236824 O2-
0.181604 0.000000 0.195157 O2-
0.686491 0.707138 0.188642 O2-
0.313509 0.792862 0.230309 O2-
0.896492 0.000000 0.229902 O2-
0.686491 0.292862 0.188642 O2-
0.313509 0.207138 0.313642 O2-
0.103508 0.500000 0.271568 O2-
0.818396 0.500000 0.320157 O2-
0.181604 0.000000 0.278490 O2-
0.686491 0.707138 0.271975 O2-
0.313509 0.792862 0.313642 O2-
0.896492 0.000000 0.313235 O2-
0.686491 0.292862 0.271975 O2-
0.313509 0.207138 0.396975 O2-
0.103508 0.500000 0.354902 O2-
0.818396 0.500000 0.403490 O2-
0.181604 0.000000 0.361824 O2-
0.686491 0.707138 0.355309 O2-
0.313509 0.792862 0.396975 O2-
0.896492 0.000000 0.396568 O2-
0.686491 0.292862 0.355309 O2-
0.313509 0.207138 0.480309 O2-
0.103508 0.500000 0.438235 O2-
0.818396 0.500000 0.486824 O2-
0.181604 0.000000 0.445157 O2-
0.686491 0.707138 0.438642 O2-
0.313509 0.792862 0.480309 O2-
0.896492 0.000000 0.479902 O2-
0.686491 0.292862 0.438642 O2-
0.313509 0.207138 0.563642 O2-
0.103508 0.500000 0.521568 O2-
0.818396 0.500000 0.570157 O2-
0.181604 0.000000 0.528490 O2-
0.686491 0.707138 0.521975 O2-
0.313509 0.792862 0.563642 O2-
0.896492 0.000000 0.563235 O2-
0.686491 0.292862 0.521975 O2-
