Li21 N7
1.0
3.161590 0.000000 -1.825345
0.000000 3.888635 0.000000
0.000000 0.000000 51.109658
Li N
21 7
Selective dynamics
direct
0.000000 0.500000 0.035714 T T T Li+
0.333333 0.000000 0.011905 T T T Li+
0.666667 0.000000 0.059524 T T T Li+
0.000000 0.500000 0.107143 T T T Li+
0.333333 0.000000 0.083333 T T T Li+
0.666667 0.000000 0.130952 T T T Li+
0.000000 0.500000 0.178571 F F F Li+
0.333333 0.000000 0.154762 F F F Li+
0.666667 0.000000 0.202381 F F F Li+
0.000000 0.500000 0.250000 F F F Li+
0.333333 0.000000 0.226190 F F F Li+
0.666667 0.000000 0.273810 F F F Li+
0.000000 0.500000 0.321429 F F F Li+
0.333333 0.000000 0.297619 F F F Li+
0.666667 0.000000 0.345238 F F F Li+
0.000000 0.500000 0.392857 T T T Li+
0.333333 0.000000 0.369048 T T T Li+
0.666667 0.000000 0.416667 T T T Li+
0.000000 0.500000 0.464286 T T T Li+
0.333333 0.000000 0.440476 T T T Li+
0.666667 0.000000 0.488095 T T T Li+
0.000000 0.000000 0.035714 T T T N3-
0.000000 0.000000 0.107143 T T T N3-
0.000000 0.000000 0.178571 F F F N3-
0.000000 0.000000 0.250000 F F F N3-
0.000000 0.000000 0.321429 F F F N3-
0.000000 0.000000 0.392857 T T T N3-
0.000000 0.000000 0.464286 T T T N3-
