P56 O140
1.0
5.549684 0.000000 0.000000
-2.774842 8.293785 0.000000
0.000000 0.000000 81.669140
P O
56 140
direct
0.526196 0.847864 0.094974 P5+
0.678332 0.152136 0.079605 P5+
0.526196 0.347864 0.004605 P5+
0.178332 0.652136 0.069974 P5+
0.026196 0.847864 0.044974 P5+
0.178332 0.152136 0.029605 P5+
0.026196 0.347864 0.054605 P5+
0.678332 0.652136 0.019974 P5+
0.526196 0.847864 0.194974 P5+
0.678332 0.152136 0.179605 P5+
0.526196 0.347864 0.104605 P5+
0.178332 0.652136 0.169974 P5+
0.026196 0.847864 0.144974 P5+
0.178332 0.152136 0.129605 P5+
0.026196 0.347864 0.154605 P5+
0.678332 0.652136 0.119974 P5+
0.526196 0.847864 0.294974 P5+
0.678332 0.152136 0.279605 P5+
0.526196 0.347864 0.204605 P5+
0.178332 0.652136 0.269974 P5+
0.026196 0.847864 0.244974 P5+
0.178332 0.152136 0.229605 P5+
0.026196 0.347864 0.254605 P5+
0.678332 0.652136 0.219974 P5+
0.526196 0.847864 0.394974 P5+
0.678332 0.152136 0.379605 P5+
0.526196 0.347864 0.304605 P5+
0.178332 0.652136 0.369974 P5+
0.026196 0.847864 0.344974 P5+
0.178332 0.152136 0.329605 P5+
0.026196 0.347864 0.354605 P5+
0.678332 0.652136 0.319974 P5+
0.526196 0.847864 0.494974 P5+
0.678332 0.152136 0.479605 P5+
0.526196 0.347864 0.404605 P5+
0.178332 0.652136 0.469974 P5+
0.026196 0.847864 0.444974 P5+
0.178332 0.152136 0.429605 P5+
0.026196 0.347864 0.454605 P5+
0.678332 0.652136 0.419974 P5+
0.526196 0.847864 0.594974 P5+
0.678332 0.152136 0.579605 P5+
0.526196 0.347864 0.504605 P5+
0.178332 0.652136 0.569974 P5+
0.026196 0.847864 0.544974 P5+
0.178332 0.152136 0.529605 P5+
0.026196 0.347864 0.554605 P5+
0.678332 0.652136 0.519974 P5+
0.526196 0.847864 0.694974 P5+
0.678332 0.152136 0.679605 P5+
0.526196 0.347864 0.604605 P5+
0.178332 0.652136 0.669974 P5+
0.026196 0.847864 0.644974 P5+
0.178332 0.152136 0.629605 P5+
0.026196 0.347864 0.654605 P5+
0.678332 0.652136 0.619974 P5+
0.322982 0.883254 0.003948 O2-
0.439728 0.116746 0.070631 O2-
0.822982 0.383254 0.045631 O2-
0.939728 0.616746 0.078948 O2-
0.240745 0.500000 0.062289 O2-
0.740745 0.000000 0.087289 O2-
0.439497 0.730975 0.079369 O2-
0.708522 0.269025 0.095210 O2-
0.939497 0.230975 0.070210 O2-
0.208522 0.769025 0.054369 O2-
0.822982 0.883254 0.053948 O2-
0.939728 0.116746 0.020631 O2-
0.322982 0.383254 0.095631 O2-
0.439728 0.616746 0.028948 O2-
0.740745 0.500000 0.012290 O2-
0.240745 1.000000 0.037289 O2-
0.939497 0.730975 0.029369 O2-
0.208522 0.269025 0.045210 O2-
0.439497 0.230975 0.020210 O2-
0.708522 0.769025 0.004369 O2-
0.322982 0.883254 0.103948 O2-
0.439728 0.116746 0.170631 O2-
0.822982 0.383254 0.145631 O2-
0.939728 0.616746 0.178948 O2-
0.240745 0.500000 0.162290 O2-
0.740745 0.000000 0.187289 O2-
0.439497 0.730975 0.179369 O2-
0.708522 0.269025 0.195210 O2-
0.939497 0.230975 0.170210 O2-
0.208522 0.769025 0.154369 O2-
0.822982 0.883254 0.153948 O2-
0.939728 0.116746 0.120631 O2-
0.322982 0.383254 0.195631 O2-
0.439728 0.616746 0.128948 O2-
0.740745 0.500000 0.112290 O2-
0.240745 1.000000 0.137290 O2-
0.939497 0.730975 0.129369 O2-
0.208522 0.269025 0.145210 O2-
0.439497 0.230975 0.120210 O2-
0.708522 0.769025 0.104369 O2-
0.322982 0.883254 0.203948 O2-
0.439728 0.116746 0.270631 O2-
0.822982 0.383254 0.245631 O2-
0.939728 0.616746 0.278948 O2-
0.240745 0.500000 0.262290 O2-
0.740745 0.000000 0.287289 O2-
0.439497 0.730975 0.279369 O2-
0.708522 0.269025 0.295210 O2-
0.939497 0.230975 0.270210 O2-
0.208522 0.769025 0.254369 O2-
0.822982 0.883254 0.253948 O2-
0.939728 0.116746 0.220631 O2-
0.322982 0.383254 0.295631 O2-
0.439728 0.616746 0.228948 O2-
0.740745 0.500000 0.212290 O2-
0.240745 1.000000 0.237290 O2-
0.939497 0.730975 0.229369 O2-
0.208522 0.269025 0.245210 O2-
0.439497 0.230975 0.220210 O2-
0.708522 0.769025 0.204369 O2-
0.322982 0.883254 0.303948 O2-
0.439728 0.116746 0.370631 O2-
0.822982 0.383254 0.345631 O2-
0.939728 0.616746 0.378948 O2-
0.240745 0.500000 0.362289 O2-
0.740745 0.000000 0.387290 O2-
0.439497 0.730975 0.379369 O2-
0.708522 0.269025 0.395210 O2-
0.939497 0.230975 0.370210 O2-
0.208522 0.769025 0.354369 O2-
0.822982 0.883254 0.353948 O2-
0.939728 0.116746 0.320631 O2-
0.322982 0.383254 0.395631 O2-
0.439728 0.616746 0.328948 O2-
0.740745 0.500000 0.312289 O2-
0.240745 1.000000 0.337289 O2-
0.939497 0.730975 0.329369 O2-
0.208522 0.269025 0.345210 O2-
0.439497 0.230975 0.320210 O2-
0.708522 0.769025 0.304369 O2-
0.322982 0.883254 0.403948 O2-
0.439728 0.116746 0.470631 O2-
0.822982 0.383254 0.445631 O2-
0.939728 0.616746 0.478948 O2-
0.240745 0.500000 0.462290 O2-
0.740745 0.000000 0.487290 O2-
0.439497 0.730975 0.479369 O2-
0.708522 0.269025 0.495210 O2-
0.939497 0.230975 0.470210 O2-
0.208522 0.769025 0.454369 O2-
0.822982 0.883254 0.453948 O2-
0.939728 0.116746 0.420631 O2-
0.322982 0.383254 0.495631 O2-
0.439728 0.616746 0.428948 O2-
0.740745 0.500000 0.412290 O2-
0.240745 1.000000 0.437290 O2-
0.939497 0.730975 0.429369 O2-
0.208522 0.269025 0.445210 O2-
0.439497 0.230975 0.420210 O2-
0.708522 0.769025 0.404369 O2-
0.322982 0.883254 0.503948 O2-
0.439728 0.116746 0.570631 O2-
0.822982 0.383254 0.545631 O2-
0.939728 0.616746 0.578948 O2-
0.240745 0.500000 0.562289 O2-
0.740745 0.000000 0.587290 O2-
0.439497 0.730975 0.579369 O2-
0.708522 0.269025 0.595210 O2-
0.939497 0.230975 0.570210 O2-
0.208522 0.769025 0.554369 O2-
0.822982 0.883254 0.553948 O2-
0.939728 0.116746 0.520631 O2-
0.322982 0.383254 0.595631 O2-
0.439728 0.616746 0.528948 O2-
0.740745 0.500000 0.512289 O2-
0.240745 1.000000 0.537289 O2-
0.939497 0.730975 0.529369 O2-
0.208522 0.269025 0.545210 O2-
0.439497 0.230975 0.520210 O2-
0.708522 0.769025 0.504369 O2-
0.322982 0.883254 0.603948 O2-
0.439728 0.116746 0.670631 O2-
0.822982 0.383254 0.645631 O2-
0.939728 0.616746 0.678948 O2-
0.240745 0.500000 0.662289 O2-
0.740745 0.000000 0.687290 O2-
0.439497 0.730975 0.679369 O2-
0.708522 0.269025 0.695210 O2-
0.939497 0.230975 0.670210 O2-
0.208522 0.769025 0.654369 O2-
0.822982 0.883254 0.653948 O2-
0.939728 0.116746 0.620631 O2-
0.322982 0.383254 0.695631 O2-
0.439728 0.616746 0.628948 O2-
0.740745 0.500000 0.612289 O2-
0.240745 1.000000 0.637289 O2-
0.939497 0.730975 0.629369 O2-
0.208522 0.269025 0.645210 O2-
0.439497 0.230975 0.620210 O2-
0.708522 0.769025 0.604369 O2-
