P6 N10                                  
   1.00000000000000     
     2.9478606348624132    4.0927870849350398    0.0001023002180322
    -2.9478606348624132    4.0927870849350398    0.0001023002180322
     0.0000000000000000    4.0068115845202392    8.3275828924321473
   P    N 
     6    10
Direct
  0.4819839657484412  0.5180160342515590  0.2500000000000000
  0.6622644179647992  0.0696920806060637  0.5552643915924167
  0.0696920806060637  0.6622644179647992  0.0552643915924167
  0.3377355820352008  0.9303079193939362  0.4447356084075833
  0.9303079193939362  0.3377355820352008  0.9447356084075833
  0.5180160342515590  0.4819839657484412  0.7500000000000000
  0.5007381845578075  0.7891398116388127  0.5997575140381513
  0.2290056437945966  0.5078069589568557  0.1917016264212704
  0.4992618154421925  0.2108601883611874  0.4002424859618487
  0.2108601883611874  0.4992618154421925  0.9002424859618487
  0.4921930410431443  0.7709943562054034  0.3082983735787296
  0.7709943562054034  0.4921930410431443  0.8082983735787297
 -0.0000000000000000 -0.0000000000000000  0.5000000000000000
  0.7891398116388127  0.5007381845578075  0.0997575140381513
  0.5078069589568557  0.2290056437945966  0.6917016264212703
 -0.0000000000000000 -0.0000000000000000 -0.0000000000000000
 
  0.00000000E+00  0.00000000E+00  0.00000000E+00
  0.00000000E+00  0.00000000E+00  0.00000000E+00
  0.00000000E+00  0.00000000E+00  0.00000000E+00
  0.00000000E+00  0.00000000E+00  0.00000000E+00
  0.00000000E+00  0.00000000E+00  0.00000000E+00
  0.00000000E+00  0.00000000E+00  0.00000000E+00
  0.00000000E+00  0.00000000E+00  0.00000000E+00
  0.00000000E+00  0.00000000E+00  0.00000000E+00
  0.00000000E+00  0.00000000E+00  0.00000000E+00
  0.00000000E+00  0.00000000E+00  0.00000000E+00
  0.00000000E+00  0.00000000E+00  0.00000000E+00
  0.00000000E+00  0.00000000E+00  0.00000000E+00
  0.00000000E+00  0.00000000E+00  0.00000000E+00
  0.00000000E+00  0.00000000E+00  0.00000000E+00
  0.00000000E+00  0.00000000E+00  0.00000000E+00
  0.00000000E+00  0.00000000E+00  0.00000000E+00
