Li1 O8                                  
   1.00000000000000     
     4.6501447360959167    0.0347405981038442    1.9095008318235465
     1.9758127730916268    4.4548132655575730    1.5306957182219980
     0.5602690325503366   -0.3479233594808640    5.0653009555045792
   Li   O 
     1     8
Direct
  0.4929837443275699  0.8044297703294701  0.8044297703294158
  0.8413606199858891  0.3331153592655315  0.8206474212618703
  0.1517788441693102  0.2313859446280833  0.6997617974378373
  0.1517788441696595  0.6997617974377474  0.2313859446280379
  0.8413606199859508  0.8206474212618875  0.3331153592654897
  0.8379596213816018  0.2562725592236264  0.2562725592236376
  0.1547523834617963  0.7419773009443997  0.7419773009444292
  0.1439982786268390  0.1521433591203950  0.1521433591204469
  0.8423600438913869  0.8650284877888645  0.8650284877888405
 
  0.00000000E+00  0.00000000E+00  0.00000000E+00
  0.00000000E+00  0.00000000E+00  0.00000000E+00
  0.00000000E+00  0.00000000E+00  0.00000000E+00
  0.00000000E+00  0.00000000E+00  0.00000000E+00
  0.00000000E+00  0.00000000E+00  0.00000000E+00
  0.00000000E+00  0.00000000E+00  0.00000000E+00
  0.00000000E+00  0.00000000E+00  0.00000000E+00
  0.00000000E+00  0.00000000E+00  0.00000000E+00
  0.00000000E+00  0.00000000E+00  0.00000000E+00
