Li5 P2 N1 O6                            
   1.00000000000000     
     0.0344972717543224   -0.5143386610724155    5.0496700095360039
     7.3765254820824211    0.0257172500001930    0.0285088136552860
     0.0828099661192553    4.6896809039803831   -0.5104976880701844
   Li   P    N    O 
     5     2     1     6
Direct
  0.5287640597263800  0.9620089481980141  0.8110784377386211
  0.3471964411103211  0.6796809126627452  0.3215766856595008
  0.8735116031652636  0.6091704106977391  0.4517063427685394
  0.0663065734976439  0.3069234175492935  0.7159661059510282
  0.5138072927661376  0.2766189964733795  0.3682709662559188
  0.5393271310748340  0.5370016603010246  0.7990060075394703
  0.9898782129069463 -0.0014533009987791  0.3402292379692798
  0.2107965818690939  0.0976946422544191  0.5503122345608930
  0.6239703275139531  0.7251379153342878  0.6895555065924615
  0.0240554395818310  0.8080874652991004  0.2342484295899687
  0.7223877456278632  0.3879720425441882  0.7095364081817647
  0.5511871911697526  0.5258267200344326  0.1288869320760591
  0.2459789802492834  0.5098393735396237  0.6240376496486438
  0.7090894197407336  0.0754907961105374  0.2036170554678455
 
  0.00000000E+00  0.00000000E+00  0.00000000E+00
  0.00000000E+00  0.00000000E+00  0.00000000E+00
  0.00000000E+00  0.00000000E+00  0.00000000E+00
  0.00000000E+00  0.00000000E+00  0.00000000E+00
  0.00000000E+00  0.00000000E+00  0.00000000E+00
  0.00000000E+00  0.00000000E+00  0.00000000E+00
  0.00000000E+00  0.00000000E+00  0.00000000E+00
  0.00000000E+00  0.00000000E+00  0.00000000E+00
  0.00000000E+00  0.00000000E+00  0.00000000E+00
  0.00000000E+00  0.00000000E+00  0.00000000E+00
  0.00000000E+00  0.00000000E+00  0.00000000E+00
  0.00000000E+00  0.00000000E+00  0.00000000E+00
  0.00000000E+00  0.00000000E+00  0.00000000E+00
  0.00000000E+00  0.00000000E+00  0.00000000E+00
