Li140 P140 O420
1.0
13.312980 0.000000 0.000000
-10.635230 16.540545 0.000000
0.000000 0.000000 60.737138
Li P O
140 140 420
direct
0.126478 0.181780 0.009635 Li+
0.126478 0.681780 0.008654 Li+
0.888830 0.065996 0.010561 Li+
0.888830 0.565996 0.007728 Li+
0.652957 0.950543 0.008619 Li+
0.652957 0.450543 0.009670 Li+
0.418297 0.835452 0.008488 Li+
0.418297 0.335452 0.009801 Li+
0.270894 0.758434 0.055255 Li+
0.270894 0.258434 0.053943 Li+
0.624263 0.681714 0.007218 Li+
0.624263 0.181714 0.011071 Li+
0.387725 0.566270 0.011298 Li+
0.387725 0.066270 0.006991 Li+
0.151818 0.449547 0.006122 Li+
0.151818 0.949547 0.012167 Li+
0.915480 0.332984 0.011168 Li+
0.915480 0.832984 0.007120 Li+
0.766829 0.256366 0.058154 Li+
0.766829 0.756366 0.051043 Li+
0.126478 0.181780 0.100544 Li+
0.126478 0.681780 0.099563 Li+
0.888830 0.065996 0.101470 Li+
0.888830 0.565996 0.098637 Li+
0.652957 0.950543 0.099528 Li+
0.652957 0.450543 0.100579 Li+
0.418297 0.835452 0.099397 Li+
0.418297 0.335452 0.100710 Li+
0.270894 0.758434 0.146164 Li+
0.270894 0.258434 0.144852 Li+
0.624263 0.681714 0.098127 Li+
0.624263 0.181714 0.101980 Li+
0.387725 0.566270 0.102207 Li+
0.387725 0.066270 0.097900 Li+
0.151818 0.449547 0.097031 Li+
0.151818 0.949547 0.103076 Li+
0.915480 0.332984 0.102077 Li+
0.915480 0.832984 0.098030 Li+
0.766829 0.256366 0.149064 Li+
0.766829 0.756366 0.141953 Li+
0.126478 0.181780 0.191453 Li+
0.126478 0.681780 0.190472 Li+
0.888830 0.065996 0.192379 Li+
0.888830 0.565996 0.189546 Li+
0.652957 0.950543 0.190437 Li+
0.652957 0.450543 0.191488 Li+
0.418297 0.835452 0.190306 Li+
0.418297 0.335452 0.191619 Li+
0.270894 0.758434 0.237073 Li+
0.270894 0.258434 0.235761 Li+
0.624263 0.681714 0.189036 Li+
0.624263 0.181714 0.192889 Li+
0.387725 0.566270 0.193116 Li+
0.387725 0.066270 0.188809 Li+
0.151818 0.449547 0.187940 Li+
0.151818 0.949547 0.193985 Li+
0.915480 0.332984 0.192987 Li+
0.915480 0.832984 0.188939 Li+
0.766829 0.256366 0.239973 Li+
0.766829 0.756366 0.232862 Li+
0.126478 0.181780 0.282362 Li+
0.126478 0.681780 0.281381 Li+
0.888830 0.065996 0.283288 Li+
0.888830 0.565996 0.280455 Li+
0.652957 0.950543 0.281346 Li+
0.652957 0.450543 0.282397 Li+
0.418297 0.835452 0.281215 Li+
0.418297 0.335452 0.282528 Li+
0.270894 0.758434 0.327982 Li+
0.270894 0.258434 0.326670 Li+
0.624263 0.681714 0.279945 Li+
0.624263 0.181714 0.283798 Li+
0.387725 0.566270 0.284025 Li+
0.387725 0.066270 0.279718 Li+
0.151818 0.449547 0.278849 Li+
0.151818 0.949547 0.284894 Li+
0.915480 0.332984 0.283896 Li+
0.915480 0.832984 0.279848 Li+
0.766829 0.256366 0.330882 Li+
0.766829 0.756366 0.323771 Li+
0.126478 0.181780 0.373271 Li+
0.126478 0.681780 0.372291 Li+
0.888830 0.065996 0.374197 Li+
0.888830 0.565996 0.371364 Li+
0.652957 0.950543 0.372255 Li+
0.652957 0.450543 0.373307 Li+
0.418297 0.835452 0.372124 Li+
0.418297 0.335452 0.373438 Li+
0.270894 0.758434 0.418891 Li+
0.270894 0.258434 0.417579 Li+
0.624263 0.681714 0.370854 Li+
0.624263 0.181714 0.374708 Li+
0.387725 0.566270 0.374934 Li+
0.387725 0.066270 0.370627 Li+
0.151818 0.449547 0.369758 Li+
0.151818 0.949547 0.375804 Li+
0.915480 0.332984 0.374805 Li+
0.915480 0.832984 0.370757 Li+
0.766829 0.256366 0.421791 Li+
0.766829 0.756366 0.414680 Li+
0.126478 0.181780 0.464180 Li+
0.126478 0.681780 0.463200 Li+
0.888830 0.065996 0.465106 Li+
0.888830 0.565996 0.462273 Li+
0.652957 0.950543 0.463164 Li+
0.652957 0.450543 0.464216 Li+
0.418297 0.835452 0.463033 Li+
0.418297 0.335452 0.464347 Li+
0.270894 0.758434 0.509800 Li+
0.270894 0.258434 0.508488 Li+
0.624263 0.681714 0.461763 Li+
0.624263 0.181714 0.465617 Li+
0.387725 0.566270 0.465843 Li+
0.387725 0.066270 0.461536 Li+
0.151818 0.449547 0.460667 Li+
0.151818 0.949547 0.466713 Li+
0.915480 0.332984 0.465714 Li+
0.915480 0.832984 0.461666 Li+
0.766829 0.256366 0.512700 Li+
0.766829 0.756366 0.505589 Li+
0.126478 0.181780 0.555089 Li+
0.126478 0.681780 0.554109 Li+
0.888830 0.065996 0.556015 Li+
0.888830 0.565996 0.553182 Li+
0.652957 0.950543 0.554073 Li+
0.652957 0.450543 0.555125 Li+
0.418297 0.835452 0.553942 Li+
0.418297 0.335452 0.555256 Li+
0.270894 0.758434 0.600710 Li+
0.270894 0.258434 0.599397 Li+
0.624263 0.681714 0.552672 Li+
0.624263 0.181714 0.556526 Li+
0.387725 0.566270 0.556752 Li+
0.387725 0.066270 0.552446 Li+
0.151818 0.449547 0.551576 Li+
0.151818 0.949547 0.557622 Li+
0.915480 0.332984 0.556623 Li+
0.915480 0.832984 0.552575 Li+
0.766829 0.256366 0.603609 Li+
0.766829 0.756366 0.596498 Li+
0.000779 0.999587 0.037747 P5+
0.000779 0.499587 0.071451 P5+
0.794387 0.906720 0.068843 P5+
0.794387 0.406720 0.040355 P5+
0.598863 0.802939 0.037468 P5+
0.598863 0.302939 0.071730 P5+
0.408395 0.691689 0.070147 P5+
0.408395 0.191689 0.039051 P5+
0.208401 0.591751 0.040077 P5+
0.208401 0.091751 0.069121 P5+
0.334920 0.425433 0.068787 P5+
0.334920 0.925433 0.040411 P5+
0.134548 0.325562 0.038752 P5+
0.134548 0.825562 0.070446 P5+
0.943677 0.213545 0.071665 P5+
0.943677 0.713545 0.037533 P5+
0.747866 0.110144 0.040790 P5+
0.747866 0.610144 0.068408 P5+
0.541580 0.017155 0.071884 P5+
0.541580 0.517155 0.037314 P5+
0.000779 0.999587 0.128656 P5+
0.000779 0.499587 0.162360 P5+
0.794387 0.906720 0.159752 P5+
0.794387 0.406720 0.131264 P5+
0.598863 0.802939 0.128377 P5+
0.598863 0.302939 0.162639 P5+
0.408395 0.691689 0.161056 P5+
0.408395 0.191689 0.129961 P5+
0.208401 0.591751 0.130986 P5+
0.208401 0.091751 0.160030 P5+
0.334920 0.425433 0.159696 P5+
0.334920 0.925433 0.131320 P5+
0.134548 0.325562 0.129661 P5+
0.134548 0.825562 0.161356 P5+
0.943677 0.213545 0.162574 P5+
0.943677 0.713545 0.128442 P5+
0.747866 0.110144 0.131699 P5+
0.747866 0.610144 0.159317 P5+
0.541580 0.017155 0.162793 P5+
0.541580 0.517155 0.128223 P5+
0.000779 0.999587 0.219565 P5+
0.000779 0.499587 0.253270 P5+
0.794387 0.906720 0.250661 P5+
0.794387 0.406720 0.222173 P5+
0.598863 0.802939 0.219286 P5+
0.598863 0.302939 0.253548 P5+
0.408395 0.691689 0.251965 P5+
0.408395 0.191689 0.220870 P5+
0.208401 0.591751 0.221895 P5+
0.208401 0.091751 0.250939 P5+
0.334920 0.425433 0.250605 P5+
0.334920 0.925433 0.222229 P5+
0.134548 0.325562 0.220570 P5+
0.134548 0.825562 0.252265 P5+
0.943677 0.213545 0.253483 P5+
0.943677 0.713545 0.219352 P5+
0.747866 0.110144 0.222608 P5+
0.747866 0.610144 0.250226 P5+
0.541580 0.017155 0.253702 P5+
0.541580 0.517155 0.219132 P5+
0.000779 0.999587 0.310474 P5+
0.000779 0.499587 0.344179 P5+
0.794387 0.906720 0.341570 P5+
0.794387 0.406720 0.313082 P5+
0.598863 0.802939 0.310195 P5+
0.598863 0.302939 0.344457 P5+
0.408395 0.691689 0.342874 P5+
0.408395 0.191689 0.311779 P5+
0.208401 0.591751 0.312804 P5+
0.208401 0.091751 0.341848 P5+
0.334920 0.425433 0.341514 P5+
0.334920 0.925433 0.313138 P5+
0.134548 0.325562 0.311479 P5+
0.134548 0.825562 0.343174 P5+
0.943677 0.213545 0.344392 P5+
0.943677 0.713545 0.310261 P5+
0.747866 0.110144 0.313517 P5+
0.747866 0.610144 0.341135 P5+
0.541580 0.017155 0.344611 P5+
0.541580 0.517155 0.310041 P5+
0.000779 0.999587 0.401383 P5+
0.000779 0.499587 0.435088 P5+
0.794387 0.906720 0.432479 P5+
0.794387 0.406720 0.403991 P5+
0.598863 0.802939 0.401104 P5+
0.598863 0.302939 0.435367 P5+
0.408395 0.691689 0.433783 P5+
0.408395 0.191689 0.402688 P5+
0.208401 0.591751 0.403714 P5+
0.208401 0.091751 0.432757 P5+
0.334920 0.425433 0.432424 P5+
0.334920 0.925433 0.404047 P5+
0.134548 0.325562 0.402388 P5+
0.134548 0.825562 0.434083 P5+
0.943677 0.213545 0.435301 P5+
0.943677 0.713545 0.401170 P5+
0.747866 0.110144 0.404426 P5+
0.747866 0.610144 0.432044 P5+
0.541580 0.017155 0.435520 P5+
0.541580 0.517155 0.400950 P5+
0.000779 0.999587 0.492292 P5+
0.000779 0.499587 0.525997 P5+
0.794387 0.906720 0.523388 P5+
0.794387 0.406720 0.494900 P5+
0.598863 0.802939 0.492013 P5+
0.598863 0.302939 0.526276 P5+
0.408395 0.691689 0.524692 P5+
0.408395 0.191689 0.493597 P5+
0.208401 0.591751 0.494623 P5+
0.208401 0.091751 0.523666 P5+
0.334920 0.425433 0.523333 P5+
0.334920 0.925433 0.494956 P5+
0.134548 0.325562 0.493297 P5+
0.134548 0.825562 0.524992 P5+
0.943677 0.213545 0.526210 P5+
0.943677 0.713545 0.492079 P5+
0.747866 0.110144 0.495335 P5+
0.747866 0.610144 0.522954 P5+
0.541580 0.017155 0.526429 P5+
0.541580 0.517155 0.491860 P5+
0.000779 0.999587 0.583201 P5+
0.000779 0.499587 0.616906 P5+
0.794387 0.906720 0.614297 P5+
0.794387 0.406720 0.585810 P5+
0.598863 0.802939 0.582922 P5+
0.598863 0.302939 0.617185 P5+
0.408395 0.691689 0.615601 P5+
0.408395 0.191689 0.584506 P5+
0.208401 0.591751 0.585532 P5+
0.208401 0.091751 0.614575 P5+
0.334920 0.425433 0.614242 P5+
0.334920 0.925433 0.585865 P5+
0.134548 0.325562 0.584206 P5+
0.134548 0.825562 0.615901 P5+
0.943677 0.213545 0.617119 P5+
0.943677 0.713545 0.582988 P5+
0.747866 0.110144 0.586244 P5+
0.747866 0.610144 0.613863 P5+
0.541580 0.017155 0.617338 P5+
0.541580 0.517155 0.582769 P5+
0.870015 0.964587 0.048326 O2-
0.870015 0.464587 0.060872 O2-
0.659821 0.859372 0.059046 O2-
0.659821 0.359372 0.050152 O2-
0.481350 0.724144 0.047325 O2-
0.481350 0.224144 0.061873 O2-
0.293096 0.607741 0.061264 O2-
0.293096 0.107741 0.047934 O2-
0.080152 0.021852 0.059870 O2-
0.080152 0.521852 0.049328 O2-
0.250064 0.409378 0.047619 O2-
0.250064 0.909378 0.061579 O2-
0.063226 0.290596 0.061704 O2-
0.063226 0.790596 0.047494 O2-
0.883201 0.156445 0.050120 O2-
0.883201 0.656445 0.059078 O2-
0.674568 0.056520 0.061982 O2-
0.674568 0.556520 0.047216 O2-
0.463629 0.495673 0.059627 O2-
0.463629 0.995673 0.049571 O2-
0.029173 0.073889 0.025254 O2-
0.029173 0.573889 0.083944 O2-
0.005091 0.933926 0.026061 O2-
0.005091 0.433926 0.083137 O2-
0.795375 0.958651 0.087001 O2-
0.795375 0.458651 0.022197 O2-
0.828944 0.846743 0.073208 O2-
0.828944 0.346743 0.035990 O2-
0.560342 0.845353 0.022601 O2-
0.560342 0.345353 0.086597 O2-
0.677417 0.775410 0.028983 O2-
0.677417 0.275410 0.080215 O2-
0.369330 0.747295 0.077186 O2-
0.369330 0.247295 0.032012 O2-
0.472480 0.669352 0.085845 O2-
0.472480 0.169352 0.023353 O2-
0.209416 0.667159 0.035043 O2-
0.209416 0.167159 0.074155 O2-
0.238895 0.553292 0.022256 O2-
0.238895 0.053292 0.086942 O2-
0.302391 0.463335 0.086427 O2-
0.302391 0.963335 0.022771 O2-
0.334913 0.350606 0.074054 O2-
0.334913 0.850606 0.035144 O2-
0.068594 0.348215 0.023618 O2-
0.068594 0.848215 0.085580 O2-
0.175312 0.271458 0.031140 O2-
0.175312 0.771458 0.078058 O2-
0.864720 0.241625 0.079532 O2-
0.864720 0.741625 0.029666 O2-
0.980120 0.171199 0.087058 O2-
0.980120 0.671199 0.022140 O2-
0.713620 0.170027 0.035938 O2-
0.713620 0.670027 0.073260 O2-
0.742996 0.055640 0.023027 O2-
0.742996 0.555640 0.086171 O2-
0.532819 0.080441 0.083920 O2-
0.532819 0.580441 0.025278 O2-
0.515310 0.942366 0.083789 O2-
0.515310 0.442366 0.025409 O2-
0.870015 0.964587 0.139235 O2-
0.870015 0.464587 0.151781 O2-
0.659821 0.859372 0.149955 O2-
0.659821 0.359372 0.141061 O2-
0.481350 0.724144 0.138234 O2-
0.481350 0.224144 0.152782 O2-
0.293096 0.607741 0.152173 O2-
0.293096 0.107741 0.138843 O2-
0.080152 0.021852 0.150779 O2-
0.080152 0.521852 0.140237 O2-
0.250064 0.409378 0.138528 O2-
0.250064 0.909378 0.152488 O2-
0.063226 0.290596 0.152613 O2-
0.063226 0.790596 0.138403 O2-
0.883201 0.156445 0.141029 O2-
0.883201 0.656445 0.149987 O2-
0.674568 0.056520 0.152891 O2-
0.674568 0.556520 0.138125 O2-
0.463629 0.495673 0.150536 O2-
0.463629 0.995673 0.140480 O2-
0.029173 0.073889 0.116163 O2-
0.029173 0.573889 0.174853 O2-
0.005091 0.933926 0.116970 O2-
0.005091 0.433926 0.174046 O2-
0.795375 0.958651 0.177910 O2-
0.795375 0.458651 0.113106 O2-
0.828944 0.846743 0.164117 O2-
0.828944 0.346743 0.126899 O2-
0.560342 0.845353 0.113510 O2-
0.560342 0.345353 0.177506 O2-
0.677417 0.775410 0.119892 O2-
0.677417 0.275410 0.171125 O2-
0.369330 0.747295 0.168095 O2-
0.369330 0.247295 0.122921 O2-
0.472480 0.669352 0.176754 O2-
0.472480 0.169352 0.114262 O2-
0.209416 0.667159 0.125952 O2-
0.209416 0.167159 0.165065 O2-
0.238895 0.553292 0.113165 O2-
0.238895 0.053292 0.177851 O2-
0.302391 0.463335 0.177336 O2-
0.302391 0.963335 0.113680 O2-
0.334913 0.350606 0.164963 O2-
0.334913 0.850606 0.126053 O2-
0.068594 0.348215 0.114527 O2-
0.068594 0.848215 0.176489 O2-
0.175312 0.271458 0.122050 O2-
0.175312 0.771458 0.168967 O2-
0.864720 0.241625 0.170441 O2-
0.864720 0.741625 0.120575 O2-
0.980120 0.171199 0.177967 O2-
0.980120 0.671199 0.113049 O2-
0.713620 0.170027 0.126847 O2-
0.713620 0.670027 0.164169 O2-
0.742996 0.055640 0.113936 O2-
0.742996 0.555640 0.177080 O2-
0.532819 0.080441 0.174829 O2-
0.532819 0.580441 0.116187 O2-
0.515310 0.942366 0.174698 O2-
0.515310 0.442366 0.116318 O2-
0.870015 0.964587 0.230144 O2-
0.870015 0.464587 0.242690 O2-
0.659821 0.859372 0.240864 O2-
0.659821 0.359372 0.231970 O2-
0.481350 0.724144 0.229143 O2-
0.481350 0.224144 0.243692 O2-
0.293096 0.607741 0.243083 O2-
0.293096 0.107741 0.229752 O2-
0.080152 0.021852 0.241688 O2-
0.080152 0.521852 0.231146 O2-
0.250064 0.409378 0.229437 O2-
0.250064 0.909378 0.243397 O2-
0.063226 0.290596 0.243523 O2-
0.063226 0.790596 0.229312 O2-
0.883201 0.156445 0.231939 O2-
0.883201 0.656445 0.240896 O2-
0.674568 0.056520 0.243800 O2-
0.674568 0.556520 0.229034 O2-
0.463629 0.495673 0.241445 O2-
0.463629 0.995673 0.231389 O2-
0.029173 0.073889 0.207072 O2-
0.029173 0.573889 0.265762 O2-
0.005091 0.933926 0.207879 O2-
0.005091 0.433926 0.264955 O2-
0.795375 0.958651 0.268819 O2-
0.795375 0.458651 0.204015 O2-
0.828944 0.846743 0.255026 O2-
0.828944 0.346743 0.217809 O2-
0.560342 0.845353 0.204420 O2-
0.560342 0.345353 0.268415 O2-
0.677417 0.775410 0.210801 O2-
0.677417 0.275410 0.262034 O2-
0.369330 0.747295 0.259004 O2-
0.369330 0.247295 0.213830 O2-
0.472480 0.669352 0.267663 O2-
0.472480 0.169352 0.205171 O2-
0.209416 0.667159 0.216861 O2-
0.209416 0.167159 0.255974 O2-
0.238895 0.553292 0.204074 O2-
0.238895 0.053292 0.268761 O2-
0.302391 0.463335 0.268245 O2-
0.302391 0.963335 0.204589 O2-
0.334913 0.350606 0.255872 O2-
0.334913 0.850606 0.216962 O2-
0.068594 0.348215 0.205436 O2-
0.068594 0.848215 0.267398 O2-
0.175312 0.271458 0.212959 O2-
0.175312 0.771458 0.259876 O2-
0.864720 0.241625 0.261350 O2-
0.864720 0.741625 0.211484 O2-
0.980120 0.171199 0.268876 O2-
0.980120 0.671199 0.203958 O2-
0.713620 0.170027 0.217756 O2-
0.713620 0.670027 0.255078 O2-
0.742996 0.055640 0.204845 O2-
0.742996 0.555640 0.267989 O2-
0.532819 0.080441 0.265738 O2-
0.532819 0.580441 0.207096 O2-
0.515310 0.942366 0.265607 O2-
0.515310 0.442366 0.207228 O2-
0.870015 0.964587 0.321053 O2-
0.870015 0.464587 0.333599 O2-
0.659821 0.859372 0.331773 O2-
0.659821 0.359372 0.322880 O2-
0.481350 0.724144 0.320052 O2-
0.481350 0.224144 0.334601 O2-
0.293096 0.607741 0.333992 O2-
0.293096 0.107741 0.320661 O2-
0.080152 0.021852 0.332597 O2-
0.080152 0.521852 0.322055 O2-
0.250064 0.409378 0.320346 O2-
0.250064 0.909378 0.334306 O2-
0.063226 0.290596 0.334432 O2-
0.063226 0.790596 0.320221 O2-
0.883201 0.156445 0.322848 O2-
0.883201 0.656445 0.331805 O2-
0.674568 0.056520 0.334709 O2-
0.674568 0.556520 0.319943 O2-
0.463629 0.495673 0.332354 O2-
0.463629 0.995673 0.322298 O2-
0.029173 0.073889 0.297981 O2-
0.029173 0.573889 0.356671 O2-
0.005091 0.933926 0.298788 O2-
0.005091 0.433926 0.355864 O2-
0.795375 0.958651 0.359728 O2-
0.795375 0.458651 0.294924 O2-
0.828944 0.846743 0.345935 O2-
0.828944 0.346743 0.308718 O2-
0.560342 0.845353 0.295329 O2-
0.560342 0.345353 0.359324 O2-
0.677417 0.775410 0.301710 O2-
0.677417 0.275410 0.352943 O2-
0.369330 0.747295 0.349913 O2-
0.369330 0.247295 0.304739 O2-
0.472480 0.669352 0.358573 O2-
0.472480 0.169352 0.296080 O2-
0.209416 0.667159 0.307770 O2-
0.209416 0.167159 0.346883 O2-
0.238895 0.553292 0.294983 O2-
0.238895 0.053292 0.359670 O2-
0.302391 0.463335 0.359154 O2-
0.302391 0.963335 0.295498 O2-
0.334913 0.350606 0.346781 O2-
0.334913 0.850606 0.307871 O2-
0.068594 0.348215 0.296345 O2-
0.068594 0.848215 0.358307 O2-
0.175312 0.271458 0.303868 O2-
0.175312 0.771458 0.350785 O2-
0.864720 0.241625 0.352260 O2-
0.864720 0.741625 0.302393 O2-
0.980120 0.171199 0.359785 O2-
0.980120 0.671199 0.294867 O2-
0.713620 0.170027 0.308665 O2-
0.713620 0.670027 0.345987 O2-
0.742996 0.055640 0.295754 O2-
0.742996 0.555640 0.358899 O2-
0.532819 0.080441 0.356647 O2-
0.532819 0.580441 0.298005 O2-
0.515310 0.942366 0.356516 O2-
0.515310 0.442366 0.298137 O2-
0.870015 0.964587 0.411963 O2-
0.870015 0.464587 0.424508 O2-
0.659821 0.859372 0.422682 O2-
0.659821 0.359372 0.413789 O2-
0.481350 0.724144 0.410961 O2-
0.481350 0.224144 0.425510 O2-
0.293096 0.607741 0.424901 O2-
0.293096 0.107741 0.411570 O2-
0.080152 0.021852 0.423506 O2-
0.080152 0.521852 0.412965 O2-
0.250064 0.409378 0.411255 O2-
0.250064 0.909378 0.425215 O2-
0.063226 0.290596 0.425341 O2-
0.063226 0.790596 0.411130 O2-
0.883201 0.156445 0.413757 O2-
0.883201 0.656445 0.422714 O2-
0.674568 0.056520 0.425618 O2-
0.674568 0.556520 0.410852 O2-
0.463629 0.495673 0.423263 O2-
0.463629 0.995673 0.413207 O2-
0.029173 0.073889 0.388890 O2-
0.029173 0.573889 0.447580 O2-
0.005091 0.933926 0.389697 O2-
0.005091 0.433926 0.446773 O2-
0.795375 0.958651 0.450638 O2-
0.795375 0.458651 0.385833 O2-
0.828944 0.846743 0.436844 O2-
0.828944 0.346743 0.399627 O2-
0.560342 0.845353 0.386238 O2-
0.560342 0.345353 0.450233 O2-
0.677417 0.775410 0.392619 O2-
0.677417 0.275410 0.443852 O2-
0.369330 0.747295 0.440822 O2-
0.369330 0.247295 0.395649 O2-
0.472480 0.669352 0.449482 O2-
0.472480 0.169352 0.386989 O2-
0.209416 0.667159 0.398679 O2-
0.209416 0.167159 0.437792 O2-
0.238895 0.553292 0.385892 O2-
0.238895 0.053292 0.450579 O2-
0.302391 0.463335 0.450064 O2-
0.302391 0.963335 0.386407 O2-
0.334913 0.350606 0.437690 O2-
0.334913 0.850606 0.398780 O2-
0.068594 0.348215 0.387254 O2-
0.068594 0.848215 0.449217 O2-
0.175312 0.271458 0.394777 O2-
0.175312 0.771458 0.441694 O2-
0.864720 0.241625 0.443169 O2-
0.864720 0.741625 0.393302 O2-
0.980120 0.171199 0.450694 O2-
0.980120 0.671199 0.385776 O2-
0.713620 0.170027 0.399574 O2-
0.713620 0.670027 0.436896 O2-
0.742996 0.055640 0.386663 O2-
0.742996 0.555640 0.449808 O2-
0.532819 0.080441 0.447556 O2-
0.532819 0.580441 0.388914 O2-
0.515310 0.942366 0.447425 O2-
0.515310 0.442366 0.389046 O2-
0.870015 0.964587 0.502872 O2-
0.870015 0.464587 0.515417 O2-
0.659821 0.859372 0.513591 O2-
0.659821 0.359372 0.504698 O2-
0.481350 0.724144 0.501870 O2-
0.481350 0.224144 0.516419 O2-
0.293096 0.607741 0.515810 O2-
0.293096 0.107741 0.502479 O2-
0.080152 0.021852 0.514415 O2-
0.080152 0.521852 0.503874 O2-
0.250064 0.409378 0.502164 O2-
0.250064 0.909378 0.516124 O2-
0.063226 0.290596 0.516250 O2-
0.063226 0.790596 0.502039 O2-
0.883201 0.156445 0.504666 O2-
0.883201 0.656445 0.513623 O2-
0.674568 0.056520 0.516527 O2-
0.674568 0.556520 0.501761 O2-
0.463629 0.495673 0.514173 O2-
0.463629 0.995673 0.504116 O2-
0.029173 0.073889 0.479799 O2-
0.029173 0.573889 0.538489 O2-
0.005091 0.933926 0.480606 O2-
0.005091 0.433926 0.537682 O2-
0.795375 0.958651 0.541547 O2-
0.795375 0.458651 0.476742 O2-
0.828944 0.846743 0.527753 O2-
0.828944 0.346743 0.490536 O2-
0.560342 0.845353 0.477147 O2-
0.560342 0.345353 0.541142 O2-
0.677417 0.775410 0.483528 O2-
0.677417 0.275410 0.534761 O2-
0.369330 0.747295 0.531731 O2-
0.369330 0.247295 0.486558 O2-
0.472480 0.669352 0.540391 O2-
0.472480 0.169352 0.477898 O2-
0.209416 0.667159 0.489588 O2-
0.209416 0.167159 0.528701 O2-
0.238895 0.553292 0.476801 O2-
0.238895 0.053292 0.541488 O2-
0.302391 0.463335 0.540973 O2-
0.302391 0.963335 0.477316 O2-
0.334913 0.350606 0.528599 O2-
0.334913 0.850606 0.489689 O2-
0.068594 0.348215 0.478163 O2-
0.068594 0.848215 0.540126 O2-
0.175312 0.271458 0.485686 O2-
0.175312 0.771458 0.532603 O2-
0.864720 0.241625 0.534078 O2-
0.864720 0.741625 0.484211 O2-
0.980120 0.171199 0.541604 O2-
0.980120 0.671199 0.476685 O2-
0.713620 0.170027 0.490483 O2-
0.713620 0.670027 0.527805 O2-
0.742996 0.055640 0.477572 O2-
0.742996 0.555640 0.540717 O2-
0.532819 0.080441 0.538465 O2-
0.532819 0.580441 0.479824 O2-
0.515310 0.942366 0.538334 O2-
0.515310 0.442366 0.479955 O2-
0.870015 0.964587 0.593781 O2-
0.870015 0.464587 0.606326 O2-
0.659821 0.859372 0.604500 O2-
0.659821 0.359372 0.595607 O2-
0.481350 0.724144 0.592779 O2-
0.481350 0.224144 0.607328 O2-
0.293096 0.607741 0.606719 O2-
0.293096 0.107741 0.593388 O2-
0.080152 0.021852 0.605324 O2-
0.080152 0.521852 0.594783 O2-
0.250064 0.409378 0.593073 O2-
0.250064 0.909378 0.607034 O2-
0.063226 0.290596 0.607159 O2-
0.063226 0.790596 0.592948 O2-
0.883201 0.156445 0.595575 O2-
0.883201 0.656445 0.604532 O2-
0.674568 0.056520 0.607436 O2-
0.674568 0.556520 0.592670 O2-
0.463629 0.495673 0.605082 O2-
0.463629 0.995673 0.595025 O2-
0.029173 0.073889 0.570708 O2-
0.029173 0.573889 0.629398 O2-
0.005091 0.933926 0.571515 O2-
0.005091 0.433926 0.628591 O2-
0.795375 0.958651 0.632456 O2-
0.795375 0.458651 0.567651 O2-
0.828944 0.846743 0.618662 O2-
0.828944 0.346743 0.581445 O2-
0.560342 0.845353 0.568056 O2-
0.560342 0.345353 0.632051 O2-
0.677417 0.775410 0.574437 O2-
0.677417 0.275410 0.625670 O2-
0.369330 0.747295 0.622640 O2-
0.369330 0.247295 0.577467 O2-
0.472480 0.669352 0.631300 O2-
0.472480 0.169352 0.568807 O2-
0.209416 0.667159 0.580497 O2-
0.209416 0.167159 0.619610 O2-
0.238895 0.553292 0.567710 O2-
0.238895 0.053292 0.632397 O2-
0.302391 0.463335 0.631882 O2-
0.302391 0.963335 0.568225 O2-
0.334913 0.350606 0.619508 O2-
0.334913 0.850606 0.580599 O2-
0.068594 0.348215 0.569072 O2-
0.068594 0.848215 0.631035 O2-
0.175312 0.271458 0.576595 O2-
0.175312 0.771458 0.623512 O2-
0.864720 0.241625 0.624987 O2-
0.864720 0.741625 0.575120 O2-
0.980120 0.171199 0.632513 O2-
0.980120 0.671199 0.567594 O2-
0.713620 0.170027 0.581392 O2-
0.713620 0.670027 0.618715 O2-
0.742996 0.055640 0.568481 O2-
0.742996 0.555640 0.631626 O2-
0.532819 0.080441 0.629374 O2-
0.532819 0.580441 0.570733 O2-
0.515310 0.942366 0.629243 O2-
0.515310 0.442366 0.570864 O2-
