Li73 P24 N1 O95                         
   1.00000000000000     
    14.7129736740470474    0.0020900468746864    0.0000006205927800
     0.0014744433053511   10.5673460032458415    0.0000028817798192
     0.0000005137648164    0.0000033628740583   12.3027305735893133
   Li   P    N    O 
    73    24     1    95
Direct
  0.1765651852486865  0.4473613179753018  0.0000045387610770
  0.1699993461187379  0.4193196350939159  0.5000002701850665
  0.1727043202786556  0.9312373344234904  0.0000014804109646
  0.1703109472192935  0.9209713364745568  0.4999998813944332
  0.5015804777713819  0.4224711771088566  0.0000000552758056
  0.5028925287962298  0.4219139353182541  0.5000000246785499
  0.4980700018960020  0.9265771648998565 -0.0000002591162367
  0.5033159448403400  0.9223913026580152  0.4999998723373034
  0.8344910401342769  0.4209503587685604 -0.0000000487689824
  0.8352190102845299  0.4220836762851047  0.4999998420369593
  0.8373420078380269  0.9225542553314277 -0.0000000566134023
  0.8362569797495841  0.9226005842561515  0.4999999080474115
  0.0034730575758567  0.0768955548393156  0.2510432548069623
  0.0034726873066653  0.0768956792885040  0.7489563286905474
  0.0019747062772235  0.5786399758060142  0.2507716034118682
  0.0019747927631616  0.5786395437556558  0.7492280270867526
  0.3409373362753614  0.0767016159086999  0.2487822493455017
  0.3409372861619422  0.0767017041461752  0.7512172072900041
  0.3374141555215258  0.5781788331559170  0.2488446597339981
  0.3374139632532991  0.5781784946077065  0.7511551428737008
  0.6689927094506971  0.0773706479892616  0.2496386535560388
  0.6689926809021409  0.0773705653632648  0.7503612411821978
  0.6689316758223283  0.5779905737865532  0.2501616469792027
  0.6689317427696222  0.5779906580148487  0.7498376487836216
  0.1824628779947059  0.1510480328312355  0.1436046343251197
  0.1696284931984762  0.1622697424369695  0.6237792359662998
  0.1699354149363262  0.6678780490007802  0.1276815717616439
  0.1692972204150783  0.6593106176434088  0.6256592348612028
  0.5010203175574650  0.1628430400544861  0.1247522068027758
  0.5030811660598922  0.1632795256708016  0.6265478732452202
  0.5043411098268978  0.6648576510192826  0.1265021415524840
  0.5025692275996161  0.6632334595533732  0.6263262491462666
  0.8349973539519590  0.1632512665537109  0.1269040607659076
  0.8357759300835637  0.1629909309866314  0.6264874600022994
  0.8361943155597855  0.6627363425819053  0.1259170943608744
  0.8358105853549004  0.6633854832082989  0.6260715886479900
 -0.0015168187937472  0.3391573640059411  0.1274249276118406
  0.0018002555439248  0.3366937789315854  0.6231085737113869
  0.0041118333516154  0.8364247348829860  0.1242816086183576
  0.0030540335021770  0.8362476445947207  0.6228105721136142
  0.3357754947589242  0.3342187240235418  0.1214486657862351
  0.3371093997365011  0.3355940848378768  0.6252971483824111
  0.3363543333799888  0.8421393359595182  0.1220541286278946
  0.3360436510271666  0.8353156059928445  0.6230966254311709
  0.6687876688693724  0.3365526095026380  0.1237206643069163
  0.6685212086853609  0.3367454759638255  0.6235803673908979
  0.6695121591487740  0.8374761655746417  0.1228938079346637
  0.6696827340487721  0.8369041627351600  0.6238500492372324
  0.0018002767577218  0.3366939816524643  0.3768913482054712
 -0.0015166341641519  0.3391574923360777  0.8725749841296118
  0.0030544044116324  0.8362475898505347  0.3771893937400603
  0.0041121719612315  0.8364250049910494  0.8757184769947634
  0.3371094987512185  0.3355946010880592  0.3747032117577746
  0.3357747071994966  0.3342185348965224  0.8785512228982260
  0.3360436496893597  0.8353154311265771  0.3769035519804647
  0.3363536420885415  0.8421397556705028  0.8779460201341680
  0.6685211046644042  0.3367450504045583  0.3764193257593083
  0.6687876424957339  0.3365526957468424  0.8762795154956426
  0.6696827318896891  0.8369044049886626  0.3761496759810344
  0.6695120282798787  0.8374762116876230  0.8771061916880709
  0.1696286277724350  0.1622698745411839  0.3762206558765333
  0.1824623205651215  0.1510471775631306  0.8563966167471364
  0.1692977275249012  0.6593093079026763  0.3743410252194439
  0.1699353934711244  0.6678767064079295  0.8723179193975048
  0.5030807168858670  0.1632796206685460  0.3734523496772599
  0.5010202356943753  0.1628430034042832  0.8752475728651939
  0.5025691128297269  0.6632335506497000  0.3736730215614221
  0.5043409478897737  0.6648576284303934  0.8734975005909481
  0.8357761449181601  0.1629908856294186  0.3735119913831622
  0.8349973211291920  0.1632512402576245  0.8730956099083894
  0.8358108676364532  0.6633856044514550  0.3739280228440336
  0.8361943451614251  0.6627363594999263  0.8740825464481278
  0.1319295460685718  0.2443658253030191 -0.0000014486718115
  0.1650050630102698  0.4119310906212560  0.2472939209414077
  0.1650052538543812  0.4119301918780292  0.7527065236721141
  0.1678330074551196  0.9087957299935265  0.2543416916230082
  0.1678329206096776  0.9087952928162318  0.7456580991323755
  0.5000140206646592  0.4124602986274842  0.2493101053137317
  0.5000140184674101  0.4124601802104362  0.7506898752179328
  0.5009997002774905  0.9117450492407202  0.2503681908815279
  0.5009996306060823  0.9117449008068083  0.7496318893167314
  0.8327123111129646  0.4125453042467206  0.2505339453087861
  0.8327123323611082  0.4125451949647591  0.7494659396951198
  0.8343667842168251  0.9118557355995771  0.2498526220560430
  0.8343664684060420  0.9118559234294216  0.7501474183277531
 -0.0000360217213113  0.0877611064418873  0.0000000153113091
  0.0001928189431968  0.0880174824219726  0.4999998244637253
  0.0013825697186563  0.5858984339152080 -0.0000001085114711
  0.0001218489861287  0.5867160069695163  0.4999995310807547
  0.3266438733066249  0.0932131815528835  0.0000000776615292
  0.3344886661199961  0.0876321272266866  0.4999999183693649
  0.3357652533525514  0.5940907705164951 -0.0000001109319602
  0.3335098152554838  0.5852148396960786  0.4999999695828983
  0.6676417062628204  0.0877759981218671 -0.0000000599465911
  0.6672013242315871  0.0879371511085570  0.4999998918004618
  0.6671227839771214  0.5875623632041368 -0.0000000726921569
  0.6668341033023312  0.5879483019592834  0.4999999605927749
  0.2200166323531687  0.1043033544832821  0.0000005448006164
  0.0355072401562927  0.1575125070813399  0.3961332677602656
  0.0370827569148944  0.1606621612128055  0.8976417339194295
  0.0352385968260601  0.6558633055621553  0.3960255218945714
  0.0362375370367929  0.6552271492250906  0.8960722678035506
  0.3699051686579439  0.1567758781797796  0.3961800280657932
  0.3710020945883256  0.1587841429320976  0.8952102231145819
  0.3683878069400520  0.6549182920968252  0.3962050201599265
  0.3719741945025984  0.6604895451851540  0.8956714492299678
  0.7024377638791958  0.1571376109863992  0.3959634821488727
  0.7028028885766292  0.1572586935598467  0.8959531750242408
  0.7023727893439967  0.6570052333975783  0.3960990539929288
  0.7025734347614961  0.6568496267358017  0.8961046704959972
  0.2039447684834674  0.0470901904996509  0.2605105731785241
  0.2039447843732449  0.0470897480911164  0.7394894377057729
  0.2004408432392115  0.5507803570905814  0.2474969598068285
  0.2004413235418614  0.5507794660672665  0.7525028558620641
  0.5342332949019708  0.0519783616987801  0.2506462883183860
  0.5342332182532481  0.0519781859514156  0.7493536949721503
  0.5338791803567543  0.5524512570442595  0.2500966948293905
  0.5338792661386231  0.5524513775025198  0.7499030249909880
  0.8685010800990142  0.0518027133766602  0.2496003413643157
  0.8685007551526943  0.0518026309261939  0.7503995420233025
  0.8670779202344201  0.5521955962698691  0.2501029087367770
  0.8670779054104784  0.5521956959275751  0.7498968306140166
  0.0592509653446471  0.4106531747440959  0.2507051612517825
  0.0592511878584419  0.4106530728173277  0.7492947629434389
  0.0617856398462889  0.9096016253925552  0.2517350436882212
  0.0617853496543532  0.9096015970063480  0.7482647361816771
  0.3941142215031803  0.4099077514970427  0.2485850174080354
  0.3941143535317775  0.4099076608358185  0.7514149545655575
  0.3952634877780084  0.9077867929854947  0.2511809090099273
  0.3952634618527900  0.9077866879559852  0.7488191203669221
  0.7270375291975906  0.4100399138047156  0.2505268566965219
  0.7270374271395870  0.4100400232587281  0.7494729686435854
  0.7285926791414493  0.9094952033461692  0.2496266993013253
  0.7285922771799237  0.9094953632932680  0.7503735756665237
  0.2285718677935857  0.0907088026285583  0.4999999324196486
  0.2298225403627132  0.6044445391401851  0.0000000618353142
  0.2275292114946051  0.5857605003047889  0.4999999802879599
  0.5621378652530449  0.0899523832035687 -0.0000000869757720
  0.5614181887813056  0.0907006821350328  0.4999999854597593
  0.5613757351253967  0.5901037440771559 -0.0000001178492001
  0.5610228641733659  0.5905807690528290  0.4999999880123217
  0.8944814138229917  0.0928136405754434 -0.0000001056849512
  0.8943793904428233  0.0908264287636097  0.4999998635184484
  0.8956644570946933  0.5867009146232001 -0.0000000828075337
  0.8942970546919294  0.5892711619497215  0.4999998350771021
  0.1965367792887708  0.3437150009674818  0.1401274865558804
  0.2022905954064912  0.3402716326212218  0.6511530383226091
  0.2030106033746382  0.8425172729188427  0.1496430211561739
  0.2009109332519079  0.8364445250166528  0.6424181717783962
  0.5358347500446949  0.3438160172007853  0.1455015582291801
  0.5349550525198923  0.3432104450744644  0.6464674239896454
  0.5365544462058187  0.8437605251416124  0.1460860529977491
  0.5366713815754457  0.8424538075682996  0.6457384621916360
  0.8676881001015374  0.3430544497164326  0.1464076466513910
  0.8683781057483203  0.3430625316438835  0.6458588976490678
  0.8700226902918583  0.8423744717885365  0.1461282508617916
  0.8694048029240657  0.8429364586287671  0.6458907827904736
  0.0370825902377067  0.1606626144222914  0.1023580648334219
  0.0355071309113161  0.1575124883920583  0.6038665288544375
  0.0362376388528218  0.6552273042112909  0.1039273584421001
  0.0352384824232422  0.6558633955319456  0.6039743267918141
  0.3710022178052682  0.1587843253916076  0.1047898166680263
  0.3699051898105823  0.1567759009643750  0.6038198074954501
  0.3719742946393508  0.6604894875440748  0.1043283485692437
  0.3683878691391819  0.6549184574589858  0.6037947744061363
  0.7028028705505172  0.1572586535254056  0.1040466412797448
  0.7024378377064074  0.1571375555162182  0.6040363172556678
  0.7025734039370131  0.6568496565559716  0.1038949076529825
  0.7023727667492990  0.6570051680507154  0.6039000607241971
  0.0370258268709574  0.4457381952105954  0.0000002118667068
  0.0344613021186164  0.4468706502212152  0.4999999468459159
  0.0321377807617838  0.9479982370219689  0.0000002404443060
  0.0341848109740977  0.9482882117288839  0.4999999024550544
  0.3640894057087594  0.4518064319760455 -0.0000000017640043
  0.3675743963859736  0.4454047174872312  0.5000000652250155
  0.3647191061472113  0.9515566156020117  0.0000001041491772
  0.3677070527928301  0.9473968550945530  0.5000000046896979
  0.7010881451664325  0.4476695911376881 -0.0000000558371945
  0.7004714471073926  0.4478483047228242  0.4999998549310656
  0.7027632459162630  0.9483890147260761 -0.0000000346841803
  0.7012628088809224  0.9480979420449280  0.4999999573616785
  0.2022907763444179  0.3402721317108633  0.3488471781212548
  0.1965363450522492  0.3437142614386863  0.8598729437332084
  0.2009109737525600  0.8364455977142964  0.3575815154659960
  0.2030104370345593  0.8425168185066987  0.8503569459509894
  0.5349548908765347  0.3432104321341489  0.3535325623055237
  0.5358347918796784  0.3438160702584282  0.8544984217145812
  0.5366714367864190  0.8424539092876476  0.3542614341192418
  0.5365544544336982  0.8437603790711068  0.8539139084955806
  0.8683782188005668  0.3430625102205177  0.3541410022987951
  0.8676880416853445  0.3430545170635045  0.8535921987528097
  0.8694054360375297  0.8429363123969735  0.3541088517245958
  0.8700225868000749  0.8423746843756590  0.8538714218179063
 
  0.00000000E+00  0.00000000E+00  0.00000000E+00
  0.00000000E+00  0.00000000E+00  0.00000000E+00
  0.00000000E+00  0.00000000E+00  0.00000000E+00
  0.00000000E+00  0.00000000E+00  0.00000000E+00
  0.00000000E+00  0.00000000E+00  0.00000000E+00
  0.00000000E+00  0.00000000E+00  0.00000000E+00
  0.00000000E+00  0.00000000E+00  0.00000000E+00
  0.00000000E+00  0.00000000E+00  0.00000000E+00
  0.00000000E+00  0.00000000E+00  0.00000000E+00
  0.00000000E+00  0.00000000E+00  0.00000000E+00
  0.00000000E+00  0.00000000E+00  0.00000000E+00
  0.00000000E+00  0.00000000E+00  0.00000000E+00
  0.00000000E+00  0.00000000E+00  0.00000000E+00
  0.00000000E+00  0.00000000E+00  0.00000000E+00
  0.00000000E+00  0.00000000E+00  0.00000000E+00
  0.00000000E+00  0.00000000E+00  0.00000000E+00
  0.00000000E+00  0.00000000E+00  0.00000000E+00
  0.00000000E+00  0.00000000E+00  0.00000000E+00
  0.00000000E+00  0.00000000E+00  0.00000000E+00
  0.00000000E+00  0.00000000E+00  0.00000000E+00
  0.00000000E+00  0.00000000E+00  0.00000000E+00
  0.00000000E+00  0.00000000E+00  0.00000000E+00
  0.00000000E+00  0.00000000E+00  0.00000000E+00
  0.00000000E+00  0.00000000E+00  0.00000000E+00
  0.00000000E+00  0.00000000E+00  0.00000000E+00
  0.00000000E+00  0.00000000E+00  0.00000000E+00
  0.00000000E+00  0.00000000E+00  0.00000000E+00
  0.00000000E+00  0.00000000E+00  0.00000000E+00
  0.00000000E+00  0.00000000E+00  0.00000000E+00
  0.00000000E+00  0.00000000E+00  0.00000000E+00
  0.00000000E+00  0.00000000E+00  0.00000000E+00
  0.00000000E+00  0.00000000E+00  0.00000000E+00
  0.00000000E+00  0.00000000E+00  0.00000000E+00
  0.00000000E+00  0.00000000E+00  0.00000000E+00
  0.00000000E+00  0.00000000E+00  0.00000000E+00
  0.00000000E+00  0.00000000E+00  0.00000000E+00
  0.00000000E+00  0.00000000E+00  0.00000000E+00
  0.00000000E+00  0.00000000E+00  0.00000000E+00
  0.00000000E+00  0.00000000E+00  0.00000000E+00
  0.00000000E+00  0.00000000E+00  0.00000000E+00
  0.00000000E+00  0.00000000E+00  0.00000000E+00
  0.00000000E+00  0.00000000E+00  0.00000000E+00
  0.00000000E+00  0.00000000E+00  0.00000000E+00
  0.00000000E+00  0.00000000E+00  0.00000000E+00
  0.00000000E+00  0.00000000E+00  0.00000000E+00
  0.00000000E+00  0.00000000E+00  0.00000000E+00
  0.00000000E+00  0.00000000E+00  0.00000000E+00
  0.00000000E+00  0.00000000E+00  0.00000000E+00
  0.00000000E+00  0.00000000E+00  0.00000000E+00
  0.00000000E+00  0.00000000E+00  0.00000000E+00
  0.00000000E+00  0.00000000E+00  0.00000000E+00
  0.00000000E+00  0.00000000E+00  0.00000000E+00
  0.00000000E+00  0.00000000E+00  0.00000000E+00
  0.00000000E+00  0.00000000E+00  0.00000000E+00
  0.00000000E+00  0.00000000E+00  0.00000000E+00
  0.00000000E+00  0.00000000E+00  0.00000000E+00
  0.00000000E+00  0.00000000E+00  0.00000000E+00
  0.00000000E+00  0.00000000E+00  0.00000000E+00
  0.00000000E+00  0.00000000E+00  0.00000000E+00
  0.00000000E+00  0.00000000E+00  0.00000000E+00
  0.00000000E+00  0.00000000E+00  0.00000000E+00
  0.00000000E+00  0.00000000E+00  0.00000000E+00
  0.00000000E+00  0.00000000E+00  0.00000000E+00
  0.00000000E+00  0.00000000E+00  0.00000000E+00
  0.00000000E+00  0.00000000E+00  0.00000000E+00
  0.00000000E+00  0.00000000E+00  0.00000000E+00
  0.00000000E+00  0.00000000E+00  0.00000000E+00
  0.00000000E+00  0.00000000E+00  0.00000000E+00
  0.00000000E+00  0.00000000E+00  0.00000000E+00
  0.00000000E+00  0.00000000E+00  0.00000000E+00
  0.00000000E+00  0.00000000E+00  0.00000000E+00
  0.00000000E+00  0.00000000E+00  0.00000000E+00
  0.00000000E+00  0.00000000E+00  0.00000000E+00
  0.00000000E+00  0.00000000E+00  0.00000000E+00
  0.00000000E+00  0.00000000E+00  0.00000000E+00
  0.00000000E+00  0.00000000E+00  0.00000000E+00
  0.00000000E+00  0.00000000E+00  0.00000000E+00
  0.00000000E+00  0.00000000E+00  0.00000000E+00
  0.00000000E+00  0.00000000E+00  0.00000000E+00
  0.00000000E+00  0.00000000E+00  0.00000000E+00
  0.00000000E+00  0.00000000E+00  0.00000000E+00
  0.00000000E+00  0.00000000E+00  0.00000000E+00
  0.00000000E+00  0.00000000E+00  0.00000000E+00
  0.00000000E+00  0.00000000E+00  0.00000000E+00
  0.00000000E+00  0.00000000E+00  0.00000000E+00
  0.00000000E+00  0.00000000E+00  0.00000000E+00
  0.00000000E+00  0.00000000E+00  0.00000000E+00
  0.00000000E+00  0.00000000E+00  0.00000000E+00
  0.00000000E+00  0.00000000E+00  0.00000000E+00
  0.00000000E+00  0.00000000E+00  0.00000000E+00
  0.00000000E+00  0.00000000E+00  0.00000000E+00
  0.00000000E+00  0.00000000E+00  0.00000000E+00
  0.00000000E+00  0.00000000E+00  0.00000000E+00
  0.00000000E+00  0.00000000E+00  0.00000000E+00
  0.00000000E+00  0.00000000E+00  0.00000000E+00
  0.00000000E+00  0.00000000E+00  0.00000000E+00
  0.00000000E+00  0.00000000E+00  0.00000000E+00
  0.00000000E+00  0.00000000E+00  0.00000000E+00
  0.00000000E+00  0.00000000E+00  0.00000000E+00
  0.00000000E+00  0.00000000E+00  0.00000000E+00
  0.00000000E+00  0.00000000E+00  0.00000000E+00
  0.00000000E+00  0.00000000E+00  0.00000000E+00
  0.00000000E+00  0.00000000E+00  0.00000000E+00
  0.00000000E+00  0.00000000E+00  0.00000000E+00
  0.00000000E+00  0.00000000E+00  0.00000000E+00
  0.00000000E+00  0.00000000E+00  0.00000000E+00
  0.00000000E+00  0.00000000E+00  0.00000000E+00
  0.00000000E+00  0.00000000E+00  0.00000000E+00
  0.00000000E+00  0.00000000E+00  0.00000000E+00
  0.00000000E+00  0.00000000E+00  0.00000000E+00
  0.00000000E+00  0.00000000E+00  0.00000000E+00
  0.00000000E+00  0.00000000E+00  0.00000000E+00
  0.00000000E+00  0.00000000E+00  0.00000000E+00
  0.00000000E+00  0.00000000E+00  0.00000000E+00
  0.00000000E+00  0.00000000E+00  0.00000000E+00
  0.00000000E+00  0.00000000E+00  0.00000000E+00
  0.00000000E+00  0.00000000E+00  0.00000000E+00
  0.00000000E+00  0.00000000E+00  0.00000000E+00
  0.00000000E+00  0.00000000E+00  0.00000000E+00
  0.00000000E+00  0.00000000E+00  0.00000000E+00
  0.00000000E+00  0.00000000E+00  0.00000000E+00
  0.00000000E+00  0.00000000E+00  0.00000000E+00
  0.00000000E+00  0.00000000E+00  0.00000000E+00
  0.00000000E+00  0.00000000E+00  0.00000000E+00
  0.00000000E+00  0.00000000E+00  0.00000000E+00
  0.00000000E+00  0.00000000E+00  0.00000000E+00
  0.00000000E+00  0.00000000E+00  0.00000000E+00
  0.00000000E+00  0.00000000E+00  0.00000000E+00
  0.00000000E+00  0.00000000E+00  0.00000000E+00
  0.00000000E+00  0.00000000E+00  0.00000000E+00
  0.00000000E+00  0.00000000E+00  0.00000000E+00
  0.00000000E+00  0.00000000E+00  0.00000000E+00
  0.00000000E+00  0.00000000E+00  0.00000000E+00
  0.00000000E+00  0.00000000E+00  0.00000000E+00
  0.00000000E+00  0.00000000E+00  0.00000000E+00
  0.00000000E+00  0.00000000E+00  0.00000000E+00
  0.00000000E+00  0.00000000E+00  0.00000000E+00
  0.00000000E+00  0.00000000E+00  0.00000000E+00
  0.00000000E+00  0.00000000E+00  0.00000000E+00
  0.00000000E+00  0.00000000E+00  0.00000000E+00
  0.00000000E+00  0.00000000E+00  0.00000000E+00
  0.00000000E+00  0.00000000E+00  0.00000000E+00
  0.00000000E+00  0.00000000E+00  0.00000000E+00
  0.00000000E+00  0.00000000E+00  0.00000000E+00
  0.00000000E+00  0.00000000E+00  0.00000000E+00
  0.00000000E+00  0.00000000E+00  0.00000000E+00
  0.00000000E+00  0.00000000E+00  0.00000000E+00
  0.00000000E+00  0.00000000E+00  0.00000000E+00
  0.00000000E+00  0.00000000E+00  0.00000000E+00
  0.00000000E+00  0.00000000E+00  0.00000000E+00
  0.00000000E+00  0.00000000E+00  0.00000000E+00
  0.00000000E+00  0.00000000E+00  0.00000000E+00
  0.00000000E+00  0.00000000E+00  0.00000000E+00
  0.00000000E+00  0.00000000E+00  0.00000000E+00
  0.00000000E+00  0.00000000E+00  0.00000000E+00
  0.00000000E+00  0.00000000E+00  0.00000000E+00
  0.00000000E+00  0.00000000E+00  0.00000000E+00
  0.00000000E+00  0.00000000E+00  0.00000000E+00
  0.00000000E+00  0.00000000E+00  0.00000000E+00
  0.00000000E+00  0.00000000E+00  0.00000000E+00
  0.00000000E+00  0.00000000E+00  0.00000000E+00
  0.00000000E+00  0.00000000E+00  0.00000000E+00
  0.00000000E+00  0.00000000E+00  0.00000000E+00
  0.00000000E+00  0.00000000E+00  0.00000000E+00
  0.00000000E+00  0.00000000E+00  0.00000000E+00
  0.00000000E+00  0.00000000E+00  0.00000000E+00
  0.00000000E+00  0.00000000E+00  0.00000000E+00
  0.00000000E+00  0.00000000E+00  0.00000000E+00
  0.00000000E+00  0.00000000E+00  0.00000000E+00
  0.00000000E+00  0.00000000E+00  0.00000000E+00
  0.00000000E+00  0.00000000E+00  0.00000000E+00
  0.00000000E+00  0.00000000E+00  0.00000000E+00
  0.00000000E+00  0.00000000E+00  0.00000000E+00
  0.00000000E+00  0.00000000E+00  0.00000000E+00
  0.00000000E+00  0.00000000E+00  0.00000000E+00
  0.00000000E+00  0.00000000E+00  0.00000000E+00
  0.00000000E+00  0.00000000E+00  0.00000000E+00
  0.00000000E+00  0.00000000E+00  0.00000000E+00
  0.00000000E+00  0.00000000E+00  0.00000000E+00
  0.00000000E+00  0.00000000E+00  0.00000000E+00
  0.00000000E+00  0.00000000E+00  0.00000000E+00
  0.00000000E+00  0.00000000E+00  0.00000000E+00
  0.00000000E+00  0.00000000E+00  0.00000000E+00
  0.00000000E+00  0.00000000E+00  0.00000000E+00
  0.00000000E+00  0.00000000E+00  0.00000000E+00
  0.00000000E+00  0.00000000E+00  0.00000000E+00
  0.00000000E+00  0.00000000E+00  0.00000000E+00
  0.00000000E+00  0.00000000E+00  0.00000000E+00
  0.00000000E+00  0.00000000E+00  0.00000000E+00
  0.00000000E+00  0.00000000E+00  0.00000000E+00
  0.00000000E+00  0.00000000E+00  0.00000000E+00
  0.00000000E+00  0.00000000E+00  0.00000000E+00
  0.00000000E+00  0.00000000E+00  0.00000000E+00
