Li7 P2 N1 O7                            
   1.00000000000000     
     4.9299885108684354    0.0046242651701904   -0.0117516140616730
     0.0048596338918412    5.3865107550335081    0.0636759027705194
    -0.0147854991466472    0.0738342598903319    6.3190417598225679
   Li   P    N    O 
     7     2     1     7
Direct
  0.0314294502385201  0.6248484304792772  0.2524578483130800
  0.0029404405853914  0.6853340582458131  0.7417061308206122
  0.5159251082114900  0.3312120541233691  0.7397107376762437
  0.5042892427350597  0.8398387732955874 -0.0080716745551940
  0.0344844927711037  0.1759716380793727  0.5396392977350010
  0.5069462257210572  0.3349040907562425  0.2571004574430178
  0.8706465250457658  0.9656214762572755  0.2997998084902985
  0.4809898607906375  0.8243068298661870  0.5001158067681225
  0.0047554900832601  0.1767248506249952 -0.0086746140240552
  0.1641760815710984  0.8295008624941050  0.4851557614257367
  0.1138116739781466  0.3234613165861218  0.7975360018035333
  0.6174979495378533  0.1011640838605979  0.4948970172409275
  0.6879045370587764  0.1829518064083431 -0.0012155250296863
  0.6198621712460888  0.6946219632897674  0.2949528369323909
  0.1084824016847423  0.2983459141089354  0.1995746711333021
  0.0949097638726828  0.9010292252140883 -0.0010747656484369
  0.6009785848683565  0.6862426263099244  0.7055002034751064
 
  0.00000000E+00  0.00000000E+00  0.00000000E+00
  0.00000000E+00  0.00000000E+00  0.00000000E+00
  0.00000000E+00  0.00000000E+00  0.00000000E+00
  0.00000000E+00  0.00000000E+00  0.00000000E+00
  0.00000000E+00  0.00000000E+00  0.00000000E+00
  0.00000000E+00  0.00000000E+00  0.00000000E+00
  0.00000000E+00  0.00000000E+00  0.00000000E+00
  0.00000000E+00  0.00000000E+00  0.00000000E+00
  0.00000000E+00  0.00000000E+00  0.00000000E+00
  0.00000000E+00  0.00000000E+00  0.00000000E+00
  0.00000000E+00  0.00000000E+00  0.00000000E+00
  0.00000000E+00  0.00000000E+00  0.00000000E+00
  0.00000000E+00  0.00000000E+00  0.00000000E+00
  0.00000000E+00  0.00000000E+00  0.00000000E+00
  0.00000000E+00  0.00000000E+00  0.00000000E+00
  0.00000000E+00  0.00000000E+00  0.00000000E+00
  0.00000000E+00  0.00000000E+00  0.00000000E+00
