Li5 P2 N1 O6                            
   1.00000000000000     
    -0.5380430423981415   -0.7548642580222304    4.9335489060747966
     6.3871398572686875   -0.4581190403649866   -0.5912905990434904
    -0.4509562777646791    4.7318066619177950   -0.7995281454365213
   Li   P    N    O 
     5     2     1     6
Direct
  0.3999856574076501  0.0193385810088714  0.7801570402329394
  0.4963831170977963  0.7634225187160467  0.3658850495838601
 -0.0466210517760848  0.6310252337020301  0.5152540199423166
 -0.0454903752043302  0.2293734019342124  0.6762559317011629
  0.4833795787753982  0.2394763920968503  0.2840058639832319
  0.5404312943969769  0.5045386312373913  0.8490708611146351
 -0.0615310740106508 -0.0776476532465855  0.1000919840045702
  0.7402785626264121  0.7263120111397465  0.8095033681366900
  0.1513798390670217  0.8522294397905056  0.3596732478558164
  0.6121643518023847  0.2950785556791896  0.7120984704359324
  0.5940393488244274  0.5139888000784323  0.1861936428748124
  0.1230821605854190  0.0831452376835492  0.9787611723068700
  0.2212594888665950  0.4862380227517661  0.6805976905694421
  0.7326321015410096  0.0263428274279938  0.2334626572577196
 
  0.00000000E+00  0.00000000E+00  0.00000000E+00
  0.00000000E+00  0.00000000E+00  0.00000000E+00
  0.00000000E+00  0.00000000E+00  0.00000000E+00
  0.00000000E+00  0.00000000E+00  0.00000000E+00
  0.00000000E+00  0.00000000E+00  0.00000000E+00
  0.00000000E+00  0.00000000E+00  0.00000000E+00
  0.00000000E+00  0.00000000E+00  0.00000000E+00
  0.00000000E+00  0.00000000E+00  0.00000000E+00
  0.00000000E+00  0.00000000E+00  0.00000000E+00
  0.00000000E+00  0.00000000E+00  0.00000000E+00
  0.00000000E+00  0.00000000E+00  0.00000000E+00
  0.00000000E+00  0.00000000E+00  0.00000000E+00
  0.00000000E+00  0.00000000E+00  0.00000000E+00
  0.00000000E+00  0.00000000E+00  0.00000000E+00
