Li61 P7 N32                             
   1.00000000000000     
    -0.0014515836632867    9.5016295348258595    0.0085957262576167
     0.0110736621382050    0.0085878728449643    9.5889240885046370
     9.5576559112027457   -0.0016739220311390    0.0105471424466556
   Li   P    N 
    61     7    32
Direct
  0.5013022518813371 -0.0004015547568105  0.4950600317775447
  0.0098369748020690  0.4828871983193443  0.0199567650259798
  0.5022383860867536 -0.0048171527777145 -0.0054676210285436
  0.0053751520176824 -0.0029159633902621  0.4982714454917275
  0.5187373019749660  0.5147766688964110 -0.0191740372076695
  0.0107292839856715  0.4968556604303134  0.4957565104497560
  0.7522679096605587  0.0009256350650324  0.4941900770560968
  0.2524501829449227 -0.0133986313627425  0.4981769128922718
  0.7686663917108864  0.4925807956948521  0.5126875099993959
  0.2375330800685715  0.5017533288454633  0.4981625478226718
  0.2674094463323953 -0.0009621266912571 -0.0068566447214812
  0.7424744656296185 -0.0175970741789408 -0.0117561377076062
  0.8107184540251804  0.5802434462002852  0.0584008064035333
  0.5043361794593935  0.2402304818501839 -0.0132263311971817
  0.4895408934516983  0.7531041464412123  0.0177903015435363
 -0.0241012387128735  0.4902085236258749  0.2622364728214656
 -0.0162992383243743  0.5026732940314450  0.7260715113912412
  0.2522359218630015  0.2055073727855311  0.2069183736255708
  0.2430976565213630  0.7928083076397068  0.7689654113378562
  0.2677301357513964  0.2799694725367594  0.7165562981285961
  0.2648330685558588  0.7094033039036131  0.2771546171211805
  0.7757612103463042  0.3021964097621739  0.3042257648035406
  0.7573769885276442  0.7122251318000578  0.6880163869376805
  0.7439728269613274  0.2016297305591863  0.7974167016678112
  0.7360198260463645  0.8043071020883821  0.1823683987954487
 -0.0020757792372126  0.2443426546307531  0.2384472561706263
  0.9794341457336323  0.7614327058399194  0.7465190534954602
  0.2631968407989759  0.2221002571278665  0.4785724870096186
  0.2688960778855863  0.7479937261294278  0.5220333286842969
  0.7544993160366076  0.2335856225062380  0.5482921607203501
  0.7539773532332065  0.7711874586341345  0.4392536274799337
  0.7314392199799690  0.5557897912202094  0.2827205767856729
  0.7200905471862832  0.4960311573009970  0.7600096850213535
  0.1998096414247302  0.4578291577996250  0.2375502825185843
  0.0973351815150539  0.6252310458569553  0.8772211145335054
  0.5152217379105021  0.7478852331602547  0.2571810470101552
  0.5185910487580657  0.2470777688135293  0.7489192520886873
  0.2405672185865534  0.9682564726244069  0.2527532128946807
  0.2399516915366472  0.0309269308647054  0.7376488610687867
  0.2609996415794386  0.2399478593429908  0.9645498067455235
  0.2462813523327131  0.7663644019443218  0.0288057873131745
  0.7582711210091085  0.9576365866083633  0.7342824929441084
  0.7667780766876865  0.0382775895324223  0.2521292088486400
  0.7052262778575671  0.7247191675163464  0.9289978335473880
  0.7605810332475663  0.2118523812275438  0.0445171248713848
  0.0145434831608692  0.2496565587082689  0.7584098014897290
  0.0119417547740513  0.7481237422694030  0.2338602924825591
  0.5258047346381223  0.2500893970806536  0.2448897594236554
  0.4864147837285100  0.7289857490056691  0.7544314447263880
  0.0096342265373350  0.2538143641023937  0.0081501870856667
 -0.0390994362143232  0.7612129067988550 -0.0151584314745351
  0.5142189563009502  0.2341364137120629  0.5038641743782377
  0.5095255673958579  0.7618843059932514  0.5063909529567564
  0.4875986885996647  0.5256313066274484  0.2242350957639953
  0.4913658724524179  0.4745819702658039  0.7587217978673895
  0.0056316873088917 -0.0016667335075553  0.2628203738780478
  0.0013339387862538  0.0047819472278354  0.7381168285909876
  0.3708617511738212  0.3705394491281735  0.3498250022900822
  0.2536293741688975  0.5249186368088773  0.7298737712525925
  0.8239408343393202  0.4086355059971992  0.9201212163797304
  0.6712309132501606  0.4181827159045350  0.0885238171402058
  0.5033708809280456  0.5014741308308223  0.5015036551841904
  0.0065223501724303  0.0012373812581572  0.0005476921658723
  0.2608611071814122  0.4986794418502725  0.0002050814997641
  0.0070468178315591  0.7470250130493933  0.4958885150280046
  0.0108537376794893  0.2469186770698267  0.4984272754380267
  0.5025993773960289  0.0008882001675412  0.2444186733958963
  0.4991243474579854 -0.0071779298870592  0.7455854009083770
  0.6028815358165930  0.5964580323819312  0.6075124684829328
  0.6014623498805289  0.3998749988560630  0.3929455059660552
  0.9025230898515796  0.9076690335156242  0.1078298728912708
  0.9033641159906343  0.1026784949448688  0.8974884701125772
  0.1040803762507489  0.8940484640063943  0.8952195606193427
  0.1148939198602854  0.0986991626923222  0.0994118657415286
  0.3976468782472489  0.6029980792734942  0.4023843767930185
  0.3950996097757624  0.3909980304720733  0.5902698887420966
  0.1161561241560422  0.3440645999427324  0.3890969180430605
  0.1068260121647051  0.6509657043411611  0.6103387429922572
  0.1170212062458847  0.1446426125842137  0.6003970971834671
  0.1175192616697766  0.8452969410895376  0.3963424087579306
  0.8993972664672421  0.1479438743676897  0.4025675069942232
  0.8918848296070673  0.8507747680142409  0.5856868295349169
  0.8685117619410948  0.3781893999516098  0.1286134193331850
  0.8766494147535637  0.6164498572272671  0.8621393781412446
  0.1534286440711918  0.5990925796172933  0.1032003166906697
  0.1586352227094935  0.4049030097673618  0.8860962212680240
  0.3987563375784381  0.8933288041287830  0.1505447522276351
  0.3988815691926131  0.1017118516161472  0.8444949015048436
  0.3963399641924586  0.1082189143675367  0.3446445446907920
  0.3895684746910645  0.8958407632106179  0.6438344705270361
  0.3533031312249639  0.3888312877026677  0.1053458906341255
  0.3495041078047605  0.6135659518718068  0.8975543720713618
  0.6130151370137543  0.0895123331151775  0.6458660276762526
  0.6136615255850262  0.9073178424694229  0.3481465386590472
  0.6294354956895948  0.6353181609791994  0.1199183710377734
  0.6316740891729891  0.3590330629956178  0.8822724008315931
  0.9146303194708302  0.3503027593990238  0.6014465565488121
  0.9097382725880265  0.6424600270686189  0.3922275550230307
  0.6027039661407386  0.1000939008245605  0.1387373019801535
  0.5963809855171534  0.8844000707440003  0.8456528174657716
 
  0.00000000E+00  0.00000000E+00  0.00000000E+00
  0.00000000E+00  0.00000000E+00  0.00000000E+00
  0.00000000E+00  0.00000000E+00  0.00000000E+00
  0.00000000E+00  0.00000000E+00  0.00000000E+00
  0.00000000E+00  0.00000000E+00  0.00000000E+00
  0.00000000E+00  0.00000000E+00  0.00000000E+00
  0.00000000E+00  0.00000000E+00  0.00000000E+00
  0.00000000E+00  0.00000000E+00  0.00000000E+00
  0.00000000E+00  0.00000000E+00  0.00000000E+00
  0.00000000E+00  0.00000000E+00  0.00000000E+00
  0.00000000E+00  0.00000000E+00  0.00000000E+00
  0.00000000E+00  0.00000000E+00  0.00000000E+00
  0.00000000E+00  0.00000000E+00  0.00000000E+00
  0.00000000E+00  0.00000000E+00  0.00000000E+00
  0.00000000E+00  0.00000000E+00  0.00000000E+00
  0.00000000E+00  0.00000000E+00  0.00000000E+00
  0.00000000E+00  0.00000000E+00  0.00000000E+00
  0.00000000E+00  0.00000000E+00  0.00000000E+00
  0.00000000E+00  0.00000000E+00  0.00000000E+00
  0.00000000E+00  0.00000000E+00  0.00000000E+00
  0.00000000E+00  0.00000000E+00  0.00000000E+00
  0.00000000E+00  0.00000000E+00  0.00000000E+00
  0.00000000E+00  0.00000000E+00  0.00000000E+00
  0.00000000E+00  0.00000000E+00  0.00000000E+00
  0.00000000E+00  0.00000000E+00  0.00000000E+00
  0.00000000E+00  0.00000000E+00  0.00000000E+00
  0.00000000E+00  0.00000000E+00  0.00000000E+00
  0.00000000E+00  0.00000000E+00  0.00000000E+00
  0.00000000E+00  0.00000000E+00  0.00000000E+00
  0.00000000E+00  0.00000000E+00  0.00000000E+00
  0.00000000E+00  0.00000000E+00  0.00000000E+00
  0.00000000E+00  0.00000000E+00  0.00000000E+00
  0.00000000E+00  0.00000000E+00  0.00000000E+00
  0.00000000E+00  0.00000000E+00  0.00000000E+00
  0.00000000E+00  0.00000000E+00  0.00000000E+00
  0.00000000E+00  0.00000000E+00  0.00000000E+00
  0.00000000E+00  0.00000000E+00  0.00000000E+00
  0.00000000E+00  0.00000000E+00  0.00000000E+00
  0.00000000E+00  0.00000000E+00  0.00000000E+00
  0.00000000E+00  0.00000000E+00  0.00000000E+00
  0.00000000E+00  0.00000000E+00  0.00000000E+00
  0.00000000E+00  0.00000000E+00  0.00000000E+00
  0.00000000E+00  0.00000000E+00  0.00000000E+00
  0.00000000E+00  0.00000000E+00  0.00000000E+00
  0.00000000E+00  0.00000000E+00  0.00000000E+00
  0.00000000E+00  0.00000000E+00  0.00000000E+00
  0.00000000E+00  0.00000000E+00  0.00000000E+00
  0.00000000E+00  0.00000000E+00  0.00000000E+00
  0.00000000E+00  0.00000000E+00  0.00000000E+00
  0.00000000E+00  0.00000000E+00  0.00000000E+00
  0.00000000E+00  0.00000000E+00  0.00000000E+00
  0.00000000E+00  0.00000000E+00  0.00000000E+00
  0.00000000E+00  0.00000000E+00  0.00000000E+00
  0.00000000E+00  0.00000000E+00  0.00000000E+00
  0.00000000E+00  0.00000000E+00  0.00000000E+00
  0.00000000E+00  0.00000000E+00  0.00000000E+00
  0.00000000E+00  0.00000000E+00  0.00000000E+00
  0.00000000E+00  0.00000000E+00  0.00000000E+00
  0.00000000E+00  0.00000000E+00  0.00000000E+00
  0.00000000E+00  0.00000000E+00  0.00000000E+00
  0.00000000E+00  0.00000000E+00  0.00000000E+00
  0.00000000E+00  0.00000000E+00  0.00000000E+00
  0.00000000E+00  0.00000000E+00  0.00000000E+00
  0.00000000E+00  0.00000000E+00  0.00000000E+00
  0.00000000E+00  0.00000000E+00  0.00000000E+00
  0.00000000E+00  0.00000000E+00  0.00000000E+00
  0.00000000E+00  0.00000000E+00  0.00000000E+00
  0.00000000E+00  0.00000000E+00  0.00000000E+00
  0.00000000E+00  0.00000000E+00  0.00000000E+00
  0.00000000E+00  0.00000000E+00  0.00000000E+00
  0.00000000E+00  0.00000000E+00  0.00000000E+00
  0.00000000E+00  0.00000000E+00  0.00000000E+00
  0.00000000E+00  0.00000000E+00  0.00000000E+00
  0.00000000E+00  0.00000000E+00  0.00000000E+00
  0.00000000E+00  0.00000000E+00  0.00000000E+00
  0.00000000E+00  0.00000000E+00  0.00000000E+00
  0.00000000E+00  0.00000000E+00  0.00000000E+00
  0.00000000E+00  0.00000000E+00  0.00000000E+00
  0.00000000E+00  0.00000000E+00  0.00000000E+00
  0.00000000E+00  0.00000000E+00  0.00000000E+00
  0.00000000E+00  0.00000000E+00  0.00000000E+00
  0.00000000E+00  0.00000000E+00  0.00000000E+00
  0.00000000E+00  0.00000000E+00  0.00000000E+00
  0.00000000E+00  0.00000000E+00  0.00000000E+00
  0.00000000E+00  0.00000000E+00  0.00000000E+00
  0.00000000E+00  0.00000000E+00  0.00000000E+00
  0.00000000E+00  0.00000000E+00  0.00000000E+00
  0.00000000E+00  0.00000000E+00  0.00000000E+00
  0.00000000E+00  0.00000000E+00  0.00000000E+00
  0.00000000E+00  0.00000000E+00  0.00000000E+00
  0.00000000E+00  0.00000000E+00  0.00000000E+00
  0.00000000E+00  0.00000000E+00  0.00000000E+00
  0.00000000E+00  0.00000000E+00  0.00000000E+00
  0.00000000E+00  0.00000000E+00  0.00000000E+00
  0.00000000E+00  0.00000000E+00  0.00000000E+00
  0.00000000E+00  0.00000000E+00  0.00000000E+00
  0.00000000E+00  0.00000000E+00  0.00000000E+00
  0.00000000E+00  0.00000000E+00  0.00000000E+00
  0.00000000E+00  0.00000000E+00  0.00000000E+00
  0.00000000E+00  0.00000000E+00  0.00000000E+00
