P56 O140
1.0
4.937041 0.000000 0.000000
-1.817865 4.590178 0.000000
0.000000 0.000000 149.288130
P O
56 140
Selective dynamics
direct
0.679111 0.525416 0.894326 F F F P5+
0.025416 0.179111 0.966785 T T T P5+
0.025416 0.679111 0.977659 T T T P5+
0.179111 0.525416 0.994563 T T T P5+
0.179111 0.025416 0.949881 T T T P5+
0.525416 0.679111 0.911230 F F F P5+
0.525416 0.179111 0.922104 F F F P5+
0.679111 0.025416 0.939008 F F F P5+
0.679111 0.525416 0.783215 F F F P5+
0.025416 0.179111 0.855674 F F F P5+
0.025416 0.679111 0.866548 F F F P5+
0.179111 0.525416 0.883452 F F F P5+
0.179111 0.025416 0.838770 F F F P5+
0.525416 0.679111 0.800119 F F F P5+
0.525416 0.179111 0.810992 F F F P5+
0.679111 0.025416 0.827896 F F F P5+
0.679111 0.525416 0.672104 F F F P5+
0.025416 0.179111 0.744563 F F F P5+
0.025416 0.679111 0.755437 F F F P5+
0.179111 0.525416 0.772341 F F F P5+
0.179111 0.025416 0.727659 F F F P5+
0.525416 0.679111 0.689008 F F F P5+
0.525416 0.179111 0.699881 F F F P5+
0.679111 0.025416 0.716785 F F F P5+
0.679111 0.525416 0.560992 F F F P5+
0.025416 0.179111 0.633452 F F F P5+
0.025416 0.679111 0.644326 F F F P5+
0.179111 0.525416 0.661230 F F F P5+
0.179111 0.025416 0.616548 F F F P5+
0.525416 0.679111 0.577896 F F F P5+
0.525416 0.179111 0.588770 F F F P5+
0.679111 0.025416 0.605674 F F F P5+
0.679111 0.525416 0.449881 F F F P5+
0.025416 0.179111 0.522341 F F F P5+
0.025416 0.679111 0.533215 F F F P5+
0.179111 0.525416 0.550119 F F F P5+
0.179111 0.025416 0.505437 F F F P5+
0.525416 0.679111 0.466785 F F F P5+
0.525416 0.179111 0.477659 F F F P5+
0.679111 0.025416 0.494563 F F F P5+
0.679111 0.525416 0.338770 F F F P5+
0.025416 0.179111 0.411230 F F F P5+
0.025416 0.679111 0.422104 F F F P5+
0.179111 0.525416 0.439008 F F F P5+
0.179111 0.025416 0.394326 F F F P5+
0.525416 0.679111 0.355674 F F F P5+
0.525416 0.179111 0.366548 F F F P5+
0.679111 0.025416 0.383452 F F F P5+
0.679111 0.525416 0.227659 T T T P5+
0.025416 0.179111 0.300119 F F F P5+
0.025416 0.679111 0.310992 F F F P5+
0.179111 0.525416 0.327896 F F F P5+
0.179111 0.025416 0.283215 F F F P5+
0.525416 0.679111 0.244563 T T T P5+
0.525416 0.179111 0.255437 T T T P5+
0.679111 0.025416 0.272341 T T T P5+
0.547936 0.214773 0.896292 F F F O2-
0.714773 0.047936 0.964819 T T T O2-
0.714773 0.547936 0.979625 T T T O2-
0.047936 0.214773 0.992597 T T T O2-
0.240745 0.740745 0.986111 T T T O2-
0.740745 0.740745 0.902778 F F F O2-
0.494801 0.653218 0.998943 T T T O2-
0.153218 0.994801 0.973279 T T T O2-
0.153218 0.494801 0.971165 T T T O2-
0.994801 0.653218 0.889946 F F F O2-
0.047936 0.714773 0.951847 T T T O2-
0.214773 0.547936 0.909264 F F F O2-
0.214773 0.047936 0.924070 F F F O2-
0.547936 0.714773 0.937041 F F F O2-
0.740745 0.240745 0.930556 F F F O2-
0.240745 0.240745 0.958333 T T T O2-
0.994801 0.153218 0.943388 T T T O2-
0.653218 0.494801 0.917724 F F F O2-
0.653218 0.994801 0.915610 F F F O2-
0.494801 0.153218 0.945501 F F F O2-
0.547936 0.214773 0.785181 F F F O2-
0.714773 0.047936 0.853708 F F F O2-
0.714773 0.547936 0.868514 F F F O2-
0.047936 0.214773 0.881486 F F F O2-
0.240745 0.740745 0.875000 F F F O2-
0.740745 0.740745 0.791667 F F F O2-
0.494801 0.653218 0.887832 F F F O2-
0.153218 0.994801 0.862168 F F F O2-
0.153218 0.494801 0.860054 F F F O2-
0.994801 0.653218 0.778835 F F F O2-
0.047936 0.714773 0.840736 F F F O2-
0.214773 0.547936 0.798153 F F F O2-
0.214773 0.047936 0.812959 F F F O2-
0.547936 0.714773 0.825930 F F F O2-
0.740745 0.240745 0.819444 F F F O2-
0.240745 0.240745 0.847222 F F F O2-
0.994801 0.153218 0.832276 F F F O2-
0.653218 0.494801 0.806612 F F F O2-
0.653218 0.994801 0.804499 F F F O2-
0.494801 0.153218 0.834390 F F F O2-
0.547936 0.214773 0.674070 F F F O2-
0.714773 0.047936 0.742597 F F F O2-
0.714773 0.547936 0.757403 F F F O2-
0.047936 0.214773 0.770375 F F F O2-
0.240745 0.740745 0.763889 F F F O2-
0.740745 0.740745 0.680556 F F F O2-
0.494801 0.653218 0.776721 F F F O2-
0.153218 0.994801 0.751057 F F F O2-
0.153218 0.494801 0.748943 F F F O2-
0.994801 0.653218 0.667724 F F F O2-
0.047936 0.714773 0.729625 F F F O2-
0.214773 0.547936 0.687041 F F F O2-
0.214773 0.047936 0.701847 F F F O2-
0.547936 0.714773 0.714819 F F F O2-
0.740745 0.240745 0.708333 F F F O2-
0.240745 0.240745 0.736111 F F F O2-
0.994801 0.153218 0.721165 F F F O2-
0.653218 0.494801 0.695501 F F F O2-
0.653218 0.994801 0.693388 F F F O2-
0.494801 0.153218 0.723279 F F F O2-
0.547936 0.214773 0.562959 F F F O2-
0.714773 0.047936 0.631486 F F F O2-
0.714773 0.547936 0.646292 F F F O2-
0.047936 0.214773 0.659264 F F F O2-
0.240745 0.740745 0.652778 F F F O2-
0.740745 0.740745 0.569444 F F F O2-
0.494801 0.653218 0.665610 F F F O2-
0.153218 0.994801 0.639946 F F F O2-
0.153218 0.494801 0.637832 F F F O2-
0.994801 0.653218 0.556612 F F F O2-
0.047936 0.714773 0.618514 F F F O2-
0.214773 0.547936 0.575930 F F F O2-
0.214773 0.047936 0.590736 F F F O2-
0.547936 0.714773 0.603708 F F F O2-
0.740745 0.240745 0.597222 F F F O2-
0.240745 0.240745 0.625000 F F F O2-
0.994801 0.153218 0.610054 F F F O2-
0.653218 0.494801 0.584390 F F F O2-
0.653218 0.994801 0.582276 F F F O2-
0.494801 0.153218 0.612168 F F F O2-
0.547936 0.214773 0.451847 F F F O2-
0.714773 0.047936 0.520375 F F F O2-
0.714773 0.547936 0.535181 F F F O2-
0.047936 0.214773 0.548153 F F F O2-
0.240745 0.740745 0.541667 F F F O2-
0.740745 0.740745 0.458333 F F F O2-
0.494801 0.653218 0.554499 F F F O2-
0.153218 0.994801 0.528835 F F F O2-
0.153218 0.494801 0.526721 F F F O2-
0.994801 0.653218 0.445501 F F F O2-
0.047936 0.714773 0.507403 F F F O2-
0.214773 0.547936 0.464819 F F F O2-
0.214773 0.047936 0.479625 F F F O2-
0.547936 0.714773 0.492597 F F F O2-
0.740745 0.240745 0.486111 F F F O2-
0.240745 0.240745 0.513889 F F F O2-
0.994801 0.153218 0.498943 F F F O2-
0.653218 0.494801 0.473279 F F F O2-
0.653218 0.994801 0.471165 F F F O2-
0.494801 0.153218 0.501057 F F F O2-
0.547936 0.214773 0.340736 F F F O2-
0.714773 0.047936 0.409264 F F F O2-
0.714773 0.547936 0.424070 F F F O2-
0.047936 0.214773 0.437041 F F F O2-
0.240745 0.740745 0.430556 F F F O2-
0.740745 0.740745 0.347222 F F F O2-
0.494801 0.653218 0.443388 F F F O2-
0.153218 0.994801 0.417724 F F F O2-
0.153218 0.494801 0.415610 F F F O2-
0.994801 0.653218 0.334390 F F F O2-
0.047936 0.714773 0.396292 F F F O2-
0.214773 0.547936 0.353708 F F F O2-
0.214773 0.047936 0.368514 F F F O2-
0.547936 0.714773 0.381486 F F F O2-
0.740745 0.240745 0.375000 F F F O2-
0.240745 0.240745 0.402778 F F F O2-
0.994801 0.153218 0.387832 F F F O2-
0.653218 0.494801 0.362168 F F F O2-
0.653218 0.994801 0.360054 F F F O2-
0.494801 0.153218 0.389946 F F F O2-
0.547936 0.214773 0.229625 T T T O2-
0.714773 0.047936 0.298153 F F F O2-
0.714773 0.547936 0.312959 F F F O2-
0.047936 0.214773 0.325930 F F F O2-
0.240745 0.740745 0.319444 F F F O2-
0.740745 0.740745 0.236111 T T T O2-
0.494801 0.653218 0.332276 F F F O2-
0.153218 0.994801 0.306612 F F F O2-
0.153218 0.494801 0.304499 F F F O2-
0.994801 0.653218 0.223279 T T T O2-
0.047936 0.714773 0.285181 F F F O2-
0.214773 0.547936 0.242597 T T T O2-
0.214773 0.047936 0.257403 T T T O2-
0.547936 0.714773 0.270375 T T T O2-
0.740745 0.240745 0.263889 T T T O2-
0.240745 0.240745 0.291667 F F F O2-
0.994801 0.153218 0.276721 T T T O2-
0.653218 0.494801 0.251057 T T T O2-
0.653218 0.994801 0.248943 T T T O2-
0.494801 0.153218 0.278835 F F F O2-
