Li14 P14 N28
1.0
4.871811 0.000000 0.000000
-0.582207 4.836897 -0.000000
0.000000 0.000000 45.255026
Li P N
14 14 28
direct
0.875000 0.875000 0.946429 Li+
0.875000 0.375000 0.982143 Li+
0.375000 0.375000 0.875000 Li+
0.375000 0.875000 0.910714 Li+
0.875000 0.875000 0.803571 Li+
0.875000 0.375000 0.839286 Li+
0.375000 0.375000 0.732143 Li+
0.375000 0.875000 0.767857 Li+
0.875000 0.875000 0.660714 Li+
0.875000 0.375000 0.696429 Li+
0.375000 0.375000 0.589286 Li+
0.375000 0.875000 0.625000 Li+
0.875000 0.875000 0.517857 Li+
0.875000 0.375000 0.553571 Li+
0.375000 0.375000 0.946429 P5+
0.375000 0.875000 0.982143 P5+
0.875000 0.875000 0.875000 P5+
0.875000 0.375000 0.910714 P5+
0.375000 0.375000 0.803571 P5+
0.375000 0.875000 0.839286 P5+
0.875000 0.875000 0.732143 P5+
0.875000 0.375000 0.767857 P5+
0.375000 0.375000 0.660714 P5+
0.375000 0.875000 0.696429 P5+
0.875000 0.875000 0.589286 P5+
0.875000 0.375000 0.625000 P5+
0.375000 0.375000 0.517857 P5+
0.375000 0.875000 0.553571 P5+
0.458501 0.208501 0.976214 N3-
0.041499 0.791498 0.988071 N3-
0.458502 0.708502 0.952357 N3-
0.041499 0.291498 0.940500 N3-
0.958501 0.708501 0.904786 N3-
0.541499 0.291498 0.916643 N3-
0.958502 0.208501 0.880928 N3-
0.541499 0.791498 0.869072 N3-
0.458501 0.208501 0.833357 N3-
0.041499 0.791498 0.845214 N3-
0.458502 0.708501 0.809500 N3-
0.041499 0.291498 0.797643 N3-
0.958501 0.708501 0.761929 N3-
0.541499 0.291498 0.773786 N3-
0.958502 0.208501 0.738071 N3-
0.541499 0.791498 0.726214 N3-
0.458501 0.208501 0.690500 N3-
0.041499 0.791498 0.702357 N3-
0.458502 0.708501 0.666643 N3-
0.041499 0.291498 0.654786 N3-
0.958502 0.708501 0.619072 N3-
0.541499 0.291498 0.630928 N3-
0.958502 0.208501 0.595214 N3-
0.541499 0.791498 0.583357 N3-
0.458502 0.208501 0.547643 N3-
0.041499 0.791498 0.559500 N3-
0.458502 0.708501 0.523786 N3-
0.041499 0.291498 0.511929 N3-
