Li71 P24 N1 O94                         
   1.00000000000000     
    14.7094965588159354   -0.0024258301996680   -0.0151388953419731
    -0.0017418371409562   10.5576562832691785   -0.0004284171713391
    -0.0126506244804108   -0.0005089222240352   12.3425995215592383
   Li   P    N    O 
    71    24     1    94
Direct
  0.1730547244896140  0.4229175374039427 -0.0070312477273960
  0.1685129937902702  0.4222825219591114  0.5010063470961572
  0.1738630082176424  0.9156727999175420  0.0004789918018665
  0.1701049735604957  0.9225945399399368  0.4977760864682624
  0.5036967081852891  0.4226542213876539 -0.0007993646764775
  0.5033702319862979  0.4220231014335561  0.4996364414757644
  0.5038503553244129  0.9215337610750680 -0.0001517514837376
  0.5034291615193021  0.9226888240183733  0.4999297150798233
  0.8350343858331186  0.4224086195826174 -0.0001637392000279
  0.8363313208274245  0.4227795994763752  0.5002499807483461
  0.8332424942717070  0.9196415181499881  0.0024138136481498
  0.8372900740697370  0.9246113075930066  0.4989083724126845
  0.0018564507571681  0.0740159502467860  0.7467495540488325
  0.0020307300746831  0.5883207981416128  0.2537487265453998
  0.0029524497982143  0.5777699549317261  0.7485520930823218
  0.3369023577893662  0.0752777521929605  0.2525591575306610
  0.3370758041124405  0.0771204134114339  0.7481567584522201
  0.3354925670995839  0.5784045766090400  0.2504828155203236
  0.3370060183224379  0.5781308429223273  0.7491313747495553
  0.6746863591916046  0.0745350678080977  0.2509412123260084
  0.6692407335998036  0.0772561155633234  0.7493117029870705
  0.6701211150141555  0.5788474612755246  0.2502134938844712
  0.6694624972382621  0.5780303936223393  0.7495531481174496
  0.1832259927163781  0.1513572960159214  0.1291765730151698
  0.1685716539810719  0.1622730062688461  0.6253250796633071
  0.1700611021534814  0.6634515696708142  0.1264943660263023
  0.1693938404944386  0.6631142924180187  0.6255577758529978
  0.5028342513845435  0.1626278045558805  0.1269821492341242
  0.5029859949955351  0.1632243942614083  0.6257169695677098
  0.5031152286859651  0.6625513544101829  0.1263535734647676
  0.5029928165021104  0.6632907295629094  0.6259201510717407
  0.8346091880276678  0.1639303760420878  0.1298833694043072
  0.8367141103546630  0.1633616113134040  0.6263929978065430
  0.8358663975041829  0.6642243888047173  0.1262313172622242
  0.8361026456826637  0.6641884040730889  0.6265363563320512
  0.0000079497098611  0.3566534290455011  0.1293456922267728
  0.0030277592392837  0.3358094030897656  0.6237733066132447
  0.0000992671122542  0.8396719701097314  0.1281313428562134
  0.0037192681604046  0.8382599277864556  0.6223551201884755
  0.3381947942208233  0.3392613126699743  0.1197256497031782
  0.3361299388445456  0.3364861215467227  0.6228181006311919
  0.3388913496549388  0.8360549029731099  0.1241520054057701
  0.3362319953784638  0.8365566139213927  0.6226997603982403
  0.6685269348386407  0.3369397405259043  0.1236901304048136
  0.6696106595813301  0.3362447081268687  0.6236590476362777
  0.6676204087211814  0.8345283930237531  0.1228737172008868
  0.6698298049345667  0.8366534814319012  0.6235714705320472
  0.0009792546907114  0.3362036447352523  0.3787328359902196
  0.0022621334571774  0.3400344644727828  0.8744364716830968
  0.0014870201154831  0.8474694593484552  0.3742787442097117
  0.0025189663866030  0.8315607112544867  0.8731587710086385
  0.3372903285635566  0.3364791765909090  0.3762340038030688
  0.3374320579259876  0.3368163999065045  0.8749823365539035
  0.3378364229133316  0.8361583521141830  0.3766230321635664
  0.3373064826943664  0.8365227786850782  0.8754047385652250
  0.6703470536980560  0.3361061026193667  0.3759153195900453
  0.6687342975048097  0.3368973749319693  0.8755473911276910
  0.6687034555462840  0.8348345629823477  0.3778742429012230
  0.6689489804928750  0.8364429668542724  0.8761176170016070
  0.1653271470826382  0.1595181163169073  0.3710253008557324
  0.1731988632231918  0.1624910745165835  0.8708361885532455
  0.1684743515353984  0.6658382063745710  0.3757696175602941
  0.1704399500051720  0.6625469068149796  0.8724559271052246
  0.5042058098704406  0.1627182943479771  0.3734587982060037
  0.5027392987107712  0.1632235320104312  0.8729468254860685
  0.5030211862231438  0.6626375730925590  0.3737082247210655
  0.5029038129265193  0.6634226563380258  0.8731874163266714
  0.8404965805515856  0.1615068316568171  0.3722981291872974
  0.8331146309049999  0.1657839561717048  0.8718847987587971
  0.8360040893362515  0.6658212997319021  0.3742614102087672
  0.8358308615454186  0.6627723618274014  0.8737030894618553
  0.1643133522076623  0.4154515167269468  0.2528641455464885
  0.1673728655609407  0.4122188178128865  0.7486400728035539
  0.1689816513383070  0.9066127694728082  0.2498262573829232
  0.1677781520514700  0.9110615282382872  0.7496839827483909
  0.5000554875196779  0.4123496524412469  0.2495810388126835
  0.5003716003233042  0.4123619610092286  0.7494461091482900
  0.5011921298977963  0.9119855343893235  0.2502492730929677
  0.5005168748187349  0.9121024310630367  0.7495973274553108
  0.8337071037352846  0.4135064632650359  0.2506215657188557
  0.8334793789529616  0.4127737964327475  0.7499917776330075
  0.8293385482610871  0.9125089341812215  0.2495659554717903
  0.8335272007967371  0.9122236252642479  0.7512882144521081
  0.0005514323442346  0.0847002480960942 -0.0070516123961951
  0.0017384493913472  0.0913541760127604  0.5042838482458774
  0.0007668134495393  0.5880594305701743 -0.0002184248656540
 -0.0002845756594374  0.5900174168303791  0.5012613173286662
  0.3338679904536151  0.0861776242208152 -0.0012506899819483
  0.3341049736565951  0.0879467138238599  0.4997226891611818
  0.3344401850569479  0.5880247221714658 -0.0008262388366692
  0.3339375151844725  0.5871177957435642  0.4999431907644207
  0.6660285758482571  0.0882837154285541 -0.0004899749613853
  0.6675267010713688  0.0878237341007106  0.5006012045623738
  0.6669037751396685  0.5873232215262002 -0.0006714264756990
  0.6670857699903149  0.5869673673602415  0.5004508670998478
  0.1946928697164865  0.3352431272759260  0.1457454169086121
  0.0397298015430400  0.1685284156200924  0.4090777861503084
  0.0370172921262078  0.1579063576226742  0.8927141983731942
  0.0346968969812206  0.6612685538595712  0.3988474820602997
  0.0360836498377325  0.6553612113441065  0.8954499939861265
  0.3699885186374588  0.1570307131925237  0.3962850200625379
  0.3686519748462291  0.1566930476445448  0.8957555076435243
  0.3695561903455628  0.6558476000254947  0.3964194101106090
  0.3693481433396508  0.6575961552112106  0.8956668963845267
  0.7028502713986128  0.1572740283591768  0.3975390697428565
  0.7012943511172055  0.1567698314147097  0.8954025978418590
  0.7024087137964903  0.6556463258296731  0.3968491123870895
  0.7023523256178656  0.6565759600034415  0.8958050461510860
  0.2022308010521456  0.0475097936349264  0.2501951494539468
  0.2017470427172126  0.0509893937966808  0.7493989836028978
  0.1996426350756309  0.5549647583049665  0.2525652145538821
  0.2014768808435059  0.5520755730714649  0.7492585871736290
  0.5356008674919376  0.0517620896871153  0.2498605254412693
  0.5339640378016387  0.0523626344526038  0.7497771679655183
  0.5341577964907648  0.5522800690326108  0.2496781872689770
  0.5341051258828368  0.5524904753353471  0.7498025133942461
  0.8529660788853412  0.0544709942634215  0.2483966142430129
  0.8668730526024286  0.0526274845554249  0.7526794046700319
  0.8671725713978594  0.5537996359704236  0.2497899102959356
  0.8674241035398159  0.5527535568176296  0.7504793014968623
  0.0582140130967672  0.4188746503685431  0.2550465331928405
  0.0615043913055343  0.4102407159483076  0.7498884489186126
  0.0649321782452636  0.8966273265110672  0.2484820863465556
  0.0617598421194675  0.9081372573464670  0.7511687952955486
  0.3940464779430702  0.4096804249669813  0.2492113539125416
  0.3944829763963412  0.4095784582710035  0.7490172573579628
  0.3953310671155825  0.9099229461319556  0.2503389993229901
  0.3946362724158067  0.9090305456898002  0.7492610954398229
  0.7279274424537991  0.4098838526157858  0.2487267871388923
  0.7276545859269689  0.4097264059391512  0.7502061450693622
  0.7234709230401274  0.8988691415523109  0.2497750068259864
  0.7277449797646938  0.9086275377738292  0.7507896818759019
  0.2276983828161638  0.0853513414543629 -0.0028984091586198
  0.2283936624658571  0.0907541064542988  0.4992565985702143
  0.2284667898811044  0.5906798645032028 -0.0008403092633294
  0.2280438025976999  0.5896183286407117  0.5001919742890008
  0.5601840107423119  0.0909197842645177 -0.0004400861218877
  0.5615212007921128  0.0905085940717632  0.5003738775926656
  0.5610585604905720  0.5908373119458711 -0.0006616221854470
  0.5611795879104343  0.5901572191226072  0.5002362181219228
  0.8955688930867655  0.0930141064605415  0.0006844458899309
  0.8955019546290990  0.0916710228549775  0.5017796326446172
  0.8949099013358812  0.5893476061335767 -0.0005108090666096
  0.8937590443064849  0.5918781819073714  0.5009288981141690
  0.2018234346195101  0.3430328678956132  0.6449429207226057
  0.2073496342905307  0.8402217774949807  0.1455813951823572
  0.2022798527652060  0.8422355121985101  0.6457933075872916
  0.5347633838973092  0.3432081801975336  0.1455918724255610
  0.5358710691788290  0.3431498022029348  0.6461000735581957
  0.5350718929394369  0.8422715326037297  0.1461398210361516
  0.5360406695689555  0.8430078649497648  0.6461916535448755
  0.8702725823868891  0.3440503251717102  0.1469313535660917
  0.8687977683368945  0.3437120076558523  0.6466469796327247
  0.8670312705724041  0.8444871619121491  0.1457281581474005
  0.8695160920891769  0.8439901810049384  0.6478618636445097
  0.0338455936557417  0.1545511016255765  0.6131331771373012
  0.0355917051105105  0.6579209367484452  0.1029023454490454
  0.0349472578996606  0.6581375863131679  0.6057071296551446
  0.3663305790586823  0.1565469581575854  0.1034481425873036
  0.3693022642986178  0.1571968825868699  0.6036771998200321
  0.3698928182013125  0.6557203760784494  0.1033031948031648
  0.3692378979064223  0.6566029217198307  0.6036361809982675
  0.7016366018976933  0.1581235585577992  0.1024221074556656
  0.7025005994442267  0.1563734646833572  0.6050119659479806
  0.7025219953677212  0.6558719380897462  0.1029685924303521
  0.7023637104291884  0.6564393650072793  0.6041736035310079
  0.0352512284527415  0.4473852535384907  0.0005912270404407
  0.0337513717232749  0.4500842571587209  0.5011183769801754
  0.0357886535300744  0.9465045173693297 -0.0009439275068352
  0.0356131920829556  0.9509019246144521  0.5013158876408064
  0.3682954665427109  0.4479454805578710 -0.0021567160237089
  0.3678172614554035  0.4470358672126605  0.5000592670057472
  0.3691820893060244  0.9471573605233357 -0.0006962089159862
  0.3682635276194646  0.9479886543470185  0.5002168028995921
  0.7001772522421177  0.4469486978056144 -0.0008425957516764
  0.7005330254068300  0.4467645309570554  0.5006149266421290
  0.6997079834168338  0.9480576804744920 -0.0002519638658836
  0.7011042795812163  0.9475785214630449  0.5007413102134497
  0.2027682620658757  0.3438167755762113  0.3534880526891733
  0.2032163344124392  0.3422975129887493  0.8519044949668007
  0.2065612556400411  0.8407269991353367  0.3543801737514895
  0.2033900131947736  0.8415822428680909  0.8532427968790128
  0.5355163802935915  0.3430905091012559  0.3531309225536761
  0.5352928350262058  0.3431571643782194  0.8534256357605647
  0.5356634789381297  0.8424283401616859  0.3541509250805304
  0.5357178568720580  0.8430870231894332  0.8535205952911975
  0.8682382559954375  0.3449798247994236  0.3545190692960251
  0.8688823629598901  0.3434181653747908  0.8539882383081315
  0.8676518801099203  0.8454522044512535  0.3530726642542973
  0.8691192900067122  0.8434767616549040  0.8555189021350172
 
  0.00000000E+00  0.00000000E+00  0.00000000E+00
  0.00000000E+00  0.00000000E+00  0.00000000E+00
  0.00000000E+00  0.00000000E+00  0.00000000E+00
  0.00000000E+00  0.00000000E+00  0.00000000E+00
  0.00000000E+00  0.00000000E+00  0.00000000E+00
  0.00000000E+00  0.00000000E+00  0.00000000E+00
  0.00000000E+00  0.00000000E+00  0.00000000E+00
  0.00000000E+00  0.00000000E+00  0.00000000E+00
  0.00000000E+00  0.00000000E+00  0.00000000E+00
  0.00000000E+00  0.00000000E+00  0.00000000E+00
  0.00000000E+00  0.00000000E+00  0.00000000E+00
  0.00000000E+00  0.00000000E+00  0.00000000E+00
  0.00000000E+00  0.00000000E+00  0.00000000E+00
  0.00000000E+00  0.00000000E+00  0.00000000E+00
  0.00000000E+00  0.00000000E+00  0.00000000E+00
  0.00000000E+00  0.00000000E+00  0.00000000E+00
  0.00000000E+00  0.00000000E+00  0.00000000E+00
  0.00000000E+00  0.00000000E+00  0.00000000E+00
  0.00000000E+00  0.00000000E+00  0.00000000E+00
  0.00000000E+00  0.00000000E+00  0.00000000E+00
  0.00000000E+00  0.00000000E+00  0.00000000E+00
  0.00000000E+00  0.00000000E+00  0.00000000E+00
  0.00000000E+00  0.00000000E+00  0.00000000E+00
  0.00000000E+00  0.00000000E+00  0.00000000E+00
  0.00000000E+00  0.00000000E+00  0.00000000E+00
  0.00000000E+00  0.00000000E+00  0.00000000E+00
  0.00000000E+00  0.00000000E+00  0.00000000E+00
  0.00000000E+00  0.00000000E+00  0.00000000E+00
  0.00000000E+00  0.00000000E+00  0.00000000E+00
  0.00000000E+00  0.00000000E+00  0.00000000E+00
  0.00000000E+00  0.00000000E+00  0.00000000E+00
  0.00000000E+00  0.00000000E+00  0.00000000E+00
  0.00000000E+00  0.00000000E+00  0.00000000E+00
  0.00000000E+00  0.00000000E+00  0.00000000E+00
  0.00000000E+00  0.00000000E+00  0.00000000E+00
  0.00000000E+00  0.00000000E+00  0.00000000E+00
  0.00000000E+00  0.00000000E+00  0.00000000E+00
  0.00000000E+00  0.00000000E+00  0.00000000E+00
  0.00000000E+00  0.00000000E+00  0.00000000E+00
  0.00000000E+00  0.00000000E+00  0.00000000E+00
  0.00000000E+00  0.00000000E+00  0.00000000E+00
  0.00000000E+00  0.00000000E+00  0.00000000E+00
  0.00000000E+00  0.00000000E+00  0.00000000E+00
  0.00000000E+00  0.00000000E+00  0.00000000E+00
  0.00000000E+00  0.00000000E+00  0.00000000E+00
  0.00000000E+00  0.00000000E+00  0.00000000E+00
  0.00000000E+00  0.00000000E+00  0.00000000E+00
  0.00000000E+00  0.00000000E+00  0.00000000E+00
  0.00000000E+00  0.00000000E+00  0.00000000E+00
  0.00000000E+00  0.00000000E+00  0.00000000E+00
  0.00000000E+00  0.00000000E+00  0.00000000E+00
  0.00000000E+00  0.00000000E+00  0.00000000E+00
  0.00000000E+00  0.00000000E+00  0.00000000E+00
  0.00000000E+00  0.00000000E+00  0.00000000E+00
  0.00000000E+00  0.00000000E+00  0.00000000E+00
  0.00000000E+00  0.00000000E+00  0.00000000E+00
  0.00000000E+00  0.00000000E+00  0.00000000E+00
  0.00000000E+00  0.00000000E+00  0.00000000E+00
  0.00000000E+00  0.00000000E+00  0.00000000E+00
  0.00000000E+00  0.00000000E+00  0.00000000E+00
  0.00000000E+00  0.00000000E+00  0.00000000E+00
  0.00000000E+00  0.00000000E+00  0.00000000E+00
  0.00000000E+00  0.00000000E+00  0.00000000E+00
  0.00000000E+00  0.00000000E+00  0.00000000E+00
  0.00000000E+00  0.00000000E+00  0.00000000E+00
  0.00000000E+00  0.00000000E+00  0.00000000E+00
  0.00000000E+00  0.00000000E+00  0.00000000E+00
  0.00000000E+00  0.00000000E+00  0.00000000E+00
  0.00000000E+00  0.00000000E+00  0.00000000E+00
  0.00000000E+00  0.00000000E+00  0.00000000E+00
  0.00000000E+00  0.00000000E+00  0.00000000E+00
  0.00000000E+00  0.00000000E+00  0.00000000E+00
  0.00000000E+00  0.00000000E+00  0.00000000E+00
  0.00000000E+00  0.00000000E+00  0.00000000E+00
  0.00000000E+00  0.00000000E+00  0.00000000E+00
  0.00000000E+00  0.00000000E+00  0.00000000E+00
  0.00000000E+00  0.00000000E+00  0.00000000E+00
  0.00000000E+00  0.00000000E+00  0.00000000E+00
  0.00000000E+00  0.00000000E+00  0.00000000E+00
  0.00000000E+00  0.00000000E+00  0.00000000E+00
  0.00000000E+00  0.00000000E+00  0.00000000E+00
  0.00000000E+00  0.00000000E+00  0.00000000E+00
  0.00000000E+00  0.00000000E+00  0.00000000E+00
  0.00000000E+00  0.00000000E+00  0.00000000E+00
  0.00000000E+00  0.00000000E+00  0.00000000E+00
  0.00000000E+00  0.00000000E+00  0.00000000E+00
  0.00000000E+00  0.00000000E+00  0.00000000E+00
  0.00000000E+00  0.00000000E+00  0.00000000E+00
  0.00000000E+00  0.00000000E+00  0.00000000E+00
  0.00000000E+00  0.00000000E+00  0.00000000E+00
  0.00000000E+00  0.00000000E+00  0.00000000E+00
  0.00000000E+00  0.00000000E+00  0.00000000E+00
  0.00000000E+00  0.00000000E+00  0.00000000E+00
  0.00000000E+00  0.00000000E+00  0.00000000E+00
  0.00000000E+00  0.00000000E+00  0.00000000E+00
  0.00000000E+00  0.00000000E+00  0.00000000E+00
  0.00000000E+00  0.00000000E+00  0.00000000E+00
  0.00000000E+00  0.00000000E+00  0.00000000E+00
  0.00000000E+00  0.00000000E+00  0.00000000E+00
  0.00000000E+00  0.00000000E+00  0.00000000E+00
  0.00000000E+00  0.00000000E+00  0.00000000E+00
  0.00000000E+00  0.00000000E+00  0.00000000E+00
  0.00000000E+00  0.00000000E+00  0.00000000E+00
  0.00000000E+00  0.00000000E+00  0.00000000E+00
  0.00000000E+00  0.00000000E+00  0.00000000E+00
  0.00000000E+00  0.00000000E+00  0.00000000E+00
  0.00000000E+00  0.00000000E+00  0.00000000E+00
  0.00000000E+00  0.00000000E+00  0.00000000E+00
  0.00000000E+00  0.00000000E+00  0.00000000E+00
  0.00000000E+00  0.00000000E+00  0.00000000E+00
  0.00000000E+00  0.00000000E+00  0.00000000E+00
  0.00000000E+00  0.00000000E+00  0.00000000E+00
  0.00000000E+00  0.00000000E+00  0.00000000E+00
  0.00000000E+00  0.00000000E+00  0.00000000E+00
  0.00000000E+00  0.00000000E+00  0.00000000E+00
  0.00000000E+00  0.00000000E+00  0.00000000E+00
  0.00000000E+00  0.00000000E+00  0.00000000E+00
  0.00000000E+00  0.00000000E+00  0.00000000E+00
  0.00000000E+00  0.00000000E+00  0.00000000E+00
  0.00000000E+00  0.00000000E+00  0.00000000E+00
  0.00000000E+00  0.00000000E+00  0.00000000E+00
  0.00000000E+00  0.00000000E+00  0.00000000E+00
  0.00000000E+00  0.00000000E+00  0.00000000E+00
  0.00000000E+00  0.00000000E+00  0.00000000E+00
  0.00000000E+00  0.00000000E+00  0.00000000E+00
  0.00000000E+00  0.00000000E+00  0.00000000E+00
  0.00000000E+00  0.00000000E+00  0.00000000E+00
  0.00000000E+00  0.00000000E+00  0.00000000E+00
  0.00000000E+00  0.00000000E+00  0.00000000E+00
  0.00000000E+00  0.00000000E+00  0.00000000E+00
  0.00000000E+00  0.00000000E+00  0.00000000E+00
  0.00000000E+00  0.00000000E+00  0.00000000E+00
  0.00000000E+00  0.00000000E+00  0.00000000E+00
  0.00000000E+00  0.00000000E+00  0.00000000E+00
  0.00000000E+00  0.00000000E+00  0.00000000E+00
  0.00000000E+00  0.00000000E+00  0.00000000E+00
  0.00000000E+00  0.00000000E+00  0.00000000E+00
  0.00000000E+00  0.00000000E+00  0.00000000E+00
  0.00000000E+00  0.00000000E+00  0.00000000E+00
  0.00000000E+00  0.00000000E+00  0.00000000E+00
  0.00000000E+00  0.00000000E+00  0.00000000E+00
  0.00000000E+00  0.00000000E+00  0.00000000E+00
  0.00000000E+00  0.00000000E+00  0.00000000E+00
  0.00000000E+00  0.00000000E+00  0.00000000E+00
  0.00000000E+00  0.00000000E+00  0.00000000E+00
  0.00000000E+00  0.00000000E+00  0.00000000E+00
  0.00000000E+00  0.00000000E+00  0.00000000E+00
  0.00000000E+00  0.00000000E+00  0.00000000E+00
  0.00000000E+00  0.00000000E+00  0.00000000E+00
  0.00000000E+00  0.00000000E+00  0.00000000E+00
  0.00000000E+00  0.00000000E+00  0.00000000E+00
  0.00000000E+00  0.00000000E+00  0.00000000E+00
  0.00000000E+00  0.00000000E+00  0.00000000E+00
  0.00000000E+00  0.00000000E+00  0.00000000E+00
  0.00000000E+00  0.00000000E+00  0.00000000E+00
  0.00000000E+00  0.00000000E+00  0.00000000E+00
  0.00000000E+00  0.00000000E+00  0.00000000E+00
  0.00000000E+00  0.00000000E+00  0.00000000E+00
  0.00000000E+00  0.00000000E+00  0.00000000E+00
  0.00000000E+00  0.00000000E+00  0.00000000E+00
  0.00000000E+00  0.00000000E+00  0.00000000E+00
  0.00000000E+00  0.00000000E+00  0.00000000E+00
  0.00000000E+00  0.00000000E+00  0.00000000E+00
  0.00000000E+00  0.00000000E+00  0.00000000E+00
  0.00000000E+00  0.00000000E+00  0.00000000E+00
  0.00000000E+00  0.00000000E+00  0.00000000E+00
  0.00000000E+00  0.00000000E+00  0.00000000E+00
  0.00000000E+00  0.00000000E+00  0.00000000E+00
  0.00000000E+00  0.00000000E+00  0.00000000E+00
  0.00000000E+00  0.00000000E+00  0.00000000E+00
  0.00000000E+00  0.00000000E+00  0.00000000E+00
  0.00000000E+00  0.00000000E+00  0.00000000E+00
  0.00000000E+00  0.00000000E+00  0.00000000E+00
  0.00000000E+00  0.00000000E+00  0.00000000E+00
  0.00000000E+00  0.00000000E+00  0.00000000E+00
  0.00000000E+00  0.00000000E+00  0.00000000E+00
  0.00000000E+00  0.00000000E+00  0.00000000E+00
  0.00000000E+00  0.00000000E+00  0.00000000E+00
  0.00000000E+00  0.00000000E+00  0.00000000E+00
  0.00000000E+00  0.00000000E+00  0.00000000E+00
  0.00000000E+00  0.00000000E+00  0.00000000E+00
  0.00000000E+00  0.00000000E+00  0.00000000E+00
  0.00000000E+00  0.00000000E+00  0.00000000E+00
  0.00000000E+00  0.00000000E+00  0.00000000E+00
  0.00000000E+00  0.00000000E+00  0.00000000E+00
  0.00000000E+00  0.00000000E+00  0.00000000E+00
  0.00000000E+00  0.00000000E+00  0.00000000E+00
  0.00000000E+00  0.00000000E+00  0.00000000E+00
  0.00000000E+00  0.00000000E+00  0.00000000E+00
  0.00000000E+00  0.00000000E+00  0.00000000E+00
