Li1 N3
1.0
1.618925 2.743488 0.000362
-1.618925 2.743488 0.000362
0.000000 1.429858 4.599116
Li N
1 3
direct
-0.000000 -0.000000 -0.000000 Li
0.605876 0.605876 0.256533 N
0.394124 0.394124 0.743467 N
0.500000 0.500000 0.500000 N
