Li56 P28 O98
1.0
4.907295 0.000000 -1.895193
-0.730671 8.419349 -9.115751
0.000000 0.000000 72.154804
Li P O
56 28 98
Selective dynamics
direct
0.744463 0.987971 0.060075 T T T Li
0.255537 0.012029 0.091476 F F F Li
0.395677 0.751653 0.092068 F F F Li
0.604323 0.248347 0.059483 F F F Li
0.027769 0.791276 0.022129 T T T Li
0.972231 0.208724 0.029422 T T T Li
0.056952 0.450796 0.096667 F F F Li
0.943048 0.549204 0.054885 T T T Li
0.744463 0.987971 0.160075 F F F Li
0.255537 0.012029 0.191476 F F F Li
0.395677 0.751653 0.192068 F F F Li
0.604323 0.248347 0.159483 F F F Li
0.027769 0.791276 0.122129 F F F Li
0.972231 0.208724 0.129422 F F F Li
0.056952 0.450796 0.196667 F F F Li
0.943048 0.549204 0.154885 F F F Li
0.744463 0.987971 0.260075 F F F Li
0.255537 0.012029 0.291476 F F F Li
0.395677 0.751653 0.292068 F F F Li
0.604323 0.248347 0.259483 F F F Li
0.027769 0.791276 0.222129 F F F Li
0.972231 0.208724 0.229422 F F F Li
0.056952 0.450796 0.296667 F F F Li
0.943048 0.549204 0.254885 F F F Li
0.744463 0.987971 0.360075 F F F Li
0.255537 0.012029 0.391476 F F F Li
0.395677 0.751653 0.392068 F F F Li
0.604323 0.248347 0.359483 F F F Li
0.027769 0.791276 0.322129 F F F Li
0.972231 0.208724 0.329422 F F F Li
0.056952 0.450796 0.396667 F F F Li
0.943048 0.549204 0.354885 F F F Li
0.744463 0.987971 0.460075 F F F Li
0.255537 0.012029 0.491476 F F F Li
0.395677 0.751653 0.492068 F F F Li
0.604323 0.248347 0.459483 F F F Li
0.027769 0.791276 0.422129 F F F Li
0.972231 0.208724 0.429422 F F F Li
0.056952 0.450796 0.496667 F F F Li
0.943048 0.549204 0.454885 F F F Li
0.744463 0.987971 0.560075 F F F Li
0.255537 0.012029 0.591476 F F F Li
0.395677 0.751653 0.592068 F F F Li
0.604323 0.248347 0.559483 F F F Li
0.027769 0.791276 0.522129 F F F Li
0.972231 0.208724 0.529422 F F F Li
0.056952 0.450796 0.596667 F F F Li
0.943048 0.549204 0.554885 F F F Li
0.744463 0.987971 0.660075 T T T Li
0.255537 0.012029 0.691476 T T T Li
0.395677 0.751653 0.692068 T T T Li
0.604323 0.248347 0.659483 F F F Li
0.027769 0.791276 0.622129 F F F Li
0.972231 0.208724 0.629422 F F F Li
0.056952 0.450796 0.696667 T T T Li
0.943048 0.549204 0.654885 T T T Li
0.573990 0.631956 0.017641 T T T P
0.426010 0.368044 0.033910 F F F P
0.784272 0.845502 0.082402 F F F P
0.215728 0.154498 0.069149 T T T P
0.573990 0.631956 0.117641 F F F P
0.426010 0.368044 0.133910 F F F P
0.784272 0.845502 0.182402 F F F P
0.215728 0.154498 0.169149 F F F P
0.573990 0.631956 0.217641 F F F P
0.426010 0.368044 0.233910 F F F P
0.784272 0.845502 0.282402 F F F P
0.215728 0.154498 0.269149 F F F P
0.573990 0.631956 0.317641 F F F P
0.426010 0.368044 0.333910 F F F P
0.784272 0.845502 0.382402 F F F P
0.215728 0.154498 0.369149 F F F P
0.573990 0.631956 0.417641 F F F P
0.426010 0.368044 0.433910 F F F P
0.784272 0.845502 0.482402 F F F P
0.215728 0.154498 0.469149 F F F P
0.573990 0.631956 0.517641 F F F P
0.426010 0.368044 0.533910 F F F P
0.784272 0.845502 0.582402 F F F P
0.215728 0.154498 0.569149 F F F P
0.573990 0.631956 0.617641 F F F P
0.426010 0.368044 0.633910 F F F P
0.784272 0.845502 0.682402 T T T P
0.215728 0.154498 0.669149 T T T P
0.519912 0.874340 0.089034 F F F O
0.006130 0.790684 0.094272 F F F O
0.993870 0.209316 0.057279 F F F O
0.882911 0.981976 0.089114 F F F O
0.732561 0.376455 0.039086 F F F O
0.267439 0.623545 0.012465 T T T O
0.314844 0.526190 0.055176 F F F O
0.685156 0.473810 0.096375 F F F O
0.338222 0.236504 0.029186 T T T O
0.661778 0.763496 0.022365 T T T O
0.733069 0.683894 0.047927 F F F O
0.266931 0.316106 0.003625 F F F O
0.117089 0.018024 0.062437 F F F O
0.480088 0.125660 0.062517 T T T O
0.519912 0.874340 0.189034 F F F O
0.006130 0.790684 0.194272 F F F O
0.993870 0.209316 0.157279 F F F O
0.882911 0.981976 0.189114 F F F O
0.732561 0.376455 0.139086 F F F O
0.267439 0.623545 0.112465 F F F O
0.314844 0.526190 0.155176 F F F O
0.685156 0.473810 0.196375 F F F O
0.338222 0.236504 0.129186 F F F O
0.661778 0.763496 0.122365 F F F O
0.733069 0.683894 0.147927 F F F O
0.266931 0.316106 0.103625 F F F O
0.117089 0.018024 0.162437 F F F O
0.480088 0.125660 0.162517 F F F O
0.519912 0.874340 0.289034 F F F O
0.006130 0.790684 0.294272 F F F O
0.993870 0.209316 0.257279 F F F O
0.882911 0.981976 0.289114 F F F O
0.732561 0.376455 0.239086 F F F O
0.267439 0.623545 0.212465 F F F O
0.314844 0.526190 0.255176 F F F O
0.685156 0.473810 0.296375 F F F O
0.338222 0.236504 0.229186 F F F O
0.661778 0.763496 0.222365 F F F O
0.733069 0.683894 0.247927 F F F O
0.266931 0.316106 0.203625 F F F O
0.117089 0.018024 0.262437 F F F O
0.480088 0.125660 0.262517 F F F O
0.519912 0.874340 0.389034 F F F O
0.006130 0.790684 0.394272 F F F O
0.993870 0.209316 0.357279 F F F O
0.882911 0.981976 0.389114 F F F O
0.732561 0.376455 0.339086 F F F O
0.267439 0.623545 0.312465 F F F O
0.314844 0.526190 0.355176 F F F O
0.685156 0.473810 0.396375 F F F O
0.338222 0.236504 0.329186 F F F O
0.661778 0.763496 0.322365 F F F O
0.733069 0.683894 0.347927 F F F O
0.266931 0.316106 0.303625 F F F O
0.117089 0.018024 0.362437 F F F O
0.480088 0.125660 0.362517 F F F O
0.519912 0.874340 0.489034 F F F O
0.006130 0.790684 0.494272 F F F O
0.993870 0.209316 0.457279 F F F O
0.882911 0.981976 0.489114 F F F O
0.732561 0.376455 0.439086 F F F O
0.267439 0.623545 0.412465 F F F O
0.314844 0.526190 0.455176 F F F O
0.685156 0.473810 0.496375 F F F O
0.338222 0.236504 0.429186 F F F O
0.661778 0.763496 0.422365 F F F O
0.733069 0.683894 0.447927 F F F O
0.266931 0.316106 0.403625 F F F O
0.117089 0.018024 0.462437 F F F O
0.480088 0.125660 0.462517 F F F O
0.519912 0.874340 0.589034 F F F O
0.006130 0.790684 0.594272 F F F O
0.993870 0.209316 0.557279 F F F O
0.882911 0.981976 0.589114 F F F O
0.732561 0.376455 0.539086 F F F O
0.267439 0.623545 0.512465 F F F O
0.314844 0.526190 0.555176 F F F O
0.685156 0.473810 0.596375 F F F O
0.338222 0.236504 0.529186 F F F O
0.661778 0.763496 0.522365 F F F O
0.733069 0.683894 0.547927 F F F O
0.266931 0.316106 0.503625 F F F O
0.117089 0.018024 0.562437 F F F O
0.480088 0.125660 0.562517 F F F O
0.519912 0.874340 0.689034 T T T O
0.006130 0.790684 0.694272 F F F O
0.993870 0.209316 0.657279 F F F O
0.882911 0.981976 0.689114 T T T O
0.732561 0.376455 0.639086 F F F O
0.267439 0.623545 0.612465 F F F O
0.314844 0.526190 0.655176 F F F O
0.685156 0.473810 0.696375 T T T O
0.338222 0.236504 0.629186 F F F O
0.661778 0.763496 0.622365 F F F O
0.733069 0.683894 0.647927 F F F O
0.266931 0.316106 0.603625 F F F O
0.117089 0.018024 0.662437 T T T O
0.480088 0.125660 0.662517 T T T O
