Li61 P7 N32                             
   1.00000000000000     
    -0.0347814695857847    9.4742163670061306   -0.0289062445915932
     0.0516455642887209   -0.0290142219037289    9.5826645135965638
     9.5772172719269939   -0.0352297247932005    0.0520110562607567
   Li   P    N 
    61     7    32
Direct
  0.5047063946589688 -0.0006267112551318  0.5000191331502302
 -0.0009644487751194  0.5058518161048982  0.0086942001997418
  0.5034477582869732  0.0009703039694377  0.0001984928637604
  0.0089561588275958 -0.0009742337681786  0.4929011774171512
  0.5246440494108409  0.4937208806266932  0.0155384144311078
  0.0110343513538444  0.4980585364851197  0.4975748825193039
  0.7557315748068657 -0.0014061731600934  0.5050368039274996
  0.2577132885447806 -0.0023848865161414  0.5021933116968424
  0.7709174148842236  0.5093813614291344  0.4962388687562883
  0.2428664344063530  0.4941375145314894  0.4952337243066657
  0.2694550368008332 -0.0024407249510807  0.0002060424360439
  0.7457470814327722  0.0156610061003878  0.0085625259388873
  0.7791667288354234  0.5367083013962717  0.0551262395852546
  0.4943636320374942  0.2465203702213130 -0.0172235608921302
  0.5032908808419746  0.7547872810974384  0.0109801856880904
  0.0008318733345885  0.4953855055009175  0.2631934320214714
 -0.0221149858796338  0.5070191036403722  0.7230163562013907
  0.2712494124137549  0.1940713173868125  0.2019509479021064
  0.2582935250077006  0.7926393470420094  0.7799786030274178
  0.2724177502078773  0.2682298728547728  0.7042751788744429
  0.2728446502040454  0.7185315912947671  0.2840011300841398
  0.7694220415595281  0.3139403679852553  0.3010124689061075
  0.7709142175301573  0.7019829378040112  0.6887513765870870
  0.7406752756824931  0.1908553240512471  0.8056131241248741
  0.7462351465876170  0.8087285712016362  0.1967962746245090
  0.9862378325876485  0.2368420530184291  0.2525240402772269
  0.9829681092698510  0.7711285338728884  0.7565080406367651
  0.2660845263382659  0.2398652849983692  0.4597803597346340
  0.2705584366725168  0.7511231952606262  0.5298544002422372
  0.7492005041686723  0.2301087735675383  0.5377930272166649
  0.7540757065043621  0.7729114052131908  0.4454196472502491
  0.7591901603016324  0.5619988397836539  0.2689739235952180
  0.7180041802512425  0.4189375691366775  0.6920097946535305
  0.1154123270512332  0.3541637258173895  0.1219095295981915
  0.1077675415830879  0.6234355886212242  0.8508920557750025
  0.5192460054384648  0.7535652214105342  0.2520302430673407
  0.5167404982330263  0.2504868639003606  0.7453946234318296
  0.2417492298566711  0.9646169435958264  0.2630837376727417
  0.2402633995469999  0.0250151047807158  0.7433466571983949
  0.2506066788209203  0.2347589058628618  0.9514797979960165
  0.2595201942004972  0.7599652179926268  0.0348092317138073
  0.7627697497881084  0.9577915085752609  0.7485556198458569
  0.7569721391349674  0.0571954976404649  0.2684346373660127
  0.7487395796350348  0.7695194814472848  0.9642014571737657
  0.7120253293310568  0.2798768455735154  0.0615765401144351
  0.0198591180562999  0.2507867620652995  0.7616297781186480
  0.0142666797244842  0.7483154288486099  0.2410331968996410
  0.5013285590473554  0.2699073255793663  0.2513489698589071
  0.4956354047666420  0.7358099436508944  0.7521218601723235
 -0.0381582782911800  0.2314603475469368  0.0148452129946527
 -0.0130147132812069  0.7455149847432847 -0.0000512738277947
  0.5060825742839605  0.2368146338312350  0.4983833763278938
  0.5107452500197044  0.7595488523114632  0.5048931728639476
  0.5213286239978944  0.5228148702244504  0.2490872853505544
  0.4859375245040004  0.4785192159541774  0.7695289464112940
  0.0023249235668071 -0.0045318409896561  0.2538274654467172
  0.0038465385841338  0.0062922188918540  0.7265240788962365
  0.2723594630361809  0.4746132639978522  0.2629451677840895
  0.2580948113224867  0.5159705176277749  0.7260610754406321
  0.8359568117849564  0.4052844500705148  0.9002732514576791
  0.6797083900797414  0.5725786855563687  0.8578968269311299
  0.5030083000387210  0.4985096734945338  0.5053401293449280
  0.0095432228697668 -0.0047492086715871 -0.0074187260501228
  0.2640969279020624  0.4989229694861567 -0.0033253545448988
  0.0097943545175134  0.7488066498431819  0.5008171310652194
  0.0078193409396476  0.2497353857356088  0.5010404890246701
  0.5011908635891240  0.0066967501881489  0.2497089691824540
  0.5014991664445296 -0.0037937649177141  0.7499371407077897
  0.6058105938499218  0.5956754052375143  0.6133989255315182
  0.6101428056990590  0.4015216380266632  0.4052622549130372
  0.9047650909858016  0.9005207092666921  0.0989938462928347
  0.9059974747890636  0.0905415137395908  0.8845982569810920
  0.1136741342425720  0.8917867648317866  0.8959185456327752
  0.1106581328542318  0.1036254490013554  0.0944365897994247
  0.4012972020478796  0.6034946362236837  0.4045726720216443
  0.3970131331628383  0.3920205349400308  0.5989538354633099
  0.1061952098741740  0.3496502095119857  0.3897835120502442
  0.1072787794065457  0.6508341353934223  0.6156252861943029
  0.1187577852257356  0.1493855219105942  0.5991521166815843
  0.1205585656170013  0.8465406025499940  0.3994468648944915
  0.8939514503662320  0.1479703167620495  0.4081908627960876
  0.8968246195813819  0.8519894711682012  0.5892150328050154
  0.8867572452708991  0.3772659211116177  0.1303471951011275
  0.8801858447445002  0.6196992577358515  0.8681226025607968
  0.1627204725503115  0.5899766235514949  0.1121597643137203
  0.1540506106285334  0.4101522797197013  0.8864668330218095
  0.3989962566139088  0.8974010361181034  0.1534008449214692
  0.3984971552591914  0.1057066614334791  0.8443162768935168
  0.3932850970815726  0.1028996176839117  0.3517089546008608
  0.3928334292467456  0.8967761225548537  0.6484677690220412
  0.3518287953524638  0.3789725200838429  0.0939208189441053
  0.3545664099019434  0.6131507797309462  0.8971088860857400
  0.6152426299397662  0.0919205104457532  0.6500060454208699
  0.6163834917829001  0.9124802727482576  0.3508785280177369
  0.6359917240298586  0.6467979720779883  0.1230958855775790
  0.6376601371545878  0.3668000055424584  0.8754584774739741
  0.9079850556851565  0.3506459633602129  0.6055344379508826
  0.9113593848515109  0.6464794438694852  0.3952283842413090
  0.5962628679468047  0.1155367924780590  0.1471356879265472
  0.5970831850370711  0.8911120549788684  0.8550971370737517
 
  0.00000000E+00  0.00000000E+00  0.00000000E+00
  0.00000000E+00  0.00000000E+00  0.00000000E+00
  0.00000000E+00  0.00000000E+00  0.00000000E+00
  0.00000000E+00  0.00000000E+00  0.00000000E+00
  0.00000000E+00  0.00000000E+00  0.00000000E+00
  0.00000000E+00  0.00000000E+00  0.00000000E+00
  0.00000000E+00  0.00000000E+00  0.00000000E+00
  0.00000000E+00  0.00000000E+00  0.00000000E+00
  0.00000000E+00  0.00000000E+00  0.00000000E+00
  0.00000000E+00  0.00000000E+00  0.00000000E+00
  0.00000000E+00  0.00000000E+00  0.00000000E+00
  0.00000000E+00  0.00000000E+00  0.00000000E+00
  0.00000000E+00  0.00000000E+00  0.00000000E+00
  0.00000000E+00  0.00000000E+00  0.00000000E+00
  0.00000000E+00  0.00000000E+00  0.00000000E+00
  0.00000000E+00  0.00000000E+00  0.00000000E+00
  0.00000000E+00  0.00000000E+00  0.00000000E+00
  0.00000000E+00  0.00000000E+00  0.00000000E+00
  0.00000000E+00  0.00000000E+00  0.00000000E+00
  0.00000000E+00  0.00000000E+00  0.00000000E+00
  0.00000000E+00  0.00000000E+00  0.00000000E+00
  0.00000000E+00  0.00000000E+00  0.00000000E+00
  0.00000000E+00  0.00000000E+00  0.00000000E+00
  0.00000000E+00  0.00000000E+00  0.00000000E+00
  0.00000000E+00  0.00000000E+00  0.00000000E+00
  0.00000000E+00  0.00000000E+00  0.00000000E+00
  0.00000000E+00  0.00000000E+00  0.00000000E+00
  0.00000000E+00  0.00000000E+00  0.00000000E+00
  0.00000000E+00  0.00000000E+00  0.00000000E+00
  0.00000000E+00  0.00000000E+00  0.00000000E+00
  0.00000000E+00  0.00000000E+00  0.00000000E+00
  0.00000000E+00  0.00000000E+00  0.00000000E+00
  0.00000000E+00  0.00000000E+00  0.00000000E+00
  0.00000000E+00  0.00000000E+00  0.00000000E+00
  0.00000000E+00  0.00000000E+00  0.00000000E+00
  0.00000000E+00  0.00000000E+00  0.00000000E+00
  0.00000000E+00  0.00000000E+00  0.00000000E+00
  0.00000000E+00  0.00000000E+00  0.00000000E+00
  0.00000000E+00  0.00000000E+00  0.00000000E+00
  0.00000000E+00  0.00000000E+00  0.00000000E+00
  0.00000000E+00  0.00000000E+00  0.00000000E+00
  0.00000000E+00  0.00000000E+00  0.00000000E+00
  0.00000000E+00  0.00000000E+00  0.00000000E+00
  0.00000000E+00  0.00000000E+00  0.00000000E+00
  0.00000000E+00  0.00000000E+00  0.00000000E+00
  0.00000000E+00  0.00000000E+00  0.00000000E+00
  0.00000000E+00  0.00000000E+00  0.00000000E+00
  0.00000000E+00  0.00000000E+00  0.00000000E+00
  0.00000000E+00  0.00000000E+00  0.00000000E+00
  0.00000000E+00  0.00000000E+00  0.00000000E+00
  0.00000000E+00  0.00000000E+00  0.00000000E+00
  0.00000000E+00  0.00000000E+00  0.00000000E+00
  0.00000000E+00  0.00000000E+00  0.00000000E+00
  0.00000000E+00  0.00000000E+00  0.00000000E+00
  0.00000000E+00  0.00000000E+00  0.00000000E+00
  0.00000000E+00  0.00000000E+00  0.00000000E+00
  0.00000000E+00  0.00000000E+00  0.00000000E+00
  0.00000000E+00  0.00000000E+00  0.00000000E+00
  0.00000000E+00  0.00000000E+00  0.00000000E+00
  0.00000000E+00  0.00000000E+00  0.00000000E+00
  0.00000000E+00  0.00000000E+00  0.00000000E+00
  0.00000000E+00  0.00000000E+00  0.00000000E+00
  0.00000000E+00  0.00000000E+00  0.00000000E+00
  0.00000000E+00  0.00000000E+00  0.00000000E+00
  0.00000000E+00  0.00000000E+00  0.00000000E+00
  0.00000000E+00  0.00000000E+00  0.00000000E+00
  0.00000000E+00  0.00000000E+00  0.00000000E+00
  0.00000000E+00  0.00000000E+00  0.00000000E+00
  0.00000000E+00  0.00000000E+00  0.00000000E+00
  0.00000000E+00  0.00000000E+00  0.00000000E+00
  0.00000000E+00  0.00000000E+00  0.00000000E+00
  0.00000000E+00  0.00000000E+00  0.00000000E+00
  0.00000000E+00  0.00000000E+00  0.00000000E+00
  0.00000000E+00  0.00000000E+00  0.00000000E+00
  0.00000000E+00  0.00000000E+00  0.00000000E+00
  0.00000000E+00  0.00000000E+00  0.00000000E+00
  0.00000000E+00  0.00000000E+00  0.00000000E+00
  0.00000000E+00  0.00000000E+00  0.00000000E+00
  0.00000000E+00  0.00000000E+00  0.00000000E+00
  0.00000000E+00  0.00000000E+00  0.00000000E+00
  0.00000000E+00  0.00000000E+00  0.00000000E+00
  0.00000000E+00  0.00000000E+00  0.00000000E+00
  0.00000000E+00  0.00000000E+00  0.00000000E+00
  0.00000000E+00  0.00000000E+00  0.00000000E+00
  0.00000000E+00  0.00000000E+00  0.00000000E+00
  0.00000000E+00  0.00000000E+00  0.00000000E+00
  0.00000000E+00  0.00000000E+00  0.00000000E+00
  0.00000000E+00  0.00000000E+00  0.00000000E+00
  0.00000000E+00  0.00000000E+00  0.00000000E+00
  0.00000000E+00  0.00000000E+00  0.00000000E+00
  0.00000000E+00  0.00000000E+00  0.00000000E+00
  0.00000000E+00  0.00000000E+00  0.00000000E+00
  0.00000000E+00  0.00000000E+00  0.00000000E+00
  0.00000000E+00  0.00000000E+00  0.00000000E+00
  0.00000000E+00  0.00000000E+00  0.00000000E+00
  0.00000000E+00  0.00000000E+00  0.00000000E+00
  0.00000000E+00  0.00000000E+00  0.00000000E+00
  0.00000000E+00  0.00000000E+00  0.00000000E+00
  0.00000000E+00  0.00000000E+00  0.00000000E+00
  0.00000000E+00  0.00000000E+00  0.00000000E+00
