Li42 P14 O56
1.0
5.296402 0.000000 0.000000
0.000000 6.176136 0.000000
0.000000 0.000000 59.069376
Li P O
42 14 56
direct
0.844520 0.000000 0.038137 Li+
0.155480 0.500000 0.079804 Li+
0.326434 0.747127 0.038049 Li+
0.673566 0.752873 0.079716 Li+
0.673566 0.247127 0.079716 Li+
0.326434 0.252873 0.038049 Li+
0.844520 0.000000 0.121470 Li+
0.155480 0.500000 0.163137 Li+
0.326434 0.747127 0.121382 Li+
0.673566 0.752873 0.163049 Li+
0.673566 0.247127 0.163049 Li+
0.326434 0.252873 0.121382 Li+
0.844520 0.000000 0.204804 Li+
0.155480 0.500000 0.246470 Li+
0.326434 0.747127 0.204716 Li+
0.673566 0.752873 0.246383 Li+
0.673566 0.247127 0.246383 Li+
0.326434 0.252873 0.204716 Li+
0.844520 0.000000 0.288137 Li+
0.155480 0.500000 0.329804 Li+
0.326434 0.747127 0.288049 Li+
0.673566 0.752873 0.329716 Li+
0.673566 0.247127 0.329716 Li+
0.326434 0.252873 0.288049 Li+
0.844520 0.000000 0.371470 Li+
0.155480 0.500000 0.413137 Li+
0.326434 0.747127 0.371382 Li+
0.673566 0.752873 0.413049 Li+
0.673566 0.247127 0.413049 Li+
0.326434 0.252873 0.371382 Li+
0.844520 0.000000 0.454804 Li+
0.155480 0.500000 0.496470 Li+
0.326434 0.747127 0.454716 Li+
0.673566 0.752873 0.496383 Li+
0.673566 0.247127 0.496383 Li+
0.326434 0.252873 0.454716 Li+
0.844520 0.000000 0.538137 Li+
0.155480 0.500000 0.579804 Li+
0.326434 0.747127 0.538049 Li+
0.673566 0.752873 0.579716 Li+
0.673566 0.247127 0.579716 Li+
0.326434 0.252873 0.538049 Li+
0.824261 0.500000 0.037471 P5+
0.175739 0.000000 0.079137 P5+
0.824261 0.500000 0.120804 P5+
0.175739 0.000000 0.162471 P5+
0.824261 0.500000 0.204137 P5+
0.175739 0.000000 0.245804 P5+
0.824261 0.500000 0.287471 P5+
0.175739 0.000000 0.329137 P5+
0.824261 0.500000 0.370804 P5+
0.175739 0.000000 0.412471 P5+
0.824261 0.500000 0.454137 P5+
0.175739 0.000000 0.495804 P5+
0.824261 0.500000 0.537471 P5+
0.175739 0.000000 0.579137 P5+
0.313509 0.207138 0.004603 O2-
0.103508 0.500000 0.045863 O2-
0.818396 0.500000 0.011118 O2-
0.181604 0.000000 0.052785 O2-
0.686491 0.707138 0.046270 O2-
0.313509 0.792862 0.004603 O2-
0.896492 0.000000 0.004196 O2-
0.686491 0.292862 0.046270 O2-
0.313509 0.207138 0.087936 O2-
0.103508 0.500000 0.129196 O2-
0.818396 0.500000 0.094451 O2-
0.181604 0.000000 0.136118 O2-
0.686491 0.707138 0.129603 O2-
0.313509 0.792862 0.087936 O2-
0.896492 0.000000 0.087529 O2-
0.686491 0.292862 0.129603 O2-
0.313509 0.207138 0.171270 O2-
0.103508 0.500000 0.212529 O2-
0.818396 0.500000 0.177785 O2-
0.181604 0.000000 0.219451 O2-
0.686491 0.707138 0.212936 O2-
0.313509 0.792862 0.171270 O2-
0.896492 0.000000 0.170863 O2-
0.686491 0.292862 0.212936 O2-
0.313509 0.207138 0.254603 O2-
0.103508 0.500000 0.295863 O2-
0.818396 0.500000 0.261118 O2-
0.181604 0.000000 0.302785 O2-
0.686491 0.707138 0.296270 O2-
0.313509 0.792862 0.254603 O2-
0.896492 0.000000 0.254196 O2-
0.686491 0.292862 0.296270 O2-
0.313509 0.207138 0.337936 O2-
0.103508 0.500000 0.379196 O2-
0.818396 0.500000 0.344451 O2-
0.181604 0.000000 0.386118 O2-
0.686491 0.707138 0.379603 O2-
0.313509 0.792862 0.337936 O2-
0.896492 0.000000 0.337529 O2-
0.686491 0.292862 0.379603 O2-
0.313509 0.207138 0.421270 O2-
0.103508 0.500000 0.462529 O2-
0.818396 0.500000 0.427785 O2-
0.181604 0.000000 0.469452 O2-
0.686491 0.707138 0.462936 O2-
0.313509 0.792862 0.421270 O2-
0.896492 0.000000 0.420863 O2-
0.686491 0.292862 0.462936 O2-
0.313509 0.207138 0.504603 O2-
0.103508 0.500000 0.545863 O2-
0.818396 0.500000 0.511118 O2-
0.181604 0.000000 0.552785 O2-
0.686491 0.707138 0.546270 O2-
0.313509 0.792862 0.504603 O2-
0.896492 0.000000 0.504196 O2-
0.686491 0.292862 0.546270 O2-
