Li5 P2 N1 O6                            
   1.00000000000000     
     0.0000000000000000   -0.1127707742224976    4.8656131239705696
     6.6032143312972629    0.0000000000000000    0.0000000000000000
     0.0000000000000000    5.4182752046201639   -0.1206773776115012
   Li   P    N    O 
     5     2     1     6
Direct
  0.5025182847710729  0.0000000000000000  0.8787430901546831
  0.4906890687483056  0.7618288420849386  0.3051985676373222
  0.0059595707535262  0.8070816606076832  0.6458189668426380
  0.0059595707535262  0.1929183393923174  0.6458189668426380
  0.4906890687483056  0.2381711579150611  0.3051985676373222
  0.5898202617117143  0.5000000000000000  0.8336077505286924
  0.0078615967668039  0.0000000000000000  0.1742503332230456
  0.0953334843827860  0.0000000000000000  0.8948831385058486
  0.1117162359573229  0.1923450667407950  0.3260256621624268
  0.6139216825374950  0.6951738034404442  0.6938710188391713
  0.1117162359573229  0.8076549332592050  0.3260256621624268
  0.6139216825374950  0.3048261965595559  0.6938710188391713
  0.5428607354322208  0.5000000000000000  0.1027137388221652
  0.6802245209421277  0.0000000000000000  0.2000975178024530
 
  0.00000000E+00  0.00000000E+00  0.00000000E+00
  0.00000000E+00  0.00000000E+00  0.00000000E+00
  0.00000000E+00  0.00000000E+00  0.00000000E+00
  0.00000000E+00  0.00000000E+00  0.00000000E+00
  0.00000000E+00  0.00000000E+00  0.00000000E+00
  0.00000000E+00  0.00000000E+00  0.00000000E+00
  0.00000000E+00  0.00000000E+00  0.00000000E+00
  0.00000000E+00  0.00000000E+00  0.00000000E+00
  0.00000000E+00  0.00000000E+00  0.00000000E+00
  0.00000000E+00  0.00000000E+00  0.00000000E+00
  0.00000000E+00  0.00000000E+00  0.00000000E+00
  0.00000000E+00  0.00000000E+00  0.00000000E+00
  0.00000000E+00  0.00000000E+00  0.00000000E+00
  0.00000000E+00  0.00000000E+00  0.00000000E+00
