Li61 P7 N32                             
   1.00000000000000     
     0.0043395419859574    9.4830667648481590   -0.0063256589176147
    -0.0023852596425451   -0.0062778671414865    9.5540779945372520
     9.5463662364865502    0.0045614991337004   -0.0023015725240908
   Li   P    N 
    61     7    32
Direct
  0.4959237863749958 -0.0036734785217008  0.4962613236054524
  0.0053378886873886  0.4994800451151541 -0.0126071818664005
  0.4949641823932371 -0.0124289147948387 -0.0036337989298215
 -0.0000419454459711 -0.0058952348634017  0.4985716533574134
  0.4881279870761938  0.4877247519101613 -0.0070259374569293
  0.0038346953486067  0.4941920263454012  0.4917443369230750
  0.7487709835530748 -0.0088921935112531  0.4924233080923693
  0.2459108162434863 -0.0172243011703619  0.5004987748102188
  0.7656579241464989  0.4926712111746576  0.4949709263198527
  0.2333075175595528  0.4976750317713128  0.5079364413908661
  0.2608125611644332 -0.0000292268470352 -0.0036667131348720
  0.7340738774989081 -0.0073967070579206 -0.0062112487085043
  0.8273951728282866  0.5852599974451447  0.0726763745300757
  0.5115496162120768  0.2282618839000077 -0.0218642953647304
  0.4990370117289761  0.7454754004819902  0.0068342603854558
 -0.0114830006432576  0.4817333034581475  0.2494680643216314
 -0.0129141543070177  0.5078669474980271  0.7337746110525637
  0.2306977277708230  0.2201794121862354  0.2101481255002381
  0.2429654768238421  0.7887080928852365  0.7858740181222961
  0.2560166926095651  0.2896081655817518  0.7186651093614163
  0.2706136077024385  0.7339785533940179  0.2833146345955200
  0.7664275866396537  0.2966115430287563  0.3033964687637281
  0.7607878053407070  0.6951558628486009  0.6967054203335247
  0.7319671863740680  0.1903529128976127  0.8030469829043354
  0.7454159572572212  0.7941934850341053  0.1987394393907718
  0.9884353638739256  0.2382496897048687  0.2405798111650443
  0.9874001569359971  0.7499785712160455  0.7512310646137010
  0.2583804516763395  0.2177966979829646  0.4856561329749889
  0.2607823150008271  0.7454962483035891  0.5291237080384552
  0.7522089474215090  0.2200155086785630  0.5501067827571965
  0.7416053850878003  0.7551184738051170  0.4541643903286740
  0.7354771483378758  0.5451550654801808  0.2748402761210361
  0.6699593271770197  0.5715898894035626  0.9053936133363970
  0.2202803823723398  0.4913327530773854  0.2518499794967904
  0.2235163425549952  0.5437039488900494  0.7475480054427717
  0.5177551529680366  0.7442481538422909  0.2461271606758593
  0.5084841706486529  0.2497938030769088  0.7394215736713388
  0.2352210062396490  0.9801263808769601  0.2493914818030345
  0.2342486574980581  0.0293406006372084  0.7431815441734149
  0.2661098429548445  0.2411119372569531  0.9652041227783235
  0.2564887297581287  0.7603906874650189  0.0326329626795604
  0.7541624210867910  0.9483929118726042  0.7283370168283243
  0.7579324197383651  0.0354568618298483  0.2568492118830237
  0.7564241334297348  0.7729553483610208  0.9492871293904002
  0.7678696055732575  0.2092201765732641  0.0535934656703087
  0.0060075163776340  0.2480880771975354  0.7614245045293189
  0.0169517615614525  0.7389349635778382  0.2303982083143460
  0.5091387523384830  0.2518766804094770  0.2310931364054082
  0.4888559356034577  0.7312378459903743  0.7476304638405924
  0.0137227354939950  0.2593023604166398  0.0118527171133219
  0.0081652017754303  0.7389346547620526 -0.0193972038156007
  0.5144545628828379  0.2298825070291766  0.4934699694026509
  0.4997292261356691  0.7582460535593131  0.4989886511140350
  0.4880409763121693  0.5206774743803670  0.2280609257229131
  0.4810513850383979  0.4796432093751377  0.7544709809416196
 -0.0025867348285054 -0.0131026493250195  0.2595266205251540
 -0.0047841564102110  0.0020086484381673  0.7378129845177241
  0.3593221469462582  0.3592202348264724  0.3556353482281212
  0.7338091975832820  0.4443324590583088  0.7158983272769862
  0.8224792516493358  0.3998823743205195  0.9200031879041893
  0.6719521862236740  0.4173113304206754  0.0877892991430562
  0.4990594146638864  0.4975907759985990  0.4957724119732053
  0.0013757034062267 -0.0018947429558323 -0.0021491112418385
  0.2464480756827399  0.5006061486748565 -0.0004731043226322
  0.0005558982171496  0.7435398958476319  0.4927180127006266
  0.0043264217283059  0.2449751032120466  0.4994475621573840
  0.4976043236195873 -0.0016445344673465  0.2452023974226906
  0.4966336070429384 -0.0084364939980349  0.7469212447149123
  0.6017390447445453  0.5942878837419818  0.5988225818573212
  0.5962898711626080  0.3988764490930105  0.3840630751880130
  0.8972787931624353  0.8927768037196555  0.0954948346712772
  0.8966833749938190  0.1032041589605905  0.9001515026358303
  0.1053234364071639  0.9023351275941175  0.8907799097207472
  0.1051800765577874  0.0943624310975486  0.1047654078809210
  0.3887202086027364  0.5983569024076889  0.3990120553632558
  0.3951908899132253  0.3838622254158465  0.5854559986077071
  0.1120375590553109  0.3403633159915274  0.3905021139706014
  0.0987582220527362  0.6446015322927791  0.6029530111183108
  0.1083359691728171  0.1436986449155964  0.6033482076641791
  0.1121839064755193  0.8446747730610530  0.3957286757887820
  0.8918054330172149  0.1437428289630095  0.4040930940144333
  0.8870374890070197  0.8443038702338719  0.5872999936197381
  0.8658765265312476  0.3758344915461490  0.1284539339232860
  0.8653201903392330  0.6116480049234783  0.8641623079579407
  0.1424758963073494  0.6018038203626456  0.1037350130355224
  0.1534328219883531  0.3980630850599181  0.8859814222846062
  0.3933313182749174  0.8887669004411255  0.1524465113110057
  0.3981282963584916  0.1007249840006155  0.8465116515329970
  0.3917172763513618  0.1072156270767368  0.3439782496975798
  0.3861185638539494  0.8930315668371925  0.6459765094002851
  0.3417620606617069  0.3912483101719838  0.1080686701987006
  0.3475935288998322  0.6107945952588339  0.9008355886409252
  0.6096829187914063  0.0870211384987868  0.6449776004484006
  0.6083954928087509  0.9034344596480028  0.3479984836884721
  0.6325662794679031  0.6276602798297732  0.1122270415131623
  0.6258358124294098  0.3649014584486275  0.8770249074511416
  0.9041327039684793  0.3499296429813209  0.6017280844604209
  0.9025469442950661  0.6408768025153846  0.3849197566750532
  0.5988476905173384  0.0977663291727761  0.1382565674431356
  0.5954590935141357  0.8843009004652032  0.8477751715398760
 
  0.00000000E+00  0.00000000E+00  0.00000000E+00
  0.00000000E+00  0.00000000E+00  0.00000000E+00
  0.00000000E+00  0.00000000E+00  0.00000000E+00
  0.00000000E+00  0.00000000E+00  0.00000000E+00
  0.00000000E+00  0.00000000E+00  0.00000000E+00
  0.00000000E+00  0.00000000E+00  0.00000000E+00
  0.00000000E+00  0.00000000E+00  0.00000000E+00
  0.00000000E+00  0.00000000E+00  0.00000000E+00
  0.00000000E+00  0.00000000E+00  0.00000000E+00
  0.00000000E+00  0.00000000E+00  0.00000000E+00
  0.00000000E+00  0.00000000E+00  0.00000000E+00
  0.00000000E+00  0.00000000E+00  0.00000000E+00
  0.00000000E+00  0.00000000E+00  0.00000000E+00
  0.00000000E+00  0.00000000E+00  0.00000000E+00
  0.00000000E+00  0.00000000E+00  0.00000000E+00
  0.00000000E+00  0.00000000E+00  0.00000000E+00
  0.00000000E+00  0.00000000E+00  0.00000000E+00
  0.00000000E+00  0.00000000E+00  0.00000000E+00
  0.00000000E+00  0.00000000E+00  0.00000000E+00
  0.00000000E+00  0.00000000E+00  0.00000000E+00
  0.00000000E+00  0.00000000E+00  0.00000000E+00
  0.00000000E+00  0.00000000E+00  0.00000000E+00
  0.00000000E+00  0.00000000E+00  0.00000000E+00
  0.00000000E+00  0.00000000E+00  0.00000000E+00
  0.00000000E+00  0.00000000E+00  0.00000000E+00
  0.00000000E+00  0.00000000E+00  0.00000000E+00
  0.00000000E+00  0.00000000E+00  0.00000000E+00
  0.00000000E+00  0.00000000E+00  0.00000000E+00
  0.00000000E+00  0.00000000E+00  0.00000000E+00
  0.00000000E+00  0.00000000E+00  0.00000000E+00
  0.00000000E+00  0.00000000E+00  0.00000000E+00
  0.00000000E+00  0.00000000E+00  0.00000000E+00
  0.00000000E+00  0.00000000E+00  0.00000000E+00
  0.00000000E+00  0.00000000E+00  0.00000000E+00
  0.00000000E+00  0.00000000E+00  0.00000000E+00
  0.00000000E+00  0.00000000E+00  0.00000000E+00
  0.00000000E+00  0.00000000E+00  0.00000000E+00
  0.00000000E+00  0.00000000E+00  0.00000000E+00
  0.00000000E+00  0.00000000E+00  0.00000000E+00
  0.00000000E+00  0.00000000E+00  0.00000000E+00
  0.00000000E+00  0.00000000E+00  0.00000000E+00
  0.00000000E+00  0.00000000E+00  0.00000000E+00
  0.00000000E+00  0.00000000E+00  0.00000000E+00
  0.00000000E+00  0.00000000E+00  0.00000000E+00
  0.00000000E+00  0.00000000E+00  0.00000000E+00
  0.00000000E+00  0.00000000E+00  0.00000000E+00
  0.00000000E+00  0.00000000E+00  0.00000000E+00
  0.00000000E+00  0.00000000E+00  0.00000000E+00
  0.00000000E+00  0.00000000E+00  0.00000000E+00
  0.00000000E+00  0.00000000E+00  0.00000000E+00
  0.00000000E+00  0.00000000E+00  0.00000000E+00
  0.00000000E+00  0.00000000E+00  0.00000000E+00
  0.00000000E+00  0.00000000E+00  0.00000000E+00
  0.00000000E+00  0.00000000E+00  0.00000000E+00
  0.00000000E+00  0.00000000E+00  0.00000000E+00
  0.00000000E+00  0.00000000E+00  0.00000000E+00
  0.00000000E+00  0.00000000E+00  0.00000000E+00
  0.00000000E+00  0.00000000E+00  0.00000000E+00
  0.00000000E+00  0.00000000E+00  0.00000000E+00
  0.00000000E+00  0.00000000E+00  0.00000000E+00
  0.00000000E+00  0.00000000E+00  0.00000000E+00
  0.00000000E+00  0.00000000E+00  0.00000000E+00
  0.00000000E+00  0.00000000E+00  0.00000000E+00
  0.00000000E+00  0.00000000E+00  0.00000000E+00
  0.00000000E+00  0.00000000E+00  0.00000000E+00
  0.00000000E+00  0.00000000E+00  0.00000000E+00
  0.00000000E+00  0.00000000E+00  0.00000000E+00
  0.00000000E+00  0.00000000E+00  0.00000000E+00
  0.00000000E+00  0.00000000E+00  0.00000000E+00
  0.00000000E+00  0.00000000E+00  0.00000000E+00
  0.00000000E+00  0.00000000E+00  0.00000000E+00
  0.00000000E+00  0.00000000E+00  0.00000000E+00
  0.00000000E+00  0.00000000E+00  0.00000000E+00
  0.00000000E+00  0.00000000E+00  0.00000000E+00
  0.00000000E+00  0.00000000E+00  0.00000000E+00
  0.00000000E+00  0.00000000E+00  0.00000000E+00
  0.00000000E+00  0.00000000E+00  0.00000000E+00
  0.00000000E+00  0.00000000E+00  0.00000000E+00
  0.00000000E+00  0.00000000E+00  0.00000000E+00
  0.00000000E+00  0.00000000E+00  0.00000000E+00
  0.00000000E+00  0.00000000E+00  0.00000000E+00
  0.00000000E+00  0.00000000E+00  0.00000000E+00
  0.00000000E+00  0.00000000E+00  0.00000000E+00
  0.00000000E+00  0.00000000E+00  0.00000000E+00
  0.00000000E+00  0.00000000E+00  0.00000000E+00
  0.00000000E+00  0.00000000E+00  0.00000000E+00
  0.00000000E+00  0.00000000E+00  0.00000000E+00
  0.00000000E+00  0.00000000E+00  0.00000000E+00
  0.00000000E+00  0.00000000E+00  0.00000000E+00
  0.00000000E+00  0.00000000E+00  0.00000000E+00
  0.00000000E+00  0.00000000E+00  0.00000000E+00
  0.00000000E+00  0.00000000E+00  0.00000000E+00
  0.00000000E+00  0.00000000E+00  0.00000000E+00
  0.00000000E+00  0.00000000E+00  0.00000000E+00
  0.00000000E+00  0.00000000E+00  0.00000000E+00
  0.00000000E+00  0.00000000E+00  0.00000000E+00
  0.00000000E+00  0.00000000E+00  0.00000000E+00
  0.00000000E+00  0.00000000E+00  0.00000000E+00
  0.00000000E+00  0.00000000E+00  0.00000000E+00
  0.00000000E+00  0.00000000E+00  0.00000000E+00
