Li61 P7 N32                             
   1.00000000000000     
     0.0028639133355950    9.5848154707621465    0.0254152471822924
    -0.0236799191719756    0.0253480668667257    9.5847515104140601
     9.5536470850486879    0.0028345103388541   -0.0236906605942676
   Li   P    N 
    61     7    32
Direct
  0.4896866225186883  0.9950153328743199  0.5074516691973104
  0.0072981003968551  0.4977927160360671  0.0039632919083594
  0.4994537849137822  0.9924442800354367  0.0069977792020449
  0.9963541594422187  0.9987130967143625  0.5037455217312852
  0.5079210249201813  0.4963439415561244  0.0122584419117360
  0.9993820709126796  0.4977781464288867  0.4970132372053956
  0.7487884545763510  0.0182819991611884  0.5168156730703087
  0.2423288304346602  0.9911996092155075  0.5051934567355668
  0.7795969316050382  0.5384150960046536  0.5247828176431401
  0.2227285171028955  0.4923771931537226  0.5029849453678507
  0.2612356513756936  0.9995418630936892  0.0035579058816512
  0.7374793035145877  0.9998187839920321  0.0186920787531774
  0.5781127115722922  0.5777881019495414  0.4294671933165143
  0.5185285641822223  0.2373941184708699  0.9881328923272257
  0.5079140671292707  0.7483742358390560  0.0203238500920830
  0.0110945975390369  0.4998836419788737  0.2507737638326512
  0.0126458564898120  0.4879911410965656  0.7532034440143160
  0.2166680273139270  0.2373849481003920  0.2282061725833565
  0.2081535233389497  0.7877991772312342  0.7597017389618023
  0.2168301063223200  0.2958332292458052  0.7216767595735180
  0.2573179853856093  0.7350494569907553  0.2683382174916372
  0.7108197200598666  0.2712464741106414  0.2396630114216944
  0.7114040068154429  0.7788791189223929  0.6937990406009104
  0.7176347757316545  0.2293654223012216  0.7597788313546118
  0.7610074063798206  0.7681816793119727  0.2174333716789238
  0.9698843821690447  0.2525147674932454  0.2417987152020217
  0.9539349910821748  0.7255591433005957  0.7573560356061555
  0.2640753775264470  0.2358065941670564  0.4900688896386995
  0.2521458558482730  0.7420690615298072  0.5038999496831768
  0.7668342009218683  0.2882068071554912  0.4727838737531751
  0.7461566641900360  0.7783170425573425  0.4617805783824439
  0.7640575391957826  0.5074249536311022  0.2688454396137520
  0.7885350831993133  0.4582747347904427  0.7476286963493645
  0.2616811971348402  0.5017201523487822  0.2563122505771421
  0.2388807031595813  0.5319174454316604  0.7499074416962469
  0.4900522018441129  0.7510355291733843  0.2724041691546914
  0.4490018243255257  0.2189883711758432  0.7077682745926419
  0.2407766449996049  0.9860088340613250  0.2516435241186793
  0.2362632360649770  0.0321704681176432  0.7530639565545856
  0.2711274416753049  0.2410756923840907  0.9696172882779802
  0.2578017889419660  0.7590624826055398  0.0183627397464523
  0.7556785332503937  0.9918568397376666  0.7732420479673471
  0.7588827023167878  0.0251108028844952  0.2678086528784511
  0.7619763936211065  0.7611166349699212  0.9758835235764289
  0.7756226400180650  0.2419444358228478  0.0025775126657104
  0.9796515782833941  0.2204478771420111  0.7539350050905212
  0.0107076049473955  0.7545004748798272  0.2434626774257384
  0.4707293280776800  0.2553958449360119  0.2305831889449411
  0.4615999688227631  0.7376030154904987  0.7730658229655534
  0.0190874571400618  0.2592622101902193  0.9981416958799252
  0.0102937203121904  0.7349335699891822  0.0009872706708090
  0.5312956015154804  0.2126930213351664  0.4682475911186756
  0.4986400579705761  0.7726304310810962  0.5185342437265267
  0.5107248753004608  0.5001576692302567  0.2321628170961310
  0.4562786126647930  0.4446042608999975  0.7980608205197395
 -0.0004551201168070  0.0012142838413707  0.2665268880349193
  0.9962180299309751  0.9793223355797375  0.7423768700272438
  0.4209196092851877  0.4162386903299680  0.4268863157812295
  0.4210485109918249  0.5746093482111242  0.5908873325367784
  0.5794208603491566  0.4179841509007252  0.5912726100310147
  0.6429796082003234  0.6015169147985094  0.8226117633576644
  0.9997868076651703  0.9966027044025226  0.0046667859468372
  0.7621868444833919  0.4960231997513493  0.0086050094740349
  0.2536498568344563  0.4996820634999680  0.0048658793080089
  0.9980687314086987  0.7517760074338743  0.5020921887978604
  0.0040146282734775  0.2451364196014535  0.5010347221500299
  0.4990470545005219 -0.0002275509775151  0.2525468867788054
  0.4952467811088409  0.9880989687832994  0.7611551708600018
  0.6166232969601809  0.6205644856430460  0.6247147770525970
  0.6170923619234915  0.3832519015862103  0.3793778919953723
  0.8984122979611754  0.8931683866944206  0.1059936703261150
  0.8945085191929077  0.0970041108443029  0.9014146842078071
  0.1030128615025298  0.8963469174615351  0.9016219311807104
  0.1006574717645143  0.1000185173830250  0.1066974191174807
  0.3801435931772640  0.6177403819119340  0.3885897441618460
  0.3700682674264808  0.3803351075285432  0.6220754491886430
  0.0997947004739897  0.3445755505963727  0.3915280548954810
  0.0937802819034937  0.6496357619572788  0.6133128656032466
  0.1056452862057856  0.1445014750354791  0.6048961333346904
  0.1055525918624448  0.8517335982405984  0.4038099928245545
  0.8941738802870298  0.1458539331355307  0.4034855227958426
  0.8881394654697274  0.8529553353402993  0.6004119549668128
  0.8606960232432873  0.3953645583346569  0.1125444713510895
  0.8589347092534858  0.5916350050273713  0.8955990315905230
  0.1526984921099466  0.6008993837421408  0.1106007715331497
  0.1541351325475560  0.4031826553400320  0.8951705009316362
  0.3993884625683792  0.8907593785801745  0.1533845734593514
  0.4000182022316873  0.0976831603612369  0.8630787180104201
  0.3892233216079758  0.0987585744440535  0.3524631549757463
  0.3814927658136102  0.8960745506975506  0.6599163158893095
  0.3536713920095069  0.3887274651442991  0.1013519884174346
  0.3585067434969273  0.6057857009509194  0.9083495036391489
  0.6017331152567394  0.0858226670262246  0.6589602935129995
  0.6081611840049759  0.9030920730949060  0.3554200116443095
  0.6608660510705476  0.6088440957590420  0.0995032209344382
  0.6590081305279385  0.3913033358510011  0.9048138327161793
  0.9048511500254918  0.3507462159872014  0.6108820261200248
  0.9014117646303188  0.6516679487825019  0.3905870928870809
  0.5988717632159596  0.1048331610766613  0.1508491586449921
  0.5985025108655884  0.8802360979571743  0.8586100196757771
 
  0.00000000E+00  0.00000000E+00  0.00000000E+00
  0.00000000E+00  0.00000000E+00  0.00000000E+00
  0.00000000E+00  0.00000000E+00  0.00000000E+00
  0.00000000E+00  0.00000000E+00  0.00000000E+00
  0.00000000E+00  0.00000000E+00  0.00000000E+00
  0.00000000E+00  0.00000000E+00  0.00000000E+00
  0.00000000E+00  0.00000000E+00  0.00000000E+00
  0.00000000E+00  0.00000000E+00  0.00000000E+00
  0.00000000E+00  0.00000000E+00  0.00000000E+00
  0.00000000E+00  0.00000000E+00  0.00000000E+00
  0.00000000E+00  0.00000000E+00  0.00000000E+00
  0.00000000E+00  0.00000000E+00  0.00000000E+00
  0.00000000E+00  0.00000000E+00  0.00000000E+00
  0.00000000E+00  0.00000000E+00  0.00000000E+00
  0.00000000E+00  0.00000000E+00  0.00000000E+00
  0.00000000E+00  0.00000000E+00  0.00000000E+00
  0.00000000E+00  0.00000000E+00  0.00000000E+00
  0.00000000E+00  0.00000000E+00  0.00000000E+00
  0.00000000E+00  0.00000000E+00  0.00000000E+00
  0.00000000E+00  0.00000000E+00  0.00000000E+00
  0.00000000E+00  0.00000000E+00  0.00000000E+00
  0.00000000E+00  0.00000000E+00  0.00000000E+00
  0.00000000E+00  0.00000000E+00  0.00000000E+00
  0.00000000E+00  0.00000000E+00  0.00000000E+00
  0.00000000E+00  0.00000000E+00  0.00000000E+00
  0.00000000E+00  0.00000000E+00  0.00000000E+00
  0.00000000E+00  0.00000000E+00  0.00000000E+00
  0.00000000E+00  0.00000000E+00  0.00000000E+00
  0.00000000E+00  0.00000000E+00  0.00000000E+00
  0.00000000E+00  0.00000000E+00  0.00000000E+00
  0.00000000E+00  0.00000000E+00  0.00000000E+00
  0.00000000E+00  0.00000000E+00  0.00000000E+00
  0.00000000E+00  0.00000000E+00  0.00000000E+00
  0.00000000E+00  0.00000000E+00  0.00000000E+00
  0.00000000E+00  0.00000000E+00  0.00000000E+00
  0.00000000E+00  0.00000000E+00  0.00000000E+00
  0.00000000E+00  0.00000000E+00  0.00000000E+00
  0.00000000E+00  0.00000000E+00  0.00000000E+00
  0.00000000E+00  0.00000000E+00  0.00000000E+00
  0.00000000E+00  0.00000000E+00  0.00000000E+00
  0.00000000E+00  0.00000000E+00  0.00000000E+00
  0.00000000E+00  0.00000000E+00  0.00000000E+00
  0.00000000E+00  0.00000000E+00  0.00000000E+00
  0.00000000E+00  0.00000000E+00  0.00000000E+00
  0.00000000E+00  0.00000000E+00  0.00000000E+00
  0.00000000E+00  0.00000000E+00  0.00000000E+00
  0.00000000E+00  0.00000000E+00  0.00000000E+00
  0.00000000E+00  0.00000000E+00  0.00000000E+00
  0.00000000E+00  0.00000000E+00  0.00000000E+00
  0.00000000E+00  0.00000000E+00  0.00000000E+00
  0.00000000E+00  0.00000000E+00  0.00000000E+00
  0.00000000E+00  0.00000000E+00  0.00000000E+00
  0.00000000E+00  0.00000000E+00  0.00000000E+00
  0.00000000E+00  0.00000000E+00  0.00000000E+00
  0.00000000E+00  0.00000000E+00  0.00000000E+00
  0.00000000E+00  0.00000000E+00  0.00000000E+00
  0.00000000E+00  0.00000000E+00  0.00000000E+00
  0.00000000E+00  0.00000000E+00  0.00000000E+00
  0.00000000E+00  0.00000000E+00  0.00000000E+00
  0.00000000E+00  0.00000000E+00  0.00000000E+00
  0.00000000E+00  0.00000000E+00  0.00000000E+00
  0.00000000E+00  0.00000000E+00  0.00000000E+00
  0.00000000E+00  0.00000000E+00  0.00000000E+00
  0.00000000E+00  0.00000000E+00  0.00000000E+00
  0.00000000E+00  0.00000000E+00  0.00000000E+00
  0.00000000E+00  0.00000000E+00  0.00000000E+00
  0.00000000E+00  0.00000000E+00  0.00000000E+00
  0.00000000E+00  0.00000000E+00  0.00000000E+00
  0.00000000E+00  0.00000000E+00  0.00000000E+00
  0.00000000E+00  0.00000000E+00  0.00000000E+00
  0.00000000E+00  0.00000000E+00  0.00000000E+00
  0.00000000E+00  0.00000000E+00  0.00000000E+00
  0.00000000E+00  0.00000000E+00  0.00000000E+00
  0.00000000E+00  0.00000000E+00  0.00000000E+00
  0.00000000E+00  0.00000000E+00  0.00000000E+00
  0.00000000E+00  0.00000000E+00  0.00000000E+00
  0.00000000E+00  0.00000000E+00  0.00000000E+00
  0.00000000E+00  0.00000000E+00  0.00000000E+00
  0.00000000E+00  0.00000000E+00  0.00000000E+00
  0.00000000E+00  0.00000000E+00  0.00000000E+00
  0.00000000E+00  0.00000000E+00  0.00000000E+00
  0.00000000E+00  0.00000000E+00  0.00000000E+00
  0.00000000E+00  0.00000000E+00  0.00000000E+00
  0.00000000E+00  0.00000000E+00  0.00000000E+00
  0.00000000E+00  0.00000000E+00  0.00000000E+00
  0.00000000E+00  0.00000000E+00  0.00000000E+00
  0.00000000E+00  0.00000000E+00  0.00000000E+00
  0.00000000E+00  0.00000000E+00  0.00000000E+00
  0.00000000E+00  0.00000000E+00  0.00000000E+00
  0.00000000E+00  0.00000000E+00  0.00000000E+00
  0.00000000E+00  0.00000000E+00  0.00000000E+00
  0.00000000E+00  0.00000000E+00  0.00000000E+00
  0.00000000E+00  0.00000000E+00  0.00000000E+00
  0.00000000E+00  0.00000000E+00  0.00000000E+00
  0.00000000E+00  0.00000000E+00  0.00000000E+00
  0.00000000E+00  0.00000000E+00  0.00000000E+00
  0.00000000E+00  0.00000000E+00  0.00000000E+00
  0.00000000E+00  0.00000000E+00  0.00000000E+00
  0.00000000E+00  0.00000000E+00  0.00000000E+00
  0.00000000E+00  0.00000000E+00  0.00000000E+00
