Li5 P2 N1 O6                            
   1.00000000000000     
     0.3845871826027224   -0.6767656870041578    4.9908443211758673
     6.2146088567703961    0.4375295746794484    0.4128372857322354
     0.5266620265714100    4.9149448118858450   -0.7201964289211737
   Li   P    N    O 
     5     2     1     6
Direct
  0.2614446993765616  0.0902110041751514  0.8146353566731747
  0.4245510049020056  0.2403468638444961  0.2952784535375648
  0.5174741781578093  0.7157383831235815  0.2497757963954516
  0.9731040837678467  0.6971290368090513  0.8300119863580652
  0.9492184581922323  0.4554878995886551  0.4338588032449217
  0.5559984388110668  0.4029986363744618  0.8406608827144219
  0.9488039258087003 -0.0005059389312549  0.2343033674217576
  0.6566552003424944  0.1467157212659476  0.0185160608766359
  0.1215772195880967  0.1456662971140037  0.4125949348248883
  0.8641755687754865  0.8176266667910145  0.4272553537506843
  0.5874606239796467  0.4319770816029803  0.5349330674259000
  0.7030299228482630  0.5682098678933634 -0.0008150159149849
  0.1401412960032139  0.8919175196174031  0.0723534922981956
  0.2387923794465914  0.4364699607311500  0.8237124603933262
 
  0.00000000E+00  0.00000000E+00  0.00000000E+00
  0.00000000E+00  0.00000000E+00  0.00000000E+00
  0.00000000E+00  0.00000000E+00  0.00000000E+00
  0.00000000E+00  0.00000000E+00  0.00000000E+00
  0.00000000E+00  0.00000000E+00  0.00000000E+00
  0.00000000E+00  0.00000000E+00  0.00000000E+00
  0.00000000E+00  0.00000000E+00  0.00000000E+00
  0.00000000E+00  0.00000000E+00  0.00000000E+00
  0.00000000E+00  0.00000000E+00  0.00000000E+00
  0.00000000E+00  0.00000000E+00  0.00000000E+00
  0.00000000E+00  0.00000000E+00  0.00000000E+00
  0.00000000E+00  0.00000000E+00  0.00000000E+00
  0.00000000E+00  0.00000000E+00  0.00000000E+00
  0.00000000E+00  0.00000000E+00  0.00000000E+00
