Li5 P2 N1 O6                            
   1.00000000000000     
     0.4679416283015637   -0.6031855831692474    4.9754287570055649
     6.0185950520126612    0.4924442459166852    0.5359447073131675
     0.5295299618453069    4.9774201805486680   -0.6312723351397387
   Li   P    N    O 
     5     2     1     6
Direct
  0.3838565500535296 -0.0321501109878555  0.8020947738460571
  0.3712351611997208  0.2854742994673406  0.2526498103646480
  0.5332887835495922  0.7209394148289870  0.2681238849496543
 -0.0344818245742553  0.7183229346744709  0.8371494954968652
 -0.0492447559012782  0.3933548084001105  0.5296560308365963
  0.5292211537541860  0.4230334329116631  0.8242772618195012
 -0.0400715457098519  0.0047915213735878  0.2362095714251937
  0.6775448750066911  0.1709303561503646  0.0214607216259234
  0.1350627203948077  0.1362917202824252  0.4288029705601873
 -0.1375480273182436  0.8229845169783350  0.4243185199595686
  0.5592939356363775  0.4355397222704580  0.5210517365812551
  0.6381006690562711  0.6270280910424016 -0.0686737057970456
  0.1572447878363388 -0.1091786845690322  0.0759153153745872
  0.2189245170161375  0.4426269771767414  0.8340386129570142
 
  0.00000000E+00  0.00000000E+00  0.00000000E+00
  0.00000000E+00  0.00000000E+00  0.00000000E+00
  0.00000000E+00  0.00000000E+00  0.00000000E+00
  0.00000000E+00  0.00000000E+00  0.00000000E+00
  0.00000000E+00  0.00000000E+00  0.00000000E+00
  0.00000000E+00  0.00000000E+00  0.00000000E+00
  0.00000000E+00  0.00000000E+00  0.00000000E+00
  0.00000000E+00  0.00000000E+00  0.00000000E+00
  0.00000000E+00  0.00000000E+00  0.00000000E+00
  0.00000000E+00  0.00000000E+00  0.00000000E+00
  0.00000000E+00  0.00000000E+00  0.00000000E+00
  0.00000000E+00  0.00000000E+00  0.00000000E+00
  0.00000000E+00  0.00000000E+00  0.00000000E+00
  0.00000000E+00  0.00000000E+00  0.00000000E+00
