Li6 P2 O8                               
   1.00000000000000     
     4.8985532969188323    0.0000000000000000    0.0000000000000000
     0.0000000000000000    5.2711356412188710    0.0000000000000000
     0.0000000000000000    0.0000000000000000    6.1469417046307351
   Li   P    O 
     6     2     8
Direct
  0.5094085188699337  0.8450614975768093  0.0000000000000000
  0.0094085188699336  0.1549385024231908  0.5000000000000000
  0.5085504414246410  0.3262932584698946  0.2526641003045391
  0.0085504414246411  0.6737067415301055  0.2473358996954609
  0.0085504414246411  0.6737067415301055  0.7526641003045392
  0.5085504414246410  0.3262932584698946  0.7473358996954608
  0.5013418505235052  0.8242640602402537  0.5000000000000000
  0.0013418505235052  0.1757359397597464  0.0000000000000000
  0.1074939339220328  0.3142118011569657  0.7919555460086936
  0.6026993260878045  0.1048764940968181  0.5000000000000000
  0.1833615538254231  0.8185412199544011  0.5000000000000000
  0.6833615538254231  0.1814587800455989  0.0000000000000000
  0.6074939339220329  0.6857881988430342  0.2919555460086934
  0.1074939339220328  0.3142118011569657  0.2080444539913065
  0.1026993260878046  0.8951235059031818  0.0000000000000000
  0.6074939339220329  0.6857881988430342  0.7080444539913064
 
  0.00000000E+00  0.00000000E+00  0.00000000E+00
  0.00000000E+00  0.00000000E+00  0.00000000E+00
  0.00000000E+00  0.00000000E+00  0.00000000E+00
  0.00000000E+00  0.00000000E+00  0.00000000E+00
  0.00000000E+00  0.00000000E+00  0.00000000E+00
  0.00000000E+00  0.00000000E+00  0.00000000E+00
  0.00000000E+00  0.00000000E+00  0.00000000E+00
  0.00000000E+00  0.00000000E+00  0.00000000E+00
  0.00000000E+00  0.00000000E+00  0.00000000E+00
  0.00000000E+00  0.00000000E+00  0.00000000E+00
  0.00000000E+00  0.00000000E+00  0.00000000E+00
  0.00000000E+00  0.00000000E+00  0.00000000E+00
  0.00000000E+00  0.00000000E+00  0.00000000E+00
  0.00000000E+00  0.00000000E+00  0.00000000E+00
  0.00000000E+00  0.00000000E+00  0.00000000E+00
  0.00000000E+00  0.00000000E+00  0.00000000E+00
