Li61 P7 N32                             
   1.00000000000000     
     0.0010462926577469    9.4837004295514369   -0.0016037096356005
    -0.0067091163801475   -0.0016601023465968    9.5542770295903949
     9.5445403990965474    0.0009322774211072   -0.0067773974064022
   Li   P    N 
    61     7    32
Direct
  0.4948041170140128  0.0028453086909372  0.5011507243512436
  0.0050275529718387  0.5037519890391638 -0.0081828527964005
  0.4943106944708537 -0.0066444943491871  0.0011674491531286
 -0.0010705666097270 -0.0003785400759886  0.5018238873590334
  0.4879832225771142  0.4929526835248737 -0.0028017857630692
  0.0038826770640321  0.4997841388276494  0.4951858325688031
  0.7472563720761832 -0.0035147394291359  0.4988803236882241
  0.2448679696791600 -0.0132604161081606  0.5049642144695713
  0.7657707899993408  0.4986596072379754  0.4992680354237496
  0.2331977418366797  0.5022942330135501  0.5113838263829954
  0.2599906680714500  0.0056475131792032 -0.0003711677525232
  0.7335428200939500 -0.0021149152552054  0.0001138473052780
  0.6728697029202775  0.4237696615902163  0.0923137098849793
  0.5124192947044672  0.2334876030298252 -0.0174868640071349
  0.4988856677969674  0.7515688557376087  0.0127167431981771
 -0.0097885767622492  0.4873575445913048  0.2528794095792965
 -0.0119870867035599  0.5122158468496139  0.7376744055171361
  0.2287580654765842  0.2281584049108297  0.2128580446323788
  0.2399762269805481  0.7934466384434010  0.7868180984091091
  0.2553757760624174  0.2956011259325309  0.7212976939897883
  0.2719102500007721  0.7428251470167387  0.2866426617753287
  0.7671934195782240  0.3041130002626329  0.3077850907686185
  0.7589759684968760  0.7015554149211217  0.7014646366528349
  0.7310802869418005  0.1950210940554946  0.8079095987764712
  0.7450869480022364  0.8012718029554293  0.2028110828494487
  0.9878947162886488  0.2433316419601612  0.2444273800130191
  0.9863330152430908  0.7534630228958218  0.7549449453958752
  0.2581618627508051  0.2212517467403213  0.4888778546472649
  0.2615454762784781  0.7492145872522649  0.5314094116009761
  0.7525183317527306  0.2260050484796298  0.5546803149634744
  0.7424650231159490  0.7611824386087541  0.4582311344468707
  0.8281352812169885  0.5915896812969271  0.0773114457130183
  0.7348044888986215  0.4506658056197618  0.7204471682274398
  0.2236678015887787  0.5003024102990817  0.2560909289215480
  0.2247679107978409  0.5481478605742286  0.7507051196116180
  0.5179113912048291  0.7501361209698946  0.2521726901434123
  0.5083578302056867  0.2553720899946985  0.7438678825016680
  0.2357715431616874  0.9883340909932652  0.2525777608663175
  0.2343146192110440  0.0347726113287442  0.7469991875850206
  0.2682460422088999  0.2471629419246876  0.9670445175958782
  0.2549029751888970  0.7661593984430749  0.0344272287263911
  0.7546327404069832  0.9545139654559115  0.7352229938094968
  0.7575692155938089  0.0433142078959626  0.2639580393180806
  0.7565280489072537  0.7783029731365106  0.9530126093896403
  0.7682073822752393  0.2152012746907163  0.0576174964208242
  0.0054997734826152  0.2520114993198376  0.7649171893392039
  0.0171444047080285  0.7442812879405947  0.2343312915151252
  0.5087871139106749  0.2580450027015081  0.2340836470792177
  0.4864522254210409  0.7362984965627759  0.7545439629908821
  0.0143578749781712  0.2638258879472682  0.0153432031172251
  0.0076192030624399  0.7433578112295207 -0.0159307690917611
  0.5151975536047606  0.2359193965995376  0.4976818904517778
  0.5005816182282955  0.7650249229160923  0.5056599252590858
  0.4890255592359806  0.5260986376908172  0.2327948722189682
  0.4821194634744454  0.4852845811789506  0.7585535264058406
 -0.0027881606642586 -0.0082736263561643  0.2627676885977622
 -0.0051739805623224  0.0055667615543331  0.7409828642417268
  0.3593628759404693  0.3622523880582068  0.3605201874769030
  0.7360947675886795  0.5522831008836664  0.2795296183769111
  0.8226218631772892  0.4048270553097929  0.9237971830681170
  0.6698910580930406  0.5767727737916282  0.9103597800518769
  0.4989781475092052  0.5036138644499917  0.4998391523141817
  0.0008412455084214  0.0026533777140012  0.0014918455994802
  0.2461780577990120  0.5061282636702930  0.0031798872772741
  0.0009439149624865  0.7491236706147042  0.4968916729687765
  0.0043693023734753  0.2504826236406502  0.5030933183005888
  0.4978495738373503  0.0045727909590609  0.2499598462184622
  0.4965186825496870 -0.0031720635112732  0.7516529345780382
  0.6015477123548143  0.5998859945900267  0.6033255686713688
  0.5964682421867643  0.4049557372944987  0.3882847501311978
  0.8973014163994618  0.8971095991551206  0.0989416203156244
  0.8959723120805905  0.1075575013014600  0.9038847198068276
  0.1050163135117280  0.9070809567850162  0.8944968025932911
  0.1043736532160448  0.0992294395110076  0.1086171547126943
  0.3887950541943554  0.6046566313700176  0.4032380569215404
  0.3952613369077100  0.3899615716285714  0.5895781547288692
  0.1123670920046226  0.3452546924311837  0.3942504057030037
  0.0994474588030121  0.6500719201957494  0.6068960374519431
  0.1080274764034251  0.1486867704421619  0.6069438632641548
  0.1122542904894120  0.8500067557238761  0.3998249144832510
  0.8913459622518893  0.1495960401841077  0.4079796733148449
  0.8874383908477138  0.8497508027727133  0.5919466566225374
  0.8668295039744343  0.3814022864910870  0.1322189895963067
  0.8649290116539281  0.6162583143317949  0.8677999869392540
  0.1420552346937394  0.6072407446226946  0.1072629971740833
  0.1534908333220144  0.4033019196491997  0.8894100126722939
  0.3935113009097230  0.8947955712028542  0.1573688246354125
  0.3980077111896920  0.1062519709794383  0.8509240417447017
  0.3920109866870655  0.1139906290599406  0.3482995212215482
  0.3858580169344854  0.8985180793487654  0.6504451257361586
  0.3417506717212720  0.3969679422276874  0.1118321857414120
  0.3473939420992023  0.6161775669733122  0.9046052020826284
  0.6098267066343845  0.0921081044457325  0.6500132400600905
  0.6082954502122877  0.9099768841144246  0.3533097851662702
  0.6327633760575869  0.6337606262662366  0.1170131267501002
  0.6261635459531756  0.3700832467829834  0.8816787900318117
  0.9046344993694959  0.3557528985274956  0.6054677230790537
  0.9029867340838752  0.6466037984614381  0.3889699983990834
  0.5992374024528281  0.1033417476783799  0.1429183532730228
  0.5951105231437670  0.8896603234323825  0.8526602423056580
 
  0.00000000E+00  0.00000000E+00  0.00000000E+00
  0.00000000E+00  0.00000000E+00  0.00000000E+00
  0.00000000E+00  0.00000000E+00  0.00000000E+00
  0.00000000E+00  0.00000000E+00  0.00000000E+00
  0.00000000E+00  0.00000000E+00  0.00000000E+00
  0.00000000E+00  0.00000000E+00  0.00000000E+00
  0.00000000E+00  0.00000000E+00  0.00000000E+00
  0.00000000E+00  0.00000000E+00  0.00000000E+00
  0.00000000E+00  0.00000000E+00  0.00000000E+00
  0.00000000E+00  0.00000000E+00  0.00000000E+00
  0.00000000E+00  0.00000000E+00  0.00000000E+00
  0.00000000E+00  0.00000000E+00  0.00000000E+00
  0.00000000E+00  0.00000000E+00  0.00000000E+00
  0.00000000E+00  0.00000000E+00  0.00000000E+00
  0.00000000E+00  0.00000000E+00  0.00000000E+00
  0.00000000E+00  0.00000000E+00  0.00000000E+00
  0.00000000E+00  0.00000000E+00  0.00000000E+00
  0.00000000E+00  0.00000000E+00  0.00000000E+00
  0.00000000E+00  0.00000000E+00  0.00000000E+00
  0.00000000E+00  0.00000000E+00  0.00000000E+00
  0.00000000E+00  0.00000000E+00  0.00000000E+00
  0.00000000E+00  0.00000000E+00  0.00000000E+00
  0.00000000E+00  0.00000000E+00  0.00000000E+00
  0.00000000E+00  0.00000000E+00  0.00000000E+00
  0.00000000E+00  0.00000000E+00  0.00000000E+00
  0.00000000E+00  0.00000000E+00  0.00000000E+00
  0.00000000E+00  0.00000000E+00  0.00000000E+00
  0.00000000E+00  0.00000000E+00  0.00000000E+00
  0.00000000E+00  0.00000000E+00  0.00000000E+00
  0.00000000E+00  0.00000000E+00  0.00000000E+00
  0.00000000E+00  0.00000000E+00  0.00000000E+00
  0.00000000E+00  0.00000000E+00  0.00000000E+00
  0.00000000E+00  0.00000000E+00  0.00000000E+00
  0.00000000E+00  0.00000000E+00  0.00000000E+00
  0.00000000E+00  0.00000000E+00  0.00000000E+00
  0.00000000E+00  0.00000000E+00  0.00000000E+00
  0.00000000E+00  0.00000000E+00  0.00000000E+00
  0.00000000E+00  0.00000000E+00  0.00000000E+00
  0.00000000E+00  0.00000000E+00  0.00000000E+00
  0.00000000E+00  0.00000000E+00  0.00000000E+00
  0.00000000E+00  0.00000000E+00  0.00000000E+00
  0.00000000E+00  0.00000000E+00  0.00000000E+00
  0.00000000E+00  0.00000000E+00  0.00000000E+00
  0.00000000E+00  0.00000000E+00  0.00000000E+00
  0.00000000E+00  0.00000000E+00  0.00000000E+00
  0.00000000E+00  0.00000000E+00  0.00000000E+00
  0.00000000E+00  0.00000000E+00  0.00000000E+00
  0.00000000E+00  0.00000000E+00  0.00000000E+00
  0.00000000E+00  0.00000000E+00  0.00000000E+00
  0.00000000E+00  0.00000000E+00  0.00000000E+00
  0.00000000E+00  0.00000000E+00  0.00000000E+00
  0.00000000E+00  0.00000000E+00  0.00000000E+00
  0.00000000E+00  0.00000000E+00  0.00000000E+00
  0.00000000E+00  0.00000000E+00  0.00000000E+00
  0.00000000E+00  0.00000000E+00  0.00000000E+00
  0.00000000E+00  0.00000000E+00  0.00000000E+00
  0.00000000E+00  0.00000000E+00  0.00000000E+00
  0.00000000E+00  0.00000000E+00  0.00000000E+00
  0.00000000E+00  0.00000000E+00  0.00000000E+00
  0.00000000E+00  0.00000000E+00  0.00000000E+00
  0.00000000E+00  0.00000000E+00  0.00000000E+00
  0.00000000E+00  0.00000000E+00  0.00000000E+00
  0.00000000E+00  0.00000000E+00  0.00000000E+00
  0.00000000E+00  0.00000000E+00  0.00000000E+00
  0.00000000E+00  0.00000000E+00  0.00000000E+00
  0.00000000E+00  0.00000000E+00  0.00000000E+00
  0.00000000E+00  0.00000000E+00  0.00000000E+00
  0.00000000E+00  0.00000000E+00  0.00000000E+00
  0.00000000E+00  0.00000000E+00  0.00000000E+00
  0.00000000E+00  0.00000000E+00  0.00000000E+00
  0.00000000E+00  0.00000000E+00  0.00000000E+00
  0.00000000E+00  0.00000000E+00  0.00000000E+00
  0.00000000E+00  0.00000000E+00  0.00000000E+00
  0.00000000E+00  0.00000000E+00  0.00000000E+00
  0.00000000E+00  0.00000000E+00  0.00000000E+00
  0.00000000E+00  0.00000000E+00  0.00000000E+00
  0.00000000E+00  0.00000000E+00  0.00000000E+00
  0.00000000E+00  0.00000000E+00  0.00000000E+00
  0.00000000E+00  0.00000000E+00  0.00000000E+00
  0.00000000E+00  0.00000000E+00  0.00000000E+00
  0.00000000E+00  0.00000000E+00  0.00000000E+00
  0.00000000E+00  0.00000000E+00  0.00000000E+00
  0.00000000E+00  0.00000000E+00  0.00000000E+00
  0.00000000E+00  0.00000000E+00  0.00000000E+00
  0.00000000E+00  0.00000000E+00  0.00000000E+00
  0.00000000E+00  0.00000000E+00  0.00000000E+00
  0.00000000E+00  0.00000000E+00  0.00000000E+00
  0.00000000E+00  0.00000000E+00  0.00000000E+00
  0.00000000E+00  0.00000000E+00  0.00000000E+00
  0.00000000E+00  0.00000000E+00  0.00000000E+00
  0.00000000E+00  0.00000000E+00  0.00000000E+00
  0.00000000E+00  0.00000000E+00  0.00000000E+00
  0.00000000E+00  0.00000000E+00  0.00000000E+00
  0.00000000E+00  0.00000000E+00  0.00000000E+00
  0.00000000E+00  0.00000000E+00  0.00000000E+00
  0.00000000E+00  0.00000000E+00  0.00000000E+00
  0.00000000E+00  0.00000000E+00  0.00000000E+00
  0.00000000E+00  0.00000000E+00  0.00000000E+00
  0.00000000E+00  0.00000000E+00  0.00000000E+00
  0.00000000E+00  0.00000000E+00  0.00000000E+00
