Li73 P24 N1 O95                         
   1.00000000000000     
    14.7085442371782715   -0.0016111396788665    0.0000067384619680
    -0.0012319441953498   10.5728478443860645    0.0000032705661675
     0.0000056805184854    0.0000037893861968   12.3015508366957125
   Li   P    N    O 
    73    24     1    95
Direct
  0.1683119153420548  0.4206072941275056 -0.0009178712519287
  0.1683125205017831  0.4206087156700690  0.5009195304522585
  0.1705768308410275  0.9238561573039468  0.0047981782253942
  0.1705787378573369  0.9238534556137387  0.4951974233317095
  0.5037819579374935  0.4196051168603604  0.0003016241753418
  0.5037808551932144  0.4196059027759914  0.4996971145412897
  0.5047806805857704  0.9222736737512859 -0.0018221827315334
  0.5047808180264417  0.9222710175928776  0.5018225219738021
  0.8357622335324213  0.4190866998185231 -0.0003494050501999
  0.8357622998793347  0.4190867396174753  0.5003494008642341
  0.8364658365956833  0.9208437178354345  0.0005679731191928
  0.8364651127416811  0.9208410140375926  0.4994325452035038
  0.0304074978954522  0.0731957755678421  0.2500008273578229
  0.0026350389455942  0.0749795856975985  0.7499994500883184
  0.0000776956390666  0.5815761365341924  0.2499997820365573
  0.0012558485171442  0.5760215269266916  0.7500035363755876
  0.3289519434194995  0.0765225905420208  0.2499987891878474
  0.3368144374170142  0.0772880620406021  0.7500006827002033
  0.2696680098499758  0.7209080635404825  0.2500000996834301
  0.3362777525811507  0.5787911246648314  0.7499994694982116
  0.6706804135806502  0.0751046390672526  0.2499999784917825
  0.6706505008080200  0.0750379742978077  0.7500003651242727
  0.6692921616180421  0.5742245456274270  0.2499999646021579
  0.6693596392876792  0.5756961327343529  0.7499999009876969
  0.1715619733777991  0.1642009185430933  0.1268010550958266
  0.1687887225461554  0.1621262899612183  0.6276220398578195
  0.1597774969114573  0.6619288967654672  0.1170644350928235
  0.1681145048210734  0.6627661320235047  0.6270983497669423
  0.5031265293225711  0.1589972691737812  0.1262170371787194
  0.5039316986100362  0.1628195628639363  0.6268767126447748
  0.5023050025330071  0.6601280886548978  0.1267848813806570
  0.5034300673867652  0.6628634574429708  0.6251722732714533
  0.8399448975608400  0.1598787591983470  0.1280281468054440
  0.8366439045808177  0.1608791361381094  0.6263962163948328
  0.8352358787726548  0.6612897855132714  0.1258326341387278
  0.8346248140572126  0.6616306497972806  0.6271347668943255
  0.0036230035957939  0.3371768291801474  0.1246286689306155
  0.0022422314376659  0.3342884136643119  0.6243472142641110
  0.0004016896502949  0.8355633940849979  0.1241717419861264
  0.0030098653603011  0.8362850066977940  0.6229433125874090
  0.3354665197893900  0.3303060221991169  0.1225702386738680
  0.3361298338493338  0.3376804560079621  0.6238481893272609
  0.3400121431593149  0.8463079063445863  0.1147462828296248
  0.3355786549771763  0.8369805848016875  0.6243435553626311
  0.6727935043107300  0.3328083854643117  0.1229554553086388
  0.6694024684861321  0.3345835082657405  0.6237400408889411
  0.6696106927310672  0.8346274622643377  0.1238063563045807
  0.6696194708528848  0.8348590772184553  0.6237638299651843
  0.0036225738814760  0.3371768159165670  0.3753710432558782
  0.0022400901844903  0.3342843753168514  0.8756532830482426
  0.0004029623492666  0.8355614325698597  0.3758303676645191
  0.0030102375435625  0.8362863067923596  0.8770561937354154
  0.3354654857273934  0.3303046523554281  0.3774280576810320
  0.3361300079978913  0.3376802707868683  0.8761504364148458
  0.3400132042068824  0.8463063667028035  0.3852549405916346
  0.3355780070473411  0.8369821990143681  0.8756561633571568
  0.6727939995950910  0.3328002492922170  0.3770457142056502
  0.6694061687772532  0.3345837489061393  0.8762598895560834
  0.6696101734208991  0.8346267481903537  0.3761948425155391
  0.6696203421905011  0.8348593468221144  0.8762403487581634
  0.1715607409842937  0.1642000316208815  0.3731998499232790
  0.1687875315047974  0.1621269070989317  0.8723767240434692
  0.1597777223393383  0.6619268893381081  0.3829354777513382
  0.1681158187138874  0.6627679594282384  0.8729021396201651
  0.5031254300228089  0.1589938724592884  0.3737823559735894
  0.5039316132060430  0.1628217575279758  0.8731217978589885
  0.5023050050000537  0.6601270549643203  0.3732125028943255
  0.5034295396708820  0.6628644539377087  0.8748230414708820
  0.8399450910623583  0.1598775375136291  0.3719740388934361
  0.8366447022133013  0.1608784047022714  0.8736038652891361
  0.8352351768618256  0.6612880197411700  0.3741671351797984
  0.8346242083886357  0.6616314503391025  0.8728631601826670
  0.3523414523786691  0.5504880739610019  0.2499975023360286
  0.1688276669657202  0.4175302134650870  0.2500001474288353
  0.1669841490903070  0.4119605488356971  0.7500001920101761
  0.1679316461670318  0.9137203236268600  0.2499995501537686
  0.1670583381054396  0.9106163669722648  0.7499992074120179
  0.5037548213540962  0.4023404641669792  0.2499992852050912
  0.5000647364752423  0.4128668203937688  0.7499993869314183
  0.4992101322592983  0.9083244208093344  0.2499998241732651
  0.5007590004077495  0.9110241182786756  0.7500001257628045
  0.8338614317719164  0.4109456610748463  0.2500000915320242
  0.8328638086872679  0.4099721418003002  0.7500008067727411
  0.8330509141800621  0.9102561032996630  0.2500018934424484
  0.8336908716744343  0.9098601156164106  0.7499998430323997
  0.0007579675871217  0.0874406472848426 -0.0007103042825230
  0.0007584971623705  0.0874391189138190  0.5007114561166718
 -0.0024157289317016  0.5854397495777376 -0.0019022104739369
 -0.0024149524907908  0.5854401311374744  0.5019022357015940
  0.3348780442581480  0.0893254669070150 -0.0031715958365908
  0.3348788561513129  0.0893246385727663  0.5031718002200065
  0.3320950106975442  0.5872987486572805  0.0038674870595026
  0.3320946193592628  0.5872980425774614  0.4961301292719701
  0.6679485766835831  0.0857394393255521 -0.0001450280848549
  0.6679487449577587  0.0857360919728393  0.5001447022609670
  0.6661918479869096  0.5853233843471439  0.0004013751540882
  0.6661925884337948  0.5853203177012820  0.4995985383424041
  0.1948109068614680  0.0557272897388594  0.2500002102799073
  0.0359821424947995  0.1599022947287226  0.3989638671514223
  0.0351724609733709  0.1547653254173326  0.8937636575740551
  0.0312819438414848  0.6553197649038482  0.3977568509124428
  0.0338535435621151  0.6552327155081965  0.8949354449516530
  0.3709398751546411  0.1560073690097499  0.3988362575037636
  0.3703551977089763  0.1592442106322574  0.8933394222903689
  0.3641654127629709  0.6547810288460213  0.3881051753403906
  0.3697505307531890  0.6591651310683443  0.9026664294057514
  0.7041026429736106  0.1539291093846731  0.3963203860572913
  0.7027649282961000  0.1549014818389885  0.8956179061545746
  0.7010593917241194  0.6541653480660664  0.3953332653285360
  0.7008630724436680  0.6550332943479081  0.8964430600623295
  0.2012074560807285  0.0502736290361890  0.7499995874967516
  0.2041628969683518  0.5585604010583688  0.2499991369096319
  0.2012382183647215  0.5518937759203921  0.7500000409312431
  0.5331343087221099  0.0478301087605548  0.2499997204857024
  0.5346770489916761  0.0507923332336559  0.7499992597857708
  0.5298192209992720  0.5458058530087504  0.2499997296545260
  0.5337682036083118  0.5528221628509756  0.7499992920091010
  0.8676361653460464  0.0488771522480845  0.2500020467549521
  0.8672854116018680  0.0497211920604755  0.7499994795587990
  0.8667305870792829  0.5512523383548914  0.2499991377454767
  0.8663744362389210  0.5499787992203886  0.7500004101424206
  0.0631176215363954  0.4168844566271098  0.2500002738548698
  0.0611543631910181  0.4092479552881316  0.7500009169795785
  0.0617833637621686  0.8899670282046228  0.2500005682180393
  0.0611937738812632  0.9076095896824966  0.7499989523436058
  0.3980384689365594  0.3899693354122576  0.2500000544831230
  0.3940706318758279  0.4118436045110940  0.7499988282190861
  0.3929458336551822  0.9041502350296918  0.2500001732837782
  0.3948645295757623  0.9079760991632838  0.7500003975425845
  0.7279517016253770  0.4075999774846721  0.2500002395919084
  0.7269436890664903  0.4075082554404943  0.7500011667843102
  0.7267532199526893  0.9073179238438209  0.2500017983470959
  0.7277464626502276  0.9068110186675106  0.7500012080680731
  0.2293180967983051  0.0916410906476283 -0.0033880547306721
  0.2293185748112292  0.0916390784246701  0.5033874861213523
  0.2264678033464355  0.5888514190199735 -0.0004206972090555
  0.2264674370971380  0.5888497997632987  0.5004194683476351
  0.5619944013304874  0.0893329475079503 -0.0000973562221397
  0.5619940776695302  0.0893277122989111  0.5000950712587635
  0.5601620526192023  0.5877214592420839  0.0008952050883476
  0.5601636682637657  0.5877184175781260  0.4991027334112710
  0.8947834313564003  0.0884059493995298 -0.0006892669942743
  0.8947847793283381  0.0884022985741325  0.5006915499676637
  0.8918570107129006  0.5870426972571907 -0.0021890707262624
  0.8918583917604085  0.5870425684519619  0.5021890079105277
  0.2037677899514931  0.3496156849835303  0.1457250178994053
  0.2023153192264725  0.3428749256641076  0.6460447199889712
  0.2069084960165791  0.8312365591445808  0.1484736962056796
  0.2022471508094321  0.8413204877484483  0.6458734722748791
  0.5405911051749800  0.3373562099106935  0.1455136785930807
  0.5351620913277689  0.3433400797056764  0.6461846704512988
  0.5340701429181327  0.8393038577819566  0.1456462609120304
  0.5360691897387674  0.8418207059783556  0.6460828764762048
  0.8693300017160442  0.3422083636796586  0.1460242396599904
  0.8682246982699535  0.3407845097054306  0.6461561927942518
  0.8671180760876545  0.8400238449728036  0.1457620853690763
  0.8688295007778897  0.8407869611594648  0.6459237056834832
  0.0359810442600776  0.1599029409912366  0.1010374395518653
  0.0351719859261613  0.1547645508069748  0.6062374702359540
  0.0312813634882531  0.6553197580285748  0.1022428403305411
  0.0338537605431726  0.6552328260469352  0.6050649445562437
  0.3709392757429563  0.1560104153271385  0.1011632457061857
  0.3703547074096907  0.1592442766006818  0.6066607673243081
  0.3641652018001661  0.6547830074461520  0.1118919619971948
  0.3697505603237439  0.6591668194144183  0.5973294318570818
  0.7041009991145898  0.1539348941791588  0.1036792256763468
  0.7027642548215226  0.1548988458996466  0.6043813517294052
  0.7010589455205641  0.6541667923319460  0.1046679670988215
  0.7008619239463738  0.6550287956606440  0.6035570067586026
  0.0328467199644277  0.4463464445432659 -0.0012230450136945
  0.0328482667757779  0.4463475402551835  0.5012233589509655
  0.0351236901198969  0.9476546370499547  0.0011135979318675
  0.0351255535777293  0.9476535669589589  0.4988867114241428
  0.3676353157001082  0.4484274350200522  0.0034714409877322
  0.3676355906886588  0.4484272947498672  0.4965279795921925
  0.3694511813781511  0.9495693328110147 -0.0048547572839031
  0.3694520640701559  0.9495681136996843  0.5048563407735897
  0.7002714779935727  0.4456916967172148 -0.0002532953963137
  0.7002742083200134  0.4456889114425311  0.5002533379078687
  0.7006327702010485  0.9453520311113524 -0.0004999976320135
  0.7006330433773891  0.9453472749597676  0.5005003883106486
  0.2037674771676697  0.3496166757884315  0.3542754790873483
  0.2023156034153303  0.3428735913956566  0.8539550072764353
  0.2069093140386810  0.8312358387477252  0.3515259537640338
  0.2022460261322528  0.8413216590608477  0.8541258610911463
  0.5405919315281754  0.3373537516999106  0.3544841396640038
  0.5351626854811087  0.3433416782412438  0.8538142184716409
  0.5340696304669946  0.8393033194732122  0.3543533963577332
  0.5360693715850529  0.8418220055837061  0.8539181274082841
  0.8693283895519334  0.3422097696391229  0.3539774671613541
  0.8682257599424699  0.3407851266920723  0.8538446893301256
  0.8671188792620729  0.8400254339961275  0.3542431153227931
  0.8688298944572672  0.8407880753016963  0.8540768415091784
 
  0.00000000E+00  0.00000000E+00  0.00000000E+00
  0.00000000E+00  0.00000000E+00  0.00000000E+00
  0.00000000E+00  0.00000000E+00  0.00000000E+00
  0.00000000E+00  0.00000000E+00  0.00000000E+00
  0.00000000E+00  0.00000000E+00  0.00000000E+00
  0.00000000E+00  0.00000000E+00  0.00000000E+00
  0.00000000E+00  0.00000000E+00  0.00000000E+00
  0.00000000E+00  0.00000000E+00  0.00000000E+00
  0.00000000E+00  0.00000000E+00  0.00000000E+00
  0.00000000E+00  0.00000000E+00  0.00000000E+00
  0.00000000E+00  0.00000000E+00  0.00000000E+00
  0.00000000E+00  0.00000000E+00  0.00000000E+00
  0.00000000E+00  0.00000000E+00  0.00000000E+00
  0.00000000E+00  0.00000000E+00  0.00000000E+00
  0.00000000E+00  0.00000000E+00  0.00000000E+00
  0.00000000E+00  0.00000000E+00  0.00000000E+00
  0.00000000E+00  0.00000000E+00  0.00000000E+00
  0.00000000E+00  0.00000000E+00  0.00000000E+00
  0.00000000E+00  0.00000000E+00  0.00000000E+00
  0.00000000E+00  0.00000000E+00  0.00000000E+00
  0.00000000E+00  0.00000000E+00  0.00000000E+00
  0.00000000E+00  0.00000000E+00  0.00000000E+00
  0.00000000E+00  0.00000000E+00  0.00000000E+00
  0.00000000E+00  0.00000000E+00  0.00000000E+00
  0.00000000E+00  0.00000000E+00  0.00000000E+00
  0.00000000E+00  0.00000000E+00  0.00000000E+00
  0.00000000E+00  0.00000000E+00  0.00000000E+00
  0.00000000E+00  0.00000000E+00  0.00000000E+00
  0.00000000E+00  0.00000000E+00  0.00000000E+00
  0.00000000E+00  0.00000000E+00  0.00000000E+00
  0.00000000E+00  0.00000000E+00  0.00000000E+00
  0.00000000E+00  0.00000000E+00  0.00000000E+00
  0.00000000E+00  0.00000000E+00  0.00000000E+00
  0.00000000E+00  0.00000000E+00  0.00000000E+00
  0.00000000E+00  0.00000000E+00  0.00000000E+00
  0.00000000E+00  0.00000000E+00  0.00000000E+00
  0.00000000E+00  0.00000000E+00  0.00000000E+00
  0.00000000E+00  0.00000000E+00  0.00000000E+00
  0.00000000E+00  0.00000000E+00  0.00000000E+00
  0.00000000E+00  0.00000000E+00  0.00000000E+00
  0.00000000E+00  0.00000000E+00  0.00000000E+00
  0.00000000E+00  0.00000000E+00  0.00000000E+00
  0.00000000E+00  0.00000000E+00  0.00000000E+00
  0.00000000E+00  0.00000000E+00  0.00000000E+00
  0.00000000E+00  0.00000000E+00  0.00000000E+00
  0.00000000E+00  0.00000000E+00  0.00000000E+00
  0.00000000E+00  0.00000000E+00  0.00000000E+00
  0.00000000E+00  0.00000000E+00  0.00000000E+00
  0.00000000E+00  0.00000000E+00  0.00000000E+00
  0.00000000E+00  0.00000000E+00  0.00000000E+00
  0.00000000E+00  0.00000000E+00  0.00000000E+00
  0.00000000E+00  0.00000000E+00  0.00000000E+00
  0.00000000E+00  0.00000000E+00  0.00000000E+00
  0.00000000E+00  0.00000000E+00  0.00000000E+00
  0.00000000E+00  0.00000000E+00  0.00000000E+00
  0.00000000E+00  0.00000000E+00  0.00000000E+00
  0.00000000E+00  0.00000000E+00  0.00000000E+00
  0.00000000E+00  0.00000000E+00  0.00000000E+00
  0.00000000E+00  0.00000000E+00  0.00000000E+00
  0.00000000E+00  0.00000000E+00  0.00000000E+00
  0.00000000E+00  0.00000000E+00  0.00000000E+00
  0.00000000E+00  0.00000000E+00  0.00000000E+00
  0.00000000E+00  0.00000000E+00  0.00000000E+00
  0.00000000E+00  0.00000000E+00  0.00000000E+00
  0.00000000E+00  0.00000000E+00  0.00000000E+00
  0.00000000E+00  0.00000000E+00  0.00000000E+00
  0.00000000E+00  0.00000000E+00  0.00000000E+00
  0.00000000E+00  0.00000000E+00  0.00000000E+00
  0.00000000E+00  0.00000000E+00  0.00000000E+00
  0.00000000E+00  0.00000000E+00  0.00000000E+00
  0.00000000E+00  0.00000000E+00  0.00000000E+00
  0.00000000E+00  0.00000000E+00  0.00000000E+00
  0.00000000E+00  0.00000000E+00  0.00000000E+00
  0.00000000E+00  0.00000000E+00  0.00000000E+00
  0.00000000E+00  0.00000000E+00  0.00000000E+00
  0.00000000E+00  0.00000000E+00  0.00000000E+00
  0.00000000E+00  0.00000000E+00  0.00000000E+00
  0.00000000E+00  0.00000000E+00  0.00000000E+00
  0.00000000E+00  0.00000000E+00  0.00000000E+00
  0.00000000E+00  0.00000000E+00  0.00000000E+00
  0.00000000E+00  0.00000000E+00  0.00000000E+00
  0.00000000E+00  0.00000000E+00  0.00000000E+00
  0.00000000E+00  0.00000000E+00  0.00000000E+00
  0.00000000E+00  0.00000000E+00  0.00000000E+00
  0.00000000E+00  0.00000000E+00  0.00000000E+00
  0.00000000E+00  0.00000000E+00  0.00000000E+00
  0.00000000E+00  0.00000000E+00  0.00000000E+00
  0.00000000E+00  0.00000000E+00  0.00000000E+00
  0.00000000E+00  0.00000000E+00  0.00000000E+00
  0.00000000E+00  0.00000000E+00  0.00000000E+00
  0.00000000E+00  0.00000000E+00  0.00000000E+00
  0.00000000E+00  0.00000000E+00  0.00000000E+00
  0.00000000E+00  0.00000000E+00  0.00000000E+00
  0.00000000E+00  0.00000000E+00  0.00000000E+00
  0.00000000E+00  0.00000000E+00  0.00000000E+00
  0.00000000E+00  0.00000000E+00  0.00000000E+00
  0.00000000E+00  0.00000000E+00  0.00000000E+00
  0.00000000E+00  0.00000000E+00  0.00000000E+00
  0.00000000E+00  0.00000000E+00  0.00000000E+00
  0.00000000E+00  0.00000000E+00  0.00000000E+00
  0.00000000E+00  0.00000000E+00  0.00000000E+00
  0.00000000E+00  0.00000000E+00  0.00000000E+00
  0.00000000E+00  0.00000000E+00  0.00000000E+00
  0.00000000E+00  0.00000000E+00  0.00000000E+00
  0.00000000E+00  0.00000000E+00  0.00000000E+00
  0.00000000E+00  0.00000000E+00  0.00000000E+00
  0.00000000E+00  0.00000000E+00  0.00000000E+00
  0.00000000E+00  0.00000000E+00  0.00000000E+00
  0.00000000E+00  0.00000000E+00  0.00000000E+00
  0.00000000E+00  0.00000000E+00  0.00000000E+00
  0.00000000E+00  0.00000000E+00  0.00000000E+00
  0.00000000E+00  0.00000000E+00  0.00000000E+00
  0.00000000E+00  0.00000000E+00  0.00000000E+00
  0.00000000E+00  0.00000000E+00  0.00000000E+00
  0.00000000E+00  0.00000000E+00  0.00000000E+00
  0.00000000E+00  0.00000000E+00  0.00000000E+00
  0.00000000E+00  0.00000000E+00  0.00000000E+00
  0.00000000E+00  0.00000000E+00  0.00000000E+00
  0.00000000E+00  0.00000000E+00  0.00000000E+00
  0.00000000E+00  0.00000000E+00  0.00000000E+00
  0.00000000E+00  0.00000000E+00  0.00000000E+00
  0.00000000E+00  0.00000000E+00  0.00000000E+00
  0.00000000E+00  0.00000000E+00  0.00000000E+00
  0.00000000E+00  0.00000000E+00  0.00000000E+00
  0.00000000E+00  0.00000000E+00  0.00000000E+00
  0.00000000E+00  0.00000000E+00  0.00000000E+00
  0.00000000E+00  0.00000000E+00  0.00000000E+00
  0.00000000E+00  0.00000000E+00  0.00000000E+00
  0.00000000E+00  0.00000000E+00  0.00000000E+00
  0.00000000E+00  0.00000000E+00  0.00000000E+00
  0.00000000E+00  0.00000000E+00  0.00000000E+00
  0.00000000E+00  0.00000000E+00  0.00000000E+00
  0.00000000E+00  0.00000000E+00  0.00000000E+00
  0.00000000E+00  0.00000000E+00  0.00000000E+00
  0.00000000E+00  0.00000000E+00  0.00000000E+00
  0.00000000E+00  0.00000000E+00  0.00000000E+00
  0.00000000E+00  0.00000000E+00  0.00000000E+00
  0.00000000E+00  0.00000000E+00  0.00000000E+00
  0.00000000E+00  0.00000000E+00  0.00000000E+00
  0.00000000E+00  0.00000000E+00  0.00000000E+00
  0.00000000E+00  0.00000000E+00  0.00000000E+00
  0.00000000E+00  0.00000000E+00  0.00000000E+00
  0.00000000E+00  0.00000000E+00  0.00000000E+00
  0.00000000E+00  0.00000000E+00  0.00000000E+00
  0.00000000E+00  0.00000000E+00  0.00000000E+00
  0.00000000E+00  0.00000000E+00  0.00000000E+00
  0.00000000E+00  0.00000000E+00  0.00000000E+00
  0.00000000E+00  0.00000000E+00  0.00000000E+00
  0.00000000E+00  0.00000000E+00  0.00000000E+00
  0.00000000E+00  0.00000000E+00  0.00000000E+00
  0.00000000E+00  0.00000000E+00  0.00000000E+00
  0.00000000E+00  0.00000000E+00  0.00000000E+00
  0.00000000E+00  0.00000000E+00  0.00000000E+00
  0.00000000E+00  0.00000000E+00  0.00000000E+00
  0.00000000E+00  0.00000000E+00  0.00000000E+00
  0.00000000E+00  0.00000000E+00  0.00000000E+00
  0.00000000E+00  0.00000000E+00  0.00000000E+00
  0.00000000E+00  0.00000000E+00  0.00000000E+00
  0.00000000E+00  0.00000000E+00  0.00000000E+00
  0.00000000E+00  0.00000000E+00  0.00000000E+00
  0.00000000E+00  0.00000000E+00  0.00000000E+00
  0.00000000E+00  0.00000000E+00  0.00000000E+00
  0.00000000E+00  0.00000000E+00  0.00000000E+00
  0.00000000E+00  0.00000000E+00  0.00000000E+00
  0.00000000E+00  0.00000000E+00  0.00000000E+00
  0.00000000E+00  0.00000000E+00  0.00000000E+00
  0.00000000E+00  0.00000000E+00  0.00000000E+00
  0.00000000E+00  0.00000000E+00  0.00000000E+00
  0.00000000E+00  0.00000000E+00  0.00000000E+00
  0.00000000E+00  0.00000000E+00  0.00000000E+00
  0.00000000E+00  0.00000000E+00  0.00000000E+00
  0.00000000E+00  0.00000000E+00  0.00000000E+00
  0.00000000E+00  0.00000000E+00  0.00000000E+00
  0.00000000E+00  0.00000000E+00  0.00000000E+00
  0.00000000E+00  0.00000000E+00  0.00000000E+00
  0.00000000E+00  0.00000000E+00  0.00000000E+00
  0.00000000E+00  0.00000000E+00  0.00000000E+00
  0.00000000E+00  0.00000000E+00  0.00000000E+00
  0.00000000E+00  0.00000000E+00  0.00000000E+00
  0.00000000E+00  0.00000000E+00  0.00000000E+00
  0.00000000E+00  0.00000000E+00  0.00000000E+00
  0.00000000E+00  0.00000000E+00  0.00000000E+00
  0.00000000E+00  0.00000000E+00  0.00000000E+00
  0.00000000E+00  0.00000000E+00  0.00000000E+00
  0.00000000E+00  0.00000000E+00  0.00000000E+00
  0.00000000E+00  0.00000000E+00  0.00000000E+00
  0.00000000E+00  0.00000000E+00  0.00000000E+00
  0.00000000E+00  0.00000000E+00  0.00000000E+00
  0.00000000E+00  0.00000000E+00  0.00000000E+00
  0.00000000E+00  0.00000000E+00  0.00000000E+00
  0.00000000E+00  0.00000000E+00  0.00000000E+00
  0.00000000E+00  0.00000000E+00  0.00000000E+00
  0.00000000E+00  0.00000000E+00  0.00000000E+00
