Li56 P28 O98
1.0
4.907295 0.000000 -1.895193
-0.730671 8.419349 5.315209
0.000000 0.000000 79.370284
Li P O
56 28 98
direct
0.744463 0.987971 0.059377 Li+
0.255537 0.012029 0.083549 Li+
0.395677 0.751653 0.040519 Li+
0.604323 0.248347 0.011498 Li+
0.027769 0.791276 0.060644 Li+
0.972231 0.208724 0.082283 Li+
0.056952 0.450796 0.008492 Li+
0.943048 0.549204 0.043525 Li+
0.744463 0.987971 0.150286 Li+
0.255537 0.012029 0.174458 Li+
0.395677 0.751653 0.131429 Li+
0.604323 0.248347 0.102407 Li+
0.027769 0.791276 0.151553 Li+
0.972231 0.208724 0.173192 Li+
0.056952 0.450796 0.099401 Li+
0.943048 0.549204 0.134434 Li+
0.744463 0.987971 0.241195 Li+
0.255537 0.012029 0.265367 Li+
0.395677 0.751653 0.222338 Li+
0.604323 0.248347 0.193316 Li+
0.027769 0.791276 0.242462 Li+
0.972231 0.208724 0.264101 Li+
0.056952 0.450796 0.190310 Li+
0.943048 0.549204 0.225343 Li+
0.744463 0.987971 0.332104 Li+
0.255537 0.012029 0.356277 Li+
0.395677 0.751653 0.313247 Li+
0.604323 0.248347 0.284225 Li+
0.027769 0.791276 0.333371 Li+
0.972231 0.208724 0.355010 Li+
0.056952 0.450796 0.281219 Li+
0.943048 0.549204 0.316252 Li+
0.744463 0.987971 0.423013 Li+
0.255537 0.012029 0.447186 Li+
0.395677 0.751653 0.404156 Li+
0.604323 0.248347 0.375134 Li+
0.027769 0.791276 0.424280 Li+
0.972231 0.208724 0.445919 Li+
0.056952 0.450796 0.372128 Li+
0.943048 0.549204 0.407161 Li+
0.744463 0.987971 0.513922 Li+
0.255537 0.012029 0.538095 Li+
0.395677 0.751653 0.495065 Li+
0.604323 0.248347 0.466043 Li+
0.027769 0.791276 0.515189 Li+
0.972231 0.208724 0.536828 Li+
0.056952 0.450796 0.463037 Li+
0.943048 0.549204 0.498071 Li+
0.744463 0.987971 0.604831 Li+
0.255537 0.012029 0.629004 Li+
0.395677 0.751653 0.585974 Li+
0.604323 0.248347 0.556952 Li+
0.027769 0.791276 0.606098 Li+
0.972231 0.208724 0.627737 Li+
0.056952 0.450796 0.553947 Li+
0.943048 0.549204 0.588980 Li+
0.573990 0.631956 0.085531 P5+
0.426010 0.368044 0.057395 P5+
0.784272 0.845502 0.014668 P5+
0.215728 0.154498 0.037349 P5+
0.573990 0.631956 0.176440 P5+
0.426010 0.368044 0.148304 P5+
0.784272 0.845502 0.105577 P5+
0.215728 0.154498 0.128258 P5+
0.573990 0.631956 0.267349 P5+
0.426010 0.368044 0.239213 P5+
0.784272 0.845502 0.196486 P5+
0.215728 0.154498 0.219167 P5+
0.573990 0.631956 0.358258 P5+
0.426010 0.368044 0.330123 P5+
0.784272 0.845502 0.287396 P5+
0.215728 0.154498 0.310076 P5+
0.573990 0.631956 0.449167 P5+
0.426010 0.368044 0.421032 P5+
0.784272 0.845502 0.378305 P5+
0.215728 0.154498 0.400985 P5+
0.573990 0.631956 0.540076 P5+
0.426010 0.368044 0.511941 P5+
0.784272 0.845502 0.469214 P5+
0.215728 0.154498 0.491894 P5+
0.573990 0.631956 0.630985 P5+
0.426010 0.368044 0.602850 P5+
0.784272 0.845502 0.560123 P5+
0.215728 0.154498 0.582803 P5+
0.519912 0.874340 0.015454 O2-
0.006130 0.790684 0.035426 O2-
0.993870 0.209316 0.016591 O2-
0.882911 0.981976 0.086866 O2-
0.732561 0.376455 0.060572 O2-
0.267439 0.623545 0.082354 O2-
0.314844 0.526190 0.047974 O2-
0.685156 0.473810 0.004043 O2-
0.338222 0.236504 0.077017 O2-
0.661778 0.763496 0.065909 O2-
0.733069 0.683894 0.012711 O2-
0.266931 0.316106 0.039307 O2-
0.117089 0.018024 0.056060 O2-
0.480088 0.125660 0.036563 O2-
0.519912 0.874340 0.106363 O2-
0.006130 0.790684 0.126335 O2-
0.993870 0.209316 0.107500 O2-
0.882911 0.981976 0.177775 O2-
0.732561 0.376455 0.151481 O2-
0.267439 0.623545 0.173264 O2-
0.314844 0.526190 0.138883 O2-
0.685156 0.473810 0.094952 O2-
0.338222 0.236504 0.167926 O2-
0.661778 0.763496 0.156818 O2-
0.733069 0.683894 0.103620 O2-
0.266931 0.316106 0.130216 O2-
0.117089 0.018024 0.146969 O2-
0.480088 0.125660 0.127472 O2-
0.519912 0.874340 0.197272 O2-
0.006130 0.790684 0.217245 O2-
0.993870 0.209316 0.198409 O2-
0.882911 0.981976 0.268684 O2-
0.732561 0.376455 0.242390 O2-
0.267439 0.623545 0.264173 O2-
0.314844 0.526190 0.229792 O2-
0.685156 0.473810 0.185861 O2-
0.338222 0.236504 0.258835 O2-
0.661778 0.763496 0.247727 O2-
0.733069 0.683894 0.194529 O2-
0.266931 0.316106 0.221125 O2-
0.117089 0.018024 0.237878 O2-
0.480088 0.125660 0.218381 O2-
0.519912 0.874340 0.288181 O2-
0.006130 0.790684 0.308154 O2-
0.993870 0.209316 0.289318 O2-
0.882911 0.981976 0.359593 O2-
0.732561 0.376455 0.333299 O2-
0.267439 0.623545 0.355082 O2-
0.314844 0.526190 0.320701 O2-
0.685156 0.473810 0.276770 O2-
0.338222 0.236504 0.349744 O2-
0.661778 0.763496 0.338636 O2-
0.733069 0.683894 0.285438 O2-
0.266931 0.316106 0.312034 O2-
0.117089 0.018024 0.328787 O2-
0.480088 0.125660 0.309290 O2-
0.519912 0.874340 0.379090 O2-
0.006130 0.790684 0.399063 O2-
0.993870 0.209316 0.380227 O2-
0.882911 0.981976 0.450502 O2-
0.732561 0.376455 0.424208 O2-
0.267439 0.623545 0.445991 O2-
0.314844 0.526190 0.411610 O2-
0.685156 0.473810 0.367679 O2-
0.338222 0.236504 0.440653 O2-
0.661778 0.763496 0.429546 O2-
0.733069 0.683894 0.376347 O2-
0.266931 0.316106 0.402943 O2-
0.117089 0.018024 0.419696 O2-
0.480088 0.125660 0.400199 O2-
0.519912 0.874340 0.470000 O2-
0.006130 0.790684 0.489972 O2-
0.993870 0.209316 0.471136 O2-
0.882911 0.981976 0.541412 O2-
0.732561 0.376455 0.515117 O2-
0.267439 0.623545 0.536900 O2-
0.314844 0.526190 0.502520 O2-
0.685156 0.473810 0.458588 O2-
0.338222 0.236504 0.531562 O2-
0.661778 0.763496 0.520455 O2-
0.733069 0.683894 0.467256 O2-
0.266931 0.316106 0.493852 O2-
0.117089 0.018024 0.510606 O2-
0.480088 0.125660 0.491108 O2-
0.519912 0.874340 0.560909 O2-
0.006130 0.790684 0.580881 O2-
0.993870 0.209316 0.562045 O2-
0.882911 0.981976 0.632321 O2-
0.732561 0.376455 0.606026 O2-
0.267439 0.623545 0.627809 O2-
0.314844 0.526190 0.593429 O2-
0.685156 0.473810 0.549498 O2-
0.338222 0.236504 0.622472 O2-
0.661778 0.763496 0.611364 O2-
0.733069 0.683894 0.558165 O2-
0.266931 0.316106 0.584761 O2-
0.117089 0.018024 0.601515 O2-
0.480088 0.125660 0.582018 O2-
