Li28 P28 N56
1.0
4.571448 0.000000 4.571448
4.571448 7.289848 0.000000
0.000000 0.000000 64.000272
Li P N
28 28 56
Selective dynamics
direct
0.500000 0.000000 0.055072 T T T Li+
0.250000 0.250000 0.037214 T T T Li+
0.500000 0.500000 0.019357 T T T Li+
0.250000 0.750000 0.001500 T T T Li+
0.500000 0.000000 0.126500 T T T Li+
0.250000 0.250000 0.108643 T T T Li+
0.500000 0.500000 0.090786 T T T Li+
0.250000 0.750000 0.072929 T T T Li+
0.500000 0.000000 0.197929 F F F Li+
0.250000 0.250000 0.180072 F F F Li+
0.500000 0.500000 0.162214 F F F Li+
0.250000 0.750000 0.144357 F F F Li+
0.500000 0.000000 0.269357 F F F Li+
0.250000 0.250000 0.251500 F F F Li+
0.500000 0.500000 0.233643 F F F Li+
0.250000 0.750000 0.215786 F F F Li+
0.500000 0.000000 0.340786 F F F Li+
0.250000 0.250000 0.322929 F F F Li+
0.500000 0.500000 0.305072 F F F Li+
0.250000 0.750000 0.287214 F F F Li+
0.500000 0.000000 0.412214 F F F Li+
0.250000 0.250000 0.394357 F F F Li+
0.500000 0.500000 0.376500 F F F Li+
0.250000 0.750000 0.358643 F F F Li+
0.500000 0.000000 0.483643 T T T Li+
0.250000 0.250000 0.465786 T T T Li+
0.500000 0.500000 0.447929 T T T Li+
0.250000 0.750000 0.430072 T T T Li+
0.000000 0.000000 0.055072 T T T P5+
0.750000 0.250000 0.037214 T T T P5+
0.000000 0.500000 0.019357 T T T P5+
0.750000 0.750000 0.001500 T T T P5+
0.000000 0.000000 0.126500 T T T P5+
0.750000 0.250000 0.108643 T T T P5+
0.000000 0.500000 0.090786 T T T P5+
0.750000 0.750000 0.072929 T T T P5+
0.000000 0.000000 0.197929 F F F P5+
0.750000 0.250000 0.180072 F F F P5+
0.000000 0.500000 0.162214 F F F P5+
0.750000 0.750000 0.144357 F F F P5+
0.000000 0.000000 0.269357 F F F P5+
0.750000 0.250000 0.251500 F F F P5+
0.000000 0.500000 0.233643 F F F P5+
0.750000 0.750000 0.215786 F F F P5+
0.000000 0.000000 0.340786 F F F P5+
0.750000 0.250000 0.322929 F F F P5+
0.000000 0.500000 0.305072 F F F P5+
0.750000 0.750000 0.287214 F F F P5+
0.000000 0.000000 0.412214 F F F P5+
0.750000 0.250000 0.394357 F F F P5+
0.000000 0.500000 0.376500 F F F P5+
0.750000 0.750000 0.358643 F F F P5+
0.000000 0.000000 0.483643 T T T P5+
0.750000 0.250000 0.465786 T T T P5+
0.000000 0.500000 0.447929 T T T P5+
0.750000 0.750000 0.430072 T T T P5+
0.707997 0.125000 0.022357 T T T N3-
0.042003 0.125000 0.034214 T T T N3-
0.875000 0.375000 0.016357 T T T N3-
0.375000 0.375000 0.004500 T T T N3-
0.707997 0.625000 0.058072 T T T N3-
0.042003 0.625000 0.069928 T T T N3-
0.875000 0.875000 0.052071 T T T N3-
0.375000 0.875000 0.040215 T T T N3-
0.707997 0.125000 0.093786 T T T N3-
0.042003 0.125000 0.105643 T T T N3-
0.875000 0.375000 0.087786 T T T N3-
0.375000 0.375000 0.075929 T T T N3-
0.707997 0.625000 0.129500 F F F N3-
0.042003 0.625000 0.141357 F F F N3-
0.875000 0.875000 0.123500 F F F N3-
0.375000 0.875000 0.111643 F F F N3-
0.707997 0.125000 0.165215 F F F N3-
0.042003 0.125000 0.177071 F F F N3-
0.875000 0.375000 0.159214 F F F N3-
0.375000 0.375000 0.147357 F F F N3-
0.707997 0.625000 0.200929 F F F N3-
0.042003 0.625000 0.212786 F F F N3-
0.875000 0.875000 0.194928 F F F N3-
0.375000 0.875000 0.183072 F F F N3-
0.707997 0.125000 0.236643 F F F N3-
0.042003 0.125000 0.248500 F F F N3-
0.875000 0.375000 0.230643 F F F N3-
0.375000 0.375000 0.218786 F F F N3-
0.707997 0.625000 0.272357 F F F N3-
0.042003 0.625000 0.284214 F F F N3-
0.875000 0.875000 0.266357 F F F N3-
0.375000 0.875000 0.254500 F F F N3-
0.707997 0.125000 0.308072 F F F N3-
0.042003 0.125000 0.319928 F F F N3-
0.875000 0.375000 0.302071 F F F N3-
0.375000 0.375000 0.290215 F F F N3-
0.707997 0.625000 0.343786 F F F N3-
0.042003 0.625000 0.355643 F F F N3-
0.875000 0.875000 0.337786 F F F N3-
0.375000 0.875000 0.325929 F F F N3-
0.707997 0.125000 0.379500 F F F N3-
0.042003 0.125000 0.391357 F F F N3-
0.875000 0.375000 0.373500 F F F N3-
0.375000 0.375000 0.361643 F F F N3-
0.707997 0.625000 0.415215 T T T N3-
0.042003 0.625000 0.427071 T T T N3-
0.875000 0.875000 0.409214 T T T N3-
0.375000 0.875000 0.397357 T T T N3-
0.707997 0.125000 0.450929 T T T N3-
0.042003 0.125000 0.462786 T T T N3-
0.875000 0.375000 0.444928 T T T N3-
0.375000 0.375000 0.433072 T T T N3-
0.707997 0.625000 0.486643 T T T N3-
0.042003 0.625000 0.498500 T T T N3-
0.875000 0.875000 0.480643 T T T N3-
0.375000 0.875000 0.468786 T T T N3-
