(2, 1, 0)                               
   1.00000000000000     
     7.5619393168391449   -0.0000005042572383   -0.0000052112583754
     0.0000053342341603    7.4331201537859570   -8.5281280378568365
    -0.0000345522752413   -0.3862516206122127   50.8302991134734228
   Li   P 
    48    16
Selective dynamics
Direct
  0.2499990104777587  0.4803664442783467  0.0210421374903156   T   T   T
  0.2500000000000000  0.0000000000000000  0.0625000000000000   F   F   F
  0.7499996596468913  0.5060318600403970  0.0216473376256775   T   T   T
  0.7499989294441277 -0.0192044685195315  0.0519407014288009   T   T   T
  0.9263740514165830  0.3411002340116784  0.0391996002870944   T   T   T
  0.9158809999999988  0.8333330000000032  0.0763889999999989   F   F   F
  0.4295444916541881  0.1921645142668857  0.0508527853742732   T   T   T
  0.4507968636125401  0.6649868714823394  0.0099506467056248   T   T   T
  0.0704554438673688  0.1921648048699214  0.0508529777736019   T   T   T
  0.0491970156899650  0.6649865729577833  0.0099499314894428   T   T   T
  0.5736258162538186  0.3410994407247976  0.0391992745545404   T   T   T
  0.5841190000000012  0.8333330000000032  0.0763889999999989   F   F   F
  0.2500000000000000  0.5000000000000000  0.1041669999999968   F   F   F
  0.2500000000000000  0.0000000000000000  0.1458330000000032   F   F   F
  0.7500000000000000  0.5000000000000000  0.1041669999999968   F   F   F
  0.7500000000000000  0.0000000000000000  0.1458330000000032   F   F   F
  0.9158809999999988  0.3333330000000032  0.1180560000000028   F   F   F
  0.9158809999999988  0.8333330000000032  0.1597220000000021   F   F   F
  0.4158809999999988  0.1666669999999968  0.1319439999999972   F   F   F
  0.4158809999999988  0.6666669999999968  0.0902779999999979   F   F   F
  0.0841190000000012  0.1666669999999968  0.1319439999999972   F   F   F
  0.0841190000000012  0.6666669999999968  0.0902779999999979   F   F   F
  0.5841190000000012  0.3333330000000032  0.1180560000000028   F   F   F
  0.5841190000000012  0.8333330000000032  0.1597220000000021   F   F   F
  0.2500000000000000  0.5000000000000000  0.1875000000000000   F   F   F
  0.2500000000000000  0.0000000000000000  0.2291669999999968   F   F   F
  0.7500000000000000  0.5000000000000000  0.1875000000000000   F   F   F
  0.7500000000000000  0.0000000000000000  0.2291669999999968   F   F   F
  0.9158809999999988  0.3333330000000032  0.2013889999999989   F   F   F
  0.9158809999999988  0.8333330000000032  0.2430560000000028   F   F   F
  0.4158809999999988  0.1666669999999968  0.2152779999999979   F   F   F
  0.4158809999999988  0.6666669999999968  0.1736110000000011   F   F   F
  0.0841190000000012  0.1666669999999968  0.2152779999999979   F   F   F
  0.0841190000000012  0.6666669999999968  0.1736110000000011   F   F   F
  0.5841190000000012  0.3333330000000032  0.2013889999999989   F   F   F
  0.5841190000000012  0.8333330000000032  0.2430560000000028   F   F   F
  0.2500012037945186  0.5192073788666373  0.2813931105327508   T   T   T
  0.2500004326767652 -0.0060294569233933  0.3116866646620851   T   T   T
  0.7500000000000000  0.5000000000000000  0.2708330000000032   F   F   F
  0.7500008991214471  0.0196383029747758  0.3122923114862878   T   T   T
  0.9295438929521157  0.3078368949507899  0.2824803985554965   T   T   T
  0.9508020806766549  0.8350096104355451  0.3233833140206169   T   T   T
  0.4263747897168817  0.1589047102652596  0.2941347549465894   T   T   T
  0.4158809999999988  0.6666669999999968  0.2569439999999972   F   F   F
  0.0736253979683798  0.1589039854068763  0.2941344824007375   T   T   T
  0.0841190000000012  0.6666669999999968  0.2569439999999972   F   F   F
  0.5704560281336214  0.3078374775943860  0.2824806340164798   T   T   T
  0.5492052179181559  0.8350094399780095  0.3233825509608637   T   T   T
  0.2499998455280582  0.3368800211942171  0.0371548607697705   T   T   T
  0.2500000000000000  0.8333330000000032  0.0763889999999989   F   F   F
  0.7500001044704567  0.1875834498690447  0.0501250869928441   T   T   T
  0.7499995648755824  0.6661597222290607  0.0105009550573335   T   T   T
  0.2500000000000000  0.3333330000000032  0.1180560000000028   F   F   F
  0.2500000000000000  0.8333330000000032  0.1597220000000021   F   F   F
  0.7500000000000000  0.1666669999999968  0.1319439999999972   F   F   F
  0.7500000000000000  0.6666669999999968  0.0902779999999979   F   F   F
  0.2500000000000000  0.3333330000000032  0.2013889999999989   F   F   F
  0.2500000000000000  0.8333330000000032  0.2430560000000028   F   F   F
  0.7500000000000000  0.1666669999999968  0.2152779999999979   F   F   F
  0.7500000000000000  0.6666669999999968  0.1736110000000011   F   F   F
  0.2499998380709640  0.3124171817463050  0.2832081945265850   T   T   T
  0.2500002139408203  0.8338409048141564  0.3228322631014160   T   T   T
  0.7500001627172640  0.1631222379533188  0.2961790341632864   T   T   T
  0.7500000000000000  0.6666669999999968  0.2569439999999972   F   F   F
 
  0.00000000E+00  0.00000000E+00  0.00000000E+00
  0.00000000E+00  0.00000000E+00  0.00000000E+00
  0.00000000E+00  0.00000000E+00  0.00000000E+00
  0.00000000E+00  0.00000000E+00  0.00000000E+00
  0.00000000E+00  0.00000000E+00  0.00000000E+00
  0.00000000E+00  0.00000000E+00  0.00000000E+00
  0.00000000E+00  0.00000000E+00  0.00000000E+00
  0.00000000E+00  0.00000000E+00  0.00000000E+00
  0.00000000E+00  0.00000000E+00  0.00000000E+00
  0.00000000E+00  0.00000000E+00  0.00000000E+00
  0.00000000E+00  0.00000000E+00  0.00000000E+00
  0.00000000E+00  0.00000000E+00  0.00000000E+00
  0.00000000E+00  0.00000000E+00  0.00000000E+00
  0.00000000E+00  0.00000000E+00  0.00000000E+00
  0.00000000E+00  0.00000000E+00  0.00000000E+00
  0.00000000E+00  0.00000000E+00  0.00000000E+00
  0.00000000E+00  0.00000000E+00  0.00000000E+00
  0.00000000E+00  0.00000000E+00  0.00000000E+00
  0.00000000E+00  0.00000000E+00  0.00000000E+00
  0.00000000E+00  0.00000000E+00  0.00000000E+00
  0.00000000E+00  0.00000000E+00  0.00000000E+00
  0.00000000E+00  0.00000000E+00  0.00000000E+00
  0.00000000E+00  0.00000000E+00  0.00000000E+00
  0.00000000E+00  0.00000000E+00  0.00000000E+00
  0.00000000E+00  0.00000000E+00  0.00000000E+00
  0.00000000E+00  0.00000000E+00  0.00000000E+00
  0.00000000E+00  0.00000000E+00  0.00000000E+00
  0.00000000E+00  0.00000000E+00  0.00000000E+00
  0.00000000E+00  0.00000000E+00  0.00000000E+00
  0.00000000E+00  0.00000000E+00  0.00000000E+00
  0.00000000E+00  0.00000000E+00  0.00000000E+00
  0.00000000E+00  0.00000000E+00  0.00000000E+00
  0.00000000E+00  0.00000000E+00  0.00000000E+00
  0.00000000E+00  0.00000000E+00  0.00000000E+00
  0.00000000E+00  0.00000000E+00  0.00000000E+00
  0.00000000E+00  0.00000000E+00  0.00000000E+00
  0.00000000E+00  0.00000000E+00  0.00000000E+00
  0.00000000E+00  0.00000000E+00  0.00000000E+00
  0.00000000E+00  0.00000000E+00  0.00000000E+00
  0.00000000E+00  0.00000000E+00  0.00000000E+00
  0.00000000E+00  0.00000000E+00  0.00000000E+00
  0.00000000E+00  0.00000000E+00  0.00000000E+00
  0.00000000E+00  0.00000000E+00  0.00000000E+00
  0.00000000E+00  0.00000000E+00  0.00000000E+00
  0.00000000E+00  0.00000000E+00  0.00000000E+00
  0.00000000E+00  0.00000000E+00  0.00000000E+00
  0.00000000E+00  0.00000000E+00  0.00000000E+00
  0.00000000E+00  0.00000000E+00  0.00000000E+00
  0.00000000E+00  0.00000000E+00  0.00000000E+00
  0.00000000E+00  0.00000000E+00  0.00000000E+00
  0.00000000E+00  0.00000000E+00  0.00000000E+00
  0.00000000E+00  0.00000000E+00  0.00000000E+00
  0.00000000E+00  0.00000000E+00  0.00000000E+00
  0.00000000E+00  0.00000000E+00  0.00000000E+00
  0.00000000E+00  0.00000000E+00  0.00000000E+00
  0.00000000E+00  0.00000000E+00  0.00000000E+00
  0.00000000E+00  0.00000000E+00  0.00000000E+00
  0.00000000E+00  0.00000000E+00  0.00000000E+00
  0.00000000E+00  0.00000000E+00  0.00000000E+00
  0.00000000E+00  0.00000000E+00  0.00000000E+00
  0.00000000E+00  0.00000000E+00  0.00000000E+00
  0.00000000E+00  0.00000000E+00  0.00000000E+00
  0.00000000E+00  0.00000000E+00  0.00000000E+00
  0.00000000E+00  0.00000000E+00  0.00000000E+00
