Li73 P24 N1 O95                         
   1.00000000000000     
    14.7268996024995662    0.0025965516933751    0.0093180016075593
     0.0018814708678703   10.5739015895363213    0.0101060814400445
     0.0078086950515878    0.0118100430219552   12.3017266929150768
   Li   P    N    O 
    73    24     1    95
Direct
  0.1519951447346550  0.4523897111004908  0.0048035421887405
  0.1698982968567437  0.4200685043241288  0.5002911723135626
  0.1646273072517573  0.9261306343894371  0.0009910569365448
  0.1702007775444943  0.9221071098283921  0.4997648503925614
  0.5055995595118837  0.4218919632366727  0.0004590997139914
  0.5050062086936460  0.4222370857775022  0.5003348936848939
  0.5060927571908006  0.9221183675089780  0.0001656976769589
  0.5040045601856685  0.9233072303952845  0.4998644237398341
  0.8369208202984542  0.4246601781868279  0.0000064611101248
  0.8376801822206003  0.4216100881050250  0.4997040176321050
  0.8373756162898005  0.9215211134170881 -0.0015598508154197
  0.8368127063601687  0.9233941677685545  0.4989979159373228
  0.0022915480775166  0.0783334614303436  0.2462533582797410
 -0.0001019504233644  0.0740889172039003  0.7508295324772598
  0.0017704754364750  0.5792383292095652  0.2488925192942601
  0.0020364630745465  0.5757893660882502  0.7516178414964546
  0.3371235169666363  0.0762188341748806  0.2517436315283246
  0.3367105874362012  0.0761589699755458  0.7484749329215591
  0.3376098956297789  0.5791992569977659  0.2517747197664625
  0.3364364401470138  0.5780363131176407  0.7492294341252587
  0.6737511790123097  0.0774923069736718  0.2489682679266001
  0.6713276656241373  0.0765787790485356  0.7491710560917674
  0.6711973789591734  0.5795880377794450  0.2508112094272965
  0.6710412838590215  0.5781468004263676  0.7493719638637262
  0.1587256165013258  0.1545836972221830  0.1359679028728633
  0.1689035228990066  0.1613632946761182  0.6268382539070674
  0.1677515492758231  0.6697343744721559  0.1276976226127466
  0.1697591841723445  0.6609562102309167  0.6271899970583779
  0.5072086500249418  0.1632653132625055  0.1274213989615152
  0.5043629347346109  0.1631929272141166  0.6259931302231515
  0.5043920708661308  0.6632292701133249  0.1267254978965806
  0.5036753509643950  0.6634035378531192  0.6258161927451259
  0.8497403371492180  0.1622153714178591  0.1233824824793164
  0.8365349636583848  0.1630644942997914  0.6251817289006165
  0.8339722149542805  0.6662626007042672  0.1276665823159650
  0.8368976182798055  0.6624249685200643  0.6255231436438744
 -0.0000489160454656  0.3341402925627232  0.1241579131600976
  0.0032136678829764  0.3345314884807525  0.6261802471094702
  0.0021794469760887  0.8434436808191463  0.1217880722674727
  0.0023012428469869  0.8350264137979774  0.6225660938883300
  0.3478554262455251  0.3400713580478717  0.1335174564507483
  0.3370741864112946  0.3356961487858020  0.6231333432988317
  0.3367258895355388  0.8352422209186164  0.1246002930261676
  0.3371815892827396  0.8360534747715660  0.6232582451660358
  0.6731515924954442  0.3359978371412534  0.1241126467635258
  0.6715236051878964  0.3364529050424593  0.6230113499646684
  0.6701989367528344  0.8373721635488487  0.1236037750896082
  0.6694633969440121  0.8360927665032770  0.6223801268673967
  0.0037360819009196  0.3355327352624036  0.3728552509502150
 -0.0004295489687989  0.3292318926162577  0.8807420573350746
  0.0024907916238624  0.8361513722004260  0.3765421772785327
  0.0005692154871559  0.8399092992234921  0.8753863176348210
  0.3374742027272081  0.3363019554397114  0.3778167872585582
  0.3478908003825463  0.3389194177404136  0.8678058695001015
  0.3373875527604874  0.8363813301525604  0.3771917923425471
  0.3359626449553051  0.8349514061275640  0.8759811539732869
  0.6715746666570447  0.3369268021624000  0.3774439139827846
  0.6713390557397492  0.3361208180304368  0.8763522175498103
  0.6698965149008643  0.8367059316117214  0.3768482434913242
  0.6698536637017369  0.8371543503741954  0.8756773442255585
  0.1692942620278662  0.1623864523313009  0.3731505638793573
  0.1589862483988020  0.1522145147392513  0.8673734888328354
  0.1701003293482904  0.6620082221497076  0.3742348158185759
  0.1670305964564929  0.6679168070556223  0.8735028379037222
  0.5047734379358310  0.1633076208700162  0.3735405572490156
  0.5072335226048339  0.1626221638518834  0.8726812919300752
  0.5041291243944871  0.6636090664118128  0.3747262964266173
  0.5039267800838296  0.6630422115713338  0.8732384920101658
  0.8371948073328900  0.1639476930185445  0.3726782341616754
  0.8373040142267085  0.1603519052902450  0.8725116876224076
  0.8369547533876263  0.6635635050672766  0.3749014765960294
  0.8335742061521272  0.6647467107245193  0.8716126134245489
  0.2381365469718532  0.2836399172751626  0.0019174393615700
  0.1690947094618725  0.4138998103838746  0.2465797795032467
  0.1676424849792992  0.4100927405315446  0.7558752128646150
  0.1684206803249041  0.9107880311649160  0.2516834792559397
  0.1675942831308015  0.9101181142237978  0.7487811793451632
  0.5032707280819598  0.4140582921020036  0.2524788386112680
  0.5026696799236074  0.4136111940385587  0.7482000981988841
  0.5011673749454363  0.9120975614811330  0.2502006093343746
  0.5005070281583968  0.9117977217054146  0.7498401205150708
  0.8326981302582214  0.4144441441732862  0.2498322998459525
  0.8332231500043394  0.4119557710091251  0.7501859121471467
  0.8330685820389778  0.9115322670052158  0.2510970621465513
  0.8323032551086852  0.9106339157696433  0.7471531050423534
 -0.0005947221190784  0.0886381095897859  0.0022101979704327
  0.0012419288668100  0.0877521671537384  0.5000450353672815
 -0.0043999891483813  0.5931563763744698 -0.0005436821998571
  0.0017535353400003  0.5855328882656308  0.5003536174566380
  0.3373471499139190  0.0882430586358020 -0.0002363203238600
  0.3348319133722818  0.0881187730512069  0.5000828573826577
  0.3323973589765714  0.5860709487336153  0.0001823333572844
  0.3344170852983185  0.5863462877444958  0.5006084359185214
  0.6678191295528219  0.0875689177252723 -0.0002865770628856
  0.6675533188464616  0.0881122442449713  0.4995938107871597
  0.6660392480792973  0.5879541263735100 -0.0002967065962382
  0.6679612414903401  0.5877498699908471  0.5002848977975438
  0.0322243531077143  0.1598547775673808  0.1064414516798307
  0.0372236267758793  0.1575561444419118  0.3968378375914140
  0.0317767021648408  0.1514048289919124  0.8892962725383370
  0.0369898665124692  0.6552686644320151  0.3964985781113214
  0.0335680347557407  0.6588927275940165  0.8950847672747664
  0.3705707810032321  0.1572496365282668  0.3961091428233153
  0.3720234358757171  0.1586668935585491  0.8958828081562217
  0.3696523366228575  0.6562849878392798  0.3969360201332569
  0.3694222931136045  0.6525471908268508  0.8959801191946593
  0.7028940359867499  0.1574197558949484  0.3957527319582093
  0.7012618281701067  0.1562204943974436  0.8944774473995686
  0.7029298925027747  0.6575276884869661  0.3965465608588933
  0.7004566101432285  0.6571309707177702  0.8953178978547223
  0.2036748376710694  0.0499461560797568  0.2532914336348820
  0.2019596349363594  0.0499227571816251  0.7483015757610024
  0.2038081467743760  0.5531471710563726  0.2476901711150871
  0.2016061414844490  0.5496300595547811  0.7548076236120063
  0.5352168925467218  0.0517305458704185  0.2502436731219699
  0.5344458941948953  0.0514907385780328  0.7493712895235251
  0.5368018867173638  0.5535752192137093  0.2513313850659147
  0.5363714644719841  0.5530095383313005  0.7489722766688811
  0.8653353171871334  0.0513704406450280  0.2522528464795559
  0.8652611537390794  0.0504442831567714  0.7461265257390084
  0.8665135599744233  0.5544507695069689  0.2506732287763470
  0.8670767432896760  0.5518263349725472  0.7498520315764226
  0.0639929026752197  0.4131190287266088  0.2469797936096487
  0.0623971065642257  0.4065599599383855  0.7551023742026922
  0.0631493129997115  0.9067806182802562  0.2520345521225044
  0.0622317735552288  0.9067931820399225  0.7474706820960654
  0.3973445625249219  0.4131409193546233  0.2552705668386134
  0.3967369335999305  0.4125479336020710  0.7454679674047336
  0.3952532135798548  0.9094772433159413  0.2499118702703446
  0.3946032895373954  0.9091265713321992  0.7503368914641241
  0.7268698979126237  0.4119903398303151  0.2518476491656355
  0.7274063483107309  0.4098990852543984  0.7491478851544018
  0.7271394331576283  0.9072321513596195  0.2509211623490585
  0.7264319222471731  0.9075898158271162  0.7476915128302756
  0.2308529157458552  0.1006632051003346 -0.0003111429597400
  0.2290778916071817  0.0917022676749497  0.5002291680095948
  0.2268096884677878  0.5962373987643707  0.0006593565387066
  0.2285625053412667  0.5871265903325081  0.5007774619232219
  0.5614982742218605  0.0905956827102074  0.0003507508737535
  0.5616627705489765  0.0908441752335643  0.4998200653226922
  0.5600303218443030  0.5899469028570615 -0.0000251836268743
  0.5620395631998597  0.5900490619021501  0.5004229281862337
  0.8916663826056745  0.0832723445012196 -0.0070567524556426
  0.8954943095872586  0.0909426416240928  0.4994728820538946
  0.8903317322080150  0.5986730222316413 -0.0002116022254386
  0.8960689776903883  0.5882558232584468  0.5003042673711625
  0.2053181587550437  0.3472596708676361  0.1399180247389635
  0.2046648815157891  0.3393146291436535  0.6539217671492080
  0.2041850513450036  0.8446781363806948  0.1462031152513875
  0.2040092822218113  0.8403785206544762  0.6456676342334385
  0.5352728633861519  0.3445101486894739  0.1471596525396500
  0.5383570207798678  0.3431626706539905  0.6455868453391908
  0.5358233617344313  0.8428852543082362  0.1460570642709354
  0.5352598975683096  0.8425874822419206  0.6457889637428558
  0.8658260351430848  0.3477580759406358  0.1446263171020729
  0.8692394819792736  0.3427355248669663  0.6465827436834577
  0.8684331558426817  0.8430306956600681  0.1472395766886073
  0.8680332175429020  0.8417379563621123  0.6431489968196823
  0.0361588013507110  0.1558126701846269  0.6046875916635768
  0.0340790765381506  0.6596068302655874  0.1029519435616734
  0.0367898737252736  0.6540584885454013  0.6046867135395072
  0.3715546234239775  0.1593540434393468  0.1032172926615401
  0.3703052895662781  0.1569085326807947  0.6040468693764667
  0.3700740855013696  0.6526384765636928  0.1036516445141727
  0.3691867811690343  0.6558046034817923  0.6044529462480703
  0.7030728916086555  0.1566113816010324  0.1031240440128154
  0.7026009988880941  0.1571067205026287  0.6034817278949195
  0.7006733263907207  0.6573843487803970  0.1034793110568683
  0.7028643905034714  0.6568348321950567  0.6041225997466135
  0.0258646240504018  0.4518562042420309 -0.0003012739554393
  0.0358625211742911  0.4454999378108082  0.5003115667948757
  0.0330034715560052  0.9445313803034073 -0.0047078277393795
  0.0348832807085062  0.9476183945098962  0.4999408737937073
  0.3616344369989216  0.4427107484868376  0.0001315203099331
  0.3685647602321358  0.4466345721767897  0.5006026781314895
  0.3675392161771673  0.9481904580144461  0.0001477597091703
  0.3682833282448634  0.9481364982523620  0.5001687301024741
  0.6997637620049926  0.4482117098545103 -0.0002561874344333
  0.7020462119911532  0.4481298676505556  0.5002966386304213
  0.6999471623488984  0.9469958538257179 -0.0006605818256238
  0.7008468506472999  0.9481667779652005  0.4996931546196160
  0.2050636349897868  0.3415215868566102  0.3484306975456096
  0.2026780764531508  0.3424506231493862  0.8628976759325125
  0.2044378788172010  0.8401236120203305  0.3547943771047993
  0.2031530233127916  0.8434371262161652  0.8539980950792990
  0.5386833113429337  0.3435833659757740  0.3553313608062551
  0.5346155728801020  0.3441791558375245  0.8537334139192650
  0.5357678449227498  0.8426832743332601  0.3543505979357860
  0.5353178872337120  0.8427199783058454  0.8540784846395383
  0.8693878830032257  0.3442092999479322  0.3528188934923317
  0.8670422436555018  0.3432629287547150  0.8546820180564167
  0.8686741953970325  0.8420833570290356  0.3551243930032065
  0.8673147209118428  0.8410440843529171  0.8505989905597461
 
  0.00000000E+00  0.00000000E+00  0.00000000E+00
  0.00000000E+00  0.00000000E+00  0.00000000E+00
  0.00000000E+00  0.00000000E+00  0.00000000E+00
  0.00000000E+00  0.00000000E+00  0.00000000E+00
  0.00000000E+00  0.00000000E+00  0.00000000E+00
  0.00000000E+00  0.00000000E+00  0.00000000E+00
  0.00000000E+00  0.00000000E+00  0.00000000E+00
  0.00000000E+00  0.00000000E+00  0.00000000E+00
  0.00000000E+00  0.00000000E+00  0.00000000E+00
  0.00000000E+00  0.00000000E+00  0.00000000E+00
  0.00000000E+00  0.00000000E+00  0.00000000E+00
  0.00000000E+00  0.00000000E+00  0.00000000E+00
  0.00000000E+00  0.00000000E+00  0.00000000E+00
  0.00000000E+00  0.00000000E+00  0.00000000E+00
  0.00000000E+00  0.00000000E+00  0.00000000E+00
  0.00000000E+00  0.00000000E+00  0.00000000E+00
  0.00000000E+00  0.00000000E+00  0.00000000E+00
  0.00000000E+00  0.00000000E+00  0.00000000E+00
  0.00000000E+00  0.00000000E+00  0.00000000E+00
  0.00000000E+00  0.00000000E+00  0.00000000E+00
  0.00000000E+00  0.00000000E+00  0.00000000E+00
  0.00000000E+00  0.00000000E+00  0.00000000E+00
  0.00000000E+00  0.00000000E+00  0.00000000E+00
  0.00000000E+00  0.00000000E+00  0.00000000E+00
  0.00000000E+00  0.00000000E+00  0.00000000E+00
  0.00000000E+00  0.00000000E+00  0.00000000E+00
  0.00000000E+00  0.00000000E+00  0.00000000E+00
  0.00000000E+00  0.00000000E+00  0.00000000E+00
  0.00000000E+00  0.00000000E+00  0.00000000E+00
  0.00000000E+00  0.00000000E+00  0.00000000E+00
  0.00000000E+00  0.00000000E+00  0.00000000E+00
  0.00000000E+00  0.00000000E+00  0.00000000E+00
  0.00000000E+00  0.00000000E+00  0.00000000E+00
  0.00000000E+00  0.00000000E+00  0.00000000E+00
  0.00000000E+00  0.00000000E+00  0.00000000E+00
  0.00000000E+00  0.00000000E+00  0.00000000E+00
  0.00000000E+00  0.00000000E+00  0.00000000E+00
  0.00000000E+00  0.00000000E+00  0.00000000E+00
  0.00000000E+00  0.00000000E+00  0.00000000E+00
  0.00000000E+00  0.00000000E+00  0.00000000E+00
  0.00000000E+00  0.00000000E+00  0.00000000E+00
  0.00000000E+00  0.00000000E+00  0.00000000E+00
  0.00000000E+00  0.00000000E+00  0.00000000E+00
  0.00000000E+00  0.00000000E+00  0.00000000E+00
  0.00000000E+00  0.00000000E+00  0.00000000E+00
  0.00000000E+00  0.00000000E+00  0.00000000E+00
  0.00000000E+00  0.00000000E+00  0.00000000E+00
  0.00000000E+00  0.00000000E+00  0.00000000E+00
  0.00000000E+00  0.00000000E+00  0.00000000E+00
  0.00000000E+00  0.00000000E+00  0.00000000E+00
  0.00000000E+00  0.00000000E+00  0.00000000E+00
  0.00000000E+00  0.00000000E+00  0.00000000E+00
  0.00000000E+00  0.00000000E+00  0.00000000E+00
  0.00000000E+00  0.00000000E+00  0.00000000E+00
  0.00000000E+00  0.00000000E+00  0.00000000E+00
  0.00000000E+00  0.00000000E+00  0.00000000E+00
  0.00000000E+00  0.00000000E+00  0.00000000E+00
  0.00000000E+00  0.00000000E+00  0.00000000E+00
  0.00000000E+00  0.00000000E+00  0.00000000E+00
  0.00000000E+00  0.00000000E+00  0.00000000E+00
  0.00000000E+00  0.00000000E+00  0.00000000E+00
  0.00000000E+00  0.00000000E+00  0.00000000E+00
  0.00000000E+00  0.00000000E+00  0.00000000E+00
  0.00000000E+00  0.00000000E+00  0.00000000E+00
  0.00000000E+00  0.00000000E+00  0.00000000E+00
  0.00000000E+00  0.00000000E+00  0.00000000E+00
  0.00000000E+00  0.00000000E+00  0.00000000E+00
  0.00000000E+00  0.00000000E+00  0.00000000E+00
  0.00000000E+00  0.00000000E+00  0.00000000E+00
  0.00000000E+00  0.00000000E+00  0.00000000E+00
  0.00000000E+00  0.00000000E+00  0.00000000E+00
  0.00000000E+00  0.00000000E+00  0.00000000E+00
  0.00000000E+00  0.00000000E+00  0.00000000E+00
  0.00000000E+00  0.00000000E+00  0.00000000E+00
  0.00000000E+00  0.00000000E+00  0.00000000E+00
  0.00000000E+00  0.00000000E+00  0.00000000E+00
  0.00000000E+00  0.00000000E+00  0.00000000E+00
  0.00000000E+00  0.00000000E+00  0.00000000E+00
  0.00000000E+00  0.00000000E+00  0.00000000E+00
  0.00000000E+00  0.00000000E+00  0.00000000E+00
  0.00000000E+00  0.00000000E+00  0.00000000E+00
  0.00000000E+00  0.00000000E+00  0.00000000E+00
  0.00000000E+00  0.00000000E+00  0.00000000E+00
  0.00000000E+00  0.00000000E+00  0.00000000E+00
  0.00000000E+00  0.00000000E+00  0.00000000E+00
  0.00000000E+00  0.00000000E+00  0.00000000E+00
  0.00000000E+00  0.00000000E+00  0.00000000E+00
  0.00000000E+00  0.00000000E+00  0.00000000E+00
  0.00000000E+00  0.00000000E+00  0.00000000E+00
  0.00000000E+00  0.00000000E+00  0.00000000E+00
  0.00000000E+00  0.00000000E+00  0.00000000E+00
  0.00000000E+00  0.00000000E+00  0.00000000E+00
  0.00000000E+00  0.00000000E+00  0.00000000E+00
  0.00000000E+00  0.00000000E+00  0.00000000E+00
  0.00000000E+00  0.00000000E+00  0.00000000E+00
  0.00000000E+00  0.00000000E+00  0.00000000E+00
  0.00000000E+00  0.00000000E+00  0.00000000E+00
  0.00000000E+00  0.00000000E+00  0.00000000E+00
  0.00000000E+00  0.00000000E+00  0.00000000E+00
  0.00000000E+00  0.00000000E+00  0.00000000E+00
  0.00000000E+00  0.00000000E+00  0.00000000E+00
  0.00000000E+00  0.00000000E+00  0.00000000E+00
  0.00000000E+00  0.00000000E+00  0.00000000E+00
  0.00000000E+00  0.00000000E+00  0.00000000E+00
  0.00000000E+00  0.00000000E+00  0.00000000E+00
  0.00000000E+00  0.00000000E+00  0.00000000E+00
  0.00000000E+00  0.00000000E+00  0.00000000E+00
  0.00000000E+00  0.00000000E+00  0.00000000E+00
  0.00000000E+00  0.00000000E+00  0.00000000E+00
  0.00000000E+00  0.00000000E+00  0.00000000E+00
  0.00000000E+00  0.00000000E+00  0.00000000E+00
  0.00000000E+00  0.00000000E+00  0.00000000E+00
  0.00000000E+00  0.00000000E+00  0.00000000E+00
  0.00000000E+00  0.00000000E+00  0.00000000E+00
  0.00000000E+00  0.00000000E+00  0.00000000E+00
  0.00000000E+00  0.00000000E+00  0.00000000E+00
  0.00000000E+00  0.00000000E+00  0.00000000E+00
  0.00000000E+00  0.00000000E+00  0.00000000E+00
  0.00000000E+00  0.00000000E+00  0.00000000E+00
  0.00000000E+00  0.00000000E+00  0.00000000E+00
  0.00000000E+00  0.00000000E+00  0.00000000E+00
  0.00000000E+00  0.00000000E+00  0.00000000E+00
  0.00000000E+00  0.00000000E+00  0.00000000E+00
  0.00000000E+00  0.00000000E+00  0.00000000E+00
  0.00000000E+00  0.00000000E+00  0.00000000E+00
  0.00000000E+00  0.00000000E+00  0.00000000E+00
  0.00000000E+00  0.00000000E+00  0.00000000E+00
  0.00000000E+00  0.00000000E+00  0.00000000E+00
  0.00000000E+00  0.00000000E+00  0.00000000E+00
  0.00000000E+00  0.00000000E+00  0.00000000E+00
  0.00000000E+00  0.00000000E+00  0.00000000E+00
  0.00000000E+00  0.00000000E+00  0.00000000E+00
  0.00000000E+00  0.00000000E+00  0.00000000E+00
  0.00000000E+00  0.00000000E+00  0.00000000E+00
  0.00000000E+00  0.00000000E+00  0.00000000E+00
  0.00000000E+00  0.00000000E+00  0.00000000E+00
  0.00000000E+00  0.00000000E+00  0.00000000E+00
  0.00000000E+00  0.00000000E+00  0.00000000E+00
  0.00000000E+00  0.00000000E+00  0.00000000E+00
  0.00000000E+00  0.00000000E+00  0.00000000E+00
  0.00000000E+00  0.00000000E+00  0.00000000E+00
  0.00000000E+00  0.00000000E+00  0.00000000E+00
  0.00000000E+00  0.00000000E+00  0.00000000E+00
  0.00000000E+00  0.00000000E+00  0.00000000E+00
  0.00000000E+00  0.00000000E+00  0.00000000E+00
  0.00000000E+00  0.00000000E+00  0.00000000E+00
  0.00000000E+00  0.00000000E+00  0.00000000E+00
  0.00000000E+00  0.00000000E+00  0.00000000E+00
  0.00000000E+00  0.00000000E+00  0.00000000E+00
  0.00000000E+00  0.00000000E+00  0.00000000E+00
  0.00000000E+00  0.00000000E+00  0.00000000E+00
  0.00000000E+00  0.00000000E+00  0.00000000E+00
  0.00000000E+00  0.00000000E+00  0.00000000E+00
  0.00000000E+00  0.00000000E+00  0.00000000E+00
  0.00000000E+00  0.00000000E+00  0.00000000E+00
  0.00000000E+00  0.00000000E+00  0.00000000E+00
  0.00000000E+00  0.00000000E+00  0.00000000E+00
  0.00000000E+00  0.00000000E+00  0.00000000E+00
  0.00000000E+00  0.00000000E+00  0.00000000E+00
  0.00000000E+00  0.00000000E+00  0.00000000E+00
  0.00000000E+00  0.00000000E+00  0.00000000E+00
  0.00000000E+00  0.00000000E+00  0.00000000E+00
  0.00000000E+00  0.00000000E+00  0.00000000E+00
  0.00000000E+00  0.00000000E+00  0.00000000E+00
  0.00000000E+00  0.00000000E+00  0.00000000E+00
  0.00000000E+00  0.00000000E+00  0.00000000E+00
  0.00000000E+00  0.00000000E+00  0.00000000E+00
  0.00000000E+00  0.00000000E+00  0.00000000E+00
  0.00000000E+00  0.00000000E+00  0.00000000E+00
  0.00000000E+00  0.00000000E+00  0.00000000E+00
  0.00000000E+00  0.00000000E+00  0.00000000E+00
  0.00000000E+00  0.00000000E+00  0.00000000E+00
  0.00000000E+00  0.00000000E+00  0.00000000E+00
  0.00000000E+00  0.00000000E+00  0.00000000E+00
  0.00000000E+00  0.00000000E+00  0.00000000E+00
  0.00000000E+00  0.00000000E+00  0.00000000E+00
  0.00000000E+00  0.00000000E+00  0.00000000E+00
  0.00000000E+00  0.00000000E+00  0.00000000E+00
  0.00000000E+00  0.00000000E+00  0.00000000E+00
  0.00000000E+00  0.00000000E+00  0.00000000E+00
  0.00000000E+00  0.00000000E+00  0.00000000E+00
  0.00000000E+00  0.00000000E+00  0.00000000E+00
  0.00000000E+00  0.00000000E+00  0.00000000E+00
  0.00000000E+00  0.00000000E+00  0.00000000E+00
  0.00000000E+00  0.00000000E+00  0.00000000E+00
  0.00000000E+00  0.00000000E+00  0.00000000E+00
  0.00000000E+00  0.00000000E+00  0.00000000E+00
  0.00000000E+00  0.00000000E+00  0.00000000E+00
  0.00000000E+00  0.00000000E+00  0.00000000E+00
  0.00000000E+00  0.00000000E+00  0.00000000E+00
  0.00000000E+00  0.00000000E+00  0.00000000E+00
  0.00000000E+00  0.00000000E+00  0.00000000E+00
  0.00000000E+00  0.00000000E+00  0.00000000E+00
