Li42 P14 O56
1.0
6.176136 0.000000 0.000000
0.000000 5.296402 -4.922448
0.000000 0.000000 63.991824
Li P O
42 14 56
direct
0.000000 0.155480 0.044521 Li+
0.500000 0.844520 0.059062 Li+
0.252873 0.673566 0.007531 Li+
0.247127 0.326434 0.019291 Li+
0.752873 0.326434 0.019291 Li+
0.747127 0.673566 0.007531 Li+
0.000000 0.155480 0.121444 Li+
0.500000 0.844520 0.135985 Li+
0.252873 0.673566 0.084455 Li+
0.247127 0.326434 0.096214 Li+
0.752873 0.326434 0.096214 Li+
0.747127 0.673566 0.084455 Li+
0.000000 0.155480 0.198367 Li+
0.500000 0.844520 0.212908 Li+
0.252873 0.673566 0.161378 Li+
0.247127 0.326434 0.173137 Li+
0.752873 0.326434 0.173137 Li+
0.747127 0.673566 0.161378 Li+
0.000000 0.155480 0.275290 Li+
0.500000 0.844520 0.289832 Li+
0.252873 0.673566 0.238301 Li+
0.247127 0.326434 0.250060 Li+
0.752873 0.326434 0.250060 Li+
0.747127 0.673566 0.238301 Li+
0.000000 0.155480 0.352213 Li+
0.500000 0.844520 0.366755 Li+
0.252873 0.673566 0.315224 Li+
0.247127 0.326434 0.326983 Li+
0.752873 0.326434 0.326983 Li+
0.747127 0.673566 0.315224 Li+
0.000000 0.155480 0.429136 Li+
0.500000 0.844520 0.443678 Li+
0.252873 0.673566 0.392147 Li+
0.247127 0.326434 0.403906 Li+
0.752873 0.326434 0.403906 Li+
0.747127 0.673566 0.392147 Li+
0.000000 0.155480 0.506059 Li+
0.500000 0.844520 0.520601 Li+
0.252873 0.673566 0.469070 Li+
0.247127 0.326434 0.480829 Li+
0.752873 0.326434 0.480829 Li+
0.747127 0.673566 0.469070 Li+
0.500000 0.175739 0.046694 P5+
0.000000 0.824261 0.058119 P5+
0.500000 0.175739 0.123617 P5+
0.000000 0.824261 0.135042 P5+
0.500000 0.175739 0.200540 P5+
0.000000 0.824261 0.211965 P5+
0.500000 0.175739 0.277464 P5+
0.000000 0.824261 0.288888 P5+
0.500000 0.175739 0.354387 P5+
0.000000 0.824261 0.365811 P5+
0.500000 0.175739 0.431310 P5+
0.000000 0.824261 0.442734 P5+
0.500000 0.175739 0.508233 P5+
0.000000 0.824261 0.519657 P5+
0.792862 0.686491 0.039399 O2-
0.500000 0.896492 0.017467 O2-
0.500000 0.181604 0.071471 O2-
0.000000 0.818396 0.005070 O2-
0.292862 0.313509 0.049170 O2-
0.207138 0.686491 0.039399 O2-
0.000000 0.103508 0.071853 O2-
0.707138 0.313509 0.049170 O2-
0.792862 0.686491 0.116322 O2-
0.500000 0.896492 0.094390 O2-
0.500000 0.181604 0.148394 O2-
0.000000 0.818396 0.081993 O2-
0.292862 0.313509 0.126093 O2-
0.207138 0.686491 0.116322 O2-
0.000000 0.103508 0.148776 O2-
0.707138 0.313509 0.126093 O2-
0.792862 0.686491 0.193245 O2-
0.500000 0.896492 0.171313 O2-
0.500000 0.181604 0.225317 O2-
0.000000 0.818396 0.158916 O2-
0.292862 0.313509 0.203016 O2-
0.207138 0.686491 0.193245 O2-
0.000000 0.103508 0.225699 O2-
0.707138 0.313509 0.203016 O2-
0.792862 0.686491 0.270168 O2-
0.500000 0.896492 0.248236 O2-
0.500000 0.181604 0.302240 O2-
0.000000 0.818396 0.235839 O2-
0.292862 0.313509 0.279939 O2-
0.207138 0.686491 0.270168 O2-
0.000000 0.103508 0.302622 O2-
0.707138 0.313509 0.279939 O2-
0.792862 0.686491 0.347091 O2-
0.500000 0.896492 0.325159 O2-
0.500000 0.181604 0.379163 O2-
0.000000 0.818396 0.312762 O2-
0.292862 0.313509 0.356862 O2-
0.207138 0.686491 0.347091 O2-
0.000000 0.103508 0.379545 O2-
0.707138 0.313509 0.356862 O2-
0.792862 0.686491 0.424014 O2-
0.500000 0.896492 0.402083 O2-
0.500000 0.181604 0.456086 O2-
0.000000 0.818396 0.389686 O2-
0.292862 0.313509 0.433785 O2-
0.207138 0.686491 0.424014 O2-
0.000000 0.103508 0.456468 O2-
0.707138 0.313509 0.433785 O2-
0.792862 0.686491 0.500938 O2-
0.500000 0.896492 0.479006 O2-
0.500000 0.181604 0.533009 O2-
0.000000 0.818396 0.466609 O2-
0.292862 0.313509 0.510708 O2-
0.207138 0.686491 0.500938 O2-
0.000000 0.103508 0.533391 O2-
0.707138 0.313509 0.510708 O2-
