Li5 P2 N1 O6                            
   1.00000000000000     
    -0.0918054016543227   -0.0707824310302773    5.1681309667858066
     5.8415618618168796   -0.1049830491661209   -0.1244530147865365
    -0.0850155950775367    5.4317108752255594   -0.0754677628600136
   Li   P    N    O 
     5     2     1     6
Direct
  0.4853297200264649 -0.0184379790236726  0.8981543469404697
  0.1248133635508613  0.4983925192177264  0.1579324746581319
  0.4723663313677990  0.9687665859949142  0.4316206260368696
 -0.0121252861292453  0.7410101639695125  0.6595076866126213
 -0.0125113202599865  0.2205841180270497  0.6646656320398147
  0.4752896345514173  0.4683196454444050  0.7144806147759366
 -0.0018969818293797 -0.0119681678514647  0.1748270975523030
  0.6038698630015389  0.2397496100188911  0.6846623307181512
  0.0917436249538755  0.2170598806927951  0.3095014810092962
  0.6004532502893476  0.7053101697952527  0.6725793808611825
  0.1266966765060369  0.7924335302569464  0.3237831349732418
  0.0969261329009535 -0.0191205328943552  0.9050414214513870
  0.1945506519322503  0.4927660485620702  0.7988554445846641
  0.7018053391380944 -0.0477385922100716  0.1744463277859348
 
  0.00000000E+00  0.00000000E+00  0.00000000E+00
  0.00000000E+00  0.00000000E+00  0.00000000E+00
  0.00000000E+00  0.00000000E+00  0.00000000E+00
  0.00000000E+00  0.00000000E+00  0.00000000E+00
  0.00000000E+00  0.00000000E+00  0.00000000E+00
  0.00000000E+00  0.00000000E+00  0.00000000E+00
  0.00000000E+00  0.00000000E+00  0.00000000E+00
  0.00000000E+00  0.00000000E+00  0.00000000E+00
  0.00000000E+00  0.00000000E+00  0.00000000E+00
  0.00000000E+00  0.00000000E+00  0.00000000E+00
  0.00000000E+00  0.00000000E+00  0.00000000E+00
  0.00000000E+00  0.00000000E+00  0.00000000E+00
  0.00000000E+00  0.00000000E+00  0.00000000E+00
  0.00000000E+00  0.00000000E+00  0.00000000E+00
