Li5 P2 N1 O6                            
   1.00000000000000     
    -0.3919409246767584    0.6243377099424005    5.0382579232674658
     6.4746148476953795    0.5572601661418918   -0.5013294741406635
     0.4413217103669494    5.0347588421652265    0.6400282141638590
   Li   P    N    O 
     5     2     1     6
Direct
  0.5222276454859561  0.0465498555958685  0.8821995746332053
  0.8453240510427295  0.4080886763811199  0.2657712571292874
  0.3996239721558968  0.7127526388523772  0.3112900870161202
  0.0507170989536159  0.7545412510261010  0.7443390084678215
  0.1032420997515973  0.2564037370266289  0.6336482686995879
  0.5386384922099154  0.4855629669514655  0.8015089854576004
  0.9635347405865002  0.9871669959067748  0.1928013388709583
  0.2958105796524061  0.5457571532299351  0.7019039549408082
  0.0680288902876163  0.1903944582848413  0.2885113028942023
  0.0052855636195269  0.7828687596017705  0.3735744643790272
  0.7024679053853639  0.3250648824314766  0.6837253072179044
  0.6506189759247282  0.5672985933851037  0.0265388941905787
  0.1399368220405243  0.0026920819784416  0.8878096477026395
  0.6569701629036531  0.9748469493481065  0.1934529084002631
 
  0.00000000E+00  0.00000000E+00  0.00000000E+00
  0.00000000E+00  0.00000000E+00  0.00000000E+00
  0.00000000E+00  0.00000000E+00  0.00000000E+00
  0.00000000E+00  0.00000000E+00  0.00000000E+00
  0.00000000E+00  0.00000000E+00  0.00000000E+00
  0.00000000E+00  0.00000000E+00  0.00000000E+00
  0.00000000E+00  0.00000000E+00  0.00000000E+00
  0.00000000E+00  0.00000000E+00  0.00000000E+00
  0.00000000E+00  0.00000000E+00  0.00000000E+00
  0.00000000E+00  0.00000000E+00  0.00000000E+00
  0.00000000E+00  0.00000000E+00  0.00000000E+00
  0.00000000E+00  0.00000000E+00  0.00000000E+00
  0.00000000E+00  0.00000000E+00  0.00000000E+00
  0.00000000E+00  0.00000000E+00  0.00000000E+00
