Li5 P2 N1 O6                            
   1.00000000000000     
    -0.3791851288022748    0.5518317216392328    5.0366837720266560
     6.2559752446529195    0.5026327177540176   -0.5029397890312509
     0.3714112761984331    5.0879751935637190    0.5563329506206716
   Li   P    N    O 
     5     2     1     6
Direct
  0.5199478460780658  0.0280293971265929  0.8691425093061614
 -0.1376710010614916  0.4431753678603129  0.2877024046886681
  0.4061546034525575  0.7119202705259597  0.3147782347493333
  0.0423107827532719  0.7513416672784454  0.7363556513900110
  0.0963267034105522  0.2545905980705244  0.6362001010216450
  0.5323923156474161  0.4759022821618815  0.8115789398123198
 -0.0348896249996381 -0.0086437651920497  0.1865158564683777
  0.2972175404057254  0.5482180617683158  0.7014081317821437
  0.0745827512617356  0.1999909974311479  0.2854016886543696
  0.0097586568850013  0.7785110340156404  0.3603818974922864
  0.6983105795307051  0.3153222037408412  0.6871081629198557
  0.6486803902489408  0.5615913276859299  0.0350221154332141
  0.1313446486704834  0.0033286775141320  0.8878295272211403
  0.6579608077166966 -0.0232891199876759  0.1876497790604771
 
  0.00000000E+00  0.00000000E+00  0.00000000E+00
  0.00000000E+00  0.00000000E+00  0.00000000E+00
  0.00000000E+00  0.00000000E+00  0.00000000E+00
  0.00000000E+00  0.00000000E+00  0.00000000E+00
  0.00000000E+00  0.00000000E+00  0.00000000E+00
  0.00000000E+00  0.00000000E+00  0.00000000E+00
  0.00000000E+00  0.00000000E+00  0.00000000E+00
  0.00000000E+00  0.00000000E+00  0.00000000E+00
  0.00000000E+00  0.00000000E+00  0.00000000E+00
  0.00000000E+00  0.00000000E+00  0.00000000E+00
  0.00000000E+00  0.00000000E+00  0.00000000E+00
  0.00000000E+00  0.00000000E+00  0.00000000E+00
  0.00000000E+00  0.00000000E+00  0.00000000E+00
  0.00000000E+00  0.00000000E+00  0.00000000E+00
