Li8 P4 O14
1.0
-5.126484 -0.000386 -0.000840
2.533738 6.574526 -0.006811
-0.004413 -1.979493 -8.212036
Li P O
8 4 14
direct
0.255590 0.145234 0.012021 Li
0.744410 0.854766 0.987979 Li
0.604546 0.589429 0.248768 Li
0.395454 0.410571 0.751232 Li
0.972010 0.328039 0.208879 Li
0.027990 0.671960 0.791121 Li
0.943505 0.241798 0.548530 Li
0.056495 0.758202 0.451470 Li
0.426081 0.213514 0.368089 P
0.573919 0.786485 0.631911 P
0.215580 0.778830 0.154419 P
0.784420 0.221170 0.845581 P
0.481878 0.741915 0.125787 O
0.993054 0.604607 0.209541 O
0.006946 0.395393 0.790459 O
0.116555 0.848560 0.017319 O
0.265838 0.743526 0.623440 O
0.734162 0.256474 0.376560 O
0.685914 0.731522 0.473111 O
0.314086 0.268478 0.526889 O
0.661624 0.701799 0.764222 O
0.338376 0.298201 0.235778 O
0.265881 0.962081 0.316506 O
0.734119 0.037919 0.683494 O
0.883445 0.151440 0.982681 O
0.518122 0.258085 0.874213 O
