(1, 0, 2)                               
   1.00000000000000     
     2.7488074948721639    0.0004878405149753   -1.5868784215797866
     0.0187963820789199    7.6781814937091584   -6.3173433877739695
    -0.0971318252842502    0.0613503154608564   50.6120024431577207
   Li   O 
    28    28
Selective dynamics
Direct
 -0.0614682653286017  0.4613226919774736  0.0438769671395617   T   T   T
  0.0409934430711068  0.0215898580668250  0.0639215800230669   T   T   T
  0.3756736989400961  0.7385334598034815  0.0076754256555134   T   T   T
  0.6601899684012073  0.2403967860804317  0.0437961318452013   T   T   T
  0.0000000000000000  0.5000000000000000  0.1187070000000006   F   F   F
  0.0000000000000000  0.0000000000000000  0.1187070000000006   F   F   F
  0.3302817238939496  0.7076335899172406  0.0612099993143043   T   T   T
  0.6666669999999968  0.2500000000000000  0.1082899999999967   F   F   F
  0.0000000000000000  0.5000000000000000  0.1812070000000006   F   F   F
  0.0000000000000000  0.0000000000000000  0.1812070000000006   F   F   F
  0.3333330000000032  0.7500000000000000  0.1291239999999974   F   F   F
  0.6666669999999968  0.2500000000000000  0.1707899999999967   F   F   F
  0.0000000000000000  0.5000000000000000  0.2437070000000006   F   F   F
  0.0000000000000000  0.0000000000000000  0.2437070000000006   F   F   F
  0.3333330000000032  0.7500000000000000  0.1916239999999974   F   F   F
  0.6666669999999968  0.2500000000000000  0.2332899999999967   F   F   F
  0.0000000000000000  0.5000000000000000  0.3062070000000006   F   F   F
  0.0000000000000000  0.0000000000000000  0.3062070000000006   F   F   F
  0.3333330000000032  0.7500000000000000  0.2541239999999974   F   F   F
  0.6666669999999968  0.2500000000000000  0.2957899999999967   F   F   F
 -0.0150760069433972  0.5063693072894094  0.3676237258561961   T   T   T
  0.0000000000000000  0.0000000000000000  0.3687070000000006   F   F   F
  0.3333330000000032  0.7500000000000000  0.3166239999999974   F   F   F
  0.6666669999999968  0.2500000000000000  0.3582899999999967   F   F   F
 -0.0754228135628679  0.4887665082912079  0.4203989590734148   T   T   T
 -0.0298001363694830  0.0176436657262070  0.4296991899718294   T   T   T
  0.3333330000000032  0.7500000000000000  0.3791239999999974   F   F   F
  0.6823395235121062  0.2260826007089386  0.4197334314385790   T   T   T
  0.3333330000000032  0.1493099999999998  0.0540370000000010   F   F   F
  0.6558276646350970  0.6496147648801291  0.0322539748770701   T   T   T
  0.6666669999999968  0.8506900000000002  0.0583760000000026   F   F   F
  0.3672068388509510  0.3570459268470208  0.0219192292408079   T   T   T
  0.3333330000000032  0.1493099999999998  0.1165370000000010   F   F   F
  0.6666669999999968  0.6493099999999998  0.0957039999999978   F   F   F
  0.6666669999999968  0.8506900000000002  0.1208760000000026   F   F   F
  0.3333330000000032  0.3506900000000002  0.0792100000000033   F   F   F
  0.3333330000000032  0.1493099999999998  0.1790370000000010   F   F   F
  0.6666669999999968  0.6493099999999998  0.1582039999999978   F   F   F
  0.6666669999999968  0.8506900000000002  0.1833760000000026   F   F   F
  0.3333330000000032  0.3506900000000002  0.1417100000000033   F   F   F
  0.3333330000000032  0.1493099999999998  0.2415370000000010   F   F   F
  0.6666669999999968  0.6493099999999998  0.2207039999999978   F   F   F
  0.6666669999999968  0.8506900000000002  0.2458760000000026   F   F   F
  0.3333330000000032  0.3506900000000002  0.2042100000000033   F   F   F
  0.3333330000000032  0.1493099999999998  0.3040370000000010   F   F   F
  0.6666669999999968  0.6493099999999998  0.2832039999999978   F   F   F
  0.6666669999999968  0.8506900000000002  0.3083760000000026   F   F   F
  0.3333330000000032  0.3506900000000002  0.2667100000000033   F   F   F
  0.3333330000000032  0.1493099999999998  0.3665370000000010   F   F   F
  0.6666669999999968  0.6493099999999998  0.3457039999999978   F   F   F
  0.6666669999999968  0.8506900000000002  0.3708760000000026   F   F   F
  0.3333330000000032  0.3506900000000002  0.3292100000000033   F   F   F
  0.3180204517830366  0.1439051944482248  0.4264171882327268   T   T   T
  0.6587418754936231  0.6401408170492169  0.4060941327587858   T   T   T
  0.6748979379508501  0.8231111773768768  0.4310541131415948   T   T   T
  0.3333330000000032  0.3506900000000002  0.3917100000000033   F   F   F
 
  0.00000000E+00  0.00000000E+00  0.00000000E+00
  0.00000000E+00  0.00000000E+00  0.00000000E+00
  0.00000000E+00  0.00000000E+00  0.00000000E+00
  0.00000000E+00  0.00000000E+00  0.00000000E+00
  0.00000000E+00  0.00000000E+00  0.00000000E+00
  0.00000000E+00  0.00000000E+00  0.00000000E+00
  0.00000000E+00  0.00000000E+00  0.00000000E+00
  0.00000000E+00  0.00000000E+00  0.00000000E+00
  0.00000000E+00  0.00000000E+00  0.00000000E+00
  0.00000000E+00  0.00000000E+00  0.00000000E+00
  0.00000000E+00  0.00000000E+00  0.00000000E+00
  0.00000000E+00  0.00000000E+00  0.00000000E+00
  0.00000000E+00  0.00000000E+00  0.00000000E+00
  0.00000000E+00  0.00000000E+00  0.00000000E+00
  0.00000000E+00  0.00000000E+00  0.00000000E+00
  0.00000000E+00  0.00000000E+00  0.00000000E+00
  0.00000000E+00  0.00000000E+00  0.00000000E+00
  0.00000000E+00  0.00000000E+00  0.00000000E+00
  0.00000000E+00  0.00000000E+00  0.00000000E+00
  0.00000000E+00  0.00000000E+00  0.00000000E+00
  0.00000000E+00  0.00000000E+00  0.00000000E+00
  0.00000000E+00  0.00000000E+00  0.00000000E+00
  0.00000000E+00  0.00000000E+00  0.00000000E+00
  0.00000000E+00  0.00000000E+00  0.00000000E+00
  0.00000000E+00  0.00000000E+00  0.00000000E+00
  0.00000000E+00  0.00000000E+00  0.00000000E+00
  0.00000000E+00  0.00000000E+00  0.00000000E+00
  0.00000000E+00  0.00000000E+00  0.00000000E+00
  0.00000000E+00  0.00000000E+00  0.00000000E+00
  0.00000000E+00  0.00000000E+00  0.00000000E+00
  0.00000000E+00  0.00000000E+00  0.00000000E+00
  0.00000000E+00  0.00000000E+00  0.00000000E+00
  0.00000000E+00  0.00000000E+00  0.00000000E+00
  0.00000000E+00  0.00000000E+00  0.00000000E+00
  0.00000000E+00  0.00000000E+00  0.00000000E+00
  0.00000000E+00  0.00000000E+00  0.00000000E+00
  0.00000000E+00  0.00000000E+00  0.00000000E+00
  0.00000000E+00  0.00000000E+00  0.00000000E+00
  0.00000000E+00  0.00000000E+00  0.00000000E+00
  0.00000000E+00  0.00000000E+00  0.00000000E+00
  0.00000000E+00  0.00000000E+00  0.00000000E+00
  0.00000000E+00  0.00000000E+00  0.00000000E+00
  0.00000000E+00  0.00000000E+00  0.00000000E+00
  0.00000000E+00  0.00000000E+00  0.00000000E+00
  0.00000000E+00  0.00000000E+00  0.00000000E+00
  0.00000000E+00  0.00000000E+00  0.00000000E+00
  0.00000000E+00  0.00000000E+00  0.00000000E+00
  0.00000000E+00  0.00000000E+00  0.00000000E+00
  0.00000000E+00  0.00000000E+00  0.00000000E+00
  0.00000000E+00  0.00000000E+00  0.00000000E+00
  0.00000000E+00  0.00000000E+00  0.00000000E+00
  0.00000000E+00  0.00000000E+00  0.00000000E+00
  0.00000000E+00  0.00000000E+00  0.00000000E+00
  0.00000000E+00  0.00000000E+00  0.00000000E+00
  0.00000000E+00  0.00000000E+00  0.00000000E+00
  0.00000000E+00  0.00000000E+00  0.00000000E+00
