Li61 P7 N32                             
   1.00000000000000     
     0.0030875710958947    9.4857900361294600   -0.0073938740918489
    -0.0037650991103645   -0.0075724613132437    9.5558317496213263
     9.5401881748885859    0.0031694758986158   -0.0037431086806758
   Li   P    N 
    61     7    32
Direct
  0.4959699894130595  0.0027389962434740  0.4965196610458986
  0.0052822002490403  0.5035952644339360 -0.0100778739241516
  0.4955323951889585 -0.0075390139549437 -0.0035937826597755
  0.0000459132863401  0.0004353186074028  0.4970550861944001
  0.4880935511154820  0.4920173618336415 -0.0074327362896564
  0.0043974755716280  0.5007859415773840  0.4928689860087636
  0.7480285584404482 -0.0032471466763418  0.4954608685253888
  0.2463981814488430 -0.0105368320873768  0.5001852147555552
  0.7663578597326309  0.4992067800982020  0.4953263338789231
  0.2342371567464295  0.5042201198461758  0.5067398800326977
  0.2611782699385113  0.0055092809034392 -0.0034825550855809
  0.7342176997583538 -0.0016957508425490 -0.0044168334603686
  0.6728896833283300  0.4236945443373019  0.0876536717499107
  0.5123558521592524  0.2330985122152447 -0.0204835005623483
  0.4986330338886931  0.7511461788418393  0.0081886409490672
 -0.0147875878656897  0.4896586689441744  0.2514387259129747
 -0.0123877673554725  0.5128767942810595  0.7347319400446900
  0.2340188386400427  0.2213449475352897  0.2080752826532547
  0.2394703591095562  0.7937380796765103  0.7799541170606836
  0.2544277976297900  0.2960114679454542  0.7156294321399255
  0.2683166467768157  0.7324507000193375  0.2785986662608581
  0.7682758014862693  0.3044123892549396  0.3033151601736169
  0.7588897358760036  0.7025469018508006  0.6968783940051696
  0.7320216627039462  0.1967256781661055  0.8029992526850815
  0.7429451744530604  0.8018879136276580  0.1973768458589322
  0.9899154043583694  0.2451197527438976  0.2394434714552933
  0.9860076047825622  0.7541421426824522  0.7509481298148040
  0.2586486667339528  0.2241160485871002  0.4828367662519118
  0.2616449766909404  0.7514149838516472  0.5247732319308638
  0.7522897099585556  0.2267138936325354  0.5494233393153479
  0.7426455547187459  0.7622382214593403  0.4535223876721729
  0.7331198772119458  0.5529002326435227  0.2759504655776049
  0.8225223164205165  0.4068166435018294  0.9193585648477852
  0.2136681028942702  0.4883260301624400  0.2496464616827691
  0.2239748460393128  0.5488386671676297  0.7465707499765649
  0.5163389704455967  0.7498727884595497  0.2484508286303211
  0.5084364094502670  0.2547352660785094  0.7404073608114704
  0.2344949239861547  0.9811506086868826  0.2504149701063291
  0.2356836634925083  0.0349763466460016  0.7432164980091639
  0.2679466219291238  0.2473295939654280  0.9621091418453686
  0.2549365410345171  0.7664886684797453  0.0282556843668975
  0.7559340806907577  0.9557979206975986  0.7319883263989488
  0.7572132197906236  0.0433961639801378  0.2605438999526447
  0.7566946102680808  0.7787619925239434  0.9481410103789262
  0.7690720898503745  0.2152996559684495  0.0532169033441192
  0.0048442450275476  0.2515543108853212  0.7599817288380978
  0.0148151182628510  0.7459740266745601  0.2302531619069611
  0.5113879376631721  0.2567728151495784  0.2323698753617165
  0.4863576866981625  0.7357385819471098  0.7494554012181736
  0.0151068047670715  0.2639517263349276  0.0100693104549075
  0.0077877760285073  0.7432320747217573 -0.0200412949440211
  0.5142424304810657  0.2360749030384949  0.4943888771566975
  0.5009522931989483  0.7647755861672143  0.5008012560707072
  0.4868570844321469  0.5270580636683548  0.2269888079576233
  0.4808705129753287  0.4845425675417256  0.7545902371348380
 -0.0034481080727694 -0.0061360667227728  0.2580097821174585
 -0.0037096095474011  0.0055695077686111  0.7360165163670203
  0.3617115177120553  0.3665323974763214  0.3532261504074425
  0.7331789004313743  0.4514047119906881  0.7160129907540075
  0.8268486851143205  0.5921682822731803  0.0727061933346042
  0.6688661987757339  0.5779319838712789  0.9053547430148560
  0.4993271928611601  0.5035842199585939  0.4959575373514522
  0.0013763118594291  0.0024955163984030 -0.0031807366855541
  0.2467071784114291  0.5062015478989668 -0.0010570076761533
  0.0010967993052955  0.7499685535713625  0.4926418521175801
  0.0045619943744174  0.2512785511932493  0.4987155119038616
  0.4976782467308989  0.0037235852039289  0.2453311611480013
  0.4973020618493707 -0.0034720090788935  0.7471348182896411
  0.6018481050315084  0.5996209365433072  0.5997755394078494
  0.5965996412834701  0.4046760886695603  0.3842747299763574
  0.8974774600096899  0.8971657569824798  0.0945002646554789
  0.8965632805227302  0.1071959496278380  0.8987923871872940
  0.1057039308804018  0.9068831914934601  0.8901537834486491
  0.1047921518807487  0.0991121937708425  0.1038917638781448
  0.3899264026310808  0.6047549768578854  0.3992581318583250
  0.3950292604663923  0.3899237246172993  0.5852205959301628
  0.1116578229851497  0.3470998383269094  0.3899131448814756
  0.0999966708755042  0.6514888784962432  0.6028719355808080
  0.1090120693332316  0.1497764783937165  0.6020348535916572
  0.1121090513397531  0.8504160051890786  0.3946102542192269
  0.8919770712692884  0.1503491557080124  0.4031865812162782
  0.8878899160107133  0.8507897731766420  0.5874717951715699
  0.8668735920757863  0.3821300559937665  0.1276829031239379
  0.8647695486516418  0.6169045767146785  0.8637940744054200
  0.1433925941193547  0.6074649628489245  0.1039440812477449
  0.1532700394891490  0.4038474488055077  0.8853726425978543
  0.3937954571897828  0.8942611111700904  0.1520968360009553
  0.3991208332362307  0.1055549381478155  0.8470584843217256
  0.3918065440258284  0.1127420007745720  0.3437921228258362
  0.3864545903860278  0.8987441744931386  0.6456723973988796
  0.3417167629980046  0.3959476737532522  0.1074698628492744
  0.3480059070331861  0.6157892470381146  0.9000852808926333
  0.6105203908681995  0.0924535379377364  0.6455859477783862
  0.6083613385094370  0.9093832415772081  0.3490249059991193
  0.6319027577519759  0.6335993469799173  0.1128440804131433
  0.6260594075165969  0.3702822804316007  0.8775837511214492
  0.9045817759205765  0.3557688030694277  0.6015573496932018
  0.9026134723550958  0.6467668515275167  0.3855185963029606
  0.5996242835979957  0.1028174109923767  0.1387324972618515
  0.5958319379478562  0.8887932333623235  0.8475884808392077
 
  0.00000000E+00  0.00000000E+00  0.00000000E+00
  0.00000000E+00  0.00000000E+00  0.00000000E+00
  0.00000000E+00  0.00000000E+00  0.00000000E+00
  0.00000000E+00  0.00000000E+00  0.00000000E+00
  0.00000000E+00  0.00000000E+00  0.00000000E+00
  0.00000000E+00  0.00000000E+00  0.00000000E+00
  0.00000000E+00  0.00000000E+00  0.00000000E+00
  0.00000000E+00  0.00000000E+00  0.00000000E+00
  0.00000000E+00  0.00000000E+00  0.00000000E+00
  0.00000000E+00  0.00000000E+00  0.00000000E+00
  0.00000000E+00  0.00000000E+00  0.00000000E+00
  0.00000000E+00  0.00000000E+00  0.00000000E+00
  0.00000000E+00  0.00000000E+00  0.00000000E+00
  0.00000000E+00  0.00000000E+00  0.00000000E+00
  0.00000000E+00  0.00000000E+00  0.00000000E+00
  0.00000000E+00  0.00000000E+00  0.00000000E+00
  0.00000000E+00  0.00000000E+00  0.00000000E+00
  0.00000000E+00  0.00000000E+00  0.00000000E+00
  0.00000000E+00  0.00000000E+00  0.00000000E+00
  0.00000000E+00  0.00000000E+00  0.00000000E+00
  0.00000000E+00  0.00000000E+00  0.00000000E+00
  0.00000000E+00  0.00000000E+00  0.00000000E+00
  0.00000000E+00  0.00000000E+00  0.00000000E+00
  0.00000000E+00  0.00000000E+00  0.00000000E+00
  0.00000000E+00  0.00000000E+00  0.00000000E+00
  0.00000000E+00  0.00000000E+00  0.00000000E+00
  0.00000000E+00  0.00000000E+00  0.00000000E+00
  0.00000000E+00  0.00000000E+00  0.00000000E+00
  0.00000000E+00  0.00000000E+00  0.00000000E+00
  0.00000000E+00  0.00000000E+00  0.00000000E+00
  0.00000000E+00  0.00000000E+00  0.00000000E+00
  0.00000000E+00  0.00000000E+00  0.00000000E+00
  0.00000000E+00  0.00000000E+00  0.00000000E+00
  0.00000000E+00  0.00000000E+00  0.00000000E+00
  0.00000000E+00  0.00000000E+00  0.00000000E+00
  0.00000000E+00  0.00000000E+00  0.00000000E+00
  0.00000000E+00  0.00000000E+00  0.00000000E+00
  0.00000000E+00  0.00000000E+00  0.00000000E+00
  0.00000000E+00  0.00000000E+00  0.00000000E+00
  0.00000000E+00  0.00000000E+00  0.00000000E+00
  0.00000000E+00  0.00000000E+00  0.00000000E+00
  0.00000000E+00  0.00000000E+00  0.00000000E+00
  0.00000000E+00  0.00000000E+00  0.00000000E+00
  0.00000000E+00  0.00000000E+00  0.00000000E+00
  0.00000000E+00  0.00000000E+00  0.00000000E+00
  0.00000000E+00  0.00000000E+00  0.00000000E+00
  0.00000000E+00  0.00000000E+00  0.00000000E+00
  0.00000000E+00  0.00000000E+00  0.00000000E+00
  0.00000000E+00  0.00000000E+00  0.00000000E+00
  0.00000000E+00  0.00000000E+00  0.00000000E+00
  0.00000000E+00  0.00000000E+00  0.00000000E+00
  0.00000000E+00  0.00000000E+00  0.00000000E+00
  0.00000000E+00  0.00000000E+00  0.00000000E+00
  0.00000000E+00  0.00000000E+00  0.00000000E+00
  0.00000000E+00  0.00000000E+00  0.00000000E+00
  0.00000000E+00  0.00000000E+00  0.00000000E+00
  0.00000000E+00  0.00000000E+00  0.00000000E+00
  0.00000000E+00  0.00000000E+00  0.00000000E+00
  0.00000000E+00  0.00000000E+00  0.00000000E+00
  0.00000000E+00  0.00000000E+00  0.00000000E+00
  0.00000000E+00  0.00000000E+00  0.00000000E+00
  0.00000000E+00  0.00000000E+00  0.00000000E+00
  0.00000000E+00  0.00000000E+00  0.00000000E+00
  0.00000000E+00  0.00000000E+00  0.00000000E+00
  0.00000000E+00  0.00000000E+00  0.00000000E+00
  0.00000000E+00  0.00000000E+00  0.00000000E+00
  0.00000000E+00  0.00000000E+00  0.00000000E+00
  0.00000000E+00  0.00000000E+00  0.00000000E+00
  0.00000000E+00  0.00000000E+00  0.00000000E+00
  0.00000000E+00  0.00000000E+00  0.00000000E+00
  0.00000000E+00  0.00000000E+00  0.00000000E+00
  0.00000000E+00  0.00000000E+00  0.00000000E+00
  0.00000000E+00  0.00000000E+00  0.00000000E+00
  0.00000000E+00  0.00000000E+00  0.00000000E+00
  0.00000000E+00  0.00000000E+00  0.00000000E+00
  0.00000000E+00  0.00000000E+00  0.00000000E+00
  0.00000000E+00  0.00000000E+00  0.00000000E+00
  0.00000000E+00  0.00000000E+00  0.00000000E+00
  0.00000000E+00  0.00000000E+00  0.00000000E+00
  0.00000000E+00  0.00000000E+00  0.00000000E+00
  0.00000000E+00  0.00000000E+00  0.00000000E+00
  0.00000000E+00  0.00000000E+00  0.00000000E+00
  0.00000000E+00  0.00000000E+00  0.00000000E+00
  0.00000000E+00  0.00000000E+00  0.00000000E+00
  0.00000000E+00  0.00000000E+00  0.00000000E+00
  0.00000000E+00  0.00000000E+00  0.00000000E+00
  0.00000000E+00  0.00000000E+00  0.00000000E+00
  0.00000000E+00  0.00000000E+00  0.00000000E+00
  0.00000000E+00  0.00000000E+00  0.00000000E+00
  0.00000000E+00  0.00000000E+00  0.00000000E+00
  0.00000000E+00  0.00000000E+00  0.00000000E+00
  0.00000000E+00  0.00000000E+00  0.00000000E+00
  0.00000000E+00  0.00000000E+00  0.00000000E+00
  0.00000000E+00  0.00000000E+00  0.00000000E+00
  0.00000000E+00  0.00000000E+00  0.00000000E+00
  0.00000000E+00  0.00000000E+00  0.00000000E+00
  0.00000000E+00  0.00000000E+00  0.00000000E+00
  0.00000000E+00  0.00000000E+00  0.00000000E+00
  0.00000000E+00  0.00000000E+00  0.00000000E+00
  0.00000000E+00  0.00000000E+00  0.00000000E+00
