Li5 P2 N1 O6                            
   1.00000000000000     
     0.0495471620015308   -0.0790632676098805    4.9464180621407214
     6.5826575435001562   -0.0000142586629140    0.0609721241492002
    -0.0001700087351176    5.2749906962349931   -0.0856738008120751
   Li   P    N    O 
     5     2     1     6
Direct
  0.4984251940648172 -0.0167800166095234  0.8566690981160150
  0.5043384717671860  0.7919535308796388  0.3421855367327148
  0.0152950579603055  0.7546238884472974  0.6832182745266028
  0.0090605924464970  0.2425829938716879  0.6839113278080944
  0.4907272848977655  0.2108837170707422  0.3405617571155992
  0.4794197252159600  0.5079811750955052  0.7292401733012406
  0.0099249521137363  0.0016115674770513  0.1867287420619360
  0.6164461585783355  0.7118577305253674  0.6941965757830090
  0.1130379401859611  0.1918293042859114  0.3315673109504260
  0.1196327562442512  0.8080336675928513  0.3241401294544528
  0.6106456444544318  0.2974293261421808  0.6793352734791297
  0.1021795457682571  0.0043173833498106  0.9053048329028283
  0.1867186349582473  0.4882310245075892  0.8007167172562594
  0.6904050413442802  0.0054447073638897  0.1832362505116974
 
  0.00000000E+00  0.00000000E+00  0.00000000E+00
  0.00000000E+00  0.00000000E+00  0.00000000E+00
  0.00000000E+00  0.00000000E+00  0.00000000E+00
  0.00000000E+00  0.00000000E+00  0.00000000E+00
  0.00000000E+00  0.00000000E+00  0.00000000E+00
  0.00000000E+00  0.00000000E+00  0.00000000E+00
  0.00000000E+00  0.00000000E+00  0.00000000E+00
  0.00000000E+00  0.00000000E+00  0.00000000E+00
  0.00000000E+00  0.00000000E+00  0.00000000E+00
  0.00000000E+00  0.00000000E+00  0.00000000E+00
  0.00000000E+00  0.00000000E+00  0.00000000E+00
  0.00000000E+00  0.00000000E+00  0.00000000E+00
  0.00000000E+00  0.00000000E+00  0.00000000E+00
  0.00000000E+00  0.00000000E+00  0.00000000E+00
