Li5 P2 N1 O6                            
   1.00000000000000     
     0.0145550534759112    0.0582604389952749    4.9758535479106216
     6.1070979013226312    0.0588120992120835    0.0178654723700153
     0.0468679259131782    5.6419743768595048    0.0570679735306052
   Li   P    N    O 
     5     2     1     6
Direct
  0.5553127786523284  0.0003092828125992  0.8496545325610331
  0.0184413172892718  0.4932927695285653  0.1417148467827717
  0.5009687837436588  0.7404918571477435  0.3395668065690235
 -0.0112816805808212  0.7135916377288291  0.6517112910161742
 -0.0102078414967001  0.2888141545282943  0.6364929140345081
  0.5045337880944184  0.5008497390076952  0.8279130813651358
 -0.0048524180894063 -0.0005619323575092  0.2055661237907980
  0.6140142112425747  0.5332237809621195  0.0933310678946240
  0.0735720239650567  0.2142624850754191  0.3223468840531694
  0.6025667950403893  0.7110607396707075  0.6812088107977694
  0.1067833936697868  0.7928775576155456  0.3392783397263868
  0.6157697043244174  0.2855326855896809  0.7191267096136336
  0.1877170747837631  0.4964928015357552  0.8122248268333824
  0.6939730693612893 -0.0231105588454461  0.1569377649615880
 
  0.00000000E+00  0.00000000E+00  0.00000000E+00
  0.00000000E+00  0.00000000E+00  0.00000000E+00
  0.00000000E+00  0.00000000E+00  0.00000000E+00
  0.00000000E+00  0.00000000E+00  0.00000000E+00
  0.00000000E+00  0.00000000E+00  0.00000000E+00
  0.00000000E+00  0.00000000E+00  0.00000000E+00
  0.00000000E+00  0.00000000E+00  0.00000000E+00
  0.00000000E+00  0.00000000E+00  0.00000000E+00
  0.00000000E+00  0.00000000E+00  0.00000000E+00
  0.00000000E+00  0.00000000E+00  0.00000000E+00
  0.00000000E+00  0.00000000E+00  0.00000000E+00
  0.00000000E+00  0.00000000E+00  0.00000000E+00
  0.00000000E+00  0.00000000E+00  0.00000000E+00
  0.00000000E+00  0.00000000E+00  0.00000000E+00
