Li28 P28 N56
1.0
4.571448 0.000000 4.571448
4.571448 7.289848 0.000000
0.000000 0.000000 64.000272
Li P N
28 28 56
direct
0.500000 0.000000 0.055072 Li+
0.250000 0.250000 0.037214 Li+
0.500000 0.500000 0.019357 Li+
0.250000 0.750000 0.001500 Li+
0.500000 0.000000 0.126500 Li+
0.250000 0.250000 0.108643 Li+
0.500000 0.500000 0.090786 Li+
0.250000 0.750000 0.072929 Li+
0.500000 0.000000 0.197929 Li+
0.250000 0.250000 0.180072 Li+
0.500000 0.500000 0.162214 Li+
0.250000 0.750000 0.144357 Li+
0.500000 0.000000 0.269357 Li+
0.250000 0.250000 0.251500 Li+
0.500000 0.500000 0.233643 Li+
0.250000 0.750000 0.215786 Li+
0.500000 0.000000 0.340786 Li+
0.250000 0.250000 0.322929 Li+
0.500000 0.500000 0.305072 Li+
0.250000 0.750000 0.287214 Li+
0.500000 0.000000 0.412214 Li+
0.250000 0.250000 0.394357 Li+
0.500000 0.500000 0.376500 Li+
0.250000 0.750000 0.358643 Li+
0.500000 0.000000 0.483643 Li+
0.250000 0.250000 0.465786 Li+
0.500000 0.500000 0.447929 Li+
0.250000 0.750000 0.430072 Li+
0.000000 0.000000 0.055072 P5+
0.750000 0.250000 0.037214 P5+
0.000000 0.500000 0.019357 P5+
0.750000 0.750000 0.001500 P5+
0.000000 0.000000 0.126500 P5+
0.750000 0.250000 0.108643 P5+
0.000000 0.500000 0.090786 P5+
0.750000 0.750000 0.072929 P5+
0.000000 0.000000 0.197929 P5+
0.750000 0.250000 0.180072 P5+
0.000000 0.500000 0.162214 P5+
0.750000 0.750000 0.144357 P5+
0.000000 0.000000 0.269357 P5+
0.750000 0.250000 0.251500 P5+
0.000000 0.500000 0.233643 P5+
0.750000 0.750000 0.215786 P5+
0.000000 0.000000 0.340786 P5+
0.750000 0.250000 0.322929 P5+
0.000000 0.500000 0.305072 P5+
0.750000 0.750000 0.287214 P5+
0.000000 0.000000 0.412214 P5+
0.750000 0.250000 0.394357 P5+
0.000000 0.500000 0.376500 P5+
0.750000 0.750000 0.358643 P5+
0.000000 0.000000 0.483643 P5+
0.750000 0.250000 0.465786 P5+
0.000000 0.500000 0.447929 P5+
0.750000 0.750000 0.430072 P5+
0.707997 0.125000 0.022357 N3-
0.042003 0.125000 0.034214 N3-
0.875000 0.375000 0.016357 N3-
0.375000 0.375000 0.004500 N3-
0.707997 0.625000 0.058072 N3-
0.042003 0.625000 0.069928 N3-
0.875000 0.875000 0.052071 N3-
0.375000 0.875000 0.040215 N3-
0.707997 0.125000 0.093786 N3-
0.042003 0.125000 0.105643 N3-
0.875000 0.375000 0.087786 N3-
0.375000 0.375000 0.075929 N3-
0.707997 0.625000 0.129500 N3-
0.042003 0.625000 0.141357 N3-
0.875000 0.875000 0.123500 N3-
0.375000 0.875000 0.111643 N3-
0.707997 0.125000 0.165215 N3-
0.042003 0.125000 0.177071 N3-
0.875000 0.375000 0.159214 N3-
0.375000 0.375000 0.147357 N3-
0.707997 0.625000 0.200929 N3-
0.042003 0.625000 0.212786 N3-
0.875000 0.875000 0.194928 N3-
0.375000 0.875000 0.183072 N3-
0.707997 0.125000 0.236643 N3-
0.042003 0.125000 0.248500 N3-
0.875000 0.375000 0.230643 N3-
0.375000 0.375000 0.218786 N3-
0.707997 0.625000 0.272357 N3-
0.042003 0.625000 0.284214 N3-
0.875000 0.875000 0.266357 N3-
0.375000 0.875000 0.254500 N3-
0.707997 0.125000 0.308072 N3-
0.042003 0.125000 0.319928 N3-
0.875000 0.375000 0.302071 N3-
0.375000 0.375000 0.290215 N3-
0.707997 0.625000 0.343786 N3-
0.042003 0.625000 0.355643 N3-
0.875000 0.875000 0.337786 N3-
0.375000 0.875000 0.325929 N3-
0.707997 0.125000 0.379500 N3-
0.042003 0.125000 0.391357 N3-
0.875000 0.375000 0.373500 N3-
0.375000 0.375000 0.361643 N3-
0.707997 0.625000 0.415215 N3-
0.042003 0.625000 0.427071 N3-
0.875000 0.875000 0.409214 N3-
0.375000 0.875000 0.397357 N3-
0.707997 0.125000 0.450929 N3-
0.042003 0.125000 0.462786 N3-
0.875000 0.375000 0.444928 N3-
0.375000 0.375000 0.433072 N3-
0.707997 0.625000 0.486643 N3-
0.042003 0.625000 0.498500 N3-
0.875000 0.875000 0.480643 N3-
0.375000 0.875000 0.468786 N3-
