Li5 P2 N1 O6                            
   1.00000000000000     
     0.0054504545097228   -0.0606719354086065    4.8583361882849188
     6.5946416524448201    0.1041847209814469    0.0699462564251431
     0.0805520840713485    5.2589027972208768   -0.0731043013428184
   Li   P    N    O 
     5     2     1     6
Direct
  0.5357860237897156  0.0344183126090557  0.8470532722927094
 -0.4635401102165517  0.2703528157381810  0.3024490193713069
  0.5419914026921734  0.7632171926228700  0.3058893445643334
  0.0338587985719831  0.8097321368910632  0.6490733512215167
  0.0378780472921492  0.2309207246583341  0.6323653305497409
  0.6231286684848629  0.5090335357846105  0.8192287571489563
  0.0388540835469795  0.0153426609116752  0.1680234996371975
  0.6336826269532083  0.3097263889673700  0.6774196709231652
  0.1450030143332257  0.2096660133783403  0.2921617408506029
  0.6560385136844399  0.7196279918657709  0.6868954109233593
  0.1540511852063216  0.8249219433137471  0.3167542009567209
  0.5788641569388417  0.5260690573274643  0.1013329595219118
  0.1313088981782675  0.0114691232960158  0.8820497672058879
  0.7173406905444059  0.0126291026355014  0.1744736748325942
 
  0.00000000E+00  0.00000000E+00  0.00000000E+00
  0.00000000E+00  0.00000000E+00  0.00000000E+00
  0.00000000E+00  0.00000000E+00  0.00000000E+00
  0.00000000E+00  0.00000000E+00  0.00000000E+00
  0.00000000E+00  0.00000000E+00  0.00000000E+00
  0.00000000E+00  0.00000000E+00  0.00000000E+00
  0.00000000E+00  0.00000000E+00  0.00000000E+00
  0.00000000E+00  0.00000000E+00  0.00000000E+00
  0.00000000E+00  0.00000000E+00  0.00000000E+00
  0.00000000E+00  0.00000000E+00  0.00000000E+00
  0.00000000E+00  0.00000000E+00  0.00000000E+00
  0.00000000E+00  0.00000000E+00  0.00000000E+00
  0.00000000E+00  0.00000000E+00  0.00000000E+00
  0.00000000E+00  0.00000000E+00  0.00000000E+00
