Li61 P7 N32                             
   1.00000000000000     
     0.0000009116516737    9.4933551708143344    0.0000014959346474
    -0.0000035084324383    0.0000014924583256    9.4933545642783947
     9.4933531470772259    0.0000009166963812   -0.0000035119797584
   Li   P    N 
    61     7    32
Direct
  0.5000000524635504  0.0000003047959182  0.5000000755373415
 -0.0000000096146407  0.5000000701281316  0.0000001546706706
  0.5000001115791830  0.0000001690245645  0.0000000396228767
 -0.0000001656097459  0.0000001497278923  0.5000003317569278
  0.5000000173617981  0.5000001626192566  0.0000000036537234
  0.0000003101001126  0.5000000163976310  0.5000003565088192
  0.7509403980470365  0.0000002252840538  0.5000004660211609
  0.2490594674312936  0.0000004473516268  0.5000000782542220
  0.7761701114017101  0.5000000125270161  0.4999997994491180
  0.2238305587344956  0.5000005383395352  0.4999998324044024
  0.2627637640654640  0.0000004063727296  0.0000001257404255
  0.7372364965871876  0.0000003209091747  0.0000003892548721
  0.4999973880160138  0.4999957084784427  0.4999980480951481
  0.5000001414311201  0.2490597993950319  0.0000000889913547
  0.5000002484070208  0.7509405794697271  0.0000001262809684
 -0.0000001364684220  0.5000003637983115  0.2490598296041804
 -0.0000000954530429  0.5000002880233985  0.7509406661421311
  0.2313977280567735  0.2313977822505230  0.2313978226385472
  0.2313977675999898  0.7686017698178458  0.7686020363535718
  0.2625973571041934  0.2625979433764510  0.7374039930616656
  0.2625979902828769  0.7374037393012481  0.2625983060846692
  0.7374037715282665  0.2625978719558637  0.2625972440901960
  0.7374011763327847  0.7374024706501232  0.7374017343284792
  0.7686019321949505  0.2313979322172120  0.7686020076376504
  0.7686017957659864  0.7686018437698913  0.2313983251376444
  0.9842089354218293  0.2497704800427458  0.2385702848931101
  0.9842080058307151  0.7502300936421764  0.7614301123986107
  0.2520635815609964  0.2458838697918023  0.5035119534488325
  0.2520657424434816  0.7541126538689652  0.4964879909114217
  0.7479359729821514  0.2458834066782877  0.4964899251635138
  0.7479357535471762  0.7541168338949048  0.5035090203965945
  0.7541161406935768  0.4964907898044322  0.2520639667850315
  0.7541165208992584  0.5035098786477908  0.7479361509570064
  0.2458835930121721  0.5035116310936025  0.2520634677676497
  0.2458831722413385  0.4964908315381344  0.7479357286699447
  0.4964911824900390  0.7479356872206462  0.2458833470023206
  0.4964901912761093  0.2520638783748997  0.7541162392436803
  0.2385702000019404  0.9842091295470409  0.2497702189515728
  0.2385700564528534  0.0157916211051029  0.7502299404342007
  0.2497701551504556  0.2385704873451081  0.9842089587912167
  0.2497703688501305  0.7614302735060231  0.0157917186196648
  0.7614299808805673  0.9842086906884251  0.7502303282291930
  0.7614300105028147  0.0157916274206418  0.2497705567329269
  0.7502300743163252  0.7614301593788588  0.9842085276771367
  0.7502301719774207  0.2385703604587653  0.0157912412082643
  0.0157911364181437  0.2497704287332043  0.7614301444446245
  0.0157914367171201  0.7502303571931804  0.2385703498855182
  0.5035118037465178  0.2520635253991586  0.2458837375677041
  0.5035117953491067  0.7479340692288099  0.7541128729673000
  0.0000000796893220  0.2627637863247306  0.0000001732067163
  0.0000002005108215  0.7372364444412813  0.0000001985572949
  0.5000000180711056  0.2238303702326037  0.5000003418871923
  0.4999996382774810  0.7761698142712256  0.4999996078029609
  0.4999999664604904  0.5000001642213656  0.2238303800336338
  0.4999998239602229  0.4999996349508553  0.7761695512247830
  0.0000000880311253  0.0000004422461936  0.2627639264380659
 -0.0000000605548511  0.0000003624255790  0.7372366603185976
  0.3909604116186646  0.3909605084398000  0.3909603746576439
  0.3909664988206247  0.6090347843979369  0.6090344620735355
  0.6090366175707395  0.3909651006750460  0.6090357904063631
  0.6090342029192508  0.6090340840733210  0.3909669948861395
 -0.0000006007655827  0.0000026127543042  0.0000000008602544
  0.7529494444075999  0.4999988266960280  0.0000003635918636
  0.2470504782024049  0.4999989841916926 -0.0000004957958353
 -0.0000003701886908  0.7529495395194867  0.5000003239776117
 -0.0000002571273803  0.2470506786685475  0.5000003010284927
  0.5000006869941549  0.0000013277062360  0.2470505680236708
  0.5000001398565749  0.0000010451497261  0.7529494527768466
  0.6181008018170230  0.6181009766680118  0.6181011330419518
  0.6181018434902628  0.3818977530598179  0.3818977803343332
  0.8965963539269929  0.8965959375172657  0.1034040916117974
  0.8965969926456546  0.1034027962838531  0.8965971695442327
  0.1034039819493495  0.8965958804778416  0.8965962980091028
  0.1034034784954729  0.1034030612292205  0.1034035379826683
  0.3818979092501182  0.6181016903028206  0.3818980876984999
  0.3818976910211545  0.3818976592224807  0.6181018750568400
  0.1018248202999670  0.3488612149717926  0.3908742599816570
  0.1018241177382770  0.6511391911690420  0.6091265212519589
  0.1059762764711309  0.1457053145695658  0.6030359816705680
  0.1059767622210753  0.8542946645156386  0.3969647776756001
  0.8940237463936876  0.1457055053545370  0.3969644713171960
  0.8940232430382985  0.8542943488654878  0.6030355264523991
  0.8542943457615977  0.3969652804889330  0.1059764557295053
  0.8542947939824683  0.6030361988170235  0.8940232785896886
  0.1457051201491232  0.6030366198560420  0.1059765120535059
  0.1457058088080372  0.3969652299429001  0.8940238908982135
  0.3969642859948441  0.8940229457570467  0.1457054645609021
  0.3969645211230617  0.1059762240287077  0.8542945889836937
  0.3908741619233492  0.1018244605918904  0.3488609186778770
  0.3908734487413695  0.8981756159201553  0.6511387343590560
  0.3488608064403464  0.3908747406528201  0.1018245959939303
  0.3488612541129663  0.6091267743533495  0.8981756877680952
  0.6091259358300646  0.1018239530987034  0.6511391728438282
  0.6091261841547606  0.8981756134095735  0.3488614158589526
  0.6511387387998341  0.6091267672173221  0.1018242623469286
  0.6511389912139817  0.3908744369011636  0.8981759026137175
  0.8981755977301361  0.3488613072945401  0.6091259887472085
  0.8981759954865641  0.6511389996909165  0.3908739067165964
  0.6030355400866075  0.1059757875164799  0.1457055328484304
  0.6030352840401479  0.8940228582847916  0.8542945383574273
 
  0.00000000E+00  0.00000000E+00  0.00000000E+00
  0.00000000E+00  0.00000000E+00  0.00000000E+00
  0.00000000E+00  0.00000000E+00  0.00000000E+00
  0.00000000E+00  0.00000000E+00  0.00000000E+00
  0.00000000E+00  0.00000000E+00  0.00000000E+00
  0.00000000E+00  0.00000000E+00  0.00000000E+00
  0.00000000E+00  0.00000000E+00  0.00000000E+00
  0.00000000E+00  0.00000000E+00  0.00000000E+00
  0.00000000E+00  0.00000000E+00  0.00000000E+00
  0.00000000E+00  0.00000000E+00  0.00000000E+00
  0.00000000E+00  0.00000000E+00  0.00000000E+00
  0.00000000E+00  0.00000000E+00  0.00000000E+00
  0.00000000E+00  0.00000000E+00  0.00000000E+00
  0.00000000E+00  0.00000000E+00  0.00000000E+00
  0.00000000E+00  0.00000000E+00  0.00000000E+00
  0.00000000E+00  0.00000000E+00  0.00000000E+00
  0.00000000E+00  0.00000000E+00  0.00000000E+00
  0.00000000E+00  0.00000000E+00  0.00000000E+00
  0.00000000E+00  0.00000000E+00  0.00000000E+00
  0.00000000E+00  0.00000000E+00  0.00000000E+00
  0.00000000E+00  0.00000000E+00  0.00000000E+00
  0.00000000E+00  0.00000000E+00  0.00000000E+00
  0.00000000E+00  0.00000000E+00  0.00000000E+00
  0.00000000E+00  0.00000000E+00  0.00000000E+00
  0.00000000E+00  0.00000000E+00  0.00000000E+00
  0.00000000E+00  0.00000000E+00  0.00000000E+00
  0.00000000E+00  0.00000000E+00  0.00000000E+00
  0.00000000E+00  0.00000000E+00  0.00000000E+00
  0.00000000E+00  0.00000000E+00  0.00000000E+00
  0.00000000E+00  0.00000000E+00  0.00000000E+00
  0.00000000E+00  0.00000000E+00  0.00000000E+00
  0.00000000E+00  0.00000000E+00  0.00000000E+00
  0.00000000E+00  0.00000000E+00  0.00000000E+00
  0.00000000E+00  0.00000000E+00  0.00000000E+00
  0.00000000E+00  0.00000000E+00  0.00000000E+00
  0.00000000E+00  0.00000000E+00  0.00000000E+00
  0.00000000E+00  0.00000000E+00  0.00000000E+00
  0.00000000E+00  0.00000000E+00  0.00000000E+00
  0.00000000E+00  0.00000000E+00  0.00000000E+00
  0.00000000E+00  0.00000000E+00  0.00000000E+00
  0.00000000E+00  0.00000000E+00  0.00000000E+00
  0.00000000E+00  0.00000000E+00  0.00000000E+00
  0.00000000E+00  0.00000000E+00  0.00000000E+00
  0.00000000E+00  0.00000000E+00  0.00000000E+00
  0.00000000E+00  0.00000000E+00  0.00000000E+00
  0.00000000E+00  0.00000000E+00  0.00000000E+00
  0.00000000E+00  0.00000000E+00  0.00000000E+00
  0.00000000E+00  0.00000000E+00  0.00000000E+00
  0.00000000E+00  0.00000000E+00  0.00000000E+00
  0.00000000E+00  0.00000000E+00  0.00000000E+00
  0.00000000E+00  0.00000000E+00  0.00000000E+00
  0.00000000E+00  0.00000000E+00  0.00000000E+00
  0.00000000E+00  0.00000000E+00  0.00000000E+00
  0.00000000E+00  0.00000000E+00  0.00000000E+00
  0.00000000E+00  0.00000000E+00  0.00000000E+00
  0.00000000E+00  0.00000000E+00  0.00000000E+00
  0.00000000E+00  0.00000000E+00  0.00000000E+00
  0.00000000E+00  0.00000000E+00  0.00000000E+00
  0.00000000E+00  0.00000000E+00  0.00000000E+00
  0.00000000E+00  0.00000000E+00  0.00000000E+00
  0.00000000E+00  0.00000000E+00  0.00000000E+00
  0.00000000E+00  0.00000000E+00  0.00000000E+00
  0.00000000E+00  0.00000000E+00  0.00000000E+00
  0.00000000E+00  0.00000000E+00  0.00000000E+00
  0.00000000E+00  0.00000000E+00  0.00000000E+00
  0.00000000E+00  0.00000000E+00  0.00000000E+00
  0.00000000E+00  0.00000000E+00  0.00000000E+00
  0.00000000E+00  0.00000000E+00  0.00000000E+00
  0.00000000E+00  0.00000000E+00  0.00000000E+00
  0.00000000E+00  0.00000000E+00  0.00000000E+00
  0.00000000E+00  0.00000000E+00  0.00000000E+00
  0.00000000E+00  0.00000000E+00  0.00000000E+00
  0.00000000E+00  0.00000000E+00  0.00000000E+00
  0.00000000E+00  0.00000000E+00  0.00000000E+00
  0.00000000E+00  0.00000000E+00  0.00000000E+00
  0.00000000E+00  0.00000000E+00  0.00000000E+00
  0.00000000E+00  0.00000000E+00  0.00000000E+00
  0.00000000E+00  0.00000000E+00  0.00000000E+00
  0.00000000E+00  0.00000000E+00  0.00000000E+00
  0.00000000E+00  0.00000000E+00  0.00000000E+00
  0.00000000E+00  0.00000000E+00  0.00000000E+00
  0.00000000E+00  0.00000000E+00  0.00000000E+00
  0.00000000E+00  0.00000000E+00  0.00000000E+00
  0.00000000E+00  0.00000000E+00  0.00000000E+00
  0.00000000E+00  0.00000000E+00  0.00000000E+00
  0.00000000E+00  0.00000000E+00  0.00000000E+00
  0.00000000E+00  0.00000000E+00  0.00000000E+00
  0.00000000E+00  0.00000000E+00  0.00000000E+00
  0.00000000E+00  0.00000000E+00  0.00000000E+00
  0.00000000E+00  0.00000000E+00  0.00000000E+00
  0.00000000E+00  0.00000000E+00  0.00000000E+00
  0.00000000E+00  0.00000000E+00  0.00000000E+00
  0.00000000E+00  0.00000000E+00  0.00000000E+00
  0.00000000E+00  0.00000000E+00  0.00000000E+00
  0.00000000E+00  0.00000000E+00  0.00000000E+00
  0.00000000E+00  0.00000000E+00  0.00000000E+00
  0.00000000E+00  0.00000000E+00  0.00000000E+00
  0.00000000E+00  0.00000000E+00  0.00000000E+00
  0.00000000E+00  0.00000000E+00  0.00000000E+00
  0.00000000E+00  0.00000000E+00  0.00000000E+00
