Li42 P14 O56
1.0
5.296402 0.000000 -4.922448
0.000000 6.176136 -4.922448
0.000000 0.000000 68.914272
Li P O
42 14 56
direct
0.844520 0.000000 0.043475 Li+
0.155480 0.500000 0.065686 Li+
0.326434 0.747127 0.059760 Li+
0.673566 0.752873 0.049251 Li+
0.673566 0.247127 0.013126 Li+
0.326434 0.252873 0.024456 Li+
0.844520 0.000000 0.114903 Li+
0.155480 0.500000 0.137115 Li+
0.326434 0.747127 0.131188 Li+
0.673566 0.752873 0.120680 Li+
0.673566 0.247127 0.084555 Li+
0.326434 0.252873 0.095884 Li+
0.844520 0.000000 0.186332 Li+
0.155480 0.500000 0.208543 Li+
0.326434 0.747127 0.202617 Li+
0.673566 0.752873 0.192108 Li+
0.673566 0.247127 0.155983 Li+
0.326434 0.252873 0.167313 Li+
0.844520 0.000000 0.257761 Li+
0.155480 0.500000 0.279972 Li+
0.326434 0.747127 0.274045 Li+
0.673566 0.752873 0.263537 Li+
0.673566 0.247127 0.227412 Li+
0.326434 0.252873 0.238741 Li+
0.844520 0.000000 0.329189 Li+
0.155480 0.500000 0.351401 Li+
0.326434 0.747127 0.345474 Li+
0.673566 0.752873 0.334965 Li+
0.673566 0.247127 0.298841 Li+
0.326434 0.252873 0.310170 Li+
0.844520 0.000000 0.400618 Li+
0.155480 0.500000 0.422829 Li+
0.326434 0.747127 0.416903 Li+
0.673566 0.752873 0.406394 Li+
0.673566 0.247127 0.370269 Li+
0.326434 0.252873 0.381599 Li+
0.844520 0.000000 0.472046 Li+
0.155480 0.500000 0.494258 Li+
0.326434 0.747127 0.488331 Li+
0.673566 0.752873 0.477822 Li+
0.673566 0.247127 0.441698 Li+
0.326434 0.252873 0.453027 Li+
0.824261 0.500000 0.005742 P5+
0.175739 0.000000 0.030848 P5+
0.824261 0.500000 0.077171 P5+
0.175739 0.000000 0.102276 P5+
0.824261 0.500000 0.148599 P5+
0.175739 0.000000 0.173705 P5+
0.824261 0.500000 0.220028 P5+
0.175739 0.000000 0.245134 P5+
0.824261 0.500000 0.291457 P5+
0.175739 0.000000 0.316562 P5+
0.824261 0.500000 0.362885 P5+
0.175739 0.000000 0.387991 P5+
0.824261 0.500000 0.434314 P5+
0.175739 0.000000 0.459419 P5+
0.313509 0.207138 0.063026 O2-
0.103508 0.500000 0.032882 O2-
0.818396 0.500000 0.054164 O2-
0.181604 0.000000 0.008679 O2-
0.686491 0.707138 0.018239 O2-
0.313509 0.792862 0.033435 O2-
0.896492 0.000000 0.018095 O2-
0.686491 0.292862 0.060077 O2-
0.313509 0.207138 0.134455 O2-
0.103508 0.500000 0.104310 O2-
0.818396 0.500000 0.125593 O2-
0.181604 0.000000 0.080108 O2-
0.686491 0.707138 0.089668 O2-
0.313509 0.792862 0.104864 O2-
0.896492 0.000000 0.089524 O2-
0.686491 0.292862 0.131505 O2-
0.313509 0.207138 0.205883 O2-
0.103508 0.500000 0.175739 O2-
0.818396 0.500000 0.197021 O2-
0.181604 0.000000 0.151536 O2-
0.686491 0.707138 0.161096 O2-
0.313509 0.792862 0.176292 O2-
0.896492 0.000000 0.160952 O2-
0.686491 0.292862 0.202934 O2-
0.313509 0.207138 0.277312 O2-
0.103508 0.500000 0.247167 O2-
0.818396 0.500000 0.268450 O2-
0.181604 0.000000 0.222965 O2-
0.686491 0.707138 0.232525 O2-
0.313509 0.792862 0.247721 O2-
0.896492 0.000000 0.232381 O2-
0.686491 0.292862 0.274362 O2-
0.313509 0.207138 0.348741 O2-
0.103508 0.500000 0.318596 O2-
0.818396 0.500000 0.339878 O2-
0.181604 0.000000 0.294393 O2-
0.686491 0.707138 0.303954 O2-
0.313509 0.792862 0.319149 O2-
0.896492 0.000000 0.303809 O2-
0.686491 0.292862 0.345791 O2-
0.313509 0.207138 0.420169 O2-
0.103508 0.500000 0.390025 O2-
0.818396 0.500000 0.411307 O2-
0.181604 0.000000 0.365822 O2-
0.686491 0.707138 0.375382 O2-
0.313509 0.792862 0.390578 O2-
0.896492 0.000000 0.375238 O2-
0.686491 0.292862 0.417220 O2-
0.313509 0.207138 0.491598 O2-
0.103508 0.500000 0.461453 O2-
0.818396 0.500000 0.482736 O2-
0.181604 0.000000 0.437250 O2-
0.686491 0.707138 0.446811 O2-
0.313509 0.792862 0.462007 O2-
0.896492 0.000000 0.446666 O2-
0.686491 0.292862 0.488648 O2-
