Li84 P196
1.0
9.847875 0.000000 -7.628682
-0.000000 10.597250 -7.628682
0.000000 0.000000 76.286820
Li P
84 196
Selective dynamics
direct
0.307848 0.816050 0.022410 T T T Li
0.192152 0.183950 0.097630 F F F Li
0.807848 0.683950 0.089094 F F F Li
0.692152 0.316050 0.090734 F F F Li
0.025950 0.014795 0.085936 F F F Li
0.474050 0.985205 0.077787 F F F Li
0.525950 0.485205 0.069188 F F F Li
0.974050 0.514795 0.066957 F F F Li
0.301371 0.692124 0.064540 F F F Li
0.198629 0.307876 0.065841 T T T Li
0.801371 0.807876 0.045668 T T T Li
0.698629 0.192124 0.023818 T T T Li
0.307848 0.816050 0.122410 F F F Li
0.192152 0.183950 0.197630 F F F Li
0.807848 0.683950 0.189094 F F F Li
0.692152 0.316050 0.190734 F F F Li
0.025950 0.014795 0.185936 F F F Li
0.474050 0.985205 0.177787 F F F Li
0.525950 0.485205 0.169188 F F F Li
0.974050 0.514795 0.166957 F F F Li
0.301371 0.692124 0.164540 F F F Li
0.198629 0.307876 0.165841 F F F Li
0.801371 0.807876 0.145668 F F F Li
0.698629 0.192124 0.123818 F F F Li
0.307848 0.816050 0.222410 F F F Li
0.192152 0.183950 0.297630 F F F Li
0.807848 0.683950 0.289094 F F F Li
0.692152 0.316050 0.290734 F F F Li
0.025950 0.014795 0.285936 F F F Li
0.474050 0.985205 0.277787 F F F Li
0.525950 0.485205 0.269188 F F F Li
0.974050 0.514795 0.266957 F F F Li
0.301371 0.692124 0.264540 F F F Li
0.198629 0.307876 0.265841 F F F Li
0.801371 0.807876 0.245668 F F F Li
0.698629 0.192124 0.223818 F F F Li
0.307848 0.816050 0.322410 F F F Li
0.192152 0.183950 0.397630 F F F Li
0.807848 0.683950 0.389094 F F F Li
0.692152 0.316050 0.390734 F F F Li
0.025950 0.014795 0.385936 F F F Li
0.474050 0.985205 0.377787 F F F Li
0.525950 0.485205 0.369188 F F F Li
0.974050 0.514795 0.366957 F F F Li
0.301371 0.692124 0.364540 F F F Li
0.198629 0.307876 0.365841 F F F Li
0.801371 0.807876 0.345668 F F F Li
0.698629 0.192124 0.323818 F F F Li
0.307848 0.816050 0.422410 F F F Li
0.192152 0.183950 0.497630 F F F Li
0.807848 0.683950 0.489094 F F F Li
0.692152 0.316050 0.490734 F F F Li
0.025950 0.014795 0.485936 F F F Li
0.474050 0.985205 0.477787 F F F Li
0.525950 0.485205 0.469188 F F F Li
0.974050 0.514795 0.466957 F F F Li
0.301371 0.692124 0.464540 F F F Li
0.198629 0.307876 0.465841 F F F Li
0.801371 0.807876 0.445668 F F F Li
0.698629 0.192124 0.423818 F F F Li
0.307848 0.816050 0.522410 F F F Li
0.192152 0.183950 0.597630 F F F Li
0.807848 0.683950 0.589094 F F F Li
0.692152 0.316050 0.590734 F F F Li
0.025950 0.014795 0.585936 F F F Li
0.474050 0.985205 0.577787 F F F Li
0.525950 0.485205 0.569188 F F F Li
0.974050 0.514795 0.566957 F F F Li
0.301371 0.692124 0.564540 F F F Li
0.198629 0.307876 0.565841 F F F Li
0.801371 0.807876 0.545668 F F F Li
0.698629 0.192124 0.523818 F F F Li
0.307848 0.816050 0.622410 F F F Li
0.192152 0.183950 0.697630 T T T Li
0.807848 0.683950 0.689094 T T T Li
0.692152 0.316050 0.690734 T T T Li
0.025950 0.014795 0.685936 T T T Li
0.474050 0.985205 0.677787 T T T Li
0.525950 0.485205 0.669188 T T T Li
0.974050 0.514795 0.666957 T T T Li
0.301371 0.692124 0.664540 T T T Li
0.198629 0.307876 0.665841 T T T Li
0.801371 0.807876 0.645668 F F F Li
0.698629 0.192124 0.623818 F F F Li
0.875491 0.318848 0.072478 F F F P
0.624509 0.681152 0.033610 T T T P
0.375491 0.181152 0.052554 F F F P
0.124509 0.818848 0.041226 F F F P
0.048522 0.387402 0.032324 F F F P
0.451478 0.612598 0.045139 F F F P
0.548522 0.112598 0.027314 T T T P
0.951478 0.887402 0.095090 F F F P
0.943528 0.565132 0.029213 F F F P
0.556472 0.434868 0.027481 T T T P
0.443528 0.934868 0.009427 T T T P
0.056472 0.065132 0.033748 T T T P
0.134841 0.494288 0.028485 F F F P
0.365159 0.505712 0.002659 F F F P
0.634841 0.005712 0.048417 F F F P
0.865159 0.994288 0.020306 T T T P
0.927027 0.881290 0.037425 T T T P
0.572973 0.118710 0.075762 F F F P
0.427027 0.618710 0.097914 F F F P
0.072973 0.381290 0.088767 F F F P
0.218031 0.994617 0.059104 F F F P
0.281969 0.005383 0.016575 T T T P
0.718031 0.505383 0.034436 T T T P
0.781969 0.494617 0.089753 F F F P
0.070503 0.734192 0.002086 F F F P
0.429497 0.265808 0.041147 T T T P
0.570503 0.765808 0.061949 F F F P
0.929497 0.234192 0.094687 F F F P
0.875491 0.318848 0.172478 F F F P
0.624509 0.681152 0.133610 F F F P
0.375491 0.181152 0.152554 F F F P
0.124509 0.818848 0.141226 F F F P
0.048522 0.387402 0.132324 F F F P
0.451478 0.612598 0.145139 F F F P
0.548522 0.112598 0.127314 F F F P
0.951478 0.887402 0.195090 F F F P
0.943528 0.565132 0.129213 F F F P
0.556472 0.434868 0.127481 F F F P
0.443528 0.934868 0.109427 F F F P
0.056472 0.065132 0.133748 F F F P
0.134841 0.494288 0.128485 F F F P
0.365159 0.505712 0.102659 F F F P
0.634841 0.005712 0.148417 F F F P
0.865159 0.994288 0.120306 F F F P
0.927027 0.881290 0.137425 F F F P
0.572973 0.118710 0.175762 F F F P
0.427027 0.618710 0.197914 F F F P
0.072973 0.381290 0.188767 F F F P
0.218031 0.994617 0.159104 F F F P
0.281969 0.005383 0.116575 F F F P
0.718031 0.505383 0.134436 F F F P
0.781969 0.494617 0.189753 F F F P
0.070503 0.734192 0.102086 F F F P
0.429497 0.265808 0.141147 F F F P
0.570503 0.765808 0.161949 F F F P
0.929497 0.234192 0.194687 F F F P
0.875491 0.318848 0.272478 F F F P
0.624509 0.681152 0.233610 F F F P
0.375491 0.181152 0.252555 F F F P
0.124509 0.818848 0.241226 F F F P
0.048522 0.387402 0.232324 F F F P
0.451478 0.612598 0.245139 F F F P
0.548522 0.112598 0.227314 F F F P
0.951478 0.887402 0.295090 F F F P
0.943528 0.565132 0.229213 F F F P
0.556472 0.434868 0.227481 F F F P
0.443528 0.934868 0.209427 F F F P
0.056472 0.065132 0.233748 F F F P
0.134841 0.494288 0.228485 F F F P
0.365159 0.505712 0.202659 F F F P
0.634841 0.005712 0.248417 F F F P
0.865159 0.994288 0.220306 F F F P
0.927027 0.881290 0.237425 F F F P
0.572973 0.118710 0.275762 F F F P
0.427027 0.618710 0.297914 F F F P
0.072973 0.381290 0.288767 F F F P
0.218031 0.994617 0.259104 F F F P
0.281969 0.005383 0.216575 F F F P
0.718031 0.505383 0.234436 F F F P
0.781969 0.494617 0.289753 F F F P
0.070503 0.734192 0.202086 F F F P
0.429497 0.265808 0.241147 F F F P
0.570503 0.765808 0.261949 F F F P
0.929497 0.234192 0.294687 F F F P
0.875491 0.318848 0.372478 F F F P
0.624509 0.681152 0.333610 F F F P
0.375491 0.181152 0.352554 F F F P
0.124509 0.818848 0.341226 F F F P
0.048522 0.387402 0.332324 F F F P
0.451478 0.612598 0.345139 F F F P
0.548522 0.112598 0.327314 F F F P
0.951478 0.887402 0.395090 F F F P
0.943528 0.565132 0.329213 F F F P
0.556472 0.434868 0.327481 F F F P
0.443528 0.934868 0.309427 F F F P
0.056472 0.065132 0.333748 F F F P
0.134841 0.494288 0.328485 F F F P
0.365159 0.505712 0.302659 F F F P
0.634841 0.005712 0.348417 F F F P
0.865159 0.994288 0.320306 F F F P
0.927027 0.881290 0.337425 F F F P
0.572973 0.118710 0.375762 F F F P
0.427027 0.618710 0.397914 F F F P
0.072973 0.381290 0.388767 F F F P
0.218031 0.994617 0.359104 F F F P
0.281969 0.005383 0.316575 F F F P
0.718031 0.505383 0.334436 F F F P
0.781969 0.494617 0.389753 F F F P
0.070503 0.734192 0.302086 F F F P
0.429497 0.265808 0.341147 F F F P
0.570503 0.765808 0.361949 F F F P
0.929497 0.234192 0.394687 F F F P
0.875491 0.318848 0.472478 F F F P
0.624509 0.681152 0.433610 F F F P
0.375491 0.181152 0.452555 F F F P
0.124509 0.818848 0.441226 F F F P
0.048522 0.387402 0.432324 F F F P
0.451478 0.612598 0.445139 F F F P
0.548522 0.112598 0.427314 F F F P
0.951478 0.887402 0.495090 F F F P
0.943528 0.565132 0.429213 F F F P
0.556472 0.434868 0.427481 F F F P
0.443528 0.934868 0.409427 F F F P
0.056472 0.065132 0.433748 F F F P
0.134841 0.494288 0.428485 F F F P
0.365159 0.505712 0.402659 F F F P
0.634841 0.005712 0.448417 F F F P
0.865159 0.994288 0.420306 F F F P
0.927027 0.881290 0.437425 F F F P
0.572973 0.118710 0.475762 F F F P
0.427027 0.618710 0.497914 F F F P
0.072973 0.381290 0.488767 F F F P
0.218031 0.994617 0.459104 F F F P
0.281969 0.005383 0.416575 F F F P
0.718031 0.505383 0.434436 F F F P
0.781969 0.494617 0.489753 F F F P
0.070503 0.734192 0.402086 F F F P
0.429497 0.265808 0.441147 F F F P
0.570503 0.765808 0.461949 F F F P
0.929497 0.234192 0.494687 F F F P
0.875491 0.318848 0.572478 F F F P
0.624509 0.681152 0.533610 F F F P
0.375491 0.181152 0.552554 F F F P
0.124509 0.818848 0.541226 F F F P
0.048522 0.387402 0.532324 F F F P
0.451478 0.612598 0.545139 F F F P
0.548522 0.112598 0.527314 F F F P
0.951478 0.887402 0.595090 F F F P
0.943528 0.565132 0.529213 F F F P
0.556472 0.434868 0.527481 F F F P
0.443528 0.934868 0.509427 F F F P
0.056472 0.065132 0.533748 F F F P
0.134841 0.494288 0.528485 F F F P
0.365159 0.505712 0.502659 F F F P
0.634841 0.005712 0.548417 F F F P
0.865159 0.994288 0.520306 F F F P
0.927027 0.881290 0.537425 F F F P
0.572973 0.118710 0.575762 F F F P
0.427027 0.618710 0.597914 F F F P
0.072973 0.381290 0.588767 F F F P
0.218031 0.994617 0.559104 F F F P
0.281969 0.005383 0.516575 F F F P
0.718031 0.505383 0.534436 F F F P
0.781969 0.494617 0.589753 F F F P
0.070503 0.734192 0.502086 F F F P
0.429497 0.265808 0.541147 F F F P
0.570503 0.765808 0.561949 F F F P
0.929497 0.234192 0.594687 F F F P
0.875491 0.318848 0.672478 F F F P
0.624509 0.681152 0.633610 F F F P
0.375491 0.181152 0.652554 F F F P
0.124509 0.818848 0.641226 F F F P
0.048522 0.387402 0.632324 F F F P
0.451478 0.612598 0.645139 F F F P
0.548522 0.112598 0.627314 F F F P
0.951478 0.887402 0.695090 T T T P
0.943528 0.565132 0.629213 F F F P
0.556472 0.434868 0.627481 F F F P
0.443528 0.934868 0.609427 F F F P
0.056472 0.065132 0.633748 F F F P
0.134841 0.494288 0.628485 F F F P
0.365159 0.505712 0.602659 F F F P
0.634841 0.005712 0.648417 T T T P
0.865159 0.994288 0.620306 F F F P
0.927027 0.881290 0.637425 F F F P
0.572973 0.118710 0.675762 T T T P
0.427027 0.618710 0.697914 F F F P
0.072973 0.381290 0.688767 F F F P
0.218031 0.994617 0.659104 F F F P
0.281969 0.005383 0.616575 F F F P
0.718031 0.505383 0.634436 F F F P
0.781969 0.494617 0.689753 T T T P
0.070503 0.734192 0.602086 F F F P
0.429497 0.265808 0.641147 F F F P
0.570503 0.765808 0.661949 F F F P
0.929497 0.234192 0.694687 F F F P
