Li7 P2 N1 O7                            
   1.00000000000000     
     4.9740927477226577   -0.0029350154588176   -0.0070590592701965
    -0.0030415687790180    5.3609861708033009    0.0131841382122041
    -0.0088040995885520    0.0156646122902787    6.2830572135943790
   Li   P    N    O 
     7     2     1     7
Direct
  0.0245918083067089  0.6400291742763290  0.2405625840413466
  0.0073013384488641  0.6748938754963824  0.7575350006514840
  0.5112585622850820  0.3241892673780709  0.7552110909894030
  0.5016369399981694  0.8481989274097493 -0.0073511643087628
  0.0260258896161273  0.1737485661170966  0.5232564544329750
  0.5004642805432830  0.3312632861465116  0.2448107788846398
  0.8285739765744953  0.9947118769563232  0.2594843474995712
  0.4972964375569534  0.8230897578027440  0.5025921733963628
 -0.0059449661776693  0.1823611145061858 -0.0107802045754700
  0.6821551855334964  0.1802849726221054  0.0028663924561471
  0.1203019611784057  0.3189909980081733  0.7866411957169437
  0.6086601481197716  0.0994236430751080  0.4960207850109196
  0.1818338070577583  0.8230697748231617  0.4952269036064855
  0.6130448771817085  0.6936505065870157  0.2976189391893710
  0.1131990089880406  0.3053967986399102  0.2057199238308373
  0.1070658227563634  0.9002074488410897  0.0029861983286438
  0.6016349220324699  0.6846600113140455  0.7039786008491025
 
  0.00000000E+00  0.00000000E+00  0.00000000E+00
  0.00000000E+00  0.00000000E+00  0.00000000E+00
  0.00000000E+00  0.00000000E+00  0.00000000E+00
  0.00000000E+00  0.00000000E+00  0.00000000E+00
  0.00000000E+00  0.00000000E+00  0.00000000E+00
  0.00000000E+00  0.00000000E+00  0.00000000E+00
  0.00000000E+00  0.00000000E+00  0.00000000E+00
  0.00000000E+00  0.00000000E+00  0.00000000E+00
  0.00000000E+00  0.00000000E+00  0.00000000E+00
  0.00000000E+00  0.00000000E+00  0.00000000E+00
  0.00000000E+00  0.00000000E+00  0.00000000E+00
  0.00000000E+00  0.00000000E+00  0.00000000E+00
  0.00000000E+00  0.00000000E+00  0.00000000E+00
  0.00000000E+00  0.00000000E+00  0.00000000E+00
  0.00000000E+00  0.00000000E+00  0.00000000E+00
  0.00000000E+00  0.00000000E+00  0.00000000E+00
  0.00000000E+00  0.00000000E+00  0.00000000E+00
