Li42 P14 O56
1.0
5.296402 0.000000 -4.922448
0.000000 6.176136 -4.922448
0.000000 0.000000 68.914272
Li P O
42 14 56
direct
0.844520 0.000000 0.014529 Li+
0.155480 0.500000 0.036741 Li+
0.326434 0.747127 0.030814 Li+
0.673566 0.752873 0.020305 Li+
0.673566 0.247127 0.055609 Li+
0.326434 0.252873 0.066939 Li+
0.844520 0.000000 0.085958 Li+
0.155480 0.500000 0.108169 Li+
0.326434 0.747127 0.102243 Li+
0.673566 0.752873 0.091734 Li+
0.673566 0.247127 0.127038 Li+
0.326434 0.252873 0.138367 Li+
0.844520 0.000000 0.157387 Li+
0.155480 0.500000 0.179598 Li+
0.326434 0.747127 0.173671 Li+
0.673566 0.752873 0.163163 Li+
0.673566 0.247127 0.198466 Li+
0.326434 0.252873 0.209796 Li+
0.844520 0.000000 0.228815 Li+
0.155480 0.500000 0.251027 Li+
0.326434 0.747127 0.245100 Li+
0.673566 0.752873 0.234591 Li+
0.673566 0.247127 0.269895 Li+
0.326434 0.252873 0.281225 Li+
0.844520 0.000000 0.300244 Li+
0.155480 0.500000 0.322455 Li+
0.326434 0.747127 0.316528 Li+
0.673566 0.752873 0.306020 Li+
0.673566 0.247127 0.341324 Li+
0.326434 0.252873 0.352653 Li+
0.844520 0.000000 0.371672 Li+
0.155480 0.500000 0.393884 Li+
0.326434 0.747127 0.387957 Li+
0.673566 0.752873 0.377448 Li+
0.673566 0.247127 0.412752 Li+
0.326434 0.252873 0.424082 Li+
0.844520 0.000000 0.443101 Li+
0.155480 0.500000 0.465312 Li+
0.326434 0.747127 0.459386 Li+
0.673566 0.752873 0.448877 Li+
0.673566 0.247127 0.484181 Li+
0.326434 0.252873 0.495510 Li+
0.824261 0.500000 0.048225 P5+
0.175739 0.000000 0.001902 P5+
0.824261 0.500000 0.119654 P5+
0.175739 0.000000 0.073331 P5+
0.824261 0.500000 0.191083 P5+
0.175739 0.000000 0.144760 P5+
0.824261 0.500000 0.262511 P5+
0.175739 0.000000 0.216188 P5+
0.824261 0.500000 0.333940 P5+
0.175739 0.000000 0.287617 P5+
0.824261 0.500000 0.405368 P5+
0.175739 0.000000 0.359045 P5+
0.824261 0.500000 0.476797 P5+
0.175739 0.000000 0.430474 P5+
0.313509 0.207138 0.034081 O2-
0.103508 0.500000 0.003936 O2-
0.818396 0.500000 0.025219 O2-
0.181604 0.000000 0.051162 O2-
0.686491 0.707138 0.060722 O2-
0.313509 0.792862 0.004490 O2-
0.896492 0.000000 0.060578 O2-
0.686491 0.292862 0.031131 O2-
0.313509 0.207138 0.105509 O2-
0.103508 0.500000 0.075365 O2-
0.818396 0.500000 0.096647 O2-
0.181604 0.000000 0.122591 O2-
0.686491 0.707138 0.132151 O2-
0.313509 0.792862 0.075918 O2-
0.896492 0.000000 0.132007 O2-
0.686491 0.292862 0.102560 O2-
0.313509 0.207138 0.176938 O2-
0.103508 0.500000 0.146793 O2-
0.818396 0.500000 0.168076 O2-
0.181604 0.000000 0.194019 O2-
0.686491 0.707138 0.203580 O2-
0.313509 0.792862 0.147347 O2-
0.896492 0.000000 0.203435 O2-
0.686491 0.292862 0.173988 O2-
0.313509 0.207138 0.248367 O2-
0.103508 0.500000 0.218222 O2-
0.818396 0.500000 0.239504 O2-
0.181604 0.000000 0.265448 O2-
0.686491 0.707138 0.275008 O2-
0.313509 0.792862 0.218775 O2-
0.896492 0.000000 0.274864 O2-
0.686491 0.292862 0.245417 O2-
0.313509 0.207138 0.319795 O2-
0.103508 0.500000 0.289651 O2-
0.818396 0.500000 0.310933 O2-
0.181604 0.000000 0.336876 O2-
0.686491 0.707138 0.346437 O2-
0.313509 0.792862 0.290204 O2-
0.896492 0.000000 0.346292 O2-
0.686491 0.292862 0.316846 O2-
0.313509 0.207138 0.391224 O2-
0.103508 0.500000 0.361079 O2-
0.818396 0.500000 0.382362 O2-
0.181604 0.000000 0.408305 O2-
0.686491 0.707138 0.417865 O2-
0.313509 0.792862 0.361633 O2-
0.896492 0.000000 0.417721 O2-
0.686491 0.292862 0.388274 O2-
0.313509 0.207138 0.462652 O2-
0.103508 0.500000 0.432508 O2-
0.818396 0.500000 0.453790 O2-
0.181604 0.000000 0.479734 O2-
0.686491 0.707138 0.489294 O2-
0.313509 0.792862 0.433061 O2-
0.896492 0.000000 0.489149 O2-
0.686491 0.292862 0.459703 O2-
