Li73 P24 N1 O95                         
   1.00000000000000     
    14.8214286236013155   -0.0040119389569152   -0.0012197611535297
    -0.0031041759800690   10.5601966636010971    0.0001667455350998
    -0.0011759957368136    0.0001754771561853   12.3209068967319553
   Li   P    N    O 
    73    24     1    95
Direct
 -0.1850528425834461  0.4488865673648242 -0.0011785249835520
  0.1675979112911590  0.4256688248811903  0.4991495062893408
  0.1700262130857294  0.9173692310100848  0.0069138668238155
  0.1689976926651769  0.9237328667158340  0.4924885450016007
  0.4823873186863150  0.4571448274474258  0.0025868071177233
  0.5023027776483115  0.4224378961848704  0.5000500074807571
  0.5005442612297646  0.9220541368807333  0.0005362905586487
  0.5019994558235276  0.9229586139665917  0.4995087775450096
  0.9281865088084570  0.3091957356022900  0.0111355342208082
  0.8373545988404998  0.4212041546336128  0.4997586687041073
  0.8406278952441040  0.9276663503225963  0.0013498113759332
  0.8376509479313061  0.9247077559192554  0.4990197305064130
  0.0454679569591750  0.0803416856062569  0.2510088928522524
  0.0033424126303777  0.0777120341103129  0.7478330773728084
  0.0028512338710101  0.5763268659617302  0.2496388699789815
  0.0013181980891546  0.5752141366475210  0.7491369048303894
  0.3251810893729197  0.0764516892856513  0.2538779166123982
  0.3337689519965726  0.0764837920711650  0.7471734638059558
  0.3358736479262126  0.5816047014050025  0.2494829290130521
  0.3365870506483378  0.5792049890295606  0.7509057548825478
  0.6700089176580628  0.0749012294935644  0.2540060930964429
  0.6683364333511257  0.0762024228727357  0.7471341316952597
  0.6670763790947646  0.5817004458218065  0.2528811448198846
  0.6667730529623129  0.5803511847179914  0.7482325722895860
  0.1807876147778580  0.1600366468621072  0.1274521060055408
  0.1686330873839477  0.1634955881103760  0.6245492438656862
  0.1665374732606090  0.6619315812152264  0.1279938625941810
  0.1690013150633028  0.6629826082946487  0.6242812529862758
  0.4933022304206388  0.1569544196868660  0.1351088632850077
  0.5021897254658715  0.1628615276874633  0.6255765077157154
  0.4982304540200973  0.6720424806596271  0.1292087695227498
  0.5018899213770004  0.6623998183594817  0.6258991444927076
  0.8344570296496865  0.1614510635853277  0.1321409735278218
  0.8364542540626075  0.1638034913250241  0.6268690728406663
  0.8348417862995955  0.6688570755142997  0.1268323345287301
  0.8357521131589777  0.6630377188759398  0.6269222953803788
  0.0735033991627950  0.3471335161969421  0.1107701545709297
  0.0017498055538539  0.3352723425384088  0.6248186855489791
  0.0018200460799219  0.8345895958128863  0.1266055431447309
  0.0030555559724339  0.8364404155235552  0.6221053259770944
  0.3276519130029925  0.3407140907536477  0.1208540754667804
  0.3367666708834907  0.3368101113367992  0.6225997851344017
  0.3308187013908457  0.8385086096571233  0.1265105888846283
  0.3340749538237235  0.8365006263812017  0.6223401108508481
  0.6805605550889698  0.3402990344713173  0.1347771771348640
  0.6688229450719286  0.3375830230953508  0.6228816669967270
  0.6676831825244812  0.8360791820952850  0.1250427476458741
  0.6696982920387443  0.8376306096103140  0.6232374951006728
  0.0027768459381998  0.3361529867226805  0.3730679818451468
  0.0624698561925261  0.3405957242768630  0.8817627184383288
  0.0020347461537139  0.8365479303291112  0.3747981215527902
  0.0032767828079421  0.8353428015249875  0.8756517601646506
  0.3367859477298822  0.3373075063455631  0.3774195124879425
  0.3262496566021665  0.3394114326331126  0.8791193755624382
  0.3318879114722660  0.8378014628574130  0.3751819927252392
  0.3325171332373089  0.8371747441931050  0.8756080530942818
  0.6688814952087998  0.3376017700675364  0.3780400626202897
  0.6784333845065307  0.3397928277177722  0.8651847844545082
  0.6691743687150059  0.8369643459517137  0.3777625583402516
  0.6680517625755128  0.8369201558601799  0.8753377618496119
  0.1730714668193352  0.1652134365095028  0.3767505141010390
  0.1744560628595459  0.1556861019890935  0.8693332785275752
  0.1683920432553919  0.6651325721247087  0.3740913913224231
  0.1659859528103602  0.6585653493181428  0.8734409475924336
  0.5014899683219427  0.1629054562354354  0.3748099480680099
  0.4945838479071157  0.1575299137923937  0.8653204856680612
  0.5020364666446182  0.6634080445447942  0.3748175255383341
  0.4978615877666760  0.6707049520164167  0.8716847262966901
  0.8391048113419463  0.1628035251981695  0.3719268205381482
  0.8341965967599969  0.1642080184062025  0.8697839436419109
  0.8363865392250585  0.6639558359347543  0.3735235374565761
  0.8344858815979302  0.6686037454630632  0.8727305559614326
  0.5751459901936662  0.2923407528274595  0.0008826452320678
  0.1708824445829200  0.4149543576252416  0.2586470928804706
  0.1693311324062684  0.4124984632923819  0.7405895909472641
  0.1665031423658437  0.9132241747284533  0.2512115333727906
  0.1656525494073932  0.9100601779387952  0.7480546766797342
  0.4996795155933540  0.4127593645951199  0.2461034189761358
  0.4993289794426250  0.4117937068209436  0.7548101720099123
  0.5001909227867540  0.9133890880350795  0.2513538005550169
  0.5000602784697806  0.9121269959513717  0.7489961137678053
  0.8313172298189107  0.4156434258673736  0.2466207410749089
  0.8316629825981900  0.4146834938329714  0.7544698237476997
  0.8308756368537203  0.9132031788252333  0.2499285493349641
  0.8330115887389874  0.9134874781384440  0.7507343200292756
  0.0039203853296378  0.0923382942914293 -0.0027387702108858
 -0.0001547457049024  0.0894103624772550  0.5008237611116518
 -0.0062862316618993  0.5851912342089421 -0.0011022046201823
 -0.0021077683413641  0.5862484213854848  0.5001856804624608
  0.3330363914423984  0.0871180985226723 -0.0023318771290738
  0.3347959740224833  0.0882519367345611  0.5016183460610009
  0.3280400223842432  0.5957342127777044 -0.0001523716755209
  0.3350811625166012  0.5884622343668561  0.5002703175638575
  0.6662815637211387  0.0892057025380279 -0.0001141763931639
  0.6676346517329209  0.0893070441396847  0.5005119393471209
  0.6591160419699966  0.5902082941769378  0.0000332299008237
  0.6672464019237445  0.5875639122503514  0.5007467371361798
  0.1922230004315404  0.0573111873149092  0.2525625891808962
  0.0358308659595493  0.1608774170296225  0.3996159174029618
  0.0383276365017763  0.1574759373844005  0.8911051520040171
  0.0326558294912632  0.6548169435527018  0.3965512655257031
  0.0312185744160297  0.6514763892367609  0.8951396769822305
  0.3703789788463650  0.1588120461550904  0.3987241221502507
  0.3670199593565471  0.1568060789875442  0.8930109000116319
  0.3710403566130181  0.6575012808820652  0.3968544371431483
  0.3687842963398495  0.6596968763010448  0.8954760209986576
  0.7029962033570777  0.1588627092927318  0.3971017396105985
  0.7004053928153825  0.1592387124541661  0.8959236436252279
  0.7017587865887057  0.6574501374979799  0.3972099505644321
  0.6990047673580081  0.6538366254996832  0.8965257663918152
  0.2004658553795544  0.0495883351935895  0.7468564083283437
  0.2052199738007140  0.5539019772571447  0.2539137013633271
  0.2051362084430431  0.5508205707601596  0.7469957970461160
  0.5350491078427241  0.0532243181607034  0.2523947367123719
  0.5341990410774219  0.0522291344640579  0.7481566755378490
  0.5335529970944414  0.5524514602156816  0.2468015042221507
  0.5329982184527298  0.5515644672120026  0.7541969954233714
  0.8596275625428562  0.0539154607253051  0.2498856131211459
  0.8659210414905254  0.0537479880590356  0.7504781158784505
  0.8671635579399586  0.5539056036460112  0.2464878338389955
  0.8669573684931519  0.5533484742495665  0.7534094866999714
  0.0655110353201903  0.4145779083181440  0.2554456081902391
  0.0640592428877172  0.4148125010953791  0.7417442989933848
  0.0594780117898448  0.8949870654715711  0.2501369425106888
  0.0602952094553174  0.9087684446453446  0.7489742115832968
  0.3952018179907348  0.4087297137224339  0.2464664201517950
  0.3948073545389797  0.4074531084897309  0.7541238144838561
  0.3956418253996274  0.9109516788004698  0.2506919754895462
  0.3952109592324824  0.9089369735380218  0.7493511085283376
  0.7262004369884473  0.4175694893004767  0.2568953600901817
  0.7264760971125864  0.4163499688451728  0.7445828957247824
  0.7252758427416036  0.9053853705185352  0.2499082989066953
  0.7276712796833736  0.9097852338346381  0.7508791811007464
  0.2283871939706683  0.0861880103448107 -0.0041665629669849
  0.2302177766484501  0.0903743826328537  0.5037386651419071
  0.2256186518218196  0.6099164358164667 -0.0001316842217186
  0.2302021465122429  0.5908843913571377  0.5002821959013978
  0.5603592450917675  0.1028975028145740 -0.0000870678026641
  0.5624731707442716  0.0921432253655380  0.5003693232609757
  0.5550162650023264  0.6039124966862592  0.0002399746403606
  0.5619895311073813  0.5882325642050752  0.5006076839559961
  0.8978227186698009  0.1075487302227897 -0.0006714984598532
  0.8943037824027656  0.0936091267212100  0.5008959343467710
  0.8884062478818290  0.5975100118490303 -0.0008445645359552
  0.8922918288035757  0.5893941310738973  0.5008406989019677
  0.2013900845554884  0.3406732927441871  0.1560755705556478
  0.2037426643944219  0.3455710995292851  0.6359698139331291
  0.2011871069190191  0.8368873098390472  0.1473158759818359
  0.2003676137235715  0.8408957158459363  0.6442628218737467
  0.5343608642119174  0.3452796047589340  0.1389181321565851
  0.5367087466191744  0.3410480891707648  0.6532710464996242
  0.5360955060865454  0.8470484284609193  0.1461984250871397
  0.5363008503898831  0.8420754157706573  0.6463781872788560
  0.8522421238276777  0.3484757990639130  0.1356296049087601
  0.8701538982902850  0.3406746846512383  0.6555984597536686
  0.8659802581168022  0.8462628602540632  0.1446022689824606
  0.8683146563669207  0.8434045316863078  0.6478787199523309
  0.0406337308866636  0.1686623949834671  0.0957190560471618
  0.0345791745481153  0.1562197999011470  0.6062831104597166
  0.0312980497059315  0.6505408556646285  0.1023982038427015
  0.0334054000386973  0.6555337011513378  0.6038469915473524
  0.3667633164656366  0.1595539522241071  0.1004458894047408
  0.3709396409139991  0.1571001338663753  0.6057129194131656
  0.3696200685880212  0.6594973272604828  0.1035100183063107
  0.3702854400611335  0.6573958713716409  0.6045398814398579
  0.7005640528012365  0.1599295265100649  0.1031420635082034
  0.7025030884278249  0.1583137944275201  0.6048050093181306
  0.6993163693994968  0.6532435323962003  0.1034220973714514
  0.7015508835496438  0.6575550126632108  0.6045736424795407
  0.0176929596379162  0.4409358087471584 -0.0018840130489645
  0.0299005961303741  0.4456956994870613  0.5002889941626039
  0.0302456224416522  0.9506398488940349  0.0005072105309552
  0.0317929805049247  0.9488051240361469  0.4998214358525216
  0.3576262876885745  0.4531498755152065 -0.0007402242924170
  0.3705170659564526  0.4488877900866994  0.5006620704900063
  0.3692012866057678  0.9484089403026652 -0.0010004438943054
  0.3690607018391298  0.9483998460526061  0.5006809224561604
  0.6837576032811796  0.4446648398432347 -0.0003361681163042
  0.7014819296443188  0.4476883100983164  0.5008567799129905
  0.6971632216747441  0.9494691033981894 -0.0000225945946015
  0.7012053012539400  0.9493362914246573  0.5006588126703448
  0.2050125519864650  0.3485355105442355  0.3634523644976592
  0.1979695163366957  0.3339567076415067  0.8416902448366317
  0.2015305226487203  0.8366190449808818  0.3551038704470622
  0.1998687172564581  0.8414444754216135  0.8523275781135631
  0.5368113579043704  0.3415883194786478  0.3475382806690294
  0.5343298992547206  0.3441531237330336  0.8616798541376629
  0.5362332833849859  0.8427145326207414  0.3539901379661003
  0.5360192554573194  0.8460946203126498  0.8540631979500716
  0.8704137093884061  0.3417052089482641  0.3449281672944721
  0.8542469375441208  0.3483771705617115  0.8651494276843434
  0.8666562810699456  0.8435834577302618  0.3530516332036692
  0.8677601219822960  0.8467776567802331  0.8560673841866079
 
  0.00000000E+00  0.00000000E+00  0.00000000E+00
  0.00000000E+00  0.00000000E+00  0.00000000E+00
  0.00000000E+00  0.00000000E+00  0.00000000E+00
  0.00000000E+00  0.00000000E+00  0.00000000E+00
  0.00000000E+00  0.00000000E+00  0.00000000E+00
  0.00000000E+00  0.00000000E+00  0.00000000E+00
  0.00000000E+00  0.00000000E+00  0.00000000E+00
  0.00000000E+00  0.00000000E+00  0.00000000E+00
  0.00000000E+00  0.00000000E+00  0.00000000E+00
  0.00000000E+00  0.00000000E+00  0.00000000E+00
  0.00000000E+00  0.00000000E+00  0.00000000E+00
  0.00000000E+00  0.00000000E+00  0.00000000E+00
  0.00000000E+00  0.00000000E+00  0.00000000E+00
  0.00000000E+00  0.00000000E+00  0.00000000E+00
  0.00000000E+00  0.00000000E+00  0.00000000E+00
  0.00000000E+00  0.00000000E+00  0.00000000E+00
  0.00000000E+00  0.00000000E+00  0.00000000E+00
  0.00000000E+00  0.00000000E+00  0.00000000E+00
  0.00000000E+00  0.00000000E+00  0.00000000E+00
  0.00000000E+00  0.00000000E+00  0.00000000E+00
  0.00000000E+00  0.00000000E+00  0.00000000E+00
  0.00000000E+00  0.00000000E+00  0.00000000E+00
  0.00000000E+00  0.00000000E+00  0.00000000E+00
  0.00000000E+00  0.00000000E+00  0.00000000E+00
  0.00000000E+00  0.00000000E+00  0.00000000E+00
  0.00000000E+00  0.00000000E+00  0.00000000E+00
  0.00000000E+00  0.00000000E+00  0.00000000E+00
  0.00000000E+00  0.00000000E+00  0.00000000E+00
  0.00000000E+00  0.00000000E+00  0.00000000E+00
  0.00000000E+00  0.00000000E+00  0.00000000E+00
  0.00000000E+00  0.00000000E+00  0.00000000E+00
  0.00000000E+00  0.00000000E+00  0.00000000E+00
  0.00000000E+00  0.00000000E+00  0.00000000E+00
  0.00000000E+00  0.00000000E+00  0.00000000E+00
  0.00000000E+00  0.00000000E+00  0.00000000E+00
  0.00000000E+00  0.00000000E+00  0.00000000E+00
  0.00000000E+00  0.00000000E+00  0.00000000E+00
  0.00000000E+00  0.00000000E+00  0.00000000E+00
  0.00000000E+00  0.00000000E+00  0.00000000E+00
  0.00000000E+00  0.00000000E+00  0.00000000E+00
  0.00000000E+00  0.00000000E+00  0.00000000E+00
  0.00000000E+00  0.00000000E+00  0.00000000E+00
  0.00000000E+00  0.00000000E+00  0.00000000E+00
  0.00000000E+00  0.00000000E+00  0.00000000E+00
  0.00000000E+00  0.00000000E+00  0.00000000E+00
  0.00000000E+00  0.00000000E+00  0.00000000E+00
  0.00000000E+00  0.00000000E+00  0.00000000E+00
  0.00000000E+00  0.00000000E+00  0.00000000E+00
  0.00000000E+00  0.00000000E+00  0.00000000E+00
  0.00000000E+00  0.00000000E+00  0.00000000E+00
  0.00000000E+00  0.00000000E+00  0.00000000E+00
  0.00000000E+00  0.00000000E+00  0.00000000E+00
  0.00000000E+00  0.00000000E+00  0.00000000E+00
  0.00000000E+00  0.00000000E+00  0.00000000E+00
  0.00000000E+00  0.00000000E+00  0.00000000E+00
  0.00000000E+00  0.00000000E+00  0.00000000E+00
  0.00000000E+00  0.00000000E+00  0.00000000E+00
  0.00000000E+00  0.00000000E+00  0.00000000E+00
  0.00000000E+00  0.00000000E+00  0.00000000E+00
  0.00000000E+00  0.00000000E+00  0.00000000E+00
  0.00000000E+00  0.00000000E+00  0.00000000E+00
  0.00000000E+00  0.00000000E+00  0.00000000E+00
  0.00000000E+00  0.00000000E+00  0.00000000E+00
  0.00000000E+00  0.00000000E+00  0.00000000E+00
  0.00000000E+00  0.00000000E+00  0.00000000E+00
  0.00000000E+00  0.00000000E+00  0.00000000E+00
  0.00000000E+00  0.00000000E+00  0.00000000E+00
  0.00000000E+00  0.00000000E+00  0.00000000E+00
  0.00000000E+00  0.00000000E+00  0.00000000E+00
  0.00000000E+00  0.00000000E+00  0.00000000E+00
  0.00000000E+00  0.00000000E+00  0.00000000E+00
  0.00000000E+00  0.00000000E+00  0.00000000E+00
  0.00000000E+00  0.00000000E+00  0.00000000E+00
  0.00000000E+00  0.00000000E+00  0.00000000E+00
  0.00000000E+00  0.00000000E+00  0.00000000E+00
  0.00000000E+00  0.00000000E+00  0.00000000E+00
  0.00000000E+00  0.00000000E+00  0.00000000E+00
  0.00000000E+00  0.00000000E+00  0.00000000E+00
  0.00000000E+00  0.00000000E+00  0.00000000E+00
  0.00000000E+00  0.00000000E+00  0.00000000E+00
  0.00000000E+00  0.00000000E+00  0.00000000E+00
  0.00000000E+00  0.00000000E+00  0.00000000E+00
  0.00000000E+00  0.00000000E+00  0.00000000E+00
  0.00000000E+00  0.00000000E+00  0.00000000E+00
  0.00000000E+00  0.00000000E+00  0.00000000E+00
  0.00000000E+00  0.00000000E+00  0.00000000E+00
  0.00000000E+00  0.00000000E+00  0.00000000E+00
  0.00000000E+00  0.00000000E+00  0.00000000E+00
  0.00000000E+00  0.00000000E+00  0.00000000E+00
  0.00000000E+00  0.00000000E+00  0.00000000E+00
  0.00000000E+00  0.00000000E+00  0.00000000E+00
  0.00000000E+00  0.00000000E+00  0.00000000E+00
  0.00000000E+00  0.00000000E+00  0.00000000E+00
  0.00000000E+00  0.00000000E+00  0.00000000E+00
  0.00000000E+00  0.00000000E+00  0.00000000E+00
  0.00000000E+00  0.00000000E+00  0.00000000E+00
  0.00000000E+00  0.00000000E+00  0.00000000E+00
  0.00000000E+00  0.00000000E+00  0.00000000E+00
  0.00000000E+00  0.00000000E+00  0.00000000E+00
  0.00000000E+00  0.00000000E+00  0.00000000E+00
  0.00000000E+00  0.00000000E+00  0.00000000E+00
  0.00000000E+00  0.00000000E+00  0.00000000E+00
  0.00000000E+00  0.00000000E+00  0.00000000E+00
  0.00000000E+00  0.00000000E+00  0.00000000E+00
  0.00000000E+00  0.00000000E+00  0.00000000E+00
  0.00000000E+00  0.00000000E+00  0.00000000E+00
  0.00000000E+00  0.00000000E+00  0.00000000E+00
  0.00000000E+00  0.00000000E+00  0.00000000E+00
  0.00000000E+00  0.00000000E+00  0.00000000E+00
  0.00000000E+00  0.00000000E+00  0.00000000E+00
  0.00000000E+00  0.00000000E+00  0.00000000E+00
  0.00000000E+00  0.00000000E+00  0.00000000E+00
  0.00000000E+00  0.00000000E+00  0.00000000E+00
  0.00000000E+00  0.00000000E+00  0.00000000E+00
  0.00000000E+00  0.00000000E+00  0.00000000E+00
  0.00000000E+00  0.00000000E+00  0.00000000E+00
  0.00000000E+00  0.00000000E+00  0.00000000E+00
  0.00000000E+00  0.00000000E+00  0.00000000E+00
  0.00000000E+00  0.00000000E+00  0.00000000E+00
  0.00000000E+00  0.00000000E+00  0.00000000E+00
  0.00000000E+00  0.00000000E+00  0.00000000E+00
  0.00000000E+00  0.00000000E+00  0.00000000E+00
  0.00000000E+00  0.00000000E+00  0.00000000E+00
  0.00000000E+00  0.00000000E+00  0.00000000E+00
  0.00000000E+00  0.00000000E+00  0.00000000E+00
  0.00000000E+00  0.00000000E+00  0.00000000E+00
  0.00000000E+00  0.00000000E+00  0.00000000E+00
  0.00000000E+00  0.00000000E+00  0.00000000E+00
  0.00000000E+00  0.00000000E+00  0.00000000E+00
  0.00000000E+00  0.00000000E+00  0.00000000E+00
  0.00000000E+00  0.00000000E+00  0.00000000E+00
  0.00000000E+00  0.00000000E+00  0.00000000E+00
  0.00000000E+00  0.00000000E+00  0.00000000E+00
  0.00000000E+00  0.00000000E+00  0.00000000E+00
  0.00000000E+00  0.00000000E+00  0.00000000E+00
  0.00000000E+00  0.00000000E+00  0.00000000E+00
  0.00000000E+00  0.00000000E+00  0.00000000E+00
  0.00000000E+00  0.00000000E+00  0.00000000E+00
  0.00000000E+00  0.00000000E+00  0.00000000E+00
  0.00000000E+00  0.00000000E+00  0.00000000E+00
  0.00000000E+00  0.00000000E+00  0.00000000E+00
  0.00000000E+00  0.00000000E+00  0.00000000E+00
  0.00000000E+00  0.00000000E+00  0.00000000E+00
  0.00000000E+00  0.00000000E+00  0.00000000E+00
  0.00000000E+00  0.00000000E+00  0.00000000E+00
  0.00000000E+00  0.00000000E+00  0.00000000E+00
  0.00000000E+00  0.00000000E+00  0.00000000E+00
  0.00000000E+00  0.00000000E+00  0.00000000E+00
  0.00000000E+00  0.00000000E+00  0.00000000E+00
  0.00000000E+00  0.00000000E+00  0.00000000E+00
  0.00000000E+00  0.00000000E+00  0.00000000E+00
  0.00000000E+00  0.00000000E+00  0.00000000E+00
  0.00000000E+00  0.00000000E+00  0.00000000E+00
  0.00000000E+00  0.00000000E+00  0.00000000E+00
  0.00000000E+00  0.00000000E+00  0.00000000E+00
  0.00000000E+00  0.00000000E+00  0.00000000E+00
  0.00000000E+00  0.00000000E+00  0.00000000E+00
  0.00000000E+00  0.00000000E+00  0.00000000E+00
  0.00000000E+00  0.00000000E+00  0.00000000E+00
  0.00000000E+00  0.00000000E+00  0.00000000E+00
  0.00000000E+00  0.00000000E+00  0.00000000E+00
  0.00000000E+00  0.00000000E+00  0.00000000E+00
  0.00000000E+00  0.00000000E+00  0.00000000E+00
  0.00000000E+00  0.00000000E+00  0.00000000E+00
  0.00000000E+00  0.00000000E+00  0.00000000E+00
  0.00000000E+00  0.00000000E+00  0.00000000E+00
  0.00000000E+00  0.00000000E+00  0.00000000E+00
  0.00000000E+00  0.00000000E+00  0.00000000E+00
  0.00000000E+00  0.00000000E+00  0.00000000E+00
  0.00000000E+00  0.00000000E+00  0.00000000E+00
  0.00000000E+00  0.00000000E+00  0.00000000E+00
  0.00000000E+00  0.00000000E+00  0.00000000E+00
  0.00000000E+00  0.00000000E+00  0.00000000E+00
  0.00000000E+00  0.00000000E+00  0.00000000E+00
  0.00000000E+00  0.00000000E+00  0.00000000E+00
  0.00000000E+00  0.00000000E+00  0.00000000E+00
  0.00000000E+00  0.00000000E+00  0.00000000E+00
  0.00000000E+00  0.00000000E+00  0.00000000E+00
  0.00000000E+00  0.00000000E+00  0.00000000E+00
  0.00000000E+00  0.00000000E+00  0.00000000E+00
  0.00000000E+00  0.00000000E+00  0.00000000E+00
  0.00000000E+00  0.00000000E+00  0.00000000E+00
  0.00000000E+00  0.00000000E+00  0.00000000E+00
  0.00000000E+00  0.00000000E+00  0.00000000E+00
  0.00000000E+00  0.00000000E+00  0.00000000E+00
  0.00000000E+00  0.00000000E+00  0.00000000E+00
  0.00000000E+00  0.00000000E+00  0.00000000E+00
  0.00000000E+00  0.00000000E+00  0.00000000E+00
  0.00000000E+00  0.00000000E+00  0.00000000E+00
  0.00000000E+00  0.00000000E+00  0.00000000E+00
  0.00000000E+00  0.00000000E+00  0.00000000E+00
  0.00000000E+00  0.00000000E+00  0.00000000E+00
  0.00000000E+00  0.00000000E+00  0.00000000E+00
