(2, 1, 2)
1.0
5.508548 0.000000 -6.360724
0.000000 7.703522 -3.180362
0.000000 0.000000 44.525066
Li O
32 32
Selective dynamics
direct
0.000000 0.500000 0.017857 T T T Li+
0.500000 0.500000 0.053571 T T T Li+
0.000000 0.000000 0.053571 T T T Li+
0.500000 0.000000 0.017857 T T T Li+
0.166667 0.750000 0.023810 T T T Li+
0.666667 0.750000 0.059524 T T T Li+
0.333333 0.250000 0.047619 T T T Li+
0.833333 0.250000 0.011905 T T T Li+
0.000000 0.500000 0.089286 F F F Li+
0.500000 0.500000 0.125000 F F F Li+
0.000000 0.000000 0.125000 F F F Li+
0.500000 0.000000 0.089286 F F F Li+
0.166667 0.750000 0.095238 F F F Li+
0.666667 0.750000 0.130952 F F F Li+
0.333333 0.250000 0.119048 F F F Li+
0.833333 0.250000 0.083333 F F F Li+
0.000000 0.500000 0.160714 F F F Li+
0.500000 0.500000 0.196429 F F F Li+
0.000000 0.000000 0.196429 F F F Li+
0.500000 0.000000 0.160714 F F F Li+
0.166667 0.750000 0.166667 F F F Li+
0.666667 0.750000 0.202381 F F F Li+
0.333333 0.250000 0.190476 F F F Li+
0.833333 0.250000 0.154762 F F F Li+
0.000000 0.500000 0.232143 T T T Li+
0.500000 0.500000 0.267857 T T T Li+
0.000000 0.000000 0.267857 T T T Li+
0.500000 0.000000 0.232143 T T T Li+
0.166667 0.750000 0.238095 T T T Li+
0.666667 0.750000 0.273810 T T T Li+
0.333333 0.250000 0.261905 T T T Li+
0.833333 0.250000 0.226190 T T T Li+
0.166667 0.149310 0.052332 F F F O-
0.666667 0.149310 0.016617 T T T O-
0.333333 0.649310 0.004713 T T T O-
0.833333 0.649310 0.040427 T T T O-
0.333333 0.850690 0.019097 T T T O-
0.833333 0.850690 0.054811 T T T O-
0.166667 0.350690 0.066716 F F F O-
0.666667 0.350690 0.031002 T T T O-
0.166667 0.149310 0.123760 F F F O-
0.666667 0.149310 0.088046 F F F O-
0.333333 0.649310 0.076141 F F F O-
0.833333 0.649310 0.111855 F F F O-
0.333333 0.850690 0.090525 F F F O-
0.833333 0.850690 0.126240 F F F O-
0.166667 0.350690 0.138145 F F F O-
0.666667 0.350690 0.102430 F F F O-
0.166667 0.149310 0.195189 F F F O-
0.666667 0.149310 0.159475 F F F O-
0.333333 0.649310 0.147570 F F F O-
0.833333 0.649310 0.183284 F F F O-
0.333333 0.850690 0.161954 F F F O-
0.833333 0.850690 0.197668 F F F O-
0.166667 0.350690 0.209573 F F F O-
0.666667 0.350690 0.173859 F F F O-
0.166667 0.149310 0.266617 T T T O-
0.666667 0.149310 0.230903 T T T O-
0.333333 0.649310 0.218998 F F F O-
0.833333 0.649310 0.254713 T T T O-
0.333333 0.850690 0.233383 F F F O-
0.833333 0.850690 0.269097 T T T O-
0.166667 0.350690 0.281002 T T T O-
0.666667 0.350690 0.245287 T T T O-
