Li140 P140 O420
1.0
13.312980 0.000000 -5.521558
2.677750 16.540545 0.000000
0.000000 0.000000 60.737138
Li P O
140 140 420
direct
0.944698 0.181780 0.046839 Li+
0.444698 0.681780 0.000404 Li+
0.822834 0.065996 0.036687 Li+
0.322834 0.565996 0.079308 Li+
0.702414 0.950543 0.023797 Li+
0.202414 0.450543 0.070303 Li+
0.582845 0.835452 0.012796 Li+
0.082845 0.335452 0.059564 Li+
0.512460 0.758434 0.053165 Li+
0.012460 0.258434 0.006398 Li+
0.942549 0.681714 0.044227 Li+
0.442549 0.181714 0.002626 Li+
0.821455 0.566270 0.037298 Li+
0.321455 0.066270 0.078446 Li+
0.702271 0.449547 0.021287 Li+
0.202271 0.949547 0.072787 Li+
0.582496 0.332984 0.015445 Li+
0.082496 0.832984 0.056852 Li+
0.510463 0.256366 0.055883 Li+
0.010463 0.756366 0.003317 Li+
0.944698 0.181780 0.137748 Li+
0.444698 0.681780 0.091313 Li+
0.822834 0.065996 0.127596 Li+
0.322834 0.565996 0.170217 Li+
0.702414 0.950543 0.114706 Li+
0.202414 0.450543 0.161212 Li+
0.582845 0.835452 0.103705 Li+
0.082845 0.335452 0.150473 Li+
0.512460 0.758434 0.144074 Li+
0.012460 0.258434 0.097307 Li+
0.942549 0.681714 0.135136 Li+
0.442549 0.181714 0.093535 Li+
0.821455 0.566270 0.128207 Li+
0.321455 0.066270 0.169355 Li+
0.702271 0.449547 0.112196 Li+
0.202271 0.949547 0.163696 Li+
0.582496 0.332984 0.106354 Li+
0.082496 0.832984 0.147761 Li+
0.510463 0.256366 0.146792 Li+
0.010463 0.756366 0.094226 Li+
0.944698 0.181780 0.228657 Li+
0.444698 0.681780 0.182222 Li+
0.822834 0.065996 0.218505 Li+
0.322834 0.565996 0.261126 Li+
0.702414 0.950543 0.205615 Li+
0.202414 0.450543 0.252121 Li+
0.582845 0.835452 0.194614 Li+
0.082845 0.335452 0.241382 Li+
0.512460 0.758434 0.234983 Li+
0.012460 0.258434 0.188216 Li+
0.942549 0.681714 0.226045 Li+
0.442549 0.181714 0.184444 Li+
0.821455 0.566270 0.219116 Li+
0.321455 0.066270 0.260264 Li+
0.702271 0.449547 0.203105 Li+
0.202271 0.949547 0.254605 Li+
0.582496 0.332984 0.197263 Li+
0.082496 0.832984 0.238670 Li+
0.510463 0.256366 0.237701 Li+
0.010463 0.756366 0.185135 Li+
0.944698 0.181780 0.319566 Li+
0.444698 0.681780 0.273131 Li+
0.822834 0.065996 0.309414 Li+
0.322834 0.565996 0.352036 Li+
0.702414 0.950543 0.296524 Li+
0.202414 0.450543 0.343031 Li+
0.582845 0.835452 0.285523 Li+
0.082845 0.335452 0.332291 Li+
0.512460 0.758434 0.325892 Li+
0.012460 0.258434 0.279125 Li+
0.942549 0.681714 0.316954 Li+
0.442549 0.181714 0.275353 Li+
0.821455 0.566270 0.310025 Li+
0.321455 0.066270 0.351173 Li+
0.702271 0.449547 0.294014 Li+
0.202271 0.949547 0.345514 Li+
0.582496 0.332984 0.288172 Li+
0.082496 0.832984 0.329579 Li+
0.510463 0.256366 0.328610 Li+
0.010463 0.756366 0.276044 Li+
0.944698 0.181780 0.410475 Li+
0.444698 0.681780 0.364040 Li+
0.822834 0.065996 0.400323 Li+
0.322834 0.565996 0.442945 Li+
0.702414 0.950543 0.387433 Li+
0.202414 0.450543 0.433940 Li+
0.582845 0.835452 0.376433 Li+
0.082845 0.335452 0.423201 Li+
0.512460 0.758434 0.416801 Li+
0.012460 0.258434 0.370035 Li+
0.942549 0.681714 0.407863 Li+
0.442549 0.181714 0.366262 Li+
0.821455 0.566270 0.400934 Li+
0.321455 0.066270 0.442082 Li+
0.702271 0.449547 0.384924 Li+
0.202271 0.949547 0.436424 Li+
0.582496 0.332984 0.379082 Li+
0.082496 0.832984 0.420488 Li+
0.510463 0.256366 0.419519 Li+
0.010463 0.756366 0.366954 Li+
0.944698 0.181780 0.501384 Li+
0.444698 0.681780 0.454949 Li+
0.822834 0.065996 0.491232 Li+
0.322834 0.565996 0.533854 Li+
0.702414 0.950543 0.478343 Li+
0.202414 0.450543 0.524849 Li+
0.582845 0.835452 0.467342 Li+
0.082845 0.335452 0.514110 Li+
0.512460 0.758434 0.507710 Li+
0.012460 0.258434 0.460944 Li+
0.942549 0.681714 0.498772 Li+
0.442549 0.181714 0.457171 Li+
0.821455 0.566270 0.491844 Li+
0.321455 0.066270 0.532991 Li+
0.702271 0.449547 0.475833 Li+
0.202271 0.949547 0.527333 Li+
0.582496 0.332984 0.469991 Li+
0.082496 0.832984 0.511397 Li+
0.510463 0.256366 0.510428 Li+
0.010463 0.756366 0.457863 Li+
0.944698 0.181780 0.592293 Li+
0.444698 0.681780 0.545858 Li+
0.822834 0.065996 0.582141 Li+
0.322834 0.565996 0.624763 Li+
0.702414 0.950543 0.569252 Li+
0.202414 0.450543 0.615758 Li+
0.582845 0.835452 0.558251 Li+
0.082845 0.335452 0.605019 Li+
0.512460 0.758434 0.598619 Li+
0.012460 0.258434 0.551853 Li+
0.942549 0.681714 0.589681 Li+
0.442549 0.181714 0.548080 Li+
0.821455 0.566270 0.582753 Li+
0.321455 0.066270 0.623900 Li+
0.702271 0.449547 0.566742 Li+
0.202271 0.949547 0.618242 Li+
0.582496 0.332984 0.560900 Li+
0.082496 0.832984 0.602306 Li+
0.510463 0.256366 0.601337 Li+
0.010463 0.756366 0.548772 Li+
0.001192 0.999587 0.080087 P5+
0.501192 0.499587 0.068337 P5+
0.887667 0.906720 0.009953 P5+
0.387667 0.406720 0.026920 P5+
0.795924 0.802939 0.061147 P5+
0.295924 0.302939 0.049955 P5+
0.716706 0.691689 0.086624 P5+
0.216706 0.191689 0.010075 P5+
0.616650 0.591751 0.047459 P5+
0.116650 0.091751 0.031048 P5+
0.909487 0.425433 0.011881 P5+
0.409487 0.925433 0.028960 P5+
0.808986 0.325562 0.063618 P5+
0.308986 0.825562 0.049859 P5+
0.730132 0.213545 0.089363 P5+
0.230132 0.713545 0.009777 P5+
0.637722 0.110144 0.050087 P5+
0.137722 0.610144 0.032251 P5+
0.524425 0.017155 0.070881 P5+
0.024425 0.517155 0.081766 P5+
0.001192 0.999587 0.170996 P5+
0.501192 0.499587 0.159246 P5+
0.887667 0.906720 0.100863 P5+
0.387667 0.406720 0.117829 P5+
0.795924 0.802939 0.152056 P5+
0.295924 0.302939 0.140864 P5+
0.716706 0.691689 0.177533 P5+
0.216706 0.191689 0.100984 P5+
0.616650 0.591751 0.138368 P5+
0.116650 0.091751 0.121957 P5+
0.909487 0.425433 0.102790 P5+
0.409487 0.925433 0.119869 P5+
0.808986 0.325562 0.154527 P5+
0.308986 0.825562 0.140768 P5+
0.730132 0.213545 0.180272 P5+
0.230132 0.713545 0.100686 P5+
0.637722 0.110144 0.140996 P5+
0.137722 0.610144 0.123160 P5+
0.524425 0.017155 0.161791 P5+
0.024425 0.517155 0.172675 P5+
0.001192 0.999587 0.261905 P5+
0.501192 0.499587 0.250155 P5+
0.887667 0.906720 0.191772 P5+
0.387667 0.406720 0.208738 P5+
0.795924 0.802939 0.242965 P5+
0.295924 0.302939 0.231773 P5+
0.716706 0.691689 0.268442 P5+
0.216706 0.191689 0.191893 P5+
0.616650 0.591751 0.229277 P5+
0.116650 0.091751 0.212866 P5+
0.909487 0.425433 0.193699 P5+
0.409487 0.925433 0.210778 P5+
0.808986 0.325562 0.245437 P5+
0.308986 0.825562 0.231677 P5+
0.730132 0.213545 0.271181 P5+
0.230132 0.713545 0.191595 P5+
0.637722 0.110144 0.231905 P5+
0.137722 0.610144 0.214069 P5+
0.524425 0.017155 0.252700 P5+
0.024425 0.517155 0.263584 P5+
0.001192 0.999587 0.352814 P5+
0.501192 0.499587 0.341064 P5+
0.887667 0.906720 0.282681 P5+
0.387667 0.406720 0.299647 P5+
0.795924 0.802939 0.333874 P5+
0.295924 0.302939 0.322682 P5+
0.716706 0.691689 0.359351 P5+
0.216706 0.191689 0.282802 P5+
0.616650 0.591751 0.320186 P5+
0.116650 0.091751 0.303775 P5+
0.909487 0.425433 0.284609 P5+
0.409487 0.925433 0.301687 P5+
0.808986 0.325562 0.336346 P5+
0.308986 0.825562 0.322586 P5+
0.730132 0.213545 0.362090 P5+
0.230132 0.713545 0.282504 P5+
0.637722 0.110144 0.322814 P5+
0.137722 0.610144 0.304978 P5+
0.524425 0.017155 0.343609 P5+
0.024425 0.517155 0.354494 P5+
0.001192 0.999587 0.443723 P5+
0.501192 0.499587 0.431973 P5+
0.887667 0.906720 0.373590 P5+
0.387667 0.406720 0.390557 P5+
0.795924 0.802939 0.424783 P5+
0.295924 0.302939 0.413591 P5+
0.716706 0.691689 0.450261 P5+
0.216706 0.191689 0.373711 P5+
0.616650 0.591751 0.411095 P5+
0.116650 0.091751 0.394684 P5+
0.909487 0.425433 0.375518 P5+
0.409487 0.925433 0.392596 P5+
0.808986 0.325562 0.427255 P5+
0.308986 0.825562 0.413495 P5+
0.730132 0.213545 0.452999 P5+
0.230132 0.713545 0.373413 P5+
0.637722 0.110144 0.413724 P5+
0.137722 0.610144 0.395887 P5+
0.524425 0.017155 0.434518 P5+
0.024425 0.517155 0.445403 P5+
0.001192 0.999587 0.534632 P5+
0.501192 0.499587 0.522882 P5+
0.887667 0.906720 0.464499 P5+
0.387667 0.406720 0.481466 P5+
0.795924 0.802939 0.515692 P5+
0.295924 0.302939 0.504501 P5+
0.716706 0.691689 0.541170 P5+
0.216706 0.191689 0.464620 P5+
0.616650 0.591751 0.502004 P5+
0.116650 0.091751 0.485593 P5+
0.909487 0.425433 0.466427 P5+
0.409487 0.925433 0.483505 P5+
0.808986 0.325562 0.518164 P5+
0.308986 0.825562 0.504404 P5+
0.730132 0.213545 0.543908 P5+
0.230132 0.713545 0.464322 P5+
0.637722 0.110144 0.504633 P5+
0.137722 0.610144 0.486796 P5+
0.524425 0.017155 0.525427 P5+
0.024425 0.517155 0.536312 P5+
0.001192 0.999587 0.625541 P5+
0.501192 0.499587 0.613791 P5+
0.887667 0.906720 0.555408 P5+
0.387667 0.406720 0.572375 P5+
0.795924 0.802939 0.606602 P5+
0.295924 0.302939 0.595410 P5+
0.716706 0.691689 0.632079 P5+
0.216706 0.191689 0.555529 P5+
0.616650 0.591751 0.592913 P5+
0.116650 0.091751 0.576502 P5+
0.909487 0.425433 0.557336 P5+
0.409487 0.925433 0.574414 P5+
0.808986 0.325562 0.609073 P5+
0.308986 0.825562 0.595313 P5+
0.730132 0.213545 0.634817 P5+
0.230132 0.713545 0.555232 P5+
0.637722 0.110144 0.595542 P5+
0.137722 0.610144 0.577705 P5+
0.524425 0.017155 0.616336 P5+
0.024425 0.517155 0.627221 P5+
0.905428 0.964587 0.081961 O2-
0.405428 0.464587 0.049051 O2-
0.800449 0.859372 0.083136 O2-
0.300449 0.359372 0.028788 O2-
0.757206 0.724144 0.067484 O2-
0.257206 0.224144 0.036578 O2-
0.685355 0.607741 0.074892 O2-
0.185355 0.107741 0.016107 O2-
0.058300 0.021852 0.016492 O2-
0.558300 0.521852 0.051405 O2-
0.840686 0.409378 0.075368 O2-
0.340686 0.909378 0.043873 O2-
0.772630 0.290596 0.083266 O2-
0.272630 0.790596 0.023601 O2-
0.726756 0.156445 0.067512 O2-
0.226756 0.656445 0.031014 O2-
0.618048 0.056520 0.069491 O2-
0.118048 0.556520 0.009270 O2-
0.967956 0.495673 0.008037 O2-
0.467956 0.995673 0.043435 O2-
0.955284 0.073889 0.063421 O2-
0.455284 0.573889 0.076656 O2-
0.071165 0.933926 0.074762 O2-
0.571165 0.433926 0.086384 O2-
0.836724 0.958651 0.023481 O2-
0.336724 0.458651 0.004131 O2-
0.982201 0.846743 0.022912 O2-
0.482201 0.346743 0.031149 O2-
0.714989 0.845353 0.038923 O2-
0.214989 0.345353 0.057464 O2-
0.902007 0.775410 0.062306 O2-
0.402007 0.275410 0.068084 O2-
0.622035 0.747295 0.085057 O2-
0.122035 0.247295 0.085338 O2-
0.803128 0.669352 0.019270 O2-
0.303128 0.169352 0.002232 O2-
0.542257 0.667159 0.035661 O2-
0.042257 0.167159 0.029320 O2-
0.685603 0.553292 0.035906 O2-
0.185603 0.053292 0.055138 O2-
0.839056 0.463335 0.023118 O2-
0.339056 0.963335 0.004917 O2-
0.984307 0.350606 0.023950 O2-
0.484307 0.850606 0.030495 O2-
0.720379 0.348215 0.040429 O2-
0.220379 0.848215 0.056937 O2-
0.903854 0.271458 0.064632 O2-
0.403854 0.771458 0.066094 O2-
0.623095 0.241625 0.087500 O2-
0.123095 0.741625 0.083088 O2-
0.808921 0.171199 0.021010 O2-
0.308921 0.671199 0.001546 O2-
0.543593 0.170027 0.036678 O2-
0.043593 0.670027 0.028546 O2-
0.687356 0.055640 0.036836 O2-
0.187356 0.555640 0.054526 O2-
0.452378 0.080441 0.076368 O2-
0.952378 0.580441 0.063181 O2-
0.572944 0.942366 0.087197 O2-
0.072944 0.442366 0.074272 O2-
0.905428 0.964587 0.172870 O2-
0.405428 0.464587 0.139961 O2-
0.800449 0.859372 0.174045 O2-
0.300449 0.359372 0.119698 O2-
0.757206 0.724144 0.158393 O2-
0.257206 0.224144 0.127487 O2-
0.685355 0.607741 0.165801 O2-
0.185355 0.107741 0.107016 O2-
0.058300 0.021852 0.107401 O2-
0.558300 0.521852 0.142315 O2-
0.840686 0.409378 0.166277 O2-
0.340686 0.909378 0.134782 O2-
0.772630 0.290596 0.174175 O2-
0.272630 0.790596 0.114510 O2-
0.726756 0.156445 0.158421 O2-
0.226756 0.656445 0.121924 O2-
0.618048 0.056520 0.160400 O2-
0.118048 0.556520 0.100179 O2-
0.967956 0.495673 0.098946 O2-
0.467956 0.995673 0.134344 O2-
0.955284 0.073889 0.154330 O2-
0.455284 0.573889 0.167565 O2-
0.071165 0.933926 0.165671 O2-
0.571165 0.433926 0.177293 O2-
0.836724 0.958651 0.114390 O2-
0.336724 0.458651 0.095040 O2-
0.982201 0.846743 0.113821 O2-
0.482201 0.346743 0.122059 O2-
0.714989 0.845353 0.129832 O2-
0.214989 0.345353 0.148373 O2-
0.902007 0.775410 0.153215 O2-
0.402007 0.275410 0.158993 O2-
0.622035 0.747295 0.175966 O2-
0.122035 0.247295 0.176247 O2-
0.803128 0.669352 0.110180 O2-
0.303128 0.169352 0.093141 O2-
0.542257 0.667159 0.126570 O2-
0.042257 0.167159 0.120229 O2-
0.685603 0.553292 0.126815 O2-
0.185603 0.053292 0.146047 O2-
0.839056 0.463335 0.114028 O2-
0.339056 0.963335 0.095826 O2-
0.984307 0.350606 0.114859 O2-
0.484307 0.850606 0.121404 O2-
0.720379 0.348215 0.131339 O2-
0.220379 0.848215 0.147846 O2-
0.903854 0.271458 0.155541 O2-
0.403854 0.771458 0.157003 O2-
0.623095 0.241625 0.178409 O2-
0.123095 0.741625 0.173997 O2-
0.808921 0.171199 0.111919 O2-
0.308921 0.671199 0.092455 O2-
0.543593 0.170027 0.127587 O2-
0.043593 0.670027 0.119455 O2-
0.687356 0.055640 0.127745 O2-
0.187356 0.555640 0.145435 O2-
0.452378 0.080441 0.167277 O2-
0.952378 0.580441 0.154090 O2-
0.572944 0.942366 0.178106 O2-
0.072944 0.442366 0.165181 O2-
0.905428 0.964587 0.263779 O2-
0.405428 0.464587 0.230870 O2-
0.800449 0.859372 0.264954 O2-
0.300449 0.359372 0.210607 O2-
0.757206 0.724144 0.249302 O2-
0.257206 0.224144 0.218396 O2-
0.685355 0.607741 0.256710 O2-
0.185355 0.107741 0.197925 O2-
0.058300 0.021852 0.198311 O2-
0.558300 0.521852 0.233224 O2-
0.840686 0.409378 0.257186 O2-
0.340686 0.909378 0.225691 O2-
0.772630 0.290596 0.265084 O2-
0.272630 0.790596 0.205419 O2-
0.726756 0.156445 0.249330 O2-
0.226756 0.656445 0.212833 O2-
0.618048 0.056520 0.251309 O2-
0.118048 0.556520 0.191088 O2-
0.967956 0.495673 0.189855 O2-
0.467956 0.995673 0.225253 O2-
0.955284 0.073889 0.245239 O2-
0.455284 0.573889 0.258474 O2-
0.071165 0.933926 0.256580 O2-
0.571165 0.433926 0.268202 O2-
0.836724 0.958651 0.205299 O2-
0.336724 0.458651 0.185949 O2-
0.982201 0.846743 0.204730 O2-
0.482201 0.346743 0.212968 O2-
0.714989 0.845353 0.220741 O2-
0.214989 0.345353 0.239282 O2-
0.902007 0.775410 0.244124 O2-
0.402007 0.275410 0.249902 O2-
0.622035 0.747295 0.266875 O2-
0.122035 0.247295 0.267156 O2-
0.803128 0.669352 0.201089 O2-
0.303128 0.169352 0.184051 O2-
0.542257 0.667159 0.217479 O2-
0.042257 0.167159 0.211138 O2-
0.685603 0.553292 0.217724 O2-
0.185603 0.053292 0.236956 O2-
0.839056 0.463335 0.204937 O2-
0.339056 0.963335 0.186735 O2-
0.984307 0.350606 0.205768 O2-
0.484307 0.850606 0.212313 O2-
0.720379 0.348215 0.222248 O2-
0.220379 0.848215 0.238755 O2-
0.903854 0.271458 0.246450 O2-
0.403854 0.771458 0.247912 O2-
0.623095 0.241625 0.269318 O2-
0.123095 0.741625 0.264906 O2-
0.808921 0.171199 0.202828 O2-
0.308921 0.671199 0.183364 O2-
0.543593 0.170027 0.218496 O2-
0.043593 0.670027 0.210364 O2-
0.687356 0.055640 0.218654 O2-
0.187356 0.555640 0.236344 O2-
0.452378 0.080441 0.258186 O2-
0.952378 0.580441 0.244999 O2-
0.572944 0.942366 0.269015 O2-
0.072944 0.442366 0.256090 O2-
0.905428 0.964587 0.354688 O2-
0.405428 0.464587 0.321779 O2-
0.800449 0.859372 0.355864 O2-
0.300449 0.359372 0.301516 O2-
0.757206 0.724144 0.340211 O2-
0.257206 0.224144 0.309306 O2-
0.685355 0.607741 0.347619 O2-
0.185355 0.107741 0.288834 O2-
0.058300 0.021852 0.289220 O2-
0.558300 0.521852 0.324133 O2-
0.840686 0.409378 0.348095 O2-
0.340686 0.909378 0.316600 O2-
0.772630 0.290596 0.355993 O2-
0.272630 0.790596 0.296328 O2-
0.726756 0.156445 0.340239 O2-
0.226756 0.656445 0.303742 O2-
0.618048 0.056520 0.342218 O2-
0.118048 0.556520 0.281998 O2-
0.967956 0.495673 0.280764 O2-
0.467956 0.995673 0.316162 O2-
0.955284 0.073889 0.336148 O2-
0.455284 0.573889 0.349383 O2-
0.071165 0.933926 0.347490 O2-
0.571165 0.433926 0.359111 O2-
0.836724 0.958651 0.296208 O2-
0.336724 0.458651 0.276858 O2-
0.982201 0.846743 0.295639 O2-
0.482201 0.346743 0.303877 O2-
0.714989 0.845353 0.311650 O2-
0.214989 0.345353 0.330191 O2-
0.902007 0.775410 0.335033 O2-
0.402007 0.275410 0.340811 O2-
0.622035 0.747295 0.357784 O2-
0.122035 0.247295 0.358065 O2-
0.803128 0.669352 0.291998 O2-
0.303128 0.169352 0.274960 O2-
0.542257 0.667159 0.308388 O2-
0.042257 0.167159 0.302047 O2-
0.685603 0.553292 0.308633 O2-
0.185603 0.053292 0.327865 O2-
0.839056 0.463335 0.295846 O2-
0.339056 0.963335 0.277644 O2-
0.984307 0.350606 0.296677 O2-
0.484307 0.850606 0.303222 O2-
0.720379 0.348215 0.313157 O2-
0.220379 0.848215 0.329665 O2-
0.903854 0.271458 0.337359 O2-
0.403854 0.771458 0.338821 O2-
0.623095 0.241625 0.360227 O2-
0.123095 0.741625 0.355815 O2-
0.808921 0.171199 0.293737 O2-
0.308921 0.671199 0.274274 O2-
0.543593 0.170027 0.309405 O2-
0.043593 0.670027 0.301273 O2-
0.687356 0.055640 0.309563 O2-
0.187356 0.555640 0.327253 O2-
0.452378 0.080441 0.349095 O2-
0.952378 0.580441 0.335908 O2-
0.572944 0.942366 0.359924 O2-
0.072944 0.442366 0.347000 O2-
0.905428 0.964587 0.445597 O2-
0.405428 0.464587 0.412688 O2-
0.800449 0.859372 0.446773 O2-
0.300449 0.359372 0.392425 O2-
0.757206 0.724144 0.431121 O2-
0.257206 0.224144 0.400215 O2-
0.685355 0.607741 0.438528 O2-
0.185355 0.107741 0.379743 O2-
0.058300 0.021852 0.380129 O2-
0.558300 0.521852 0.415042 O2-
0.840686 0.409378 0.439004 O2-
0.340686 0.909378 0.407510 O2-
0.772630 0.290596 0.446902 O2-
0.272630 0.790596 0.387237 O2-
0.726756 0.156445 0.431148 O2-
0.226756 0.656445 0.394651 O2-
0.618048 0.056520 0.433127 O2-
0.118048 0.556520 0.372907 O2-
0.967956 0.495673 0.371673 O2-
0.467956 0.995673 0.407071 O2-
0.955284 0.073889 0.427057 O2-
0.455284 0.573889 0.440292 O2-
0.071165 0.933926 0.438399 O2-
0.571165 0.433926 0.450020 O2-
0.836724 0.958651 0.387117 O2-
0.336724 0.458651 0.367767 O2-
0.982201 0.846743 0.386549 O2-
0.482201 0.346743 0.394786 O2-
0.714989 0.845353 0.402559 O2-
0.214989 0.345353 0.421100 O2-
0.902007 0.775410 0.425942 O2-
0.402007 0.275410 0.431721 O2-
0.622035 0.747295 0.448693 O2-
0.122035 0.247295 0.448974 O2-
0.803128 0.669352 0.382907 O2-
0.303128 0.169352 0.365869 O2-
0.542257 0.667159 0.399298 O2-
0.042257 0.167159 0.392956 O2-
0.685603 0.553292 0.399542 O2-
0.185603 0.053292 0.418774 O2-
0.839056 0.463335 0.386755 O2-
0.339056 0.963335 0.368553 O2-
0.984307 0.350606 0.387586 O2-
0.484307 0.850606 0.394131 O2-
0.720379 0.348215 0.404066 O2-
0.220379 0.848215 0.420574 O2-
0.903854 0.271458 0.428268 O2-
0.403854 0.771458 0.429731 O2-
0.623095 0.241625 0.451136 O2-
0.123095 0.741625 0.446724 O2-
0.808921 0.171199 0.384646 O2-
0.308921 0.671199 0.365183 O2-
0.543593 0.170027 0.400314 O2-
0.043593 0.670027 0.392182 O2-
0.687356 0.055640 0.400473 O2-
0.187356 0.555640 0.418163 O2-
0.452378 0.080441 0.440004 O2-
0.952378 0.580441 0.426817 O2-
0.572944 0.942366 0.450833 O2-
0.072944 0.442366 0.437909 O2-
0.905428 0.964587 0.536506 O2-
0.405428 0.464587 0.503597 O2-
0.800449 0.859372 0.537682 O2-
0.300449 0.359372 0.483334 O2-
0.757206 0.724144 0.522030 O2-
0.257206 0.224144 0.491124 O2-
0.685355 0.607741 0.529437 O2-
0.185355 0.107741 0.470652 O2-
0.058300 0.021852 0.471038 O2-
0.558300 0.521852 0.505951 O2-
0.840686 0.409378 0.529913 O2-
0.340686 0.909378 0.498419 O2-
0.772630 0.290596 0.537811 O2-
0.272630 0.790596 0.478146 O2-
0.726756 0.156445 0.522057 O2-
0.226756 0.656445 0.485560 O2-
0.618048 0.056520 0.524036 O2-
0.118048 0.556520 0.463816 O2-
0.967956 0.495673 0.462582 O2-
0.467956 0.995673 0.497980 O2-
0.955284 0.073889 0.517966 O2-
0.455284 0.573889 0.531201 O2-
0.071165 0.933926 0.529308 O2-
0.571165 0.433926 0.540929 O2-
0.836724 0.958651 0.478026 O2-
0.336724 0.458651 0.458676 O2-
0.982201 0.846743 0.477458 O2-
0.482201 0.346743 0.485695 O2-
0.714989 0.845353 0.493468 O2-
0.214989 0.345353 0.512009 O2-
0.902007 0.775410 0.516851 O2-
0.402007 0.275410 0.522630 O2-
0.622035 0.747295 0.539602 O2-
0.122035 0.247295 0.539883 O2-
0.803128 0.669352 0.473816 O2-
0.303128 0.169352 0.456778 O2-
0.542257 0.667159 0.490207 O2-
0.042257 0.167159 0.483865 O2-
0.685603 0.553292 0.490451 O2-
0.185603 0.053292 0.509683 O2-
0.839056 0.463335 0.477664 O2-
0.339056 0.963335 0.459462 O2-
0.984307 0.350606 0.478495 O2-
0.484307 0.850606 0.485040 O2-
0.720379 0.348215 0.494975 O2-
0.220379 0.848215 0.511483 O2-
0.903854 0.271458 0.519177 O2-
0.403854 0.771458 0.520640 O2-
0.623095 0.241625 0.542045 O2-
0.123095 0.741625 0.537633 O2-
0.808921 0.171199 0.475555 O2-
0.308921 0.671199 0.456092 O2-
0.543593 0.170027 0.491223 O2-
0.043593 0.670027 0.483091 O2-
0.687356 0.055640 0.491382 O2-
0.187356 0.555640 0.509072 O2-
0.452378 0.080441 0.530913 O2-
0.952378 0.580441 0.517726 O2-
0.572944 0.942366 0.541743 O2-
0.072944 0.442366 0.528818 O2-
0.905428 0.964587 0.627415 O2-
0.405428 0.464587 0.594506 O2-
0.800449 0.859372 0.628591 O2-
0.300449 0.359372 0.574243 O2-
0.757206 0.724144 0.612939 O2-
0.257206 0.224144 0.582033 O2-
0.685355 0.607741 0.620346 O2-
0.185355 0.107741 0.561561 O2-
0.058300 0.021852 0.561947 O2-
0.558300 0.521852 0.596860 O2-
0.840686 0.409378 0.620822 O2-
0.340686 0.909378 0.589328 O2-
0.772630 0.290596 0.628721 O2-
0.272630 0.790596 0.569055 O2-
0.726756 0.156445 0.612966 O2-
0.226756 0.656445 0.576469 O2-
0.618048 0.056520 0.614945 O2-
0.118048 0.556520 0.554725 O2-
0.967956 0.495673 0.553491 O2-
0.467956 0.995673 0.588889 O2-
0.955284 0.073889 0.608875 O2-
0.455284 0.573889 0.622111 O2-
0.071165 0.933926 0.620217 O2-
0.571165 0.433926 0.631838 O2-
0.836724 0.958651 0.568935 O2-
0.336724 0.458651 0.549585 O2-
0.982201 0.846743 0.568367 O2-
0.482201 0.346743 0.576604 O2-
0.714989 0.845353 0.584377 O2-
0.214989 0.345353 0.602918 O2-
0.902007 0.775410 0.607760 O2-
0.402007 0.275410 0.613539 O2-
0.622035 0.747295 0.630512 O2-
0.122035 0.247295 0.630793 O2-
0.803128 0.669352 0.564725 O2-
0.303128 0.169352 0.547687 O2-
0.542257 0.667159 0.581116 O2-
0.042257 0.167159 0.574774 O2-
0.685603 0.553292 0.581360 O2-
0.185603 0.053292 0.600592 O2-
0.839056 0.463335 0.568573 O2-
0.339056 0.963335 0.550371 O2-
0.984307 0.350606 0.569404 O2-
0.484307 0.850606 0.575949 O2-
0.720379 0.348215 0.585884 O2-
0.220379 0.848215 0.602392 O2-
0.903854 0.271458 0.610086 O2-
0.403854 0.771458 0.611549 O2-
0.623095 0.241625 0.632954 O2-
0.123095 0.741625 0.628542 O2-
0.808921 0.171199 0.566464 O2-
0.308921 0.671199 0.547001 O2-
0.543593 0.170027 0.582133 O2-
0.043593 0.670027 0.574000 O2-
0.687356 0.055640 0.582291 O2-
0.187356 0.555640 0.599981 O2-
0.452378 0.080441 0.621822 O2-
0.952378 0.580441 0.608635 O2-
0.572944 0.942366 0.632652 O2-
0.072944 0.442366 0.619727 O2-
