Li42 P14
1.0
7.570718 0.000000 0.000000
0.000000 3.668361 -6.353787
0.000000 0.000000 72.009589
Li P
42 14
direct
0.250000 0.000000 0.029412 Li+
0.750000 0.000000 0.029412 Li+
0.915881 0.666667 0.029412 Li+
0.415881 0.333333 0.029412 Li+
0.084119 0.333333 0.029412 Li+
0.584119 0.666667 0.029412 Li+
0.250000 0.000000 0.088235 Li+
0.750000 0.000000 0.088235 Li+
0.915881 0.666667 0.088235 Li+
0.415881 0.333333 0.088235 Li+
0.084119 0.333333 0.088235 Li+
0.584119 0.666667 0.088235 Li+
0.250000 0.000000 0.147059 Li+
0.750000 0.000000 0.147059 Li+
0.915881 0.666667 0.147059 Li+
0.415881 0.333333 0.147059 Li+
0.084119 0.333333 0.147059 Li+
0.584119 0.666667 0.147059 Li+
0.250000 0.000000 0.205882 Li+
0.750000 0.000000 0.205882 Li+
0.915881 0.666667 0.205882 Li+
0.415881 0.333333 0.205882 Li+
0.084119 0.333333 0.205882 Li+
0.584119 0.666667 0.205882 Li+
0.250000 0.000000 0.264706 Li+
0.750000 0.000000 0.264706 Li+
0.915881 0.666667 0.264706 Li+
0.415881 0.333333 0.264706 Li+
0.084119 0.333333 0.264706 Li+
0.584119 0.666667 0.264706 Li+
0.250000 0.000000 0.323529 Li+
0.750000 0.000000 0.323529 Li+
0.915881 0.666667 0.323529 Li+
0.415881 0.333333 0.323529 Li+
0.084119 0.333333 0.323529 Li+
0.584119 0.666667 0.323529 Li+
0.250000 0.000000 0.382353 Li+
0.750000 0.000000 0.382353 Li+
0.915881 0.666667 0.382353 Li+
0.415881 0.333333 0.382353 Li+
0.084119 0.333333 0.382353 Li+
0.584119 0.666667 0.382353 Li+
0.250000 0.666667 0.029412 P3-
0.750000 0.333333 0.029412 P3-
0.250000 0.666667 0.088235 P3-
0.750000 0.333333 0.088235 P3-
0.250000 0.666667 0.147059 P3-
0.750000 0.333333 0.147059 P3-
0.250000 0.666667 0.205882 P3-
0.750000 0.333333 0.205882 P3-
0.250000 0.666667 0.264706 P3-
0.750000 0.333333 0.264706 P3-
0.250000 0.666667 0.323529 P3-
0.750000 0.333333 0.323529 P3-
0.250000 0.666667 0.382353 P3-
0.750000 0.333333 0.382353 P3-
