Li71 P24 N1 O94                         
   1.00000000000000     
    14.7187151610577782    0.0001607142075710    0.0036693158951015
     0.0001462875738852   10.5766037362322631   -0.0070775201229084
     0.0030852866082465   -0.0082355670252003   12.3053614945596994
   Li   P    N    O 
    71    24     1    94
Direct
  0.1715271208488146  0.4294585824138258 -0.0181258099407528
  0.1686269428072510  0.4230370284707832  0.5042108396714526
  0.1683062841492586  0.9329891816786536  0.0079233851853150
  0.1704647624525952  0.9227493998164832  0.4999747348683756
  0.5059283312074336  0.4239791015234315 -0.0030328678027830
  0.5036490824073344  0.4224877642730338  0.5009052857510662
  0.5034458467131281  0.9226787994398796 -0.0002281178408392
  0.5028491370620386  0.9230129914648495  0.4999772817742455
  0.8385586279322715  0.4250298587947538 -0.0000275095897354
  0.8354091485288623  0.4220981783386650  0.5001549248464284
  0.8355846432649483  0.9200549964541830 -0.0010175536202886
  0.8366667962149129  0.9232092179367438  0.4995636175714648
  0.0081446755079961  0.0774522475731110  0.2471780931314822
  0.0029701044319524  0.0758474733394728  0.7503680053840932
 -0.0008119918089541  0.5809678858118960  0.2494668557498385
  0.0025252588757519  0.5772320706329085  0.7498515063027079
  0.3328928867590802  0.0772047722901354  0.2469342588016961
  0.3363410521935759  0.0775178515550478  0.7515451687628353
  0.3386473328064863  0.5803328569910456  0.2510072806284485
  0.3364991711823129  0.5774965547807225  0.7504640593977586
  0.6707727933064276  0.0772196944947636  0.2500076086805728
  0.6697136057292017  0.0769288281031754  0.7494455289093261
  0.6697890764576185  0.5783829740881404  0.2503455925119987
  0.6694568598231071  0.5779464967223248  0.7498601000348674
  0.1692778576803879  0.1623939421661720  0.6268047005066988
  0.1689635891547410  0.6666732449609596  0.1247621428353444
  0.1696835630973896  0.6640120301671462  0.6267359167499137
  0.5044149864868767  0.1591114173413446  0.1267427585419348
  0.5027446231380164  0.1629987338767656  0.6265797684017901
  0.5039655205812725  0.6644203901821145  0.1263960931294268
  0.5025486991983523  0.6637275897074604  0.6264584965717318
  0.8386608137139282  0.1612595662440654  0.1248490922836204
  0.8361882500918975  0.1631802464785417  0.6256463480405209
  0.8345141350678466  0.6653615914904651  0.1267814677537368
  0.8357864111603192  0.6633765709643965  0.6261048796048277
 -0.0007521994020481  0.3275560744987204  0.1225951102484274
  0.0023605016594092  0.3355419897925988  0.6241804903254434
  0.0023188449778376  0.8409474972642950  0.1256129900975105
  0.0029142950894520  0.8366728419958606  0.6233213318483702
  0.3616992779663889  0.3324959865232913  0.1187130218582868
  0.3365031214467686  0.3359824774748830  0.6238906531424826
  0.3364232505441981  0.8387795983624811  0.1234046375697617
  0.3360288610353450  0.8373658814362362  0.6238054167664592
  0.6696733714654229  0.3362709491679982  0.1231440455124284
  0.6695085266970638  0.3366267378367712  0.6237898151208485
  0.6695941851218445  0.8376893452858243  0.1238535804256035
  0.6691287291087161  0.8368849227633525  0.6229318022118162
  0.0002606369805930  0.3337961122969077  0.3773516790878453
  0.0004272352515015  0.3272333327682648  0.8755125792094526
  0.0030504429010111  0.8372144927573989  0.3764602615263860
  0.0021404419773035  0.8403570655353662  0.8761668330672151
  0.3383462817323900  0.3357583773901883  0.3781572515906825
  0.3379002571993198  0.3333938122238208  0.8747076530124298
  0.3355743226502438  0.8374509538773357  0.3764961556436781
  0.3358561574425718  0.8386893040292747  0.8774802004953963
  0.6695495270021720  0.3363715202215778  0.3767467034105408
  0.6703565895997806  0.3366454725059660  0.8760559635798922
  0.6694223306784421  0.8372135829250760  0.3766460920890815
  0.6695522926244831  0.8372887068612753  0.8755973212725725
  0.1694680873734335  0.1591691359435521  0.3714899227213034
  0.1678920016762808  0.1613827020026207  0.8777465094061988
  0.1682574165403837  0.6653856771858055  0.3777018058674220
  0.1694055990106826  0.6666262439725362  0.8742059199784641
  0.5025857964046007  0.1621481402017936  0.3737233686029394
  0.5043519326327721  0.1628229668148949  0.8734803901758479
  0.5030882009057708  0.6642856404628880  0.3746468471059267
  0.5034794087655532  0.6643685423581009  0.8731538832807396
  0.8364925858970044  0.1626705392604324  0.3728752007557526
  0.8348403246235736  0.1619548685619008  0.8718959842241230
  0.8353049071572076  0.6639244477266331  0.3744239280803496
  0.8353683434222352  0.6650433134720564  0.8723643705518040
  0.1660241074517460  0.4157897383902593  0.2551527633120505
  0.1670517848531053  0.4116491284129195  0.7491419093523028
  0.1685421309090046  0.9108173091177990  0.2530667250133358
  0.1671174560794458  0.9122123355893188  0.7503155416739911
  0.5003356840310612  0.4130426153834989  0.2509038172688082
  0.5007558903257011  0.4125855669657487  0.7496668966813029
  0.5008045367248442  0.9119443143183568  0.2504827806845145
  0.5005166585446250  0.9121109948029313  0.7496202699352554
  0.8320986504674254  0.4127050032386498  0.2498077158041201
  0.8334731973944876  0.4125443568829619  0.7497131554006110
  0.8337164261334191  0.9122351264439331  0.2507019281334277
  0.8333330327998815  0.9120043617571941  0.7483523522944325
 -0.0032508672264088  0.0861096152434611  0.0006727642140623
  0.0004955435118658  0.0880257897578094  0.5001019990362990
 -0.0007280467249609  0.5926628441704717  0.0000326863846673
 -0.0002583620441833  0.5864968616525970  0.4997577475358894
  0.3347336135368328  0.0876484230095194 -0.0011144164825774
  0.3337890309056481  0.0882525835281480  0.5004390223073887
  0.3348841907168723  0.5880291525632563  0.0004493796010225
  0.3339187694948567  0.5873051537969872  0.5006631616370345
  0.6674873621364499  0.0875680491152454 -0.0003442039992068
  0.6671576561735216  0.0881980353185760  0.4999732068675113
  0.6669798107250904  0.5883691776783980 -0.0001584460188774
  0.6667388896507669  0.5878396712744226  0.5002641728977861
  0.0389836736907052  0.4487649628960986  0.0018976709906361
  0.0360227782977036  0.1576119652036050  0.3965958004905305
  0.0337981839793213  0.1536649426046196  0.8962561841107822
  0.0349348823433368  0.6547462912270972  0.3953557757106558
  0.0344785622143848  0.6601490983527347  0.8951976201363830
  0.3693361978152521  0.1576916588940361  0.3968059616916040
  0.3730471312142609  0.1571810021493882  0.8958421936690363
  0.3692610121841274  0.6565646654722858  0.3969539042000704
  0.3697643781875984  0.6564541162771955  0.8964536959363489
  0.7024936156168553  0.1573038002579890  0.3960871248558889
  0.7018711658687681  0.1566797056560873  0.8952882087286346
  0.7019302434429406  0.6570055753719073  0.3963965377887979
  0.7020180606341935  0.6572925191655135  0.8958457895120366
  0.2041570307517017  0.0471140844419822  0.2581987709144274
  0.2004306478134030  0.0521358578213807  0.7497744950393658
  0.2014285854328828  0.5541496727883024  0.2503835453868625
  0.1999544710059241  0.5518893494980777  0.7506759753626230
  0.5352431162754600  0.0515132743681601  0.2507428842944802
  0.5346860694786700  0.0517113596871332  0.7493772368606533
  0.5342849336855714  0.5524328876995622  0.2503843012068028
  0.5342024970434313  0.5525397908573162  0.7496438747453157
  0.8675130976161334  0.0516901715735986  0.2507029861986824
  0.8670054769304980  0.0517543653816972  0.7478805749604609
  0.8658199073327034  0.5527155282987264  0.2500614811119708
  0.8675679139415138  0.5522271620379288  0.7498437522959193
  0.0608109509222775  0.4089578127392165  0.2479573782785912
  0.0610900540105012  0.4079980781266717  0.7520266633728492
  0.0623441842305486  0.9078110801787409  0.2517282160757097
  0.0611876487347115  0.9088069683114262  0.7495693469403965
  0.3940914989116605  0.4110571148195435  0.2516718011666129
  0.3949081753716414  0.4097453066075598  0.7498900475915879
  0.3951456877803515  0.9092775949248898  0.2503942797784345
  0.3947284065817460  0.9093458493977867  0.7500740426457615
  0.7262924469611817  0.4100129222874930  0.2503986720359407
  0.7276904283843879  0.4103083745196408  0.7496348367571667
  0.7278036594790129  0.9092049738020113  0.2506946040034984
  0.7274895499190784  0.9091443022974299  0.7487484115537174
  0.2307302614999531  0.0902572841157493 -0.0041052547463723
  0.2280421709259985  0.0912940270385096  0.5008679786675244
  0.2289647250313056  0.5902567218619571  0.0007345867169754
  0.2279311554074035  0.5887612164966858  0.5003292733649022
  0.5617268832003591  0.0902259147451777  0.0000008073064129
  0.5613257033907898  0.0909496942137640  0.5000465356784461
  0.5610500101847139  0.5910305012501145 -0.0002757088951334
  0.5609103278208488  0.5904418338106122  0.5002594996680312
  0.8905224433710921  0.0856609481532963 -0.0052597832675883
  0.8946586283096126  0.0911001137907382  0.4996044761449621
  0.8932995099067326  0.5975039159939702 -0.0003857197023550
  0.8940526654154036  0.5894018184745479  0.5000063711039053
  0.2013017360969325  0.3440836547237879  0.6441366892882340
  0.2034698091041371  0.8418091200494165  0.1481630937308100
  0.2023753047215257  0.8427188427888547  0.6461029955771921
  0.5325119908901361  0.3433319198672953  0.1453434807398269
  0.5359166778185883  0.3431841616631474  0.6457778692105981
  0.5363725023417354  0.8428610025742436  0.1465157529355381
  0.5354093092713669  0.8428216100747826  0.6453661907645641
  0.8669133923276287  0.3441092762764723  0.1456773072683987
  0.8688090232580962  0.3432471140404869  0.6457715100232224
  0.8686937925571161  0.8427794638771946  0.1467453151364571
  0.8686094436482314  0.8426143203283563  0.6443405198304872
  0.0248687977634224  0.1555367645555976  0.1054228013620487
  0.0353024446867988  0.1570047669963905  0.6044832998714367
  0.0343971967279664  0.6590637542643726  0.1056867210546421
  0.0356684054922420  0.6555196811452971  0.6034142770714682
  0.3713838930230821  0.1564052093639944  0.1033571293507671
  0.3691660774071417  0.1571106860911490  0.6046808649180002
  0.3700875250098310  0.6562325563726258  0.1045600427087091
  0.3684496635612322  0.6566333146010751  0.6047782631453381
  0.7026803780527496  0.1569685690250101  0.1035982416257742
  0.7024024849090093  0.1574440121966103  0.6039449630930033
  0.7016059139353886  0.6575699380574321  0.1040468699914312
  0.7020538679262209  0.6569002136546093  0.6041974918904016
  0.0336847405839734  0.4464654641323004  0.4993961684346011
  0.0321295641751842  0.9466358491858878  0.0011171255135358
  0.0342381760239424  0.9482125019025298  0.5001363917245981
  0.3674172512008885  0.4471163138158490 -0.0000350143995361
  0.3680264862713230  0.4475867076418064  0.5006190371710613
  0.3702319227008610  0.9478626885375147  0.0001161052768495
  0.3675690194175735  0.9483702206037220  0.5001688340972760
  0.7006574829685098  0.4485001904501963 -0.0000114902798116
  0.7004212856836652  0.4479446843631645  0.5001099493039743
  0.7007904565877981  0.9475303824239573 -0.0004493396755466
  0.7009386758390237  0.9484034273821017  0.4999168207543864
  0.2025613039978823  0.3429269569252097  0.3555316507494635
  0.2045799283744822  0.3411997501718877  0.8509981228825050
  0.2017607323002575  0.8368486092850165  0.3564810234994412
  0.2023207818529378  0.8434687446405642  0.8541956935602456
  0.5357081233043881  0.3430173993971414  0.3538173407060324
  0.5363755837052817  0.3438906141511756  0.8535420507548018
  0.5358969297302602  0.8427823756700241  0.3545095776187009
  0.5361636323848915  0.8429291208394116  0.8532622036647367
  0.8679453224646964  0.3436749845601412  0.3535061812673433
  0.8683196835793652  0.3431944304589260  0.8536310603265493
  0.8688320164872305  0.8426374343691732  0.3545808408187065
  0.8685644303312238  0.8428354278262618  0.8520096842150026
 
  0.00000000E+00  0.00000000E+00  0.00000000E+00
  0.00000000E+00  0.00000000E+00  0.00000000E+00
  0.00000000E+00  0.00000000E+00  0.00000000E+00
  0.00000000E+00  0.00000000E+00  0.00000000E+00
  0.00000000E+00  0.00000000E+00  0.00000000E+00
  0.00000000E+00  0.00000000E+00  0.00000000E+00
  0.00000000E+00  0.00000000E+00  0.00000000E+00
  0.00000000E+00  0.00000000E+00  0.00000000E+00
  0.00000000E+00  0.00000000E+00  0.00000000E+00
  0.00000000E+00  0.00000000E+00  0.00000000E+00
  0.00000000E+00  0.00000000E+00  0.00000000E+00
  0.00000000E+00  0.00000000E+00  0.00000000E+00
  0.00000000E+00  0.00000000E+00  0.00000000E+00
  0.00000000E+00  0.00000000E+00  0.00000000E+00
  0.00000000E+00  0.00000000E+00  0.00000000E+00
  0.00000000E+00  0.00000000E+00  0.00000000E+00
  0.00000000E+00  0.00000000E+00  0.00000000E+00
  0.00000000E+00  0.00000000E+00  0.00000000E+00
  0.00000000E+00  0.00000000E+00  0.00000000E+00
  0.00000000E+00  0.00000000E+00  0.00000000E+00
  0.00000000E+00  0.00000000E+00  0.00000000E+00
  0.00000000E+00  0.00000000E+00  0.00000000E+00
  0.00000000E+00  0.00000000E+00  0.00000000E+00
  0.00000000E+00  0.00000000E+00  0.00000000E+00
  0.00000000E+00  0.00000000E+00  0.00000000E+00
  0.00000000E+00  0.00000000E+00  0.00000000E+00
  0.00000000E+00  0.00000000E+00  0.00000000E+00
  0.00000000E+00  0.00000000E+00  0.00000000E+00
  0.00000000E+00  0.00000000E+00  0.00000000E+00
  0.00000000E+00  0.00000000E+00  0.00000000E+00
  0.00000000E+00  0.00000000E+00  0.00000000E+00
  0.00000000E+00  0.00000000E+00  0.00000000E+00
  0.00000000E+00  0.00000000E+00  0.00000000E+00
  0.00000000E+00  0.00000000E+00  0.00000000E+00
  0.00000000E+00  0.00000000E+00  0.00000000E+00
  0.00000000E+00  0.00000000E+00  0.00000000E+00
  0.00000000E+00  0.00000000E+00  0.00000000E+00
  0.00000000E+00  0.00000000E+00  0.00000000E+00
  0.00000000E+00  0.00000000E+00  0.00000000E+00
  0.00000000E+00  0.00000000E+00  0.00000000E+00
  0.00000000E+00  0.00000000E+00  0.00000000E+00
  0.00000000E+00  0.00000000E+00  0.00000000E+00
  0.00000000E+00  0.00000000E+00  0.00000000E+00
  0.00000000E+00  0.00000000E+00  0.00000000E+00
  0.00000000E+00  0.00000000E+00  0.00000000E+00
  0.00000000E+00  0.00000000E+00  0.00000000E+00
  0.00000000E+00  0.00000000E+00  0.00000000E+00
  0.00000000E+00  0.00000000E+00  0.00000000E+00
  0.00000000E+00  0.00000000E+00  0.00000000E+00
  0.00000000E+00  0.00000000E+00  0.00000000E+00
  0.00000000E+00  0.00000000E+00  0.00000000E+00
  0.00000000E+00  0.00000000E+00  0.00000000E+00
  0.00000000E+00  0.00000000E+00  0.00000000E+00
  0.00000000E+00  0.00000000E+00  0.00000000E+00
  0.00000000E+00  0.00000000E+00  0.00000000E+00
  0.00000000E+00  0.00000000E+00  0.00000000E+00
  0.00000000E+00  0.00000000E+00  0.00000000E+00
  0.00000000E+00  0.00000000E+00  0.00000000E+00
  0.00000000E+00  0.00000000E+00  0.00000000E+00
  0.00000000E+00  0.00000000E+00  0.00000000E+00
  0.00000000E+00  0.00000000E+00  0.00000000E+00
  0.00000000E+00  0.00000000E+00  0.00000000E+00
  0.00000000E+00  0.00000000E+00  0.00000000E+00
  0.00000000E+00  0.00000000E+00  0.00000000E+00
  0.00000000E+00  0.00000000E+00  0.00000000E+00
  0.00000000E+00  0.00000000E+00  0.00000000E+00
  0.00000000E+00  0.00000000E+00  0.00000000E+00
  0.00000000E+00  0.00000000E+00  0.00000000E+00
  0.00000000E+00  0.00000000E+00  0.00000000E+00
  0.00000000E+00  0.00000000E+00  0.00000000E+00
  0.00000000E+00  0.00000000E+00  0.00000000E+00
  0.00000000E+00  0.00000000E+00  0.00000000E+00
  0.00000000E+00  0.00000000E+00  0.00000000E+00
  0.00000000E+00  0.00000000E+00  0.00000000E+00
  0.00000000E+00  0.00000000E+00  0.00000000E+00
  0.00000000E+00  0.00000000E+00  0.00000000E+00
  0.00000000E+00  0.00000000E+00  0.00000000E+00
  0.00000000E+00  0.00000000E+00  0.00000000E+00
  0.00000000E+00  0.00000000E+00  0.00000000E+00
  0.00000000E+00  0.00000000E+00  0.00000000E+00
  0.00000000E+00  0.00000000E+00  0.00000000E+00
  0.00000000E+00  0.00000000E+00  0.00000000E+00
  0.00000000E+00  0.00000000E+00  0.00000000E+00
  0.00000000E+00  0.00000000E+00  0.00000000E+00
  0.00000000E+00  0.00000000E+00  0.00000000E+00
  0.00000000E+00  0.00000000E+00  0.00000000E+00
  0.00000000E+00  0.00000000E+00  0.00000000E+00
  0.00000000E+00  0.00000000E+00  0.00000000E+00
  0.00000000E+00  0.00000000E+00  0.00000000E+00
  0.00000000E+00  0.00000000E+00  0.00000000E+00
  0.00000000E+00  0.00000000E+00  0.00000000E+00
  0.00000000E+00  0.00000000E+00  0.00000000E+00
  0.00000000E+00  0.00000000E+00  0.00000000E+00
  0.00000000E+00  0.00000000E+00  0.00000000E+00
  0.00000000E+00  0.00000000E+00  0.00000000E+00
  0.00000000E+00  0.00000000E+00  0.00000000E+00
  0.00000000E+00  0.00000000E+00  0.00000000E+00
  0.00000000E+00  0.00000000E+00  0.00000000E+00
  0.00000000E+00  0.00000000E+00  0.00000000E+00
  0.00000000E+00  0.00000000E+00  0.00000000E+00
  0.00000000E+00  0.00000000E+00  0.00000000E+00
  0.00000000E+00  0.00000000E+00  0.00000000E+00
  0.00000000E+00  0.00000000E+00  0.00000000E+00
  0.00000000E+00  0.00000000E+00  0.00000000E+00
  0.00000000E+00  0.00000000E+00  0.00000000E+00
  0.00000000E+00  0.00000000E+00  0.00000000E+00
  0.00000000E+00  0.00000000E+00  0.00000000E+00
  0.00000000E+00  0.00000000E+00  0.00000000E+00
  0.00000000E+00  0.00000000E+00  0.00000000E+00
  0.00000000E+00  0.00000000E+00  0.00000000E+00
  0.00000000E+00  0.00000000E+00  0.00000000E+00
  0.00000000E+00  0.00000000E+00  0.00000000E+00
  0.00000000E+00  0.00000000E+00  0.00000000E+00
  0.00000000E+00  0.00000000E+00  0.00000000E+00
  0.00000000E+00  0.00000000E+00  0.00000000E+00
  0.00000000E+00  0.00000000E+00  0.00000000E+00
  0.00000000E+00  0.00000000E+00  0.00000000E+00
  0.00000000E+00  0.00000000E+00  0.00000000E+00
  0.00000000E+00  0.00000000E+00  0.00000000E+00
  0.00000000E+00  0.00000000E+00  0.00000000E+00
  0.00000000E+00  0.00000000E+00  0.00000000E+00
  0.00000000E+00  0.00000000E+00  0.00000000E+00
  0.00000000E+00  0.00000000E+00  0.00000000E+00
  0.00000000E+00  0.00000000E+00  0.00000000E+00
  0.00000000E+00  0.00000000E+00  0.00000000E+00
  0.00000000E+00  0.00000000E+00  0.00000000E+00
  0.00000000E+00  0.00000000E+00  0.00000000E+00
  0.00000000E+00  0.00000000E+00  0.00000000E+00
  0.00000000E+00  0.00000000E+00  0.00000000E+00
  0.00000000E+00  0.00000000E+00  0.00000000E+00
  0.00000000E+00  0.00000000E+00  0.00000000E+00
  0.00000000E+00  0.00000000E+00  0.00000000E+00
  0.00000000E+00  0.00000000E+00  0.00000000E+00
  0.00000000E+00  0.00000000E+00  0.00000000E+00
  0.00000000E+00  0.00000000E+00  0.00000000E+00
  0.00000000E+00  0.00000000E+00  0.00000000E+00
  0.00000000E+00  0.00000000E+00  0.00000000E+00
  0.00000000E+00  0.00000000E+00  0.00000000E+00
  0.00000000E+00  0.00000000E+00  0.00000000E+00
  0.00000000E+00  0.00000000E+00  0.00000000E+00
  0.00000000E+00  0.00000000E+00  0.00000000E+00
  0.00000000E+00  0.00000000E+00  0.00000000E+00
  0.00000000E+00  0.00000000E+00  0.00000000E+00
  0.00000000E+00  0.00000000E+00  0.00000000E+00
  0.00000000E+00  0.00000000E+00  0.00000000E+00
  0.00000000E+00  0.00000000E+00  0.00000000E+00
  0.00000000E+00  0.00000000E+00  0.00000000E+00
  0.00000000E+00  0.00000000E+00  0.00000000E+00
  0.00000000E+00  0.00000000E+00  0.00000000E+00
  0.00000000E+00  0.00000000E+00  0.00000000E+00
  0.00000000E+00  0.00000000E+00  0.00000000E+00
  0.00000000E+00  0.00000000E+00  0.00000000E+00
  0.00000000E+00  0.00000000E+00  0.00000000E+00
  0.00000000E+00  0.00000000E+00  0.00000000E+00
  0.00000000E+00  0.00000000E+00  0.00000000E+00
  0.00000000E+00  0.00000000E+00  0.00000000E+00
  0.00000000E+00  0.00000000E+00  0.00000000E+00
  0.00000000E+00  0.00000000E+00  0.00000000E+00
  0.00000000E+00  0.00000000E+00  0.00000000E+00
  0.00000000E+00  0.00000000E+00  0.00000000E+00
  0.00000000E+00  0.00000000E+00  0.00000000E+00
  0.00000000E+00  0.00000000E+00  0.00000000E+00
  0.00000000E+00  0.00000000E+00  0.00000000E+00
  0.00000000E+00  0.00000000E+00  0.00000000E+00
  0.00000000E+00  0.00000000E+00  0.00000000E+00
  0.00000000E+00  0.00000000E+00  0.00000000E+00
  0.00000000E+00  0.00000000E+00  0.00000000E+00
  0.00000000E+00  0.00000000E+00  0.00000000E+00
  0.00000000E+00  0.00000000E+00  0.00000000E+00
  0.00000000E+00  0.00000000E+00  0.00000000E+00
  0.00000000E+00  0.00000000E+00  0.00000000E+00
  0.00000000E+00  0.00000000E+00  0.00000000E+00
  0.00000000E+00  0.00000000E+00  0.00000000E+00
  0.00000000E+00  0.00000000E+00  0.00000000E+00
  0.00000000E+00  0.00000000E+00  0.00000000E+00
  0.00000000E+00  0.00000000E+00  0.00000000E+00
  0.00000000E+00  0.00000000E+00  0.00000000E+00
  0.00000000E+00  0.00000000E+00  0.00000000E+00
  0.00000000E+00  0.00000000E+00  0.00000000E+00
  0.00000000E+00  0.00000000E+00  0.00000000E+00
  0.00000000E+00  0.00000000E+00  0.00000000E+00
  0.00000000E+00  0.00000000E+00  0.00000000E+00
  0.00000000E+00  0.00000000E+00  0.00000000E+00
  0.00000000E+00  0.00000000E+00  0.00000000E+00
  0.00000000E+00  0.00000000E+00  0.00000000E+00
  0.00000000E+00  0.00000000E+00  0.00000000E+00
  0.00000000E+00  0.00000000E+00  0.00000000E+00
  0.00000000E+00  0.00000000E+00  0.00000000E+00
  0.00000000E+00  0.00000000E+00  0.00000000E+00
  0.00000000E+00  0.00000000E+00  0.00000000E+00
