Li73 P24 N1 O95                         
   1.00000000000000     
    14.7343942857047772   -0.0145012613580695   -0.0000020685096528
    -0.0102739830484280   10.5508993108250273    0.0000022470983499
    -0.0000017919070934    0.0000026797056568   12.3065703032886749
   Li   P    N    O 
    73    24     1    95
Direct
  0.1682711457545759  0.4188173381541558  0.0041549996019613
  0.1682711635112175  0.4188176106614339  0.4958449120596284
  0.1689741122507189  0.9211294139853892 -0.0011194951709645
  0.1689734946871767  0.9211295496718110  0.5011186475421742
  0.5039206446979199  0.4193972567555460  0.0002947128535339
  0.5039207692801398  0.4193968686085776  0.4997060043501452
  0.5050493626510245  0.9214966500040801 -0.0023687606231843
  0.5050496942831574  0.9214970360841424  0.5023684808643759
  0.8367486009990702  0.4205430752976466  0.0004208317656678
  0.8367482829086175  0.4205435478318267  0.4995766637352052
  0.8360894101504975  0.9205640813021733  0.0000089151174128
  0.8360885908587551  0.9205642868003121  0.4999901585925323
  0.0040204855425914  0.0820490598134609  0.2499999097143572
  0.0026863806773606  0.0765900167604281  0.7499995574556706
 -0.0009279775726700  0.5741744317189832  0.2499981678226703
  0.0011271691456396  0.5760904523042812  0.7499996997006161
  0.3372981527060813  0.0789573491914002  0.2499996896030152
  0.3368484762973752  0.0775731307155360  0.7499997738777039
  0.2732068521505706  0.7180138132187985  0.2499992108884366
  0.3361476319317003  0.5788920476490967  0.7500021541721238
  0.6699382590060925  0.0755453328068931  0.2499997055944698
  0.6704108001347081  0.0760676682065786  0.7499992263027397
  0.6711263508875703  0.5738528030078717  0.2500009198335647
  0.6696285741771472  0.5753158004266585  0.7500004868530326
  0.1697654723938190  0.1703459036094778  0.1274835818162345
  0.1694726161720824  0.1625673900074281  0.6263579202791640
  0.1595137858416565  0.6485602960189750  0.1218002813668953
  0.1676001788791907  0.6612443510467724  0.6267519329947414
  0.5040044380007279  0.1599775128665825  0.1257545873313994
  0.5033440770432923  0.1628402419904545  0.6266964053159890
  0.5029741731427231  0.6581151921181482  0.1274564016228304
  0.5033415251218156  0.6621470137916066  0.6251931787133024
  0.8372855948776761  0.1620456451527925  0.1260481057897458
  0.8366966572427051  0.1617499482522901  0.6260992176455988
  0.8355468897853087  0.6614002537513268  0.1259583359585265
  0.8347437735048395  0.6618630022556719  0.6270430657014605
  0.0033491687240588  0.3402873238205695  0.1272644267849683
  0.0024420137670933  0.3359101133358743  0.6237653842375108
  0.0008903962681483  0.8368312205685516  0.1229959650013464
  0.0018732828821851  0.8359941719117669  0.6243870127484563
  0.3365917980296355  0.3312440948701504  0.1230306665818457
  0.3353872825636509  0.3387582386291358  0.6233825467682877
  0.3431548678844195  0.8431439628193056  0.1131306428338366
  0.3356247187705789  0.8365886974243886  0.6250311574600874
  0.6731733034929516  0.3332043363839932  0.1227475296966453
  0.6693962074985536  0.3348020113853957  0.6235133291215429
  0.6691114241347441  0.8342984352488348  0.1237326676152163
  0.6697565252810987  0.8345332871709871  0.6241012598609007
  0.0033497588874122  0.3402865849754768  0.3727344210471498
  0.0024431097680237  0.3359107387034840  0.8762350729991917
  0.0008906621797267  0.8368310577468947  0.3770041610463973
  0.0018726995506481  0.8359949852239738  0.8756134386220340
  0.3365916924977037  0.3312440914628175  0.3769711930112423
  0.3353870255742366  0.3387587833329751  0.8766178000441563
  0.3431548449848221  0.8431439585304822  0.3868692956625593
  0.3356249320377136  0.8365884125956342  0.8749697688028039
  0.6731729315068021  0.3332044515674813  0.3772507560910486
  0.6693959469730556  0.3347991178582853  0.8764863285442493
  0.6691108918108387  0.8342997239621609  0.3762669967145098
  0.6697565823788991  0.8345334860188881  0.8758987338103978
  0.1697664977778736  0.1703458649982437  0.3725170963398568
  0.1694737682353929  0.1625663762393919  0.8736411535922781
  0.1595143903432368  0.6485596750121890  0.3782005484379897
  0.1675998986161699  0.6612446440831455  0.8732487553215944
  0.5040037693648052  0.1599793045260600  0.3742453126219066
  0.5033437164432465  0.1628388740513196  0.8733035275779071
  0.5029744454350987  0.6581142642938322  0.3725435112493712
  0.5033405366123187  0.6621466992796972  0.8748076516670091
  0.8372865205949760  0.1620443509287434  0.3739512334162153
  0.8366976123838141  0.1617509527041669  0.8738996278313755
  0.8355472202399287  0.6614005793712989  0.3740409348815478
  0.8347435971633760  0.6618634055898126  0.8729560321900600
  0.3453727349066952  0.5429587088957172  0.2500021188881347
  0.1659605417791805  0.4145002488917235  0.2500001090966125
  0.1671710596928173  0.4114438862133538  0.7499999796767295
  0.1682261302035919  0.9105562421373933  0.2500008596829028
  0.1671262447552622  0.9111388506271113  0.7499996942869152
  0.5055015114013376  0.4023403337200983  0.2500000979933111
  0.4998666458192827  0.4123594149221461  0.7500006263928898
  0.4986438996867919  0.9081235305145666  0.2499996817935666
  0.5007970693363312  0.9110468451489669  0.7499997183180072
  0.8326006082011228  0.4106097721715911  0.2499995200288349
  0.8326383727678868  0.4102857881657705  0.7499998087807159
  0.8331661675674330  0.9109813458819610  0.2499996198196174
  0.8331098559006099  0.9109805853360078  0.7499996842435804
  0.0010322011856832  0.0865974721781602 -0.0003176394624276
  0.0010321665007571  0.0865976599378037  0.5003174557479121
 -0.0020188642358101  0.5878382476682946 -0.0026541114390312
 -0.0020192925874361  0.5878369032335451  0.5026519546376923
  0.3344475786992578  0.0879905784936776 -0.0015617341726193
  0.3344473858555345  0.0879915936763182  0.5015616614761649
  0.3326242984724989  0.5876452463556029  0.0035787349384371
  0.3326244304471730  0.5876455650515887  0.4964227324583659
  0.6674069739774109  0.0852392211166921 -0.0001827595294934
  0.6674064347360239  0.0852395115459909  0.5001823993484632
  0.6665293423302887  0.5854773420047212  0.0000905491470359
  0.6665290536245901  0.5854777772801276  0.4999092729542304
  0.0608779194738182  0.4156659543347743  0.2499995378979858
  0.0365617841212698  0.1557701347497382  0.3969449446771922
  0.0358484506340286  0.1553811303674884  0.8951731528911319
  0.0321747548363627  0.6603251522201031  0.3999657030293686
  0.0333017531696285  0.6570352801180350  0.8931113642195246
  0.3709185879258353  0.1536344828543397  0.3967850006220240
  0.3689207720820237  0.1591503498279122  0.8952614088657405
  0.3648752206944639  0.6559565109598048  0.3886527614343928
  0.3699124647958415  0.6597353606084954  0.9021343943251325
  0.7031208690417071  0.1530731873041567  0.3959987012534398
  0.7027454497298588  0.1547599040789450  0.8960832573444637
  0.7012518636227230  0.6550614807081173  0.3959029986308907
  0.7010878666436025  0.6551464449600148  0.8960039675242367
  0.2026787634516756  0.0493350156174113  0.2500000014007099
  0.2018116334127508  0.0509547852894192  0.7499995709956591
  0.2113256031564497  0.5570119949387505  0.2500006199234592
  0.2017041167794878  0.5516779361283456  0.7500000512844850
  0.5320130411262413  0.0481986688114748  0.2500001211403626
  0.5343070649805561  0.0513946753865801  0.7499997288456672
  0.5325937867996395  0.5456298123246766  0.2499997704186342
  0.5336891902473606  0.5525495879746406  0.7500005034158574
  0.8675878806383226  0.0508431139161777  0.2499997919697106
  0.8671323925773762  0.0510484933613553  0.7499998984676833
  0.8636628495000777  0.5519946033210554  0.2499999426765624
  0.8655223452994250  0.5508735868914347  0.7500004860032634
  0.0615452580073165  0.4088080754361337  0.7499994678951155
  0.0632839780813750  0.9068208190844416  0.2499999522590266
  0.0615286274711127  0.9090047972203318  0.7500003125849084
  0.4004043583253818  0.3891127374827070  0.2500002994852749
  0.3940486569243923  0.4110328165583845  0.7500001473264579
  0.3921650698039997  0.9037757493798336  0.2499996571107455
  0.3950293969391482  0.9081736860183607  0.7500000279766786
  0.7266250955192027  0.4064886399160807  0.2500000281691651
  0.7268553184943104  0.4067117952055097  0.7500006178625968
  0.7272790492094551  0.9077012560631387  0.2500005293859390
  0.7273747973081557  0.9080750110871832  0.7499993720811006
  0.2288496353117550  0.0889268945390587  0.0005112239076583
  0.2288490423822212  0.0889270449583318  0.4994888546953007
  0.2272564125816265  0.5889601444784360 -0.0003867688727724
  0.2272566218282348  0.5889606909386765  0.5003880539955627
  0.5616321797894984  0.0889350519157309 -0.0004481210003407
  0.5616315963450110  0.0889364172888040  0.5004474670889202
  0.5606585879677921  0.5876103714270757  0.0005997381046987
  0.5606587029624355  0.5876104175665733  0.4993998751861301
  0.8952214707825161  0.0883530551391401 -0.0002768600430390
  0.8952210940871753  0.0883531957968035  0.5002765935949722
  0.8922641930709619  0.5895350528389433 -0.0018858923375686
  0.8922638431004861  0.5895350207202106  0.5018839512589472
  0.2098614418821642  0.3462387327249585  0.1461936367502063
  0.2024387649470566  0.3424283103146024  0.6459345219071115
  0.2063531680311745  0.8358144990940793  0.1486954304205326
  0.2023039917655277  0.8415537304243831  0.6460895181984759
  0.5417046469351243  0.3369195999991040  0.1453062374741381
  0.5349119034369076  0.3427617130676530  0.6462100522688464
  0.5332750372361021  0.8393048827335825  0.1457234044971741
  0.5361043975834591  0.8418307546248965  0.6462051069770881
  0.8667932969085105  0.3417762151041945  0.1455355020081464
  0.8681992178532696  0.3413992116179222  0.6461554016832302
  0.8681015249594517  0.8418298641711993  0.1459770741382930
  0.8680618411672814  0.8417824921244279  0.6460274707902937
  0.0365617642852122  0.1557706333099726  0.1030548813620318
  0.0358480046503536  0.1553808499103417  0.6048265269552187
  0.0321741069842550  0.6603261754771579  0.1000340604001029
  0.0333013437641020  0.6570345089472172  0.6068884398342572
  0.3709202050971837  0.1536322039198170  0.1032148856966083
  0.3689205822228022  0.1591505167647178  0.6047378766148425
  0.3648751280432866  0.6559559337062050  0.1113492191441159
  0.3699119551756696  0.6597346243749560  0.5978689271513689
  0.7031202186056841  0.1530735715810590  0.1040011446613898
  0.7027448243744679  0.1547602346347229  0.6039163798575817
  0.7012519276915122  0.6550602693286318  0.1040973621492979
  0.7010872583582117  0.6551462978687839  0.6039963982081616
  0.0327045802953031  0.4487264549903309 -0.0029830989757613
  0.0327042191360316  0.4487256148784127  0.5029830274303131
  0.0348625034457013  0.9462239197550784 -0.0002887614054406
  0.0348619405020819  0.9462235639823580  0.5002890551124722
  0.3689922545863010  0.4491883772242949  0.0031456914262714
  0.3689921998527201  0.4491886900747267  0.4968555767881842
  0.3695073800192238  0.9483906142927028 -0.0048525567521559
  0.3695072639741585  0.9483909708223517  0.5048522573008877
  0.7006920405442677  0.4457971773607636 -0.0004931591215266
  0.7006922542270643  0.4457975338214108  0.5004928563474543
  0.6999721817607509  0.9446158412905210 -0.0003806001134905
  0.6999706476961317  0.9446156935764597  0.5003808662239650
  0.2098610835234057  0.3462388788134824  0.3538066772508109
  0.2024383751567983  0.3424280703426096  0.8540650698460301
  0.2063529061535471  0.8358145850374206  0.3513038876135837
  0.2023043612938789  0.8415540312953949  0.8539115599756234
  0.5417044881542673  0.3369209823649210  0.3546950919039769
  0.5349112152841113  0.3427614012832693  0.8537908192440052
  0.5332744147478681  0.8393042179737170  0.3542763199825022
  0.5361045836187461  0.8418302602412255  0.8537941992634485
  0.8667939554912082  0.3417755991662523  0.3544625282507313
  0.8681999329319183  0.3413985895729214  0.8538435147260015
  0.8681021515013940  0.8418301296639533  0.3540218933304164
  0.8680619023059504  0.8417822686047819  0.8539720558472744
 
  0.00000000E+00  0.00000000E+00  0.00000000E+00
  0.00000000E+00  0.00000000E+00  0.00000000E+00
  0.00000000E+00  0.00000000E+00  0.00000000E+00
  0.00000000E+00  0.00000000E+00  0.00000000E+00
  0.00000000E+00  0.00000000E+00  0.00000000E+00
  0.00000000E+00  0.00000000E+00  0.00000000E+00
  0.00000000E+00  0.00000000E+00  0.00000000E+00
  0.00000000E+00  0.00000000E+00  0.00000000E+00
  0.00000000E+00  0.00000000E+00  0.00000000E+00
  0.00000000E+00  0.00000000E+00  0.00000000E+00
  0.00000000E+00  0.00000000E+00  0.00000000E+00
  0.00000000E+00  0.00000000E+00  0.00000000E+00
  0.00000000E+00  0.00000000E+00  0.00000000E+00
  0.00000000E+00  0.00000000E+00  0.00000000E+00
  0.00000000E+00  0.00000000E+00  0.00000000E+00
  0.00000000E+00  0.00000000E+00  0.00000000E+00
  0.00000000E+00  0.00000000E+00  0.00000000E+00
  0.00000000E+00  0.00000000E+00  0.00000000E+00
  0.00000000E+00  0.00000000E+00  0.00000000E+00
  0.00000000E+00  0.00000000E+00  0.00000000E+00
  0.00000000E+00  0.00000000E+00  0.00000000E+00
  0.00000000E+00  0.00000000E+00  0.00000000E+00
  0.00000000E+00  0.00000000E+00  0.00000000E+00
  0.00000000E+00  0.00000000E+00  0.00000000E+00
  0.00000000E+00  0.00000000E+00  0.00000000E+00
  0.00000000E+00  0.00000000E+00  0.00000000E+00
  0.00000000E+00  0.00000000E+00  0.00000000E+00
  0.00000000E+00  0.00000000E+00  0.00000000E+00
  0.00000000E+00  0.00000000E+00  0.00000000E+00
  0.00000000E+00  0.00000000E+00  0.00000000E+00
  0.00000000E+00  0.00000000E+00  0.00000000E+00
  0.00000000E+00  0.00000000E+00  0.00000000E+00
  0.00000000E+00  0.00000000E+00  0.00000000E+00
  0.00000000E+00  0.00000000E+00  0.00000000E+00
  0.00000000E+00  0.00000000E+00  0.00000000E+00
  0.00000000E+00  0.00000000E+00  0.00000000E+00
  0.00000000E+00  0.00000000E+00  0.00000000E+00
  0.00000000E+00  0.00000000E+00  0.00000000E+00
  0.00000000E+00  0.00000000E+00  0.00000000E+00
  0.00000000E+00  0.00000000E+00  0.00000000E+00
  0.00000000E+00  0.00000000E+00  0.00000000E+00
  0.00000000E+00  0.00000000E+00  0.00000000E+00
  0.00000000E+00  0.00000000E+00  0.00000000E+00
  0.00000000E+00  0.00000000E+00  0.00000000E+00
  0.00000000E+00  0.00000000E+00  0.00000000E+00
  0.00000000E+00  0.00000000E+00  0.00000000E+00
  0.00000000E+00  0.00000000E+00  0.00000000E+00
  0.00000000E+00  0.00000000E+00  0.00000000E+00
  0.00000000E+00  0.00000000E+00  0.00000000E+00
  0.00000000E+00  0.00000000E+00  0.00000000E+00
  0.00000000E+00  0.00000000E+00  0.00000000E+00
  0.00000000E+00  0.00000000E+00  0.00000000E+00
  0.00000000E+00  0.00000000E+00  0.00000000E+00
  0.00000000E+00  0.00000000E+00  0.00000000E+00
  0.00000000E+00  0.00000000E+00  0.00000000E+00
  0.00000000E+00  0.00000000E+00  0.00000000E+00
  0.00000000E+00  0.00000000E+00  0.00000000E+00
  0.00000000E+00  0.00000000E+00  0.00000000E+00
  0.00000000E+00  0.00000000E+00  0.00000000E+00
  0.00000000E+00  0.00000000E+00  0.00000000E+00
  0.00000000E+00  0.00000000E+00  0.00000000E+00
  0.00000000E+00  0.00000000E+00  0.00000000E+00
  0.00000000E+00  0.00000000E+00  0.00000000E+00
  0.00000000E+00  0.00000000E+00  0.00000000E+00
  0.00000000E+00  0.00000000E+00  0.00000000E+00
  0.00000000E+00  0.00000000E+00  0.00000000E+00
  0.00000000E+00  0.00000000E+00  0.00000000E+00
  0.00000000E+00  0.00000000E+00  0.00000000E+00
  0.00000000E+00  0.00000000E+00  0.00000000E+00
  0.00000000E+00  0.00000000E+00  0.00000000E+00
  0.00000000E+00  0.00000000E+00  0.00000000E+00
  0.00000000E+00  0.00000000E+00  0.00000000E+00
  0.00000000E+00  0.00000000E+00  0.00000000E+00
  0.00000000E+00  0.00000000E+00  0.00000000E+00
  0.00000000E+00  0.00000000E+00  0.00000000E+00
  0.00000000E+00  0.00000000E+00  0.00000000E+00
  0.00000000E+00  0.00000000E+00  0.00000000E+00
  0.00000000E+00  0.00000000E+00  0.00000000E+00
  0.00000000E+00  0.00000000E+00  0.00000000E+00
  0.00000000E+00  0.00000000E+00  0.00000000E+00
  0.00000000E+00  0.00000000E+00  0.00000000E+00
  0.00000000E+00  0.00000000E+00  0.00000000E+00
  0.00000000E+00  0.00000000E+00  0.00000000E+00
  0.00000000E+00  0.00000000E+00  0.00000000E+00
  0.00000000E+00  0.00000000E+00  0.00000000E+00
  0.00000000E+00  0.00000000E+00  0.00000000E+00
  0.00000000E+00  0.00000000E+00  0.00000000E+00
  0.00000000E+00  0.00000000E+00  0.00000000E+00
  0.00000000E+00  0.00000000E+00  0.00000000E+00
  0.00000000E+00  0.00000000E+00  0.00000000E+00
  0.00000000E+00  0.00000000E+00  0.00000000E+00
  0.00000000E+00  0.00000000E+00  0.00000000E+00
  0.00000000E+00  0.00000000E+00  0.00000000E+00
  0.00000000E+00  0.00000000E+00  0.00000000E+00
  0.00000000E+00  0.00000000E+00  0.00000000E+00
  0.00000000E+00  0.00000000E+00  0.00000000E+00
  0.00000000E+00  0.00000000E+00  0.00000000E+00
  0.00000000E+00  0.00000000E+00  0.00000000E+00
  0.00000000E+00  0.00000000E+00  0.00000000E+00
  0.00000000E+00  0.00000000E+00  0.00000000E+00
  0.00000000E+00  0.00000000E+00  0.00000000E+00
  0.00000000E+00  0.00000000E+00  0.00000000E+00
  0.00000000E+00  0.00000000E+00  0.00000000E+00
  0.00000000E+00  0.00000000E+00  0.00000000E+00
  0.00000000E+00  0.00000000E+00  0.00000000E+00
  0.00000000E+00  0.00000000E+00  0.00000000E+00
  0.00000000E+00  0.00000000E+00  0.00000000E+00
  0.00000000E+00  0.00000000E+00  0.00000000E+00
  0.00000000E+00  0.00000000E+00  0.00000000E+00
  0.00000000E+00  0.00000000E+00  0.00000000E+00
  0.00000000E+00  0.00000000E+00  0.00000000E+00
  0.00000000E+00  0.00000000E+00  0.00000000E+00
  0.00000000E+00  0.00000000E+00  0.00000000E+00
  0.00000000E+00  0.00000000E+00  0.00000000E+00
  0.00000000E+00  0.00000000E+00  0.00000000E+00
  0.00000000E+00  0.00000000E+00  0.00000000E+00
  0.00000000E+00  0.00000000E+00  0.00000000E+00
  0.00000000E+00  0.00000000E+00  0.00000000E+00
  0.00000000E+00  0.00000000E+00  0.00000000E+00
  0.00000000E+00  0.00000000E+00  0.00000000E+00
  0.00000000E+00  0.00000000E+00  0.00000000E+00
  0.00000000E+00  0.00000000E+00  0.00000000E+00
  0.00000000E+00  0.00000000E+00  0.00000000E+00
  0.00000000E+00  0.00000000E+00  0.00000000E+00
  0.00000000E+00  0.00000000E+00  0.00000000E+00
  0.00000000E+00  0.00000000E+00  0.00000000E+00
  0.00000000E+00  0.00000000E+00  0.00000000E+00
  0.00000000E+00  0.00000000E+00  0.00000000E+00
  0.00000000E+00  0.00000000E+00  0.00000000E+00
  0.00000000E+00  0.00000000E+00  0.00000000E+00
  0.00000000E+00  0.00000000E+00  0.00000000E+00
  0.00000000E+00  0.00000000E+00  0.00000000E+00
  0.00000000E+00  0.00000000E+00  0.00000000E+00
  0.00000000E+00  0.00000000E+00  0.00000000E+00
  0.00000000E+00  0.00000000E+00  0.00000000E+00
  0.00000000E+00  0.00000000E+00  0.00000000E+00
  0.00000000E+00  0.00000000E+00  0.00000000E+00
  0.00000000E+00  0.00000000E+00  0.00000000E+00
  0.00000000E+00  0.00000000E+00  0.00000000E+00
  0.00000000E+00  0.00000000E+00  0.00000000E+00
  0.00000000E+00  0.00000000E+00  0.00000000E+00
  0.00000000E+00  0.00000000E+00  0.00000000E+00
  0.00000000E+00  0.00000000E+00  0.00000000E+00
  0.00000000E+00  0.00000000E+00  0.00000000E+00
  0.00000000E+00  0.00000000E+00  0.00000000E+00
  0.00000000E+00  0.00000000E+00  0.00000000E+00
  0.00000000E+00  0.00000000E+00  0.00000000E+00
  0.00000000E+00  0.00000000E+00  0.00000000E+00
  0.00000000E+00  0.00000000E+00  0.00000000E+00
  0.00000000E+00  0.00000000E+00  0.00000000E+00
  0.00000000E+00  0.00000000E+00  0.00000000E+00
  0.00000000E+00  0.00000000E+00  0.00000000E+00
  0.00000000E+00  0.00000000E+00  0.00000000E+00
  0.00000000E+00  0.00000000E+00  0.00000000E+00
  0.00000000E+00  0.00000000E+00  0.00000000E+00
  0.00000000E+00  0.00000000E+00  0.00000000E+00
  0.00000000E+00  0.00000000E+00  0.00000000E+00
  0.00000000E+00  0.00000000E+00  0.00000000E+00
  0.00000000E+00  0.00000000E+00  0.00000000E+00
  0.00000000E+00  0.00000000E+00  0.00000000E+00
  0.00000000E+00  0.00000000E+00  0.00000000E+00
  0.00000000E+00  0.00000000E+00  0.00000000E+00
  0.00000000E+00  0.00000000E+00  0.00000000E+00
  0.00000000E+00  0.00000000E+00  0.00000000E+00
  0.00000000E+00  0.00000000E+00  0.00000000E+00
  0.00000000E+00  0.00000000E+00  0.00000000E+00
  0.00000000E+00  0.00000000E+00  0.00000000E+00
  0.00000000E+00  0.00000000E+00  0.00000000E+00
  0.00000000E+00  0.00000000E+00  0.00000000E+00
  0.00000000E+00  0.00000000E+00  0.00000000E+00
  0.00000000E+00  0.00000000E+00  0.00000000E+00
  0.00000000E+00  0.00000000E+00  0.00000000E+00
  0.00000000E+00  0.00000000E+00  0.00000000E+00
  0.00000000E+00  0.00000000E+00  0.00000000E+00
  0.00000000E+00  0.00000000E+00  0.00000000E+00
  0.00000000E+00  0.00000000E+00  0.00000000E+00
  0.00000000E+00  0.00000000E+00  0.00000000E+00
  0.00000000E+00  0.00000000E+00  0.00000000E+00
  0.00000000E+00  0.00000000E+00  0.00000000E+00
  0.00000000E+00  0.00000000E+00  0.00000000E+00
  0.00000000E+00  0.00000000E+00  0.00000000E+00
  0.00000000E+00  0.00000000E+00  0.00000000E+00
  0.00000000E+00  0.00000000E+00  0.00000000E+00
  0.00000000E+00  0.00000000E+00  0.00000000E+00
  0.00000000E+00  0.00000000E+00  0.00000000E+00
  0.00000000E+00  0.00000000E+00  0.00000000E+00
  0.00000000E+00  0.00000000E+00  0.00000000E+00
  0.00000000E+00  0.00000000E+00  0.00000000E+00
  0.00000000E+00  0.00000000E+00  0.00000000E+00
  0.00000000E+00  0.00000000E+00  0.00000000E+00
  0.00000000E+00  0.00000000E+00  0.00000000E+00
  0.00000000E+00  0.00000000E+00  0.00000000E+00
  0.00000000E+00  0.00000000E+00  0.00000000E+00
