Li71 P24 N1 O94                         
   1.00000000000000     
    14.7271731030448372    0.0023405085646702   -0.0110899665763603
     0.0016950030657194   10.5723036041555343   -0.0023812967054068
    -0.0092765700429162   -0.0027721303126629   12.3137744490427483
   Li   P    N    O 
    71    24     1    94
Direct
  0.1991880376422042  0.4159788579958692 -0.0086024176524822
  0.1693245632841883  0.4227150955409823  0.4999123787448753
  0.1693052478809393  0.9318923983081188  0.0085618875982360
  0.1707426638714074  0.9232241838460995  0.4991573522301205
  0.5018047005337336  0.4218818958156207  0.0001592136655894
  0.5025979517110762  0.4217106024614247  0.4991931666106363
  0.5036017725729052  0.9231006970491187  0.0002895368522903
  0.5024970818213442  0.9232854823120343  0.4993139469496928
  0.8324943742899360  0.4199313989834584  0.0009868198811422
  0.8357553871208976  0.4222266704685100  0.5000595958269073
  0.8351788335050527  0.9208469705066359 -0.0007113837474474
  0.8365282598101048  0.9230091938182354  0.4994134535006636
  0.0092883476219885  0.0759657985268825  0.2490528679038476
  0.0038535500084466  0.0743004925221438  0.7487972942344626
  0.0014238558838738  0.5795279384718478  0.2552942446585209
  0.0023832913736789  0.5777213691639864  0.7474707231963889
  0.3320227917842174  0.0788500889335729  0.2452420404025765
  0.3363866377574498  0.0775161600361407  0.7508421959738405
  0.3357721696656085  0.5762901177460569  0.2504088952292192
  0.3374853379642533  0.5781193742981943  0.7493922274937134
  0.6703579996849809  0.0773551691755803  0.2497797242706405
  0.6691760634399545  0.0766839583705361  0.7492192907055293
  0.6687713240552523  0.5773494705849948  0.2505253416099659
  0.6682255612287298  0.5777335041383070  0.7493282378191715
  0.1695644393895978  0.1628271470674018  0.6258453682927950
  0.1728023556586651  0.6639569683909070  0.1273551783884550
  0.1699706996011975  0.6646017798518389  0.6260624534813501
  0.5025120718066725  0.1622241172613838  0.1263112021682098
  0.5023398341282947  0.1629943640311323  0.6259351805495146
  0.5028871878917072  0.6639324898109761  0.1269512372376783
  0.5025861642034265  0.6635296414815077  0.6255026186802444
  0.8393640432309293  0.1617137057603862  0.1251068326250269
  0.8361720588604554  0.1626120899179117  0.6257149293849679
  0.8331822170751230  0.6647958661857135  0.1299050127636183
  0.8350582716616886  0.6637566040009134  0.6260759024050305
  0.0036443919627838  0.3225947171976332  0.1428855359158961
  0.0035554198221857  0.3366870377112897  0.6228150349038865
  0.0030636459019383  0.8436647560897824  0.1265193081140267
  0.0030499883805694  0.8371996302910498  0.6230651175199170
  0.3369140438170373  0.3309868083047269  0.1244455870397360
  0.3360029219351294  0.3360441584389472  0.6222813911480453
  0.3367362385388090  0.8388579014724776  0.1231472217909645
  0.3363709515727337  0.8372625244607864  0.6229093995333090
  0.6687350831421777  0.3356049363188429  0.1238417313229595
  0.6689569068462068  0.3362433179818877  0.6231136433329053
  0.6690083264180365  0.8374909778737103  0.1238097424750813
  0.6690416180626930  0.8368450468842225  0.6230276632065582
  0.0025732625399455  0.3366101435509480  0.3807019646654884
 -0.0028213776648961  0.3191684611175847  0.8582499096104409
  0.0035039357832612  0.8375615022817690  0.3773647063940107
  0.0029790093952529  0.8435056392019272  0.8754380722268157
  0.3347035595655241  0.3363988559602963  0.3749971203899221
  0.3406549994719290  0.3318931886817662  0.8732771461493937
  0.3355424847742874  0.8369565667838921  0.3756934529717399
  0.3364717099127458  0.8394353174116370  0.8771065581658692
  0.6696569994307617  0.3363483649056220  0.3760301846190792
  0.6680450443591373  0.3361860285821971  0.8759488672574653
  0.6692244221867364  0.8370297545472830  0.3762604883907590
  0.6689405063052621  0.8373978295542918  0.8759834005095252
  0.1703208802871717  0.1629318853720407  0.3701461560204740
  0.1692166863828453  0.1615341665535392  0.8785129207983623
  0.1682389342763346  0.6639811074730354  0.3775038394235025
  0.1723854350607959  0.6666128987742190  0.8723707664405204
  0.5020099257610308  0.1630258496096399  0.3729952715373983
  0.5040305008268193  0.1621679632716589  0.8735801860844962
  0.5023491394555368  0.6634725055390318  0.3737664327991599
  0.5032733229214018  0.6642992677718799  0.8730812476037926
  0.8370484854890086  0.1627002161535009  0.3728039264441195
  0.8333922186550317  0.1610563808851698  0.8716072332290706
  0.8355716448628905  0.6640418682632411  0.3753412449121667
  0.8329252647391526  0.6644894421459842  0.8706418569856185
  0.1644780744888580  0.4158416040232437  0.2525473507369841
  0.1675894559671568  0.4124214777133085  0.7490077777925690
  0.1687714224334926  0.9103163846591196  0.2536094058599955
  0.1673478661107075  0.9126764126397217  0.7498697669492869
  0.5007422160508864  0.4121427518803055  0.2500478817612308
  0.5004063435369425  0.4123859781720340  0.7491765140543425
  0.5007766448329268  0.9123652817312151  0.2502671337725952
  0.5006672372890002  0.9120750848761732  0.7492635812459331
  0.8338641925197825  0.4134734424026940  0.2500389117354107
  0.8331517599989269  0.4128099851473807  0.7502574251543035
  0.8341993526648289  0.9118736241747579  0.2503899098893992
  0.8338308325530025  0.9114148795239921  0.7489501498912757
 -0.0035946287241996  0.0874381936607258  0.0008937262645808
  0.0004276540725257  0.0882359088886714  0.5002613550538193
 -0.0016052450653630  0.5963247503373469  0.0004620262180569
 -0.0006064988066887  0.5880796588687615  0.5019029098573005
  0.3354157402681045  0.0864652635223830 -0.0016865332682421
  0.3335326553798161  0.0884859086330559  0.4996617811125821
  0.3346655311099759  0.5896434422518069 -0.0012107113305265
  0.3337723274000043  0.5873457907672983  0.5001670398013449
  0.6677893942812987  0.0878841853584844 -0.0001705183346100
  0.6673802645564365  0.0880866726767245  0.4997765258056326
  0.6662250979754959  0.5876706667727166 -0.0000253573662332
  0.6667984187189860  0.5874947798568174  0.5000382249177607
  0.2026437148684701  0.3609798803691128  0.1387179761188585
  0.0355932049872750  0.1577364366584810  0.3969241193151370
  0.0338672505585574  0.1561220747535643  0.8971507083192743
  0.0342941871845071  0.6573566560812891  0.3983929590658318
  0.0360952554758338  0.6575849799595985  0.8951631248267685
  0.3689204429486035  0.1580791447563792  0.3962990391140503
  0.3731013715811499  0.1557223546765523  0.8946509945811209
  0.3689305155047695  0.6562478909301759  0.3963574748253055
  0.3703431168132795  0.6583217765206011  0.8952514839893384
  0.7031866134514692  0.1570526498345614  0.3961482155484166
  0.7018214542709532  0.1567971309160880  0.8950934177977335
  0.7021745567429716  0.6568199791102369  0.3964089698635480
  0.7015655368812130  0.6567102009571293  0.8960436908919357
  0.2035355362880668  0.0468464971849149  0.2586230936361482
  0.1997757188247015  0.0528916719917950  0.7494073117202414
  0.1984732793650636  0.5563446153259090  0.2536906517004113
  0.2005112010137666  0.5523931261926014  0.7500572914240046
  0.5355044811501104  0.0518045113226412  0.2503257347427800
  0.5348821224736773  0.0517403228434091  0.7490498721896327
  0.5345460457293351  0.5521493725297665  0.2501502321689863
  0.5340678591278430  0.5523358250863677  0.7494217903941131
  0.8682856961444360  0.0512270024746014  0.2500968790227462
  0.8678289759471225  0.0511138441605527  0.7488906108131617
  0.8666912857920246  0.5538707061224720  0.2508499725112366
  0.8671775525870702  0.5524963741062183  0.7505831090782366
  0.0579645883459095  0.4133743152627672  0.2567127265948247
  0.0612886674693879  0.4098488195525124  0.7525433882140425
  0.0624233987733579  0.9070321705926225  0.2520203994700121
  0.0612793494983885  0.9087732718298045  0.7493953924878667
  0.3951747870792173  0.4094862857401369  0.2502120899034694
  0.3946735377175012  0.4098038198160904  0.7482932137250298
  0.3952444816538378  0.9098108998853691  0.2499993268632136
  0.3950075511713401  0.9092845337745368  0.7493720034097943
  0.7282830438394912  0.4094101855979178  0.2490787369015062
  0.7277010365457989  0.4095886401567852  0.7502073954250043
  0.7284496481855485  0.9088408020702157  0.2499417445946062
  0.7281595550698751  0.9087186082299977  0.7496731034932291
  0.2315058863229746  0.0868687677801803 -0.0058760660040254
  0.2278654338599884  0.0915545168364015  0.5003685703164428
  0.2286518438575047  0.5942633946604615 -0.0020186123678694
  0.2279934316729985  0.5897639561428116  0.5012512290058491
  0.5622902880580668  0.0909579731304362  0.0006018832881871
  0.5617019689389394  0.0912551873266277  0.4996450178104103
  0.5606530221322150  0.5902847909736697 -0.0000314101270673
  0.5611459766001801  0.5897429789108730  0.4998158691019575
  0.8904226348476664  0.0864816443309354 -0.0057148877318110
  0.8945770166174256  0.0908351073737371  0.4999717439650645
  0.8930396928616984  0.5914898265120246 -0.0000648732871161
  0.8936446977359291  0.5900209209567190  0.5016028104115219
  0.2005599017145130  0.3443428787843744  0.6441576844329269
  0.2033549664696691  0.8414128748709279  0.1487152591492270
  0.2024531631594331  0.8434403964614217  0.6458691669790885
  0.5358880595357316  0.3433320560318510  0.1458756380117424
  0.5360796816983325  0.3430197473598401  0.6457383914816044
  0.5364652896472940  0.8428168353913582  0.1466282424551264
  0.5357057279867350  0.8428598450808474  0.6452120129549915
  0.8706353703640860  0.3462416020450544  0.1455048833420871
  0.8694938272683012  0.3429552832457439  0.6475118120159129
  0.8693576134375228  0.8419247696071860  0.1464723076241798
  0.8688296531879726  0.8424119913646564  0.6449937008535670
  0.0238496498274652  0.1566516524919614  0.1057842661172994
  0.0350629474076172  0.1574995562870756  0.6047350523146027
  0.0358085034965730  0.6579738358234516  0.1055983666734728
  0.0348954525507332  0.6572185776655407  0.6057222576892819
  0.3718789869842014  0.1555483381650889  0.1019471173349854
  0.3690178728729697  0.1570575997579756  0.6041095861630491
  0.3696958552797069  0.6562939544493142  0.1036049064444528
  0.3692527067932404  0.6566391341229803  0.6040325214553921
  0.7042611643540098  0.1571936408951405  0.1031325091684289
  0.7027816719469990  0.1570793064285809  0.6039239330424643
  0.7018741022048891  0.6567571587902676  0.1037709288368258
  0.7019242104614549  0.6565880046581044  0.6041901223162028
  0.0334048858535386  0.4484315276024897  0.5025063642396770
  0.0321285235085381  0.9481372001722854  0.0008918890014626
  0.0342054473402101  0.9484724494463570  0.5007713407484463
  0.3652188225334462  0.4480349846208829 -0.0027224009941854
  0.3674066861497652  0.4473684846247268  0.4998147634863605
  0.3713774241859228  0.9466629753519825 -0.0004580196463089
  0.3673803877148955  0.9484694432284796  0.4995800736140371
  0.7002467951550619  0.4477767759094532 -0.0001933512837482
  0.7010872682560529  0.4477430959001881  0.5000404063954136
  0.7010736232798931  0.9476419562650061 -0.0004479597810303
  0.7010657047257016  0.9480906728857050  0.4999670397764092
  0.1997211227208153  0.3447981809176358  0.3557223813372850
  0.2043515212218162  0.3413619570602893  0.8508561568484337
  0.2017897073795746  0.8365773153961715  0.3569750378094777
  0.2023128767932904  0.8436372140008025  0.8536469737203227
  0.5365930626747483  0.3428986551179571  0.3536654626980347
  0.5352060910347367  0.3436934514634553  0.8535580496221904
  0.5359313764462720  0.8429603778129545  0.3543609111442769
  0.5365204401759139  0.8430637684850972  0.8529907289807780
  0.8691707229784748  0.3437784341082927  0.3535234053412258
  0.8687400573105460  0.3440812309018405  0.8549994356849078
  0.8692818014130166  0.8425061355825190  0.3543435440179468
  0.8694569691197688  0.8414244222673908  0.8525714238162226
 
  0.00000000E+00  0.00000000E+00  0.00000000E+00
  0.00000000E+00  0.00000000E+00  0.00000000E+00
  0.00000000E+00  0.00000000E+00  0.00000000E+00
  0.00000000E+00  0.00000000E+00  0.00000000E+00
  0.00000000E+00  0.00000000E+00  0.00000000E+00
  0.00000000E+00  0.00000000E+00  0.00000000E+00
  0.00000000E+00  0.00000000E+00  0.00000000E+00
  0.00000000E+00  0.00000000E+00  0.00000000E+00
  0.00000000E+00  0.00000000E+00  0.00000000E+00
  0.00000000E+00  0.00000000E+00  0.00000000E+00
  0.00000000E+00  0.00000000E+00  0.00000000E+00
  0.00000000E+00  0.00000000E+00  0.00000000E+00
  0.00000000E+00  0.00000000E+00  0.00000000E+00
  0.00000000E+00  0.00000000E+00  0.00000000E+00
  0.00000000E+00  0.00000000E+00  0.00000000E+00
  0.00000000E+00  0.00000000E+00  0.00000000E+00
  0.00000000E+00  0.00000000E+00  0.00000000E+00
  0.00000000E+00  0.00000000E+00  0.00000000E+00
  0.00000000E+00  0.00000000E+00  0.00000000E+00
  0.00000000E+00  0.00000000E+00  0.00000000E+00
  0.00000000E+00  0.00000000E+00  0.00000000E+00
  0.00000000E+00  0.00000000E+00  0.00000000E+00
  0.00000000E+00  0.00000000E+00  0.00000000E+00
  0.00000000E+00  0.00000000E+00  0.00000000E+00
  0.00000000E+00  0.00000000E+00  0.00000000E+00
  0.00000000E+00  0.00000000E+00  0.00000000E+00
  0.00000000E+00  0.00000000E+00  0.00000000E+00
  0.00000000E+00  0.00000000E+00  0.00000000E+00
  0.00000000E+00  0.00000000E+00  0.00000000E+00
  0.00000000E+00  0.00000000E+00  0.00000000E+00
  0.00000000E+00  0.00000000E+00  0.00000000E+00
  0.00000000E+00  0.00000000E+00  0.00000000E+00
  0.00000000E+00  0.00000000E+00  0.00000000E+00
  0.00000000E+00  0.00000000E+00  0.00000000E+00
  0.00000000E+00  0.00000000E+00  0.00000000E+00
  0.00000000E+00  0.00000000E+00  0.00000000E+00
  0.00000000E+00  0.00000000E+00  0.00000000E+00
  0.00000000E+00  0.00000000E+00  0.00000000E+00
  0.00000000E+00  0.00000000E+00  0.00000000E+00
  0.00000000E+00  0.00000000E+00  0.00000000E+00
  0.00000000E+00  0.00000000E+00  0.00000000E+00
  0.00000000E+00  0.00000000E+00  0.00000000E+00
  0.00000000E+00  0.00000000E+00  0.00000000E+00
  0.00000000E+00  0.00000000E+00  0.00000000E+00
  0.00000000E+00  0.00000000E+00  0.00000000E+00
  0.00000000E+00  0.00000000E+00  0.00000000E+00
  0.00000000E+00  0.00000000E+00  0.00000000E+00
  0.00000000E+00  0.00000000E+00  0.00000000E+00
  0.00000000E+00  0.00000000E+00  0.00000000E+00
  0.00000000E+00  0.00000000E+00  0.00000000E+00
  0.00000000E+00  0.00000000E+00  0.00000000E+00
  0.00000000E+00  0.00000000E+00  0.00000000E+00
  0.00000000E+00  0.00000000E+00  0.00000000E+00
  0.00000000E+00  0.00000000E+00  0.00000000E+00
  0.00000000E+00  0.00000000E+00  0.00000000E+00
  0.00000000E+00  0.00000000E+00  0.00000000E+00
  0.00000000E+00  0.00000000E+00  0.00000000E+00
  0.00000000E+00  0.00000000E+00  0.00000000E+00
  0.00000000E+00  0.00000000E+00  0.00000000E+00
  0.00000000E+00  0.00000000E+00  0.00000000E+00
  0.00000000E+00  0.00000000E+00  0.00000000E+00
  0.00000000E+00  0.00000000E+00  0.00000000E+00
  0.00000000E+00  0.00000000E+00  0.00000000E+00
  0.00000000E+00  0.00000000E+00  0.00000000E+00
  0.00000000E+00  0.00000000E+00  0.00000000E+00
  0.00000000E+00  0.00000000E+00  0.00000000E+00
  0.00000000E+00  0.00000000E+00  0.00000000E+00
  0.00000000E+00  0.00000000E+00  0.00000000E+00
  0.00000000E+00  0.00000000E+00  0.00000000E+00
  0.00000000E+00  0.00000000E+00  0.00000000E+00
  0.00000000E+00  0.00000000E+00  0.00000000E+00
  0.00000000E+00  0.00000000E+00  0.00000000E+00
  0.00000000E+00  0.00000000E+00  0.00000000E+00
  0.00000000E+00  0.00000000E+00  0.00000000E+00
  0.00000000E+00  0.00000000E+00  0.00000000E+00
  0.00000000E+00  0.00000000E+00  0.00000000E+00
  0.00000000E+00  0.00000000E+00  0.00000000E+00
  0.00000000E+00  0.00000000E+00  0.00000000E+00
  0.00000000E+00  0.00000000E+00  0.00000000E+00
  0.00000000E+00  0.00000000E+00  0.00000000E+00
  0.00000000E+00  0.00000000E+00  0.00000000E+00
  0.00000000E+00  0.00000000E+00  0.00000000E+00
  0.00000000E+00  0.00000000E+00  0.00000000E+00
  0.00000000E+00  0.00000000E+00  0.00000000E+00
  0.00000000E+00  0.00000000E+00  0.00000000E+00
  0.00000000E+00  0.00000000E+00  0.00000000E+00
  0.00000000E+00  0.00000000E+00  0.00000000E+00
  0.00000000E+00  0.00000000E+00  0.00000000E+00
  0.00000000E+00  0.00000000E+00  0.00000000E+00
  0.00000000E+00  0.00000000E+00  0.00000000E+00
  0.00000000E+00  0.00000000E+00  0.00000000E+00
  0.00000000E+00  0.00000000E+00  0.00000000E+00
  0.00000000E+00  0.00000000E+00  0.00000000E+00
  0.00000000E+00  0.00000000E+00  0.00000000E+00
  0.00000000E+00  0.00000000E+00  0.00000000E+00
  0.00000000E+00  0.00000000E+00  0.00000000E+00
  0.00000000E+00  0.00000000E+00  0.00000000E+00
  0.00000000E+00  0.00000000E+00  0.00000000E+00
  0.00000000E+00  0.00000000E+00  0.00000000E+00
  0.00000000E+00  0.00000000E+00  0.00000000E+00
  0.00000000E+00  0.00000000E+00  0.00000000E+00
  0.00000000E+00  0.00000000E+00  0.00000000E+00
  0.00000000E+00  0.00000000E+00  0.00000000E+00
  0.00000000E+00  0.00000000E+00  0.00000000E+00
  0.00000000E+00  0.00000000E+00  0.00000000E+00
  0.00000000E+00  0.00000000E+00  0.00000000E+00
  0.00000000E+00  0.00000000E+00  0.00000000E+00
  0.00000000E+00  0.00000000E+00  0.00000000E+00
  0.00000000E+00  0.00000000E+00  0.00000000E+00
  0.00000000E+00  0.00000000E+00  0.00000000E+00
  0.00000000E+00  0.00000000E+00  0.00000000E+00
  0.00000000E+00  0.00000000E+00  0.00000000E+00
  0.00000000E+00  0.00000000E+00  0.00000000E+00
  0.00000000E+00  0.00000000E+00  0.00000000E+00
  0.00000000E+00  0.00000000E+00  0.00000000E+00
  0.00000000E+00  0.00000000E+00  0.00000000E+00
  0.00000000E+00  0.00000000E+00  0.00000000E+00
  0.00000000E+00  0.00000000E+00  0.00000000E+00
  0.00000000E+00  0.00000000E+00  0.00000000E+00
  0.00000000E+00  0.00000000E+00  0.00000000E+00
  0.00000000E+00  0.00000000E+00  0.00000000E+00
  0.00000000E+00  0.00000000E+00  0.00000000E+00
  0.00000000E+00  0.00000000E+00  0.00000000E+00
  0.00000000E+00  0.00000000E+00  0.00000000E+00
  0.00000000E+00  0.00000000E+00  0.00000000E+00
  0.00000000E+00  0.00000000E+00  0.00000000E+00
  0.00000000E+00  0.00000000E+00  0.00000000E+00
  0.00000000E+00  0.00000000E+00  0.00000000E+00
  0.00000000E+00  0.00000000E+00  0.00000000E+00
  0.00000000E+00  0.00000000E+00  0.00000000E+00
  0.00000000E+00  0.00000000E+00  0.00000000E+00
  0.00000000E+00  0.00000000E+00  0.00000000E+00
  0.00000000E+00  0.00000000E+00  0.00000000E+00
  0.00000000E+00  0.00000000E+00  0.00000000E+00
  0.00000000E+00  0.00000000E+00  0.00000000E+00
  0.00000000E+00  0.00000000E+00  0.00000000E+00
  0.00000000E+00  0.00000000E+00  0.00000000E+00
  0.00000000E+00  0.00000000E+00  0.00000000E+00
  0.00000000E+00  0.00000000E+00  0.00000000E+00
  0.00000000E+00  0.00000000E+00  0.00000000E+00
  0.00000000E+00  0.00000000E+00  0.00000000E+00
  0.00000000E+00  0.00000000E+00  0.00000000E+00
  0.00000000E+00  0.00000000E+00  0.00000000E+00
  0.00000000E+00  0.00000000E+00  0.00000000E+00
  0.00000000E+00  0.00000000E+00  0.00000000E+00
  0.00000000E+00  0.00000000E+00  0.00000000E+00
  0.00000000E+00  0.00000000E+00  0.00000000E+00
  0.00000000E+00  0.00000000E+00  0.00000000E+00
  0.00000000E+00  0.00000000E+00  0.00000000E+00
  0.00000000E+00  0.00000000E+00  0.00000000E+00
  0.00000000E+00  0.00000000E+00  0.00000000E+00
  0.00000000E+00  0.00000000E+00  0.00000000E+00
  0.00000000E+00  0.00000000E+00  0.00000000E+00
  0.00000000E+00  0.00000000E+00  0.00000000E+00
  0.00000000E+00  0.00000000E+00  0.00000000E+00
  0.00000000E+00  0.00000000E+00  0.00000000E+00
  0.00000000E+00  0.00000000E+00  0.00000000E+00
  0.00000000E+00  0.00000000E+00  0.00000000E+00
  0.00000000E+00  0.00000000E+00  0.00000000E+00
  0.00000000E+00  0.00000000E+00  0.00000000E+00
  0.00000000E+00  0.00000000E+00  0.00000000E+00
  0.00000000E+00  0.00000000E+00  0.00000000E+00
  0.00000000E+00  0.00000000E+00  0.00000000E+00
  0.00000000E+00  0.00000000E+00  0.00000000E+00
  0.00000000E+00  0.00000000E+00  0.00000000E+00
  0.00000000E+00  0.00000000E+00  0.00000000E+00
  0.00000000E+00  0.00000000E+00  0.00000000E+00
  0.00000000E+00  0.00000000E+00  0.00000000E+00
  0.00000000E+00  0.00000000E+00  0.00000000E+00
  0.00000000E+00  0.00000000E+00  0.00000000E+00
  0.00000000E+00  0.00000000E+00  0.00000000E+00
  0.00000000E+00  0.00000000E+00  0.00000000E+00
  0.00000000E+00  0.00000000E+00  0.00000000E+00
  0.00000000E+00  0.00000000E+00  0.00000000E+00
  0.00000000E+00  0.00000000E+00  0.00000000E+00
  0.00000000E+00  0.00000000E+00  0.00000000E+00
  0.00000000E+00  0.00000000E+00  0.00000000E+00
  0.00000000E+00  0.00000000E+00  0.00000000E+00
  0.00000000E+00  0.00000000E+00  0.00000000E+00
  0.00000000E+00  0.00000000E+00  0.00000000E+00
  0.00000000E+00  0.00000000E+00  0.00000000E+00
  0.00000000E+00  0.00000000E+00  0.00000000E+00
  0.00000000E+00  0.00000000E+00  0.00000000E+00
  0.00000000E+00  0.00000000E+00  0.00000000E+00
  0.00000000E+00  0.00000000E+00  0.00000000E+00
  0.00000000E+00  0.00000000E+00  0.00000000E+00
  0.00000000E+00  0.00000000E+00  0.00000000E+00
  0.00000000E+00  0.00000000E+00  0.00000000E+00
  0.00000000E+00  0.00000000E+00  0.00000000E+00
  0.00000000E+00  0.00000000E+00  0.00000000E+00
