Li71 P24 N1 O94                         
   1.00000000000000     
    14.7269160414707923    0.0076975623104080    0.0074803843368371
     0.0055369102409342   10.5694172582570882   -0.0025762819392410
     0.0062632769329465   -0.0030048172505213   12.3076158796641568
   Li   P    N    O 
    71    24     1    94
Direct
  0.1698672812013686  0.4194842940726031 -0.0011632419447203
  0.1727467604852779  0.4239325158771484  0.5068081513327359
  0.1670376818481324  0.9301800730618814  0.0005555312619365
  0.1680710838921549  0.9206505634753203  0.5039913355315512
  0.5033368014233194  0.4222478853998284 -0.0001443706070369
  0.5044217334226992  0.4233092595878865  0.5010641314989632
  0.5047491866541342  0.9229466543025705 -0.0010054515224109
  0.5038391437114530  0.9222302101446227  0.5007623953068742
  0.8371182503824470  0.4224866981551753 -0.0000890578463651
  0.8364491197139253  0.4216796905212842  0.4995702644444289
  0.8351463429746673  0.9209078949584663 -0.0016685356514754
  0.8348816735921744  0.9219052666666701  0.5005341418762157
  0.0002480929035564  0.0805080398989438  0.2468382722742302
  0.0031877120088060  0.0782616408813342  0.7520541162567577
  0.0021425333177507  0.5812626751758271  0.2486502959659760
  0.0031683598456225  0.5765655588552933  0.7504380881790499
  0.3616226364242772  0.0849334611859531  0.2466695655965894
  0.3358472582367738  0.0780718062485705  0.7521066056344848
  0.3342370827417459  0.5756751335476820  0.2497853600098378
  0.3369769675004861  0.5773488330394725  0.7509090876450024
  0.6699343136117278  0.0782477329830547  0.2491693986996286
  0.6694125962088162  0.0776243634254736  0.7499443644262811
  0.6699431639684520  0.5771816500542003  0.2498608324250500
  0.6698183548439312  0.5773707842755621  0.7501494590260839
  0.1700326421540103  0.1620064015189594  0.6276121268994000
  0.1684217231565658  0.6601246386296814  0.1224849897291173
  0.1697569057540724  0.6634287937603872  0.6285243056049575
  0.5048483306267669  0.1651884449122092  0.1229269975095299
  0.5020517141940348  0.1633900945803193  0.6267498350158917
  0.5025628981893455  0.6621192745755363  0.1261300601356349
  0.5034263627031458  0.6639676503952362  0.6269784298370001
  0.8390295057171296  0.1630519349470451  0.1243354151334231
  0.8356402225870403  0.1634966594567466  0.6267368504953232
  0.8356225915869006  0.6626771278038427  0.1260954009281022
  0.8362126549317225  0.6626010467806221  0.6263329606156897
  0.0052682527182872  0.3344675458584349  0.1227656617449858
  0.0031986485377372  0.3366378004523377  0.6232820830154423
 -0.0003533980750099  0.8373092634836472  0.1202074718952855
  0.0020339381227968  0.8360165499108426  0.6251323865181646
  0.3341626257894972  0.3344195293619558  0.1226838045131986
  0.3368357100165493  0.3365551873697457  0.6245572630012587
  0.3390767966041016  0.8362799346633842  0.1208430099030762
  0.3363965811060310  0.8372756348612326  0.6246959050534796
  0.6707486881374105  0.3367407487078364  0.1236263667944130
  0.6695136245037102  0.3368696629284954  0.6238772138998694
  0.6697859114760072  0.8362082397693568  0.1231444391996358
  0.6694501345095857  0.8367240201908341  0.6239900963458230
  0.0042142841968145  0.3380508859901657  0.3732466449819198
  0.0027903865240679  0.3357949919261887  0.8770076020068671
 -0.0009101296502845  0.8361348608887920  0.3791833285000489
  0.0025536363138656  0.8376294199541700  0.8765520911636813
  0.3391852165000487  0.3398712761083174  0.3794038950370729
  0.3367539672235605  0.3346465653811745  0.8771225103569167
  0.3386620398287736  0.8348188199261223  0.3770489583486731
  0.3364616005296530  0.8376553993072678  0.8773411443142591
  0.6696269976298149  0.3372546525191618  0.3762503197725046
  0.6700450297814688  0.3368037745361486  0.8763211534799422
  0.6694186208542880  0.8362916692343938  0.3766730146128789
  0.6696777439323032  0.8366974020377516  0.8756470603349810
  0.1619413603055812  0.1711266297245176  0.3860881420969732
  0.1685358140392265  0.1629175920880465  0.8809091803982919
  0.1682865169465483  0.6586586747506484  0.3772644714341534
  0.1693666250697647  0.6635309937604366  0.8734184696336654
  0.5049337313288464  0.1647953276128564  0.3754325175218338
  0.5033787296582927  0.1633339711225995  0.8735918059626925
  0.5031840573779599  0.6624203326787682  0.3736499822146711
  0.5031414781802904  0.6635601183387809  0.8736058167011354
  0.8357723767225745  0.1638554305386982  0.3734339628446857
  0.8356991419325457  0.1628243946719302  0.8717538926292210
  0.8358901074619765  0.6624216546167944  0.3741169178544713
  0.8361869945456618  0.6630014621424913  0.8730391901808817
  0.1660880464086793  0.4189380213561885  0.2462725448329492
  0.1674716662472470  0.4109831643284257  0.7506228958411072
  0.1655613215861870  0.9034879860275348  0.2508654469672487
  0.1668149949388481  0.9124992990754344  0.7509318969061609
  0.5008286826438925  0.4121324278217201  0.2499093646800767
  0.5008277342283500  0.4121144207189780  0.7502803819400795
  0.5003909795001165  0.9109350602920718  0.2498820243037451
  0.5005911462954689  0.9125930544872329  0.7498142850542652
  0.8339287513454022  0.4127345766870426  0.2496223588433714
  0.8339263919109364  0.4121682258306746  0.7496406262300972
  0.8321769364556131  0.9118846162878111  0.2502781442882595
  0.8335780915336565  0.9117871873475849  0.7490893377050232
 -0.0034525283028708  0.0876971862234286  0.0013534742737673
 -0.0010898555539539  0.0865839321746569  0.5001928765608123
  0.0001420458330277  0.5885632814164289 -0.0011672791755597
  0.0009017865571658  0.5876728933664275  0.5004236204325352
  0.3349834095796052  0.0860814321462400 -0.0004994911425410
  0.3333924000496030  0.0862366804369410  0.4985356401085532
  0.3341926462209890  0.5872437643445249 -0.0007979757558182
  0.3349671014498342  0.5883818333439451  0.5015523407942242
  0.6678378624891623  0.0877237583245560 -0.0006566810351907
  0.6667353524016499  0.0880234683279884  0.5002363730166904
  0.6672029267195296  0.5877042258134586 -0.0001976951001515
  0.6672352720396743  0.5880295163487469  0.5002231569788652
  0.2033402633411728  0.3401527299844240  0.3508544319251099
  0.0335520972541861  0.1543803640061237  0.3949831610452867
  0.0340827388948922  0.1571755748401038  0.8982467762739886
  0.0353465257900548  0.6588262182817364  0.3970505365052007
  0.0352236070724635  0.6573506733442604  0.8946442473893217
  0.3690352851852449  0.1554040766830136  0.3945178574373321
  0.3715178203591650  0.1563708927799756  0.8959904223821866
  0.3694217651484552  0.6563621608205701  0.3967079430629520
  0.3698377399757721  0.6571892321916007  0.8957595908087712
  0.7015411586665624  0.1569440630518306  0.3959498058644905
  0.7026744582011397  0.1567349161961865  0.8952249135213133
  0.7024746569905139  0.6569454289888286  0.3962136067146555
  0.7024227458114984  0.6569184547716120  0.8958644601532719
  0.2002734192797564  0.0524121589001566  0.7505719344304651
  0.1969744717368785  0.5614471845857139  0.2505518378149871
  0.2011080804711899  0.5509556516116941  0.7501008254135509
  0.5308246703001317  0.0527318128575409  0.2497957474458526
  0.5343127520524317  0.0524626668840317  0.7495091721277974
  0.5344484264946318  0.5520956226630368  0.2502161269318615
  0.5344734418078321  0.5520629317852969  0.7498231948751838
  0.8656735450279647  0.0516128537211484  0.2506789074811243
  0.8676875679127632  0.0514031652737039  0.7484299443592815
  0.8669427463854024  0.5530683922153324  0.2502862154267530
  0.8676376649381377  0.5520226651908422  0.7495446756715622
  0.0598920965929244  0.4170214738616939  0.2470101537064828
  0.0616954147463444  0.4082693256121147  0.7498417364401192
  0.0602652828766304  0.9076087802841958  0.2508039788750246
  0.0610015192368170  0.9097683921118657  0.7501320093047942
  0.3952183951054344  0.4087319231447432  0.2495890067299668
  0.3950860988091112  0.4091186814027807  0.7505849450646055
  0.3943242943463969  0.9073312494431189  0.2497876921838047
  0.3948500307270211  0.9100269161708786  0.7500598131306211
  0.7280785903469772  0.4095470977748311  0.2505135513298783
  0.7281495954051883  0.4095533287019570  0.7495923482329826
  0.7264333173585251  0.9091039043921457  0.2501867298297518
  0.7277914873351350  0.9098497213715158  0.7494857723362585
  0.2309117253855132  0.0852901700548192 -0.0018872955481785
  0.2273416225089382  0.0867865601859084  0.4971788980210777
  0.2284641913050574  0.5902233179557980 -0.0018077524066843
  0.2290835041289054  0.5907725465639486  0.5023090066031194
  0.5621296588462096  0.0908143615342084 -0.0006842833704766
  0.5609111237703212  0.0908566902393372  0.5006256297312935
  0.5614400478022593  0.5904965388339244 -0.0001228706613024
  0.5614847284496329  0.5912763500899718  0.5002860024046479
  0.8904322159199106  0.0861399590963940 -0.0050578057918723
  0.8933812545050500  0.0898767053110436  0.5006123880703003
  0.8943578587060053  0.5913762094330368 -0.0004784654377818
  0.8951767118098136  0.5890442299491427  0.5003920847278241
  0.2050333140940570  0.3562158276607546  0.1433217489383588
  0.2030510704767112  0.3417204439741093  0.6465497898636451
  0.2035707368488800  0.8425812590036196  0.1455246846044796
  0.2023133963161882  0.8431333792259651  0.6467456399417139
  0.5370463948740443  0.3431717917069960  0.1463227710993691
  0.5358661654036744  0.3426927722306365  0.6461388925387016
  0.5362946644716026  0.8425311823317714  0.1463041669393491
  0.5358039492331471  0.8434592733030234  0.6456494568463806
  0.8687527511416546  0.3445708344456035  0.1452996440937969
  0.8693205833150018  0.3429665073216886  0.6455814046533354
  0.8676896875160177  0.8425310168151027  0.1465452246537581
  0.8684186752125073  0.8422559264806675  0.6449264926033812
  0.0237514874160124  0.1559283610874097  0.1070357809546668
  0.0356387304837663  0.1565689482895934  0.6027794963366271
  0.0352854245820625  0.6594105428092732  0.1021496539883999
  0.0358688898804127  0.6563709297778655  0.6046760810283054
  0.3716750534877740  0.1561528367362987  0.1031205114934949
  0.3672635323218824  0.1563657500395896  0.6023455341070719
  0.3687754059152202  0.6562265311988464  0.1037075821075703
  0.3699476988507012  0.6585190848898939  0.6049420349829385
  0.7029360031111951  0.1565537789256848  0.1034761918852799
  0.7022348177594325  0.1571697142707490  0.6038713086768809
  0.7022885394073662  0.6567606621244522  0.1038477080351636
  0.7025408841628714  0.6570209850116809  0.6041196481120208
  0.0340861485556330  0.4489749029369147 -0.0008790117185784
  0.0362875167197624  0.4482762651824399  0.4990899784472065
  0.0321415833274295  0.9478822272924150  0.0006709366834782
  0.0330243879847229  0.9467108802581350  0.5003091515981357
  0.3684890441853096  0.4477049226518715 -0.0008864797296814
  0.3695278857336750  0.4489539368773188  0.5025998138065180
  0.3719956252842939  0.9468349756947148  0.0001482986888839
  0.3679879512333102  0.9468703690962967  0.4992975845418495
  0.7011695905029699  0.4478911258302596 -0.0002263156105641
  0.7007667917957017  0.4479477468263928  0.5001228811105831
  0.7006004436992460  0.9472673702250668 -0.0006195495414599
  0.7001035414866047  0.9479207041011002  0.5000795047348524
  0.2027880567526745  0.3419396674784733  0.8541009031717640
  0.2028704063954978  0.8409892396454907  0.3563151009968995
  0.2018792213940511  0.8430849014457558  0.8545197877651062
  0.5357985385074766  0.3433036846371111  0.3543612299423553
  0.5366016626004954  0.3433167920269877  0.8539675265889015
  0.5357024031639065  0.8432114766734776  0.3541460090501772
  0.5363661746586209  0.8431772164261258  0.8532289412721642
  0.8696536266689169  0.3433573358597362  0.3533578859849184
  0.8690392176626520  0.3430711177092477  0.8534791044470256
  0.8673893062597128  0.8426709746894546  0.3543451735132829
  0.8687149182503020  0.8419833185280499  0.8525639336635417
 
  0.00000000E+00  0.00000000E+00  0.00000000E+00
  0.00000000E+00  0.00000000E+00  0.00000000E+00
  0.00000000E+00  0.00000000E+00  0.00000000E+00
  0.00000000E+00  0.00000000E+00  0.00000000E+00
  0.00000000E+00  0.00000000E+00  0.00000000E+00
  0.00000000E+00  0.00000000E+00  0.00000000E+00
  0.00000000E+00  0.00000000E+00  0.00000000E+00
  0.00000000E+00  0.00000000E+00  0.00000000E+00
  0.00000000E+00  0.00000000E+00  0.00000000E+00
  0.00000000E+00  0.00000000E+00  0.00000000E+00
  0.00000000E+00  0.00000000E+00  0.00000000E+00
  0.00000000E+00  0.00000000E+00  0.00000000E+00
  0.00000000E+00  0.00000000E+00  0.00000000E+00
  0.00000000E+00  0.00000000E+00  0.00000000E+00
  0.00000000E+00  0.00000000E+00  0.00000000E+00
  0.00000000E+00  0.00000000E+00  0.00000000E+00
  0.00000000E+00  0.00000000E+00  0.00000000E+00
  0.00000000E+00  0.00000000E+00  0.00000000E+00
  0.00000000E+00  0.00000000E+00  0.00000000E+00
  0.00000000E+00  0.00000000E+00  0.00000000E+00
  0.00000000E+00  0.00000000E+00  0.00000000E+00
  0.00000000E+00  0.00000000E+00  0.00000000E+00
  0.00000000E+00  0.00000000E+00  0.00000000E+00
  0.00000000E+00  0.00000000E+00  0.00000000E+00
  0.00000000E+00  0.00000000E+00  0.00000000E+00
  0.00000000E+00  0.00000000E+00  0.00000000E+00
  0.00000000E+00  0.00000000E+00  0.00000000E+00
  0.00000000E+00  0.00000000E+00  0.00000000E+00
  0.00000000E+00  0.00000000E+00  0.00000000E+00
  0.00000000E+00  0.00000000E+00  0.00000000E+00
  0.00000000E+00  0.00000000E+00  0.00000000E+00
  0.00000000E+00  0.00000000E+00  0.00000000E+00
  0.00000000E+00  0.00000000E+00  0.00000000E+00
  0.00000000E+00  0.00000000E+00  0.00000000E+00
  0.00000000E+00  0.00000000E+00  0.00000000E+00
  0.00000000E+00  0.00000000E+00  0.00000000E+00
  0.00000000E+00  0.00000000E+00  0.00000000E+00
  0.00000000E+00  0.00000000E+00  0.00000000E+00
  0.00000000E+00  0.00000000E+00  0.00000000E+00
  0.00000000E+00  0.00000000E+00  0.00000000E+00
  0.00000000E+00  0.00000000E+00  0.00000000E+00
  0.00000000E+00  0.00000000E+00  0.00000000E+00
  0.00000000E+00  0.00000000E+00  0.00000000E+00
  0.00000000E+00  0.00000000E+00  0.00000000E+00
  0.00000000E+00  0.00000000E+00  0.00000000E+00
  0.00000000E+00  0.00000000E+00  0.00000000E+00
  0.00000000E+00  0.00000000E+00  0.00000000E+00
  0.00000000E+00  0.00000000E+00  0.00000000E+00
  0.00000000E+00  0.00000000E+00  0.00000000E+00
  0.00000000E+00  0.00000000E+00  0.00000000E+00
  0.00000000E+00  0.00000000E+00  0.00000000E+00
  0.00000000E+00  0.00000000E+00  0.00000000E+00
  0.00000000E+00  0.00000000E+00  0.00000000E+00
  0.00000000E+00  0.00000000E+00  0.00000000E+00
  0.00000000E+00  0.00000000E+00  0.00000000E+00
  0.00000000E+00  0.00000000E+00  0.00000000E+00
  0.00000000E+00  0.00000000E+00  0.00000000E+00
  0.00000000E+00  0.00000000E+00  0.00000000E+00
  0.00000000E+00  0.00000000E+00  0.00000000E+00
  0.00000000E+00  0.00000000E+00  0.00000000E+00
  0.00000000E+00  0.00000000E+00  0.00000000E+00
  0.00000000E+00  0.00000000E+00  0.00000000E+00
  0.00000000E+00  0.00000000E+00  0.00000000E+00
  0.00000000E+00  0.00000000E+00  0.00000000E+00
  0.00000000E+00  0.00000000E+00  0.00000000E+00
  0.00000000E+00  0.00000000E+00  0.00000000E+00
  0.00000000E+00  0.00000000E+00  0.00000000E+00
  0.00000000E+00  0.00000000E+00  0.00000000E+00
  0.00000000E+00  0.00000000E+00  0.00000000E+00
  0.00000000E+00  0.00000000E+00  0.00000000E+00
  0.00000000E+00  0.00000000E+00  0.00000000E+00
  0.00000000E+00  0.00000000E+00  0.00000000E+00
  0.00000000E+00  0.00000000E+00  0.00000000E+00
  0.00000000E+00  0.00000000E+00  0.00000000E+00
  0.00000000E+00  0.00000000E+00  0.00000000E+00
  0.00000000E+00  0.00000000E+00  0.00000000E+00
  0.00000000E+00  0.00000000E+00  0.00000000E+00
  0.00000000E+00  0.00000000E+00  0.00000000E+00
  0.00000000E+00  0.00000000E+00  0.00000000E+00
  0.00000000E+00  0.00000000E+00  0.00000000E+00
  0.00000000E+00  0.00000000E+00  0.00000000E+00
  0.00000000E+00  0.00000000E+00  0.00000000E+00
  0.00000000E+00  0.00000000E+00  0.00000000E+00
  0.00000000E+00  0.00000000E+00  0.00000000E+00
  0.00000000E+00  0.00000000E+00  0.00000000E+00
  0.00000000E+00  0.00000000E+00  0.00000000E+00
  0.00000000E+00  0.00000000E+00  0.00000000E+00
  0.00000000E+00  0.00000000E+00  0.00000000E+00
  0.00000000E+00  0.00000000E+00  0.00000000E+00
  0.00000000E+00  0.00000000E+00  0.00000000E+00
  0.00000000E+00  0.00000000E+00  0.00000000E+00
  0.00000000E+00  0.00000000E+00  0.00000000E+00
  0.00000000E+00  0.00000000E+00  0.00000000E+00
  0.00000000E+00  0.00000000E+00  0.00000000E+00
  0.00000000E+00  0.00000000E+00  0.00000000E+00
  0.00000000E+00  0.00000000E+00  0.00000000E+00
  0.00000000E+00  0.00000000E+00  0.00000000E+00
  0.00000000E+00  0.00000000E+00  0.00000000E+00
  0.00000000E+00  0.00000000E+00  0.00000000E+00
  0.00000000E+00  0.00000000E+00  0.00000000E+00
  0.00000000E+00  0.00000000E+00  0.00000000E+00
  0.00000000E+00  0.00000000E+00  0.00000000E+00
  0.00000000E+00  0.00000000E+00  0.00000000E+00
  0.00000000E+00  0.00000000E+00  0.00000000E+00
  0.00000000E+00  0.00000000E+00  0.00000000E+00
  0.00000000E+00  0.00000000E+00  0.00000000E+00
  0.00000000E+00  0.00000000E+00  0.00000000E+00
  0.00000000E+00  0.00000000E+00  0.00000000E+00
  0.00000000E+00  0.00000000E+00  0.00000000E+00
  0.00000000E+00  0.00000000E+00  0.00000000E+00
  0.00000000E+00  0.00000000E+00  0.00000000E+00
  0.00000000E+00  0.00000000E+00  0.00000000E+00
  0.00000000E+00  0.00000000E+00  0.00000000E+00
  0.00000000E+00  0.00000000E+00  0.00000000E+00
  0.00000000E+00  0.00000000E+00  0.00000000E+00
  0.00000000E+00  0.00000000E+00  0.00000000E+00
  0.00000000E+00  0.00000000E+00  0.00000000E+00
  0.00000000E+00  0.00000000E+00  0.00000000E+00
  0.00000000E+00  0.00000000E+00  0.00000000E+00
  0.00000000E+00  0.00000000E+00  0.00000000E+00
  0.00000000E+00  0.00000000E+00  0.00000000E+00
  0.00000000E+00  0.00000000E+00  0.00000000E+00
  0.00000000E+00  0.00000000E+00  0.00000000E+00
  0.00000000E+00  0.00000000E+00  0.00000000E+00
  0.00000000E+00  0.00000000E+00  0.00000000E+00
  0.00000000E+00  0.00000000E+00  0.00000000E+00
  0.00000000E+00  0.00000000E+00  0.00000000E+00
  0.00000000E+00  0.00000000E+00  0.00000000E+00
  0.00000000E+00  0.00000000E+00  0.00000000E+00
  0.00000000E+00  0.00000000E+00  0.00000000E+00
  0.00000000E+00  0.00000000E+00  0.00000000E+00
  0.00000000E+00  0.00000000E+00  0.00000000E+00
  0.00000000E+00  0.00000000E+00  0.00000000E+00
  0.00000000E+00  0.00000000E+00  0.00000000E+00
  0.00000000E+00  0.00000000E+00  0.00000000E+00
  0.00000000E+00  0.00000000E+00  0.00000000E+00
  0.00000000E+00  0.00000000E+00  0.00000000E+00
  0.00000000E+00  0.00000000E+00  0.00000000E+00
  0.00000000E+00  0.00000000E+00  0.00000000E+00
  0.00000000E+00  0.00000000E+00  0.00000000E+00
  0.00000000E+00  0.00000000E+00  0.00000000E+00
  0.00000000E+00  0.00000000E+00  0.00000000E+00
  0.00000000E+00  0.00000000E+00  0.00000000E+00
  0.00000000E+00  0.00000000E+00  0.00000000E+00
  0.00000000E+00  0.00000000E+00  0.00000000E+00
  0.00000000E+00  0.00000000E+00  0.00000000E+00
  0.00000000E+00  0.00000000E+00  0.00000000E+00
  0.00000000E+00  0.00000000E+00  0.00000000E+00
  0.00000000E+00  0.00000000E+00  0.00000000E+00
  0.00000000E+00  0.00000000E+00  0.00000000E+00
  0.00000000E+00  0.00000000E+00  0.00000000E+00
  0.00000000E+00  0.00000000E+00  0.00000000E+00
  0.00000000E+00  0.00000000E+00  0.00000000E+00
  0.00000000E+00  0.00000000E+00  0.00000000E+00
  0.00000000E+00  0.00000000E+00  0.00000000E+00
  0.00000000E+00  0.00000000E+00  0.00000000E+00
  0.00000000E+00  0.00000000E+00  0.00000000E+00
  0.00000000E+00  0.00000000E+00  0.00000000E+00
  0.00000000E+00  0.00000000E+00  0.00000000E+00
  0.00000000E+00  0.00000000E+00  0.00000000E+00
  0.00000000E+00  0.00000000E+00  0.00000000E+00
  0.00000000E+00  0.00000000E+00  0.00000000E+00
  0.00000000E+00  0.00000000E+00  0.00000000E+00
  0.00000000E+00  0.00000000E+00  0.00000000E+00
  0.00000000E+00  0.00000000E+00  0.00000000E+00
  0.00000000E+00  0.00000000E+00  0.00000000E+00
  0.00000000E+00  0.00000000E+00  0.00000000E+00
  0.00000000E+00  0.00000000E+00  0.00000000E+00
  0.00000000E+00  0.00000000E+00  0.00000000E+00
  0.00000000E+00  0.00000000E+00  0.00000000E+00
  0.00000000E+00  0.00000000E+00  0.00000000E+00
  0.00000000E+00  0.00000000E+00  0.00000000E+00
  0.00000000E+00  0.00000000E+00  0.00000000E+00
  0.00000000E+00  0.00000000E+00  0.00000000E+00
  0.00000000E+00  0.00000000E+00  0.00000000E+00
  0.00000000E+00  0.00000000E+00  0.00000000E+00
  0.00000000E+00  0.00000000E+00  0.00000000E+00
  0.00000000E+00  0.00000000E+00  0.00000000E+00
  0.00000000E+00  0.00000000E+00  0.00000000E+00
  0.00000000E+00  0.00000000E+00  0.00000000E+00
  0.00000000E+00  0.00000000E+00  0.00000000E+00
  0.00000000E+00  0.00000000E+00  0.00000000E+00
  0.00000000E+00  0.00000000E+00  0.00000000E+00
  0.00000000E+00  0.00000000E+00  0.00000000E+00
  0.00000000E+00  0.00000000E+00  0.00000000E+00
  0.00000000E+00  0.00000000E+00  0.00000000E+00
  0.00000000E+00  0.00000000E+00  0.00000000E+00
  0.00000000E+00  0.00000000E+00  0.00000000E+00
  0.00000000E+00  0.00000000E+00  0.00000000E+00
  0.00000000E+00  0.00000000E+00  0.00000000E+00
