Li1 N3
1.0
1.704285 2.888143 0.000381
-1.704285 2.888143 0.000381
0.000000 1.505250 4.841611
Li N
1 3
direct
-0.000000 -0.000000 -0.000000 Li
0.605876 0.605876 0.256533 N
0.394124 0.394124 0.743467 N
0.500000 0.500000 0.500000 N
