Li5 P2 N1 O6                            
   1.00000000000000     
     0.3613642897356342   -0.7244676735148544    4.9242136510648642
     6.4553638689801796    0.5767158622481523    0.4893176665488338
     0.4579022156271316    4.8054314834865908   -0.7725936180712283
   Li   P    N    O 
     5     2     1     6
Direct
  0.4547785332955828  0.0000111395618829  0.8007200862303565
  0.5672855652266398  0.7278395174617309  0.3440177096339970
  0.1029388824354273  0.7389169329683111  0.7484162331631115
 -0.0566441656580048  0.2758060017256352  0.6034196874522252
  0.3020064895485819  0.3650676348849323  0.2828047263854052
  0.6651316724195673  0.4215428624530561  0.9139691464083599
  0.0117376352590991  0.0089252786912998  0.1730753279194080
 -0.0781409352596161  0.2599159161343446  0.1942505594036998
  0.8116908577787528  0.5603427040657090  0.7314901352685614
  0.2722869108753093  0.8969038328288306  0.4458914089244573
  0.4923704077971710  0.2974278015083553  0.6973356783642752
  0.4595289118835054  0.5481492638836486  0.0392597049941756
  0.0946760904556092  0.0073950219541120  0.8895144662505376
  0.7635451439424001 -0.1082439081218506  0.1619591296014337
 
  0.00000000E+00  0.00000000E+00  0.00000000E+00
  0.00000000E+00  0.00000000E+00  0.00000000E+00
  0.00000000E+00  0.00000000E+00  0.00000000E+00
  0.00000000E+00  0.00000000E+00  0.00000000E+00
  0.00000000E+00  0.00000000E+00  0.00000000E+00
  0.00000000E+00  0.00000000E+00  0.00000000E+00
  0.00000000E+00  0.00000000E+00  0.00000000E+00
  0.00000000E+00  0.00000000E+00  0.00000000E+00
  0.00000000E+00  0.00000000E+00  0.00000000E+00
  0.00000000E+00  0.00000000E+00  0.00000000E+00
  0.00000000E+00  0.00000000E+00  0.00000000E+00
  0.00000000E+00  0.00000000E+00  0.00000000E+00
  0.00000000E+00  0.00000000E+00  0.00000000E+00
  0.00000000E+00  0.00000000E+00  0.00000000E+00
