Li56 P28 O98
1.0
6.730959 0.000000 -2.599490
-2.035903 8.419349 -5.257546
0.000000 0.000000 57.865962
Li P O
56 28 98
Selective dynamics
direct
0.144977 0.012029 0.042628 F F F Li
0.855023 0.987971 0.084888 F F F Li
0.588727 0.248347 0.004910 F F F Li
0.411273 0.751653 0.031697 T T T Li
0.327738 0.208724 0.034754 F F F Li
0.672262 0.791276 0.001853 T T T Li
0.241886 0.549204 0.063054 F F F Li
0.758114 0.450796 0.064462 F F F Li
0.144977 0.012029 0.133537 F F F Li
0.855023 0.987971 0.175798 F F F Li
0.588727 0.248347 0.095819 F F F Li
0.411273 0.751653 0.122606 F F F Li
0.327738 0.208724 0.125663 F F F Li
0.672262 0.791276 0.092762 F F F Li
0.241886 0.549204 0.153963 F F F Li
0.758114 0.450796 0.155372 F F F Li
0.144977 0.012029 0.224446 F F F Li
0.855023 0.987971 0.266707 F F F Li
0.588727 0.248347 0.186728 F F F Li
0.411273 0.751653 0.213515 F F F Li
0.327738 0.208724 0.216572 F F F Li
0.672262 0.791276 0.183671 F F F Li
0.241886 0.549204 0.244872 F F F Li
0.758114 0.450796 0.246281 F F F Li
0.144977 0.012029 0.315355 F F F Li
0.855023 0.987971 0.357616 F F F Li
0.588727 0.248347 0.277637 F F F Li
0.411273 0.751653 0.304424 F F F Li
0.327738 0.208724 0.307481 F F F Li
0.672262 0.791276 0.274580 F F F Li
0.241886 0.549204 0.335781 F F F Li
0.758114 0.450796 0.337190 F F F Li
0.144977 0.012029 0.406264 F F F Li
0.855023 0.987971 0.448525 F F F Li
0.588727 0.248347 0.368546 F F F Li
0.411273 0.751653 0.395334 F F F Li
0.327738 0.208724 0.398390 F F F Li
0.672262 0.791276 0.365490 F F F Li
0.241886 0.549204 0.426690 F F F Li
0.758114 0.450796 0.428099 F F F Li
0.144977 0.012029 0.497173 F F F Li
0.855023 0.987971 0.539434 F F F Li
0.588727 0.248347 0.459455 F F F Li
0.411273 0.751653 0.486243 F F F Li
0.327738 0.208724 0.489299 F F F Li
0.672262 0.791276 0.456399 F F F Li
0.241886 0.549204 0.517599 F F F Li
0.758114 0.450796 0.519008 F F F Li
0.144977 0.012029 0.588082 T T T Li
0.855023 0.987971 0.630343 T T T Li
0.588727 0.248347 0.550364 F F F Li
0.411273 0.751653 0.577152 F F F Li
0.327738 0.208724 0.580209 F F F Li
0.672262 0.791276 0.547308 F F F Li
0.241886 0.549204 0.608508 T T T Li
0.758114 0.450796 0.609917 F F F Li
0.213298 0.368044 0.090490 F F F P
0.786702 0.631956 0.037026 F F F P
0.779241 0.154498 0.051960 T T T P
0.220759 0.845502 0.075556 F F F P
0.213298 0.368044 0.181399 F F F P
0.786702 0.631956 0.127935 F F F P
0.779241 0.154498 0.142870 F F F P
0.220759 0.845502 0.166465 F F F P
0.213298 0.368044 0.272309 F F F P
0.786702 0.631956 0.218844 F F F P
0.779241 0.154498 0.233779 F F F P
0.220759 0.845502 0.257374 F F F P
0.213298 0.368044 0.363218 F F F P
0.786702 0.631956 0.309753 F F F P
0.779241 0.154498 0.324688 F F F P
0.220759 0.845502 0.348283 F F F P
0.213298 0.368044 0.454127 F F F P
0.786702 0.631956 0.400662 F F F P
0.779241 0.154498 0.415597 F F F P
0.220759 0.845502 0.439192 F F F P
0.213298 0.368044 0.545036 F F F P
0.786702 0.631956 0.491571 F F F P
0.779241 0.154498 0.506506 F F F P
0.220759 0.845502 0.530101 F F F P
0.213298 0.368044 0.635945 T T T P
0.786702 0.631956 0.582480 F F F P
0.779241 0.154498 0.597415 T T T P
0.220759 0.845502 0.621010 T T T P
0.741759 0.125660 0.073372 T T T O
0.605720 0.209316 0.036775 F F F O
0.394280 0.790684 0.090741 F F F O
0.848591 0.018024 0.030587 F F F O
0.743350 0.623545 0.008393 T T T O
0.256650 0.376455 0.028214 F F F O
0.732189 0.473810 0.032755 F F F O
0.267811 0.526190 0.003852 F F F O
0.702403 0.763496 0.056965 F F F O
0.297597 0.236504 0.070551 F F F O
0.962384 0.316106 0.071307 F F F O
0.037616 0.683894 0.056209 F F F O
0.151409 0.981976 0.006021 F F F O
0.258241 0.874340 0.054145 F F F O
0.741759 0.125660 0.164281 F F F O
0.605720 0.209316 0.127684 F F F O
0.394280 0.790684 0.181650 F F F O
0.848591 0.018024 0.121496 F F F O
0.743350 0.623545 0.099302 F F F O
0.256650 0.376455 0.119123 F F F O
0.732189 0.473810 0.123664 F F F O
0.267811 0.526190 0.094761 F F F O
0.702403 0.763496 0.147874 F F F O
0.297597 0.236504 0.161461 F F F O
0.962384 0.316106 0.162216 F F F O
0.037616 0.683894 0.147118 F F F O
0.151409 0.981976 0.096930 F F F O
0.258241 0.874340 0.145054 F F F O
0.741759 0.125660 0.255190 F F F O
0.605720 0.209316 0.218593 F F F O
0.394280 0.790684 0.272559 F F F O
0.848591 0.018024 0.212405 F F F O
0.743350 0.623545 0.190211 F F F O
0.256650 0.376455 0.210032 F F F O
0.732189 0.473810 0.214573 F F F O
0.267811 0.526190 0.185670 F F F O
0.702403 0.763496 0.238783 F F F O
0.297597 0.236504 0.252370 F F F O
0.962384 0.316106 0.253125 F F F O
0.037616 0.683894 0.238028 F F F O
0.151409 0.981976 0.187839 F F F O
0.258241 0.874340 0.235963 F F F O
0.741759 0.125660 0.346099 F F F O
0.605720 0.209316 0.309502 F F F O
0.394280 0.790684 0.363468 F F F O
0.848591 0.018024 0.303314 F F F O
0.743350 0.623545 0.281120 F F F O
0.256650 0.376455 0.300941 F F F O
0.732189 0.473810 0.305482 F F F O
0.267811 0.526190 0.276579 F F F O
0.702403 0.763496 0.329692 F F F O
0.297597 0.236504 0.343279 F F F O
0.962384 0.316106 0.344034 F F F O
0.037616 0.683894 0.328937 F F F O
0.151409 0.981976 0.278748 F F F O
0.258241 0.874340 0.326872 F F F O
0.741759 0.125660 0.437008 F F F O
0.605720 0.209316 0.400411 F F F O
0.394280 0.790684 0.454378 F F F O
0.848591 0.018024 0.394223 F F F O
0.743350 0.623545 0.372029 F F F O
0.256650 0.376455 0.391850 F F F O
0.732189 0.473810 0.396391 F F F O
0.267811 0.526190 0.367488 F F F O
0.702403 0.763496 0.420601 F F F O
0.297597 0.236504 0.434188 F F F O
0.962384 0.316106 0.434943 F F F O
0.037616 0.683894 0.419846 F F F O
0.151409 0.981976 0.369657 F F F O
0.258241 0.874340 0.417781 F F F O
0.741759 0.125660 0.527917 F F F O
0.605720 0.209316 0.491320 F F F O
0.394280 0.790684 0.545287 F F F O
0.848591 0.018024 0.485132 F F F O
0.743350 0.623545 0.462938 F F F O
0.256650 0.376455 0.482760 F F F O
0.732189 0.473810 0.487300 F F F O
0.267811 0.526190 0.458398 F F F O
0.702403 0.763496 0.511510 F F F O
0.297597 0.236504 0.525097 F F F O
0.962384 0.316106 0.525852 F F F O
0.037616 0.683894 0.510755 F F F O
0.151409 0.981976 0.460566 F F F O
0.258241 0.874340 0.508690 F F F O
0.741759 0.125660 0.618826 T T T O
0.605720 0.209316 0.582230 F F F O
0.394280 0.790684 0.636196 T T T O
0.848591 0.018024 0.576041 F F F O
0.743350 0.623545 0.553848 F F F O
0.256650 0.376455 0.573669 F F F O
0.732189 0.473810 0.578210 F F F O
0.267811 0.526190 0.549307 F F F O
0.702403 0.763496 0.602419 F F F O
0.297597 0.236504 0.616006 T T T O
0.962384 0.316106 0.616761 T T T O
0.037616 0.683894 0.601664 F F F O
0.151409 0.981976 0.551475 F F F O
0.258241 0.874340 0.599599 T T T O
