Li2 P2 N4
1.0
-2.309786 2.309786 3.692779
2.309786 -2.309786 3.692779
2.309786 2.309786 -3.692779
Li P N
2 2 4
direct
0.500000 0.500000 0.000000 Li
0.250000 0.750000 0.500000 Li
-0.000000 0.000000 0.000000 P
0.750000 0.250000 0.500000 P
0.375000 0.293634 0.418634 N
0.875000 0.956366 0.581366 N
0.706366 0.125000 0.081366 N
0.043634 0.625000 0.918634 N
