Li61 P7 N32                             
   1.00000000000000     
    -0.0005147228842100    9.6018396624221758   -0.0001932542801300
    -0.0464298289607035   -0.0001891603546541    9.5618477371117567
     9.5724479798373050   -0.0005115805454563   -0.0456624313452574
   Li   P    N 
    61     7    32
Direct
  0.5059539044532426  0.0003766089411731  0.4999774190817431
  0.0217149847181405  0.5000235605245816 -0.0000428586817135
  0.5152084271308944 -0.0000748862648695 -0.0000084314088984
  0.0007306123251925 -0.0000143030380843  0.4999800511765115
  0.5168133536322780  0.5001274625871434  0.0003438960739707
  0.0087757739866746  0.4999984039251459  0.5000086000872238
  0.7551366708352352 -0.0000280376210567  0.5000880639758444
  0.2526506469896835 -0.0000492353198495  0.5000174246473968
  0.7860524618508304  0.4999786106788554  0.4999557059659805
  0.2366779327267958  0.4997752495095037  0.4997817886645795
  0.2743356702571103 -0.0000324512106878  0.0000047319197258
  0.7477055357734473 -0.0000163941457237  0.0000541337841334
  0.4483400880684030  0.5014830123714884  0.5017133004485497
  0.5253908164151887  0.2459025640953213 -0.0213395074576833
  0.5253472802284378  0.7540537134830785  0.0211097719500047
  0.0227775086175970  0.5054988566652470  0.2484895919242115
  0.0228332480667857  0.4945444334383007  0.7514412095427074
  0.2165368067030775  0.2230259575759284  0.2340528625098723
  0.2165342722935408  0.7769102711270613  0.7660447110581545
  0.2357120359851715  0.2833811164049809  0.7268628256045567
  0.2356389944029766  0.7166124509218693  0.2732872524359854
  0.7185541345082216  0.2272505961192636  0.3161161167203057
  0.7185933534267771  0.7725708226737114  0.6837863020805882
  0.7424936311011557  0.2211754276531096  0.7932224371025586
  0.7425057985351818  0.7788461210893581  0.2066489347308545
  0.9648489005297978  0.2660364271475594  0.2440083699689483
  0.9649539697078621  0.7340213023607066  0.7559982657215926
  0.2590368384739806  0.2514531583391613  0.4930536885670514
  0.2591389408331254  0.7485034399240778  0.5071632950237086
  0.7551010240479461  0.2292815708198024  0.5416771052922580
  0.7551735834816189  0.7707013234518082  0.4581560362712966
  0.6577281324500592  0.3792310358180553  0.1698667532951939
  0.6575687712092029  0.6210496381402142  0.8301371173945866
  0.2609436490793152  0.4818475902059785  0.2597706947926331
  0.2612398008984996  0.5181012705237040  0.7401961851210684
  0.4739268583597830  0.7708828429850805  0.2846485932383594
  0.4738488079885926  0.2287306208006473  0.7148458628550132
  0.2561900711995707 -0.0254048928381935  0.2486614822151651
  0.2562206014322713  0.0253103028719527  0.7513914423769360
  0.2804748745700861  0.2414797541074418  0.9729686788836974
  0.2805575204705340  0.7584401242262738  0.0271590312540391
  0.7780174784682593  0.9843224134846168  0.7543343135066384
  0.7779938843237285  0.0156053758780143  0.2457871096553177
  0.7850647879204544  0.7646303607558300  0.9734798234316693
  0.7849696177210496  0.2353915077305199  0.0264650383215436
 -0.0043137348093346  0.2322616790164639  0.7545439854852832
 -0.0043117512840071  0.7677763396051652  0.2454827120238750
  0.4659041816818386  0.2597904038341788  0.2265587059518130
  0.4658561699951779  0.7396240811993500  0.7726808475093253
  0.0299139129085461  0.2628914115849032 -0.0014284682965759
  0.0299746416710520  0.7371368387583465  0.0014748300675352
  0.4876066063199163  0.2563742183841230  0.4606226142162013
  0.4882725679638585  0.7450837634914054  0.5384085230812591
  0.4816788663310763  0.5121937710603521  0.2475857746692099
  0.4822389015761294  0.4865979758987252  0.7536174793631153
  0.0137911102785307  0.0104740240348296  0.2642666950253919
  0.0137931820200594 -0.0104422951505694  0.7357031401049658
  0.6008108778612283  0.4080179963541838  0.5820131820862114
  0.6008487483340483  0.5917433961792332  0.4175358665948521
  0.7897353994280747  0.4687063245959205  0.7371325202716376
  0.7898401146577102  0.5313418525169685  0.2627733845065657
  0.0095775691157067  0.0000163616263815 -0.0000012755836067
  0.7799164539696617  0.5000650578347982 -0.0000859817894026
  0.2655053384590774  0.4999828881695057  0.0000238578245435
  0.0043484402122108  0.7522989816258655  0.5010818528921965
  0.0042779741001981  0.2476906200387661  0.4989145703697784
  0.5131274002944297  0.0083046930459050  0.2446984008786404
  0.5131874424930494 -0.0084357786222322  0.7553111392938039
  0.6242800704225304  0.6060699590637897  0.6266251321059567
  0.6248135322643962  0.3939312924190323  0.3731819794186161
  0.9053640637344189  0.8979610189279862  0.1012308821008060
  0.9053271062062479  0.1020392258983966  0.8987831178540170
  0.1118474373590983  0.8992900558216739  0.8970129457983522
  0.1118792452598571  0.1007064244462790  0.1029457015544865
  0.3777746749996626  0.6312390094233498  0.3820376431173153
  0.3778322105330923  0.3687604895693457  0.6180513810442517
  0.1003345152866762  0.3459890177899110  0.3884023277611220
  0.1003403725791307  0.6539901898852192  0.6116201275431817
  0.1084898713075178  0.1464706206965666  0.5998196348767216
  0.1085090546245366  0.8535329982399903  0.4002122803452632
  0.8927122521807929  0.1460953309292763  0.4031192382389264
  0.8927158113537724  0.8538580389537510  0.5968502276251186
  0.8744193855952718  0.4049923786156416  0.1112588890637210
  0.8744041875493145  0.5950120324609746  0.8885416284257264
  0.1649631183943152  0.5990547383762703  0.1075379656365272
  0.1649954724997910  0.4009156017091873  0.8924699846558309
  0.4169144545455425  0.8998777367091740  0.1417439505985224
  0.4169933319760481  0.1000391087527810  0.8582330936237673
  0.3987427277342136  0.1004918172614312  0.3445696701245243
  0.3987185742811742  0.8996086363775112  0.6552985687822515
  0.3671226223897872  0.3916757035874352  0.0970746893546379
  0.3672208351383351  0.6082338265707362  0.9030891973212317
  0.6238670338104899  0.0907146521541261  0.6570904722263086
  0.6237011118283120  0.9091307465500785  0.3430671934893527
  0.6757984189362573  0.6110379818011864  0.0903146420101946
  0.6755676583738274  0.3891384876220276  0.9095945621176584
  0.9086285051918167  0.3510268555410216  0.6096958743221632
  0.9086662853508711  0.6489428741974029  0.3902806009718435
  0.6150757572296909  0.1186086154124728  0.1476619337919776
  0.6150458312871915  0.8811348302353026  0.8523048864291263
 
  0.00000000E+00  0.00000000E+00  0.00000000E+00
  0.00000000E+00  0.00000000E+00  0.00000000E+00
  0.00000000E+00  0.00000000E+00  0.00000000E+00
  0.00000000E+00  0.00000000E+00  0.00000000E+00
  0.00000000E+00  0.00000000E+00  0.00000000E+00
  0.00000000E+00  0.00000000E+00  0.00000000E+00
  0.00000000E+00  0.00000000E+00  0.00000000E+00
  0.00000000E+00  0.00000000E+00  0.00000000E+00
  0.00000000E+00  0.00000000E+00  0.00000000E+00
  0.00000000E+00  0.00000000E+00  0.00000000E+00
  0.00000000E+00  0.00000000E+00  0.00000000E+00
  0.00000000E+00  0.00000000E+00  0.00000000E+00
  0.00000000E+00  0.00000000E+00  0.00000000E+00
  0.00000000E+00  0.00000000E+00  0.00000000E+00
  0.00000000E+00  0.00000000E+00  0.00000000E+00
  0.00000000E+00  0.00000000E+00  0.00000000E+00
  0.00000000E+00  0.00000000E+00  0.00000000E+00
  0.00000000E+00  0.00000000E+00  0.00000000E+00
  0.00000000E+00  0.00000000E+00  0.00000000E+00
  0.00000000E+00  0.00000000E+00  0.00000000E+00
  0.00000000E+00  0.00000000E+00  0.00000000E+00
  0.00000000E+00  0.00000000E+00  0.00000000E+00
  0.00000000E+00  0.00000000E+00  0.00000000E+00
  0.00000000E+00  0.00000000E+00  0.00000000E+00
  0.00000000E+00  0.00000000E+00  0.00000000E+00
  0.00000000E+00  0.00000000E+00  0.00000000E+00
  0.00000000E+00  0.00000000E+00  0.00000000E+00
  0.00000000E+00  0.00000000E+00  0.00000000E+00
  0.00000000E+00  0.00000000E+00  0.00000000E+00
  0.00000000E+00  0.00000000E+00  0.00000000E+00
  0.00000000E+00  0.00000000E+00  0.00000000E+00
  0.00000000E+00  0.00000000E+00  0.00000000E+00
  0.00000000E+00  0.00000000E+00  0.00000000E+00
  0.00000000E+00  0.00000000E+00  0.00000000E+00
  0.00000000E+00  0.00000000E+00  0.00000000E+00
  0.00000000E+00  0.00000000E+00  0.00000000E+00
  0.00000000E+00  0.00000000E+00  0.00000000E+00
  0.00000000E+00  0.00000000E+00  0.00000000E+00
  0.00000000E+00  0.00000000E+00  0.00000000E+00
  0.00000000E+00  0.00000000E+00  0.00000000E+00
  0.00000000E+00  0.00000000E+00  0.00000000E+00
  0.00000000E+00  0.00000000E+00  0.00000000E+00
  0.00000000E+00  0.00000000E+00  0.00000000E+00
  0.00000000E+00  0.00000000E+00  0.00000000E+00
  0.00000000E+00  0.00000000E+00  0.00000000E+00
  0.00000000E+00  0.00000000E+00  0.00000000E+00
  0.00000000E+00  0.00000000E+00  0.00000000E+00
  0.00000000E+00  0.00000000E+00  0.00000000E+00
  0.00000000E+00  0.00000000E+00  0.00000000E+00
  0.00000000E+00  0.00000000E+00  0.00000000E+00
  0.00000000E+00  0.00000000E+00  0.00000000E+00
  0.00000000E+00  0.00000000E+00  0.00000000E+00
  0.00000000E+00  0.00000000E+00  0.00000000E+00
  0.00000000E+00  0.00000000E+00  0.00000000E+00
  0.00000000E+00  0.00000000E+00  0.00000000E+00
  0.00000000E+00  0.00000000E+00  0.00000000E+00
  0.00000000E+00  0.00000000E+00  0.00000000E+00
  0.00000000E+00  0.00000000E+00  0.00000000E+00
  0.00000000E+00  0.00000000E+00  0.00000000E+00
  0.00000000E+00  0.00000000E+00  0.00000000E+00
  0.00000000E+00  0.00000000E+00  0.00000000E+00
  0.00000000E+00  0.00000000E+00  0.00000000E+00
  0.00000000E+00  0.00000000E+00  0.00000000E+00
  0.00000000E+00  0.00000000E+00  0.00000000E+00
  0.00000000E+00  0.00000000E+00  0.00000000E+00
  0.00000000E+00  0.00000000E+00  0.00000000E+00
  0.00000000E+00  0.00000000E+00  0.00000000E+00
  0.00000000E+00  0.00000000E+00  0.00000000E+00
  0.00000000E+00  0.00000000E+00  0.00000000E+00
  0.00000000E+00  0.00000000E+00  0.00000000E+00
  0.00000000E+00  0.00000000E+00  0.00000000E+00
  0.00000000E+00  0.00000000E+00  0.00000000E+00
  0.00000000E+00  0.00000000E+00  0.00000000E+00
  0.00000000E+00  0.00000000E+00  0.00000000E+00
  0.00000000E+00  0.00000000E+00  0.00000000E+00
  0.00000000E+00  0.00000000E+00  0.00000000E+00
  0.00000000E+00  0.00000000E+00  0.00000000E+00
  0.00000000E+00  0.00000000E+00  0.00000000E+00
  0.00000000E+00  0.00000000E+00  0.00000000E+00
  0.00000000E+00  0.00000000E+00  0.00000000E+00
  0.00000000E+00  0.00000000E+00  0.00000000E+00
  0.00000000E+00  0.00000000E+00  0.00000000E+00
  0.00000000E+00  0.00000000E+00  0.00000000E+00
  0.00000000E+00  0.00000000E+00  0.00000000E+00
  0.00000000E+00  0.00000000E+00  0.00000000E+00
  0.00000000E+00  0.00000000E+00  0.00000000E+00
  0.00000000E+00  0.00000000E+00  0.00000000E+00
  0.00000000E+00  0.00000000E+00  0.00000000E+00
  0.00000000E+00  0.00000000E+00  0.00000000E+00
  0.00000000E+00  0.00000000E+00  0.00000000E+00
  0.00000000E+00  0.00000000E+00  0.00000000E+00
  0.00000000E+00  0.00000000E+00  0.00000000E+00
  0.00000000E+00  0.00000000E+00  0.00000000E+00
  0.00000000E+00  0.00000000E+00  0.00000000E+00
  0.00000000E+00  0.00000000E+00  0.00000000E+00
  0.00000000E+00  0.00000000E+00  0.00000000E+00
  0.00000000E+00  0.00000000E+00  0.00000000E+00
  0.00000000E+00  0.00000000E+00  0.00000000E+00
  0.00000000E+00  0.00000000E+00  0.00000000E+00
  0.00000000E+00  0.00000000E+00  0.00000000E+00
