Li3 N1                                  
   1.00000000000000     
     1.8468389999999999   -3.1988189999999999    0.0000000000000000
     1.8468389999999999    3.1988189999999999    0.0000000000000000
     0.0000000000000000    0.0000000000000000    3.9329429999999999
   Li   N 
     3     1
Direct
  0.0000000000000000  0.0000000000000000  0.5000000000000000
  0.3333330000000032  0.6666669999999968  0.0000000000000000
  0.6666669999999968  0.3333330000000032  0.0000000000000000
  0.0000000000000000  0.0000000000000000  0.0000000000000000
 
  0.00000000E+00  0.00000000E+00  0.00000000E+00
  0.00000000E+00  0.00000000E+00  0.00000000E+00
  0.00000000E+00  0.00000000E+00  0.00000000E+00
  0.00000000E+00  0.00000000E+00  0.00000000E+00
