Li7 P2 N1 O7                            
   1.00000000000000     
     5.1637113538598811    0.0000000853488746   -0.0403175763350340
     0.0000001005956833    6.1450260780964108   -0.0000001357118034
    -0.0363814362550588   -0.0000001139279477    5.2259059728448767
   Li   P    N    O 
     7     2     1     7
Direct
  0.0191461392714694  0.5000000240343404  0.1332884587076158
  0.5023589634811730  0.7228091189753054  0.3198869804177286
  0.5023590402826635  0.2771907974782777  0.3198870902979669
  0.0310858537753233  0.7196539730663156  0.6662567163928355
  0.0310859384983216  0.2803459649785101  0.6662571487704552
  0.4443458708060456 -0.0000002178904963  0.9019566045577799
  0.7519214338813346  0.0000000815916977  0.5983720119440585
  0.5190169793865572  0.5000000388517096  0.8204849801306099
 -0.0068123492692435  0.0000000083583155  0.1688933987519254
  0.2193183215096098  0.5000000759174413  0.8184693613128966
  0.1096960741794239  0.2042605343431474  0.3034480063150877
  0.1096960922533151  0.7957394783097492  0.3034479924084454
  0.6443091546436255  0.4999999955379038  0.0997050013092729
  0.6901484950285621 -0.0000000050550772  0.2080701127878352
  0.6386465276797051  0.7120001452085221  0.6782910984336339
  0.6386465550306666  0.2879999854717021  0.6782910202561848
  0.0595509095614731  0.0000000008226354  0.8776840172056706
 
  0.00000000E+00  0.00000000E+00  0.00000000E+00
  0.00000000E+00  0.00000000E+00  0.00000000E+00
  0.00000000E+00  0.00000000E+00  0.00000000E+00
  0.00000000E+00  0.00000000E+00  0.00000000E+00
  0.00000000E+00  0.00000000E+00  0.00000000E+00
  0.00000000E+00  0.00000000E+00  0.00000000E+00
  0.00000000E+00  0.00000000E+00  0.00000000E+00
  0.00000000E+00  0.00000000E+00  0.00000000E+00
  0.00000000E+00  0.00000000E+00  0.00000000E+00
  0.00000000E+00  0.00000000E+00  0.00000000E+00
  0.00000000E+00  0.00000000E+00  0.00000000E+00
  0.00000000E+00  0.00000000E+00  0.00000000E+00
  0.00000000E+00  0.00000000E+00  0.00000000E+00
  0.00000000E+00  0.00000000E+00  0.00000000E+00
  0.00000000E+00  0.00000000E+00  0.00000000E+00
  0.00000000E+00  0.00000000E+00  0.00000000E+00
  0.00000000E+00  0.00000000E+00  0.00000000E+00
