Li140 P140 O420
1.0
5.521558 0.000000 0.000000
0.000000 16.540545 -10.635230
0.000000 0.000000 119.816820
Li P O
140 140 420
direct
0.494607 0.818220 0.096236 Li+
0.505393 0.318220 0.096236 Li+
0.484419 0.934004 0.011531 Li+
0.515581 0.434004 0.011531 Li+
0.505784 0.049457 0.037739 Li+
0.494216 0.549457 0.037739 Li+
0.507224 0.164548 0.063812 Li+
0.492776 0.664548 0.063812 Li+
0.992783 0.241566 0.080190 Li+
0.007217 0.741566 0.080190 Li+
0.521194 0.318286 0.040927 Li+
0.478806 0.818286 0.040927 Li+
0.476313 0.433730 0.067209 Li+
0.523687 0.933730 0.067209 Li+
0.533250 0.550453 0.093421 Li+
0.466750 0.050453 0.093421 Li+
0.477737 0.667016 0.008569 Li+
0.522263 0.167016 0.008569 Li+
0.960889 0.743634 0.025086 Li+
0.039111 0.243634 0.025086 Li+
0.494607 0.818220 0.207347 Li+
0.505393 0.318220 0.207347 Li+
0.484419 0.934004 0.122642 Li+
0.515581 0.434004 0.122642 Li+
0.505784 0.049457 0.148850 Li+
0.494216 0.549457 0.148850 Li+
0.507224 0.164548 0.174923 Li+
0.492776 0.664548 0.174923 Li+
0.992783 0.241566 0.191301 Li+
0.007217 0.741566 0.191301 Li+
0.521194 0.318286 0.152038 Li+
0.478806 0.818286 0.152038 Li+
0.476313 0.433730 0.178320 Li+
0.523687 0.933730 0.178320 Li+
0.533250 0.550453 0.204532 Li+
0.466750 0.050453 0.204532 Li+
0.477737 0.667016 0.119681 Li+
0.522263 0.167016 0.119681 Li+
0.960889 0.743634 0.136197 Li+
0.039111 0.243634 0.136197 Li+
0.494607 0.818220 0.318459 Li+
0.505393 0.318220 0.318459 Li+
0.484419 0.934004 0.233753 Li+
0.515581 0.434004 0.233753 Li+
0.505784 0.049457 0.259961 Li+
0.494216 0.549457 0.259961 Li+
0.507224 0.164548 0.286034 Li+
0.492776 0.664548 0.286034 Li+
0.992783 0.241566 0.302412 Li+
0.007217 0.741566 0.302412 Li+
0.521194 0.318286 0.263149 Li+
0.478806 0.818286 0.263149 Li+
0.476313 0.433730 0.289431 Li+
0.523687 0.933730 0.289431 Li+
0.533250 0.550453 0.315643 Li+
0.466750 0.050453 0.315643 Li+
0.477737 0.667016 0.230792 Li+
0.522263 0.167016 0.230792 Li+
0.960889 0.743634 0.247308 Li+
0.039111 0.243634 0.247308 Li+
0.494607 0.818220 0.429570 Li+
0.505393 0.318220 0.429570 Li+
0.484419 0.934004 0.344864 Li+
0.515581 0.434004 0.344864 Li+
0.505784 0.049457 0.371072 Li+
0.494216 0.549457 0.371072 Li+
0.507224 0.164548 0.397145 Li+
0.492776 0.664548 0.397145 Li+
0.992783 0.241566 0.413523 Li+
0.007217 0.741566 0.413523 Li+
0.521194 0.318286 0.374260 Li+
0.478806 0.818286 0.374260 Li+
0.476313 0.433730 0.400542 Li+
0.523687 0.933730 0.400542 Li+
0.533250 0.550453 0.426754 Li+
0.466750 0.050453 0.426754 Li+
0.477737 0.667016 0.341903 Li+
0.522263 0.167016 0.341903 Li+
0.960889 0.743634 0.358420 Li+
0.039111 0.243634 0.358420 Li+
0.494607 0.818220 0.540681 Li+
0.505393 0.318220 0.540681 Li+
0.484419 0.934004 0.455975 Li+
0.515581 0.434004 0.455975 Li+
0.505784 0.049457 0.482183 Li+
0.494216 0.549457 0.482183 Li+
0.507224 0.164548 0.508256 Li+
0.492776 0.664548 0.508256 Li+
0.992783 0.241566 0.524635 Li+
0.007217 0.741566 0.524635 Li+
0.521194 0.318286 0.485371 Li+
0.478806 0.818286 0.485371 Li+
0.476313 0.433730 0.511653 Li+
0.523687 0.933730 0.511653 Li+
0.533250 0.550453 0.537865 Li+
0.466750 0.050453 0.537865 Li+
0.477737 0.667016 0.453014 Li+
0.522263 0.167016 0.453014 Li+
0.960889 0.743634 0.469531 Li+
0.039111 0.243634 0.469531 Li+
0.494607 0.818220 0.651792 Li+
0.505393 0.318220 0.651792 Li+
0.484419 0.934004 0.567086 Li+
0.515581 0.434004 0.567086 Li+
0.505784 0.049457 0.593294 Li+
0.494216 0.549457 0.593294 Li+
0.507224 0.164548 0.619368 Li+
0.492776 0.664548 0.619368 Li+
0.992783 0.241566 0.635746 Li+
0.007217 0.741566 0.635746 Li+
0.521194 0.318286 0.596483 Li+
0.478806 0.818286 0.596483 Li+
0.476313 0.433730 0.622765 Li+
0.523687 0.933730 0.622765 Li+
0.533250 0.550453 0.648976 Li+
0.466750 0.050453 0.648976 Li+
0.477737 0.667016 0.564125 Li+
0.522263 0.167016 0.564125 Li+
0.960889 0.743634 0.580642 Li+
0.039111 0.243634 0.580642 Li+
0.494607 0.818220 0.762903 Li+
0.505393 0.318220 0.762903 Li+
0.484419 0.934004 0.678197 Li+
0.515581 0.434004 0.678197 Li+
0.505784 0.049457 0.704405 Li+
0.494216 0.549457 0.704405 Li+
0.507224 0.164548 0.730479 Li+
0.492776 0.664548 0.730479 Li+
0.992783 0.241566 0.746857 Li+
0.007217 0.741566 0.746857 Li+
0.521194 0.318286 0.707594 Li+
0.478806 0.818286 0.707594 Li+
0.476313 0.433730 0.733876 Li+
0.523687 0.933730 0.733876 Li+
0.533250 0.550453 0.760087 Li+
0.466750 0.050453 0.760087 Li+
0.477737 0.667016 0.675236 Li+
0.522263 0.167016 0.675236 Li+
0.960889 0.743634 0.691753 Li+
0.039111 0.243634 0.691753 Li+
0.185377 0.000413 0.110203 P5+
0.814623 0.500413 0.110203 P5+
0.843317 0.093280 0.022024 P5+
0.156683 0.593280 0.022024 P5+
0.188444 0.197061 0.043749 P5+
0.811556 0.697061 0.043749 P5+
0.828977 0.308311 0.064912 P5+
0.171023 0.808311 0.064912 P5+
0.159739 0.408249 0.087134 P5+
0.840261 0.908249 0.087134 P5+
0.843930 0.574567 0.073076 P5+
0.156070 0.074567 0.073076 P5+
0.174322 0.674438 0.095340 P5+
0.825678 0.174438 0.095340 P5+
0.812278 0.786455 0.005436 P5+
0.187722 0.286455 0.005436 P5+
0.151901 0.889856 0.027193 P5+
0.848099 0.389856 0.027193 P5+
0.809867 0.982845 0.050114 P5+
0.190133 0.482845 0.050114 P5+
0.185377 0.000413 0.221314 P5+
0.814623 0.500413 0.221314 P5+
0.843317 0.093280 0.133135 P5+
0.156683 0.593280 0.133135 P5+
0.188444 0.197061 0.154860 P5+
0.811556 0.697061 0.154860 P5+
0.828977 0.308311 0.176023 P5+
0.171023 0.808311 0.176023 P5+
0.159739 0.408249 0.198245 P5+
0.840261 0.908249 0.198245 P5+
0.843930 0.574567 0.184187 P5+
0.156070 0.074567 0.184187 P5+
0.174322 0.674438 0.206451 P5+
0.825678 0.174438 0.206451 P5+
0.812278 0.786455 0.116548 P5+
0.187722 0.286455 0.116548 P5+
0.151901 0.889856 0.138304 P5+
0.848099 0.389856 0.138304 P5+
0.809867 0.982845 0.161225 P5+
0.190133 0.482845 0.161225 P5+
0.185377 0.000413 0.332425 P5+
0.814623 0.500413 0.332425 P5+
0.843317 0.093280 0.244246 P5+
0.156683 0.593280 0.244246 P5+
0.188444 0.197061 0.265971 P5+
0.811556 0.697061 0.265971 P5+
0.828977 0.308311 0.287134 P5+
0.171023 0.808311 0.287135 P5+
0.159739 0.408249 0.309356 P5+
0.840261 0.908249 0.309356 P5+
0.843930 0.574567 0.295298 P5+
0.156070 0.074567 0.295298 P5+
0.174322 0.674438 0.317562 P5+
0.825678 0.174438 0.317562 P5+
0.812278 0.786455 0.227659 P5+
0.187722 0.286455 0.227659 P5+
0.151901 0.889856 0.249415 P5+
0.848099 0.389856 0.249415 P5+
0.809867 0.982845 0.272336 P5+
0.190133 0.482845 0.272336 P5+
0.185377 0.000413 0.443536 P5+
0.814623 0.500413 0.443536 P5+
0.843317 0.093280 0.355358 P5+
0.156683 0.593280 0.355358 P5+
0.188444 0.197061 0.377082 P5+
0.811556 0.697061 0.377082 P5+
0.828977 0.308311 0.398246 P5+
0.171023 0.808311 0.398246 P5+
0.159739 0.408249 0.420467 P5+
0.840261 0.908249 0.420467 P5+
0.843930 0.574567 0.406409 P5+
0.156070 0.074567 0.406409 P5+
0.174322 0.674438 0.428673 P5+
0.825678 0.174438 0.428673 P5+
0.812278 0.786455 0.338770 P5+
0.187722 0.286455 0.338770 P5+
0.151901 0.889856 0.360527 P5+
0.848099 0.389856 0.360527 P5+
0.809867 0.982845 0.383447 P5+
0.190133 0.482845 0.383447 P5+
0.185377 0.000413 0.554647 P5+
0.814623 0.500413 0.554647 P5+
0.843317 0.093280 0.466469 P5+
0.156683 0.593280 0.466469 P5+
0.188444 0.197061 0.488194 P5+
0.811556 0.697061 0.488194 P5+
0.828977 0.308311 0.509357 P5+
0.171023 0.808311 0.509357 P5+
0.159739 0.408249 0.531578 P5+
0.840261 0.908249 0.531578 P5+
0.843930 0.574567 0.517521 P5+
0.156070 0.074567 0.517521 P5+
0.174322 0.674438 0.539784 P5+
0.825678 0.174438 0.539784 P5+
0.812278 0.786455 0.449881 P5+
0.187722 0.286455 0.449881 P5+
0.151901 0.889856 0.471638 P5+
0.848099 0.389856 0.471638 P5+
0.809867 0.982845 0.494558 P5+
0.190133 0.482845 0.494558 P5+
0.185377 0.000413 0.665759 P5+
0.814623 0.500413 0.665759 P5+
0.843317 0.093280 0.577580 P5+
0.156683 0.593280 0.577580 P5+
0.188444 0.197061 0.599305 P5+
0.811556 0.697061 0.599305 P5+
0.828977 0.308311 0.620468 P5+
0.171023 0.808311 0.620468 P5+
0.159739 0.408249 0.642689 P5+
0.840261 0.908249 0.642689 P5+
0.843930 0.574567 0.628632 P5+
0.156070 0.074567 0.628632 P5+
0.174322 0.674438 0.650895 P5+
0.825678 0.174438 0.650895 P5+
0.812278 0.786455 0.560992 P5+
0.187722 0.286455 0.560992 P5+
0.151901 0.889856 0.582749 P5+
0.848099 0.389856 0.582749 P5+
0.809867 0.982845 0.605669 P5+
0.190133 0.482845 0.605669 P5+
0.185377 0.000413 0.776870 P5+
0.814623 0.500413 0.776870 P5+
0.843317 0.093280 0.688691 P5+
0.156683 0.593280 0.688691 P5+
0.188444 0.197061 0.710416 P5+
0.811556 0.697061 0.710416 P5+
0.828977 0.308311 0.731579 P5+
0.171023 0.808311 0.731579 P5+
0.159739 0.408249 0.753800 P5+
0.840261 0.908249 0.753800 P5+
0.843930 0.574567 0.739743 P5+
0.156070 0.074567 0.739743 P5+
0.174322 0.674438 0.762006 P5+
0.825678 0.174438 0.762006 P5+
0.812278 0.786455 0.672103 P5+
0.187722 0.286455 0.672103 P5+
0.151901 0.889856 0.693860 P5+
0.848099 0.389856 0.693860 P5+
0.809867 0.982845 0.716781 P5+
0.190133 0.482845 0.716781 P5+
0.069000 0.035413 0.013621 O2-
0.931000 0.535413 0.013621 O2-
0.951087 0.140628 0.036976 O2-
0.048913 0.640628 0.036976 O2-
0.080018 0.275856 0.056806 O2-
0.919982 0.775856 0.056806 O2-
0.926681 0.392259 0.077723 O2-
0.073319 0.892259 0.077723 O2-
0.942022 0.978148 0.101384 O2-
0.057978 0.478148 0.101384 O2-
0.076781 0.590622 0.082505 O2-
0.923219 0.090622 0.082505 O2-
0.921841 0.709404 0.103264 O2-
0.078159 0.209404 0.103264 O2-
0.049265 0.843555 0.012156 O2-
0.950735 0.343555 0.012156 O2-
0.918787 0.943480 0.035337 O2-
0.081213 0.443480 0.035337 O2-
0.944691 0.504327 0.058775 O2-
0.055309 0.004327 0.058775 O2-
0.322795 0.926111 0.107048 O2-
0.677205 0.426111 0.107048 O2-
0.313918 0.066074 0.109724 O2-
0.686082 0.566074 0.109724 O2-
0.643576 0.041349 0.021914 O2-
0.356424 0.541349 0.021914 O2-
0.795305 0.153257 0.018185 O2-
0.204695 0.653257 0.018185 O2-
0.351974 0.154647 0.048029 O2-
0.648026 0.654647 0.048029 O2-
0.281781 0.224590 0.035021 O2-
0.718219 0.724590 0.035021 O2-
0.751546 0.252705 0.069253 O2-
0.248454 0.752705 0.069253 O2-
0.656290 0.330648 0.057792 O2-
0.343710 0.830648 0.057792 O2-
0.215121 0.332841 0.087021 O2-
0.784879 0.832841 0.087021 O2-
0.355777 0.446708 0.083746 O2-
0.644223 0.946708 0.083746 O2-
0.649890 0.536665 0.076691 O2-
0.350110 0.036665 0.076690 O2-
0.785996 0.649394 0.073077 O2-
0.214004 0.149394 0.073077 O2-
0.340793 0.651785 0.102668 O2-
0.659207 0.151785 0.102668 O2-
0.258044 0.728542 0.090810 O2-
0.741956 0.228542 0.090810 O2-
0.725734 0.758375 0.014209 O2-
0.274266 0.258375 0.014209 O2-
0.642950 0.828801 0.001387 O2-
0.357050 0.328801 0.001387 O2-
0.205272 0.829973 0.030998 O2-
0.794728 0.329973 0.030998 O2-
0.347295 0.944360 0.027734 O2-
0.652705 0.444360 0.027734 O2-
0.677470 0.919559 0.051087 O2-
0.322530 0.419559 0.051087 O2-
0.678914 0.057634 0.053033 O2-
0.321086 0.557634 0.053033 O2-
0.069000 0.035413 0.124732 O2-
0.931000 0.535413 0.124732 O2-
0.951087 0.140628 0.148087 O2-
0.048913 0.640628 0.148087 O2-
0.080018 0.275856 0.167917 O2-
0.919982 0.775856 0.167917 O2-
0.926681 0.392259 0.188834 O2-
0.073319 0.892259 0.188834 O2-
0.942022 0.978148 0.212495 O2-
0.057978 0.478148 0.212495 O2-
0.076781 0.590622 0.193616 O2-
0.923219 0.090622 0.193616 O2-
0.921841 0.709404 0.214375 O2-
0.078159 0.209404 0.214375 O2-
0.049265 0.843555 0.123267 O2-
0.950735 0.343555 0.123267 O2-
0.918787 0.943480 0.146449 O2-
0.081213 0.443480 0.146449 O2-
0.944691 0.504327 0.169886 O2-
0.055309 0.004327 0.169886 O2-
0.322795 0.926111 0.218159 O2-
0.677205 0.426111 0.218159 O2-
0.313918 0.066074 0.220835 O2-
0.686082 0.566074 0.220835 O2-
0.643576 0.041349 0.133026 O2-
0.356424 0.541349 0.133026 O2-
0.795305 0.153257 0.129296 O2-
0.204695 0.653257 0.129296 O2-
0.351974 0.154647 0.159140 O2-
0.648026 0.654647 0.159140 O2-
0.281781 0.224590 0.146132 O2-
0.718219 0.724590 0.146132 O2-
0.751546 0.252705 0.180364 O2-
0.248454 0.752705 0.180364 O2-
0.656290 0.330648 0.168903 O2-
0.343710 0.830648 0.168903 O2-
0.215121 0.332841 0.198132 O2-
0.784879 0.832841 0.198132 O2-
0.355777 0.446708 0.194857 O2-
0.644223 0.946708 0.194857 O2-
0.649890 0.536665 0.187802 O2-
0.350110 0.036665 0.187802 O2-
0.785996 0.649394 0.184188 O2-
0.214004 0.149394 0.184188 O2-
0.340793 0.651785 0.213779 O2-
0.659207 0.151785 0.213779 O2-
0.258044 0.728542 0.201921 O2-
0.741956 0.228542 0.201921 O2-
0.725734 0.758375 0.125321 O2-
0.274266 0.258375 0.125321 O2-
0.642950 0.828801 0.112498 O2-
0.357050 0.328801 0.112498 O2-
0.205272 0.829973 0.142109 O2-
0.794728 0.329973 0.142109 O2-
0.347295 0.944360 0.138845 O2-
0.652705 0.444360 0.138845 O2-
0.677470 0.919559 0.162198 O2-
0.322530 0.419559 0.162198 O2-
0.678914 0.057634 0.164144 O2-
0.321086 0.557634 0.164144 O2-
0.069000 0.035413 0.235843 O2-
0.931000 0.535413 0.235843 O2-
0.951087 0.140628 0.259198 O2-
0.048913 0.640628 0.259198 O2-
0.080018 0.275856 0.279028 O2-
0.919982 0.775856 0.279028 O2-
0.926681 0.392259 0.299945 O2-
0.073319 0.892259 0.299945 O2-
0.942022 0.978148 0.323606 O2-
0.057978 0.478148 0.323606 O2-
0.076781 0.590622 0.304727 O2-
0.923219 0.090622 0.304727 O2-
0.921841 0.709404 0.325487 O2-
0.078159 0.209404 0.325487 O2-
0.049265 0.843555 0.234378 O2-
0.950735 0.343555 0.234378 O2-
0.918787 0.943480 0.257560 O2-
0.081213 0.443480 0.257560 O2-
0.944691 0.504327 0.280997 O2-
0.055309 0.004327 0.280997 O2-
0.322795 0.926111 0.329270 O2-
0.677205 0.426111 0.329270 O2-
0.313918 0.066074 0.331946 O2-
0.686082 0.566074 0.331946 O2-
0.643576 0.041349 0.244137 O2-
0.356424 0.541349 0.244137 O2-
0.795305 0.153257 0.240407 O2-
0.204695 0.653257 0.240407 O2-
0.351974 0.154647 0.270251 O2-
0.648026 0.654647 0.270251 O2-
0.281781 0.224590 0.257243 O2-
0.718219 0.724590 0.257243 O2-
0.751546 0.252705 0.291475 O2-
0.248454 0.752705 0.291475 O2-
0.656290 0.330648 0.280014 O2-
0.343710 0.830648 0.280014 O2-
0.215121 0.332841 0.309243 O2-
0.784879 0.832841 0.309243 O2-
0.355777 0.446708 0.305968 O2-
0.644223 0.946708 0.305968 O2-
0.649890 0.536665 0.298913 O2-
0.350110 0.036665 0.298913 O2-
0.785996 0.649394 0.295299 O2-
0.214004 0.149394 0.295299 O2-
0.340793 0.651785 0.324890 O2-
0.659207 0.151785 0.324890 O2-
0.258044 0.728542 0.313033 O2-
0.741956 0.228542 0.313033 O2-
0.725734 0.758375 0.236432 O2-
0.274266 0.258375 0.236432 O2-
0.642950 0.828801 0.223609 O2-
0.357050 0.328801 0.223609 O2-
0.205272 0.829973 0.253221 O2-
0.794728 0.329973 0.253221 O2-
0.347295 0.944360 0.249957 O2-
0.652705 0.444360 0.249957 O2-
0.677470 0.919559 0.273310 O2-
0.322530 0.419559 0.273310 O2-
0.678914 0.057634 0.275255 O2-
0.321086 0.557634 0.275255 O2-
0.069000 0.035413 0.346954 O2-
0.931000 0.535413 0.346954 O2-
0.951087 0.140628 0.370309 O2-
0.048913 0.640628 0.370309 O2-
0.080018 0.275856 0.390139 O2-
0.919982 0.775856 0.390139 O2-
0.926681 0.392259 0.411057 O2-
0.073319 0.892259 0.411057 O2-
0.942022 0.978148 0.434717 O2-
0.057978 0.478148 0.434717 O2-
0.076781 0.590622 0.415838 O2-
0.923219 0.090622 0.415838 O2-
0.921841 0.709404 0.436598 O2-
0.078159 0.209404 0.436598 O2-
0.049265 0.843555 0.345489 O2-
0.950735 0.343555 0.345489 O2-
0.918787 0.943480 0.368671 O2-
0.081213 0.443480 0.368671 O2-
0.944691 0.504327 0.392108 O2-
0.055309 0.004327 0.392108 O2-
0.322795 0.926111 0.440381 O2-
0.677205 0.426111 0.440381 O2-
0.313918 0.066074 0.443057 O2-
0.686082 0.566074 0.443057 O2-
0.643576 0.041349 0.355248 O2-
0.356424 0.541349 0.355248 O2-
0.795305 0.153257 0.351518 O2-
0.204695 0.653257 0.351518 O2-
0.351974 0.154647 0.381363 O2-
0.648026 0.654647 0.381363 O2-
0.281781 0.224590 0.368354 O2-
0.718219 0.724590 0.368354 O2-
0.751546 0.252705 0.402586 O2-
0.248454 0.752705 0.402586 O2-
0.656290 0.330648 0.391125 O2-
0.343710 0.830648 0.391125 O2-
0.215121 0.332841 0.420354 O2-
0.784879 0.832841 0.420354 O2-
0.355777 0.446708 0.417079 O2-
0.644223 0.946708 0.417079 O2-
0.649890 0.536665 0.410024 O2-
0.350110 0.036665 0.410024 O2-
0.785996 0.649394 0.406410 O2-
0.214004 0.149394 0.406410 O2-
0.340793 0.651785 0.436001 O2-
0.659207 0.151785 0.436001 O2-
0.258044 0.728542 0.424144 O2-
0.741956 0.228542 0.424144 O2-
0.725734 0.758375 0.347543 O2-
0.274266 0.258375 0.347543 O2-
0.642950 0.828801 0.334721 O2-
0.357050 0.328801 0.334721 O2-
0.205272 0.829973 0.364332 O2-
0.794728 0.329973 0.364332 O2-
0.347295 0.944360 0.361068 O2-
0.652705 0.444360 0.361068 O2-
0.677470 0.919559 0.384421 O2-
0.322530 0.419559 0.384421 O2-
0.678914 0.057634 0.386366 O2-
0.321086 0.557634 0.386366 O2-
0.069000 0.035413 0.458066 O2-
0.931000 0.535413 0.458066 O2-
0.951087 0.140628 0.481420 O2-
0.048913 0.640628 0.481420 O2-
0.080018 0.275856 0.501251 O2-
0.919982 0.775856 0.501251 O2-
0.926681 0.392259 0.522168 O2-
0.073319 0.892259 0.522168 O2-
0.942022 0.978148 0.545828 O2-
0.057978 0.478148 0.545828 O2-
0.076781 0.590622 0.526949 O2-
0.923219 0.090622 0.526949 O2-
0.921841 0.709404 0.547709 O2-
0.078159 0.209404 0.547709 O2-
0.049265 0.843555 0.456600 O2-
0.950735 0.343555 0.456600 O2-
0.918787 0.943480 0.479782 O2-
0.081213 0.443480 0.479782 O2-
0.944691 0.504327 0.503220 O2-
0.055309 0.004327 0.503220 O2-
0.322795 0.926111 0.551492 O2-
0.677205 0.426111 0.551492 O2-
0.313918 0.066074 0.554168 O2-
0.686082 0.566074 0.554168 O2-
0.643576 0.041349 0.466359 O2-
0.356424 0.541349 0.466359 O2-
0.795305 0.153257 0.462629 O2-
0.204695 0.653257 0.462629 O2-
0.351974 0.154647 0.492474 O2-
0.648026 0.654647 0.492474 O2-
0.281781 0.224590 0.479465 O2-
0.718219 0.724590 0.479465 O2-
0.751546 0.252705 0.513697 O2-
0.248454 0.752705 0.513697 O2-
0.656290 0.330648 0.502236 O2-
0.343710 0.830648 0.502236 O2-
0.215121 0.332841 0.531465 O2-
0.784879 0.832841 0.531465 O2-
0.355777 0.446708 0.528190 O2-
0.644223 0.946708 0.528190 O2-
0.649890 0.536665 0.521135 O2-
0.350110 0.036665 0.521135 O2-
0.785996 0.649394 0.517521 O2-
0.214004 0.149394 0.517521 O2-
0.340793 0.651785 0.547112 O2-
0.659207 0.151785 0.547112 O2-
0.258044 0.728542 0.535255 O2-
0.741956 0.228542 0.535255 O2-
0.725734 0.758375 0.458654 O2-
0.274266 0.258375 0.458654 O2-
0.642950 0.828801 0.445832 O2-
0.357050 0.328801 0.445832 O2-
0.205272 0.829973 0.475443 O2-
0.794728 0.329973 0.475443 O2-
0.347295 0.944360 0.472179 O2-
0.652705 0.444360 0.472179 O2-
0.677470 0.919559 0.495532 O2-
0.322530 0.419559 0.495532 O2-
0.678914 0.057634 0.497477 O2-
0.321086 0.557634 0.497477 O2-
0.069000 0.035413 0.569177 O2-
0.931000 0.535413 0.569177 O2-
0.951087 0.140628 0.592532 O2-
0.048913 0.640628 0.592532 O2-
0.080018 0.275856 0.612362 O2-
0.919982 0.775856 0.612362 O2-
0.926681 0.392259 0.633279 O2-
0.073319 0.892259 0.633279 O2-
0.942022 0.978148 0.656939 O2-
0.057978 0.478148 0.656939 O2-
0.076781 0.590622 0.638060 O2-
0.923219 0.090622 0.638060 O2-
0.921841 0.709404 0.658820 O2-
0.078159 0.209404 0.658820 O2-
0.049265 0.843555 0.567712 O2-
0.950735 0.343555 0.567712 O2-
0.918787 0.943480 0.590893 O2-
0.081213 0.443480 0.590893 O2-
0.944691 0.504327 0.614331 O2-
0.055309 0.004327 0.614331 O2-
0.322795 0.926111 0.662604 O2-
0.677205 0.426111 0.662604 O2-
0.313918 0.066074 0.665279 O2-
0.686082 0.566074 0.665279 O2-
0.643576 0.041349 0.577470 O2-
0.356424 0.541349 0.577470 O2-
0.795305 0.153257 0.573740 O2-
0.204695 0.653257 0.573740 O2-
0.351974 0.154647 0.603585 O2-
0.648026 0.654647 0.603585 O2-
0.281781 0.224590 0.590577 O2-
0.718219 0.724590 0.590577 O2-
0.751546 0.252705 0.624808 O2-
0.248454 0.752705 0.624808 O2-
0.656290 0.330648 0.613347 O2-
0.343710 0.830648 0.613347 O2-
0.215121 0.332841 0.642577 O2-
0.784879 0.832841 0.642577 O2-
0.355777 0.446708 0.639301 O2-
0.644223 0.946708 0.639301 O2-
0.649890 0.536665 0.632246 O2-
0.350110 0.036665 0.632246 O2-
0.785996 0.649394 0.628633 O2-
0.214004 0.149394 0.628633 O2-
0.340793 0.651785 0.658223 O2-
0.659207 0.151785 0.658223 O2-
0.258044 0.728542 0.646366 O2-
0.741956 0.228542 0.646366 O2-
0.725734 0.758375 0.569765 O2-
0.274266 0.258375 0.569765 O2-
0.642950 0.828801 0.556943 O2-
0.357050 0.328801 0.556943 O2-
0.205272 0.829973 0.586554 O2-
0.794728 0.329973 0.586554 O2-
0.347295 0.944360 0.583290 O2-
0.652705 0.444360 0.583290 O2-
0.677470 0.919559 0.606643 O2-
0.322530 0.419559 0.606643 O2-
0.678914 0.057634 0.608588 O2-
0.321086 0.557634 0.608588 O2-
0.069000 0.035413 0.680288 O2-
0.931000 0.535413 0.680288 O2-
0.951087 0.140628 0.703643 O2-
0.048913 0.640628 0.703643 O2-
0.080018 0.275856 0.723473 O2-
0.919982 0.775856 0.723473 O2-
0.926681 0.392259 0.744390 O2-
0.073319 0.892259 0.744390 O2-
0.942022 0.978148 0.768050 O2-
0.057978 0.478148 0.768050 O2-
0.076781 0.590622 0.749171 O2-
0.923219 0.090622 0.749171 O2-
0.921841 0.709404 0.769931 O2-
0.078159 0.209404 0.769931 O2-
0.049265 0.843555 0.678823 O2-
0.950735 0.343555 0.678823 O2-
0.918787 0.943480 0.702004 O2-
0.081213 0.443480 0.702004 O2-
0.944691 0.504327 0.725442 O2-
0.055309 0.004327 0.725442 O2-
0.322795 0.926111 0.773715 O2-
0.677205 0.426111 0.773715 O2-
0.313918 0.066074 0.776390 O2-
0.686082 0.566074 0.776390 O2-
0.643576 0.041349 0.688581 O2-
0.356424 0.541349 0.688581 O2-
0.795305 0.153257 0.684851 O2-
0.204695 0.653257 0.684851 O2-
0.351974 0.154647 0.714696 O2-
0.648026 0.654647 0.714696 O2-
0.281781 0.224590 0.701688 O2-
0.718219 0.724590 0.701688 O2-
0.751546 0.252705 0.735919 O2-
0.248454 0.752705 0.735919 O2-
0.656290 0.330648 0.724458 O2-
0.343710 0.830648 0.724458 O2-
0.215121 0.332841 0.753688 O2-
0.784879 0.832841 0.753688 O2-
0.355777 0.446708 0.750412 O2-
0.644223 0.946708 0.750412 O2-
0.649890 0.536665 0.743357 O2-
0.350110 0.036665 0.743357 O2-
0.785996 0.649394 0.739744 O2-
0.214004 0.149394 0.739744 O2-
0.340793 0.651785 0.769335 O2-
0.659207 0.151785 0.769335 O2-
0.258044 0.728542 0.757477 O2-
0.741956 0.228542 0.757477 O2-
0.725734 0.758375 0.680876 O2-
0.274266 0.258375 0.680876 O2-
0.642950 0.828801 0.668054 O2-
0.357050 0.328801 0.668054 O2-
0.205272 0.829973 0.697665 O2-
0.794728 0.329973 0.697665 O2-
0.347295 0.944360 0.694401 O2-
0.652705 0.444360 0.694401 O2-
0.677470 0.919559 0.717754 O2-
0.322530 0.419559 0.717754 O2-
0.678914 0.057634 0.719699 O2-
0.321086 0.557634 0.719699 O2-
