Li56 P56
1.0
5.593872 0.000000 0.000000
-4.836985 9.037780 -4.970385
0.000000 0.000000 59.644620
Li P
56 56
Selective dynamics
direct
0.782992 0.670700 0.082718 F F F Li
0.217008 0.829300 0.054268 T T T Li
0.217008 0.329300 0.035643 T T T Li
0.782992 0.170700 0.064093 F F F Li
0.774232 0.970214 0.001839 T T T Li
0.225768 0.529786 0.006803 T T T Li
0.225768 0.029786 0.033189 T T T Li
0.774232 0.470214 0.028225 T T T Li
0.782992 0.670700 0.166052 F F F Li
0.217008 0.829300 0.137602 F F F Li
0.217008 0.329300 0.118976 F F F Li
0.782992 0.170700 0.147426 F F F Li
0.774232 0.970214 0.085172 F F F Li
0.225768 0.529786 0.090136 F F F Li
0.225768 0.029786 0.116522 F F F Li
0.774232 0.470214 0.111558 F F F Li
0.782992 0.670700 0.249385 F F F Li
0.217008 0.829300 0.220935 F F F Li
0.217008 0.329300 0.202309 F F F Li
0.782992 0.170700 0.230759 F F F Li
0.774232 0.970214 0.168505 F F F Li
0.225768 0.529786 0.173470 F F F Li
0.225768 0.029786 0.199856 F F F Li
0.774232 0.470214 0.194891 F F F Li
0.782992 0.670700 0.332718 F F F Li
0.217008 0.829300 0.304268 F F F Li
0.217008 0.329300 0.285643 F F F Li
0.782992 0.170700 0.314093 F F F Li
0.774232 0.970214 0.251839 F F F Li
0.225768 0.529786 0.256803 F F F Li
0.225768 0.029786 0.283189 F F F Li
0.774232 0.470214 0.278225 F F F Li
0.782992 0.670700 0.416052 F F F Li
0.217008 0.829300 0.387602 F F F Li
0.217008 0.329300 0.368976 F F F Li
0.782992 0.170700 0.397426 F F F Li
0.774232 0.970214 0.335172 F F F Li
0.225768 0.529786 0.340136 F F F Li
0.225768 0.029786 0.366522 F F F Li
0.774232 0.470214 0.361558 F F F Li
0.782992 0.670700 0.499385 F F F Li
0.217008 0.829300 0.470935 F F F Li
0.217008 0.329300 0.452309 F F F Li
0.782992 0.170700 0.480759 F F F Li
0.774232 0.970214 0.418505 F F F Li
0.225768 0.529786 0.423470 F F F Li
0.225768 0.029786 0.449856 F F F Li
0.774232 0.470214 0.444891 F F F Li
0.782992 0.670700 0.582718 T T T Li
0.217008 0.829300 0.554268 T T T Li
0.217008 0.329300 0.535643 T T T Li
0.782992 0.170700 0.564093 T T T Li
0.774232 0.970214 0.501839 F F F Li
0.225768 0.529786 0.506803 F F F Li
0.225768 0.029786 0.533189 F F F Li
0.774232 0.470214 0.528225 F F F Li
0.683355 0.707084 0.043529 T T T P
0.316645 0.792916 0.009015 T T T P
0.316645 0.292916 0.074832 F F F P
0.683355 0.207084 0.026013 T T T P
0.696818 0.888258 0.036866 T T T P
0.303182 0.611742 0.055490 F F F P
0.303182 0.111742 0.081495 F F F P
0.696818 0.388258 0.062871 F F F P
0.683355 0.707084 0.126862 F F F P
0.316645 0.792916 0.092348 F F F P
0.316645 0.292916 0.158166 F F F P
0.683355 0.207084 0.109346 F F F P
0.696818 0.888258 0.120200 F F F P
0.303182 0.611742 0.138823 F F F P
0.303182 0.111742 0.164828 F F F P
0.696818 0.388258 0.146204 F F F P
0.683355 0.707084 0.210196 F F F P
0.316645 0.792916 0.175682 F F F P
0.316645 0.292916 0.241499 F F F P
0.683355 0.207084 0.192680 F F F P
0.696818 0.888258 0.203533 F F F P
0.303182 0.611742 0.222157 F F F P
0.303182 0.111742 0.248161 F F F P
0.696818 0.388258 0.229538 F F F P
0.683355 0.707084 0.293529 F F F P
0.316645 0.792916 0.259015 F F F P
0.316645 0.292916 0.324832 F F F P
0.683355 0.207084 0.276013 F F F P
0.696818 0.888258 0.286866 F F F P
0.303182 0.611742 0.305490 F F F P
0.303182 0.111742 0.331495 F F F P
0.696818 0.388258 0.312871 F F F P
0.683355 0.707084 0.376862 F F F P
0.316645 0.792916 0.342348 F F F P
0.316645 0.292916 0.408166 F F F P
0.683355 0.207084 0.359346 F F F P
0.696818 0.888258 0.370200 F F F P
0.303182 0.611742 0.388823 F F F P
0.303182 0.111742 0.414828 F F F P
0.696818 0.388258 0.396204 F F F P
0.683355 0.707084 0.460196 F F F P
0.316645 0.792916 0.425682 F F F P
0.316645 0.292916 0.491499 F F F P
0.683355 0.207084 0.442680 F F F P
0.696818 0.888258 0.453533 F F F P
0.303182 0.611742 0.472157 F F F P
0.303182 0.111742 0.498161 F F F P
0.696818 0.388258 0.479538 F F F P
0.683355 0.707084 0.543529 T T T P
0.316645 0.792916 0.509015 F F F P
0.316645 0.292916 0.574832 T T T P
0.683355 0.207084 0.526013 F F F P
0.696818 0.888258 0.536866 T T T P
0.303182 0.611742 0.555490 T T T P
0.303182 0.111742 0.581495 T T T P
0.696818 0.388258 0.562871 T T T P
