Li61 P7 N32                             
   1.00000000000000     
     0.0199808932137077    9.6200927162911256    0.1177323759103239
     0.0212441053145409    0.1182674211353868    9.6228286022650789
     9.5882800108044268    0.0198055492586426    0.0218338971395555
   Li   P    N 
    61     7    32
Direct
  0.5047924976742663 -0.0127878983574036  0.5002387209279194
 -0.0072562688646992  0.4833107872311120 -0.0182796925977076
  0.5071498122565340 -0.0001850558476656  0.0039657033324068
  0.0039363404144895 -0.0061579514500908  0.4936225919788156
  0.4895152548269203  0.4927456941730893 -0.0193142281692533
 -0.0008966887777897  0.4934124870456318  0.4855093313182738
  0.7582102043112424  0.0025804623708722  0.5099982714406938
  0.2518278523672767 -0.0198311776196224  0.5035131769122644
  0.7782898234893517  0.5013181058834189  0.4960970606180176
  0.2291758830489635  0.4737813265144893  0.5064147256709673
  0.2678958433867841 -0.0061587547476375 -0.0067883422827515
  0.7486187262272390  0.0047229629440520  0.0270420582975967
  0.5729219649883099  0.5802340634706983  0.4341210515197297
  0.4791248423383844  0.2429422480301600  0.0169199749140005
  0.4983331927587243  0.7524652480229034  0.0268903952003286
  0.0186558943038093  0.4591612570860760  0.2410816234174157
  0.0093204934591441  0.4835254763728217  0.7371490097218395
  0.2768250032217511  0.2769416242853885  0.2631372976550848
  0.1676429705630884  0.7530178326214717  0.7540160288492586
  0.2785507887240690  0.2602589873656790  0.7542936938039200
  0.2925778485798262  0.7874219510245092  0.2870015432101227
  0.7913222652767044  0.2985440209238671  0.2865563615570674
  0.6499566830495932  0.8202608818786083  0.6613481541330003
  0.7761631156243148  0.2265007600470000  0.7807497018882865
  0.7856113107340865  0.8132512209122975  0.2492952531916929
  0.0303248753176809  0.2023968187792504  0.2597633094538000
  0.8832820866663527  0.6953596908868138  0.7121602913278483
  0.2595201950869159  0.2321992846631729  0.5102530612825119
  0.2375108863052005  0.7073881534993053  0.4900119122443901
  0.7482101939110929  0.2492348110586038  0.5120259042300759
  0.7431298128143883  0.7482902288246395  0.4735999494543797
  0.7272972881029062  0.5079552771378665  0.2507966656927483
  0.7636849239400352  0.4731730173461396  0.7372701076635565
  0.2601775280863071  0.5394076048536069  0.2396544007697417
  0.2477699205673077  0.4944308172640040  0.7385860922524715
  0.5182900001807221  0.7544967089892998  0.2679285008403587
  0.5156371331966404  0.2591374624747517  0.7686682830254645
  0.2553704465346111  0.0231897254535363  0.2337828609786996
  0.2363031516473201  0.0148725179975221  0.7488301760738302
  0.2280325395746471  0.2377025519660438  0.0029277721794573
  0.2325082022753571  0.7506909966150741  0.0106703603305085
  0.7546641010020239 -0.0119639343548652  0.7830351687312485
  0.7597263688385451  0.0570966617727398  0.2779452341168224
  0.7495114295084134  0.7691949373695413  0.9854661505709086
  0.7252405445099388  0.2435925567857133  0.0398571795784726
  0.0258099614611013  0.2354542403608020  0.7672711718452107
  0.0551605054569873  0.7310950755036492  0.2356705796958032
  0.5428616790777012  0.2513397801345690  0.2786237015376509
  0.4188454783089526  0.7635887600160721  0.7984133140399227
 -0.0233717905361971  0.2467878088869145  0.0135591605220882
 -0.0009216201813344  0.7332580662275675 -0.0383093883621659
  0.4954134372882005  0.2158589709942604  0.5221536136737980
  0.4634869122736697  0.7314401597189532  0.5431797779622666
  0.4903795554467125  0.5061603177930502  0.2155143747205262
  0.4667973929917101  0.5214011006559114  0.7324964141606969
  0.0074578180756790 -0.0321362648152152  0.2530185516434725
 -0.0056758194521881 -0.0211834008823289  0.7310255089448474
  0.4304761563274337  0.4335714007890610  0.4352756586840332
  0.5820508181325555  0.4231131776551681  0.5863587174958798
  0.8904450393431994  0.6266666139122462  0.1418402109500612
  0.6498518151236531  0.6615442123734556  0.8196979056344924
  0.0040113152570680 -0.0109367804707826 -0.0043113786638811
  0.7446526257631626  0.4920967312793870 -0.0059808759780426
  0.2356241399625923  0.4946580269096474 -0.0079501313373968
 -0.0050168565241283  0.7483050737979472  0.4878761221717225
  0.0040504636018017  0.2389539473989193  0.5081804462465996
  0.5103060789402183  0.0069990325830504  0.2506047976902853
  0.4963306835926591 -0.0001244302125255  0.7579829103473610
  0.6362585618838223  0.6210130227381573  0.6225312359144568
  0.6333120840452402  0.3877375167689772  0.3897789640096739
  0.9060361610913313  0.8794405961066479  0.0947064414698260
  0.8955749748754861  0.0922623259873528  0.9001546748619313
  0.1102933330354247  0.8951874959758968  0.8925772869008891
  0.1001362074618792  0.0894458087273449  0.1013909127992231
  0.3847761456215862  0.6249736339656983  0.3695269298948183
  0.3825957270111860  0.3690172664524417  0.6218984702318054
  0.1047611223153159  0.3342586173541243  0.3972734627313154
  0.0797035067710090  0.6382889683692355  0.6005075639985222
  0.1061481631653952  0.1313781303651131  0.6049248637931262
  0.1118878693586336  0.8435282696288093  0.3977221203106724
  0.8971980321661185  0.1464317409619864  0.4037733403609405
  0.8859694514733542  0.8517374552041189  0.5802526621587487
  0.8485142400080289  0.4038325974672254  0.1082459045265822
  0.8445325659051423  0.5931639634807203  0.8916732465665734
  0.1250941231638620  0.5929419766792878  0.0918880572740425
  0.1447861262991183  0.3900190856584416  0.8861661133517931
  0.4091047928669714  0.9020316471577288  0.1557736156243660
  0.3986360278834052  0.1052473394284114  0.8595921365065743
  0.4034998077155031  0.1080097965400178  0.3525010300688665
  0.3947769147040897  0.9050466428229609  0.6535131624297090
  0.3392810760194933  0.3957555535956325  0.0959237536905210
  0.3319770791544085  0.6063214052874043  0.8938471802442338
  0.6140816480889254  0.0873681229999229  0.6618518313623852
  0.6254990434451179  0.9120729525241468  0.3483482995632114
  0.6427294085435317  0.6057074426565844  0.0849981881652803
  0.6522888365615341  0.3831809284065013  0.8974895091796214
  0.9058471784793100  0.3428012088708365  0.6141783474470671
  0.9035311230573354  0.6518702910205325  0.3685398290235281
  0.6058141435706315  0.1102421548869629  0.1456725961194447
  0.5918714524778060  0.8795999717365114  0.8585882584887319
 
  0.00000000E+00  0.00000000E+00  0.00000000E+00
  0.00000000E+00  0.00000000E+00  0.00000000E+00
  0.00000000E+00  0.00000000E+00  0.00000000E+00
  0.00000000E+00  0.00000000E+00  0.00000000E+00
  0.00000000E+00  0.00000000E+00  0.00000000E+00
  0.00000000E+00  0.00000000E+00  0.00000000E+00
  0.00000000E+00  0.00000000E+00  0.00000000E+00
  0.00000000E+00  0.00000000E+00  0.00000000E+00
  0.00000000E+00  0.00000000E+00  0.00000000E+00
  0.00000000E+00  0.00000000E+00  0.00000000E+00
  0.00000000E+00  0.00000000E+00  0.00000000E+00
  0.00000000E+00  0.00000000E+00  0.00000000E+00
  0.00000000E+00  0.00000000E+00  0.00000000E+00
  0.00000000E+00  0.00000000E+00  0.00000000E+00
  0.00000000E+00  0.00000000E+00  0.00000000E+00
  0.00000000E+00  0.00000000E+00  0.00000000E+00
  0.00000000E+00  0.00000000E+00  0.00000000E+00
  0.00000000E+00  0.00000000E+00  0.00000000E+00
  0.00000000E+00  0.00000000E+00  0.00000000E+00
  0.00000000E+00  0.00000000E+00  0.00000000E+00
  0.00000000E+00  0.00000000E+00  0.00000000E+00
  0.00000000E+00  0.00000000E+00  0.00000000E+00
  0.00000000E+00  0.00000000E+00  0.00000000E+00
  0.00000000E+00  0.00000000E+00  0.00000000E+00
  0.00000000E+00  0.00000000E+00  0.00000000E+00
  0.00000000E+00  0.00000000E+00  0.00000000E+00
  0.00000000E+00  0.00000000E+00  0.00000000E+00
  0.00000000E+00  0.00000000E+00  0.00000000E+00
  0.00000000E+00  0.00000000E+00  0.00000000E+00
  0.00000000E+00  0.00000000E+00  0.00000000E+00
  0.00000000E+00  0.00000000E+00  0.00000000E+00
  0.00000000E+00  0.00000000E+00  0.00000000E+00
  0.00000000E+00  0.00000000E+00  0.00000000E+00
  0.00000000E+00  0.00000000E+00  0.00000000E+00
  0.00000000E+00  0.00000000E+00  0.00000000E+00
  0.00000000E+00  0.00000000E+00  0.00000000E+00
  0.00000000E+00  0.00000000E+00  0.00000000E+00
  0.00000000E+00  0.00000000E+00  0.00000000E+00
  0.00000000E+00  0.00000000E+00  0.00000000E+00
  0.00000000E+00  0.00000000E+00  0.00000000E+00
  0.00000000E+00  0.00000000E+00  0.00000000E+00
  0.00000000E+00  0.00000000E+00  0.00000000E+00
  0.00000000E+00  0.00000000E+00  0.00000000E+00
  0.00000000E+00  0.00000000E+00  0.00000000E+00
  0.00000000E+00  0.00000000E+00  0.00000000E+00
  0.00000000E+00  0.00000000E+00  0.00000000E+00
  0.00000000E+00  0.00000000E+00  0.00000000E+00
  0.00000000E+00  0.00000000E+00  0.00000000E+00
  0.00000000E+00  0.00000000E+00  0.00000000E+00
  0.00000000E+00  0.00000000E+00  0.00000000E+00
  0.00000000E+00  0.00000000E+00  0.00000000E+00
  0.00000000E+00  0.00000000E+00  0.00000000E+00
  0.00000000E+00  0.00000000E+00  0.00000000E+00
  0.00000000E+00  0.00000000E+00  0.00000000E+00
  0.00000000E+00  0.00000000E+00  0.00000000E+00
  0.00000000E+00  0.00000000E+00  0.00000000E+00
  0.00000000E+00  0.00000000E+00  0.00000000E+00
  0.00000000E+00  0.00000000E+00  0.00000000E+00
  0.00000000E+00  0.00000000E+00  0.00000000E+00
  0.00000000E+00  0.00000000E+00  0.00000000E+00
  0.00000000E+00  0.00000000E+00  0.00000000E+00
  0.00000000E+00  0.00000000E+00  0.00000000E+00
  0.00000000E+00  0.00000000E+00  0.00000000E+00
  0.00000000E+00  0.00000000E+00  0.00000000E+00
  0.00000000E+00  0.00000000E+00  0.00000000E+00
  0.00000000E+00  0.00000000E+00  0.00000000E+00
  0.00000000E+00  0.00000000E+00  0.00000000E+00
  0.00000000E+00  0.00000000E+00  0.00000000E+00
  0.00000000E+00  0.00000000E+00  0.00000000E+00
  0.00000000E+00  0.00000000E+00  0.00000000E+00
  0.00000000E+00  0.00000000E+00  0.00000000E+00
  0.00000000E+00  0.00000000E+00  0.00000000E+00
  0.00000000E+00  0.00000000E+00  0.00000000E+00
  0.00000000E+00  0.00000000E+00  0.00000000E+00
  0.00000000E+00  0.00000000E+00  0.00000000E+00
  0.00000000E+00  0.00000000E+00  0.00000000E+00
  0.00000000E+00  0.00000000E+00  0.00000000E+00
  0.00000000E+00  0.00000000E+00  0.00000000E+00
  0.00000000E+00  0.00000000E+00  0.00000000E+00
  0.00000000E+00  0.00000000E+00  0.00000000E+00
  0.00000000E+00  0.00000000E+00  0.00000000E+00
  0.00000000E+00  0.00000000E+00  0.00000000E+00
  0.00000000E+00  0.00000000E+00  0.00000000E+00
  0.00000000E+00  0.00000000E+00  0.00000000E+00
  0.00000000E+00  0.00000000E+00  0.00000000E+00
  0.00000000E+00  0.00000000E+00  0.00000000E+00
  0.00000000E+00  0.00000000E+00  0.00000000E+00
  0.00000000E+00  0.00000000E+00  0.00000000E+00
  0.00000000E+00  0.00000000E+00  0.00000000E+00
  0.00000000E+00  0.00000000E+00  0.00000000E+00
  0.00000000E+00  0.00000000E+00  0.00000000E+00
  0.00000000E+00  0.00000000E+00  0.00000000E+00
  0.00000000E+00  0.00000000E+00  0.00000000E+00
  0.00000000E+00  0.00000000E+00  0.00000000E+00
  0.00000000E+00  0.00000000E+00  0.00000000E+00
  0.00000000E+00  0.00000000E+00  0.00000000E+00
  0.00000000E+00  0.00000000E+00  0.00000000E+00
  0.00000000E+00  0.00000000E+00  0.00000000E+00
  0.00000000E+00  0.00000000E+00  0.00000000E+00
  0.00000000E+00  0.00000000E+00  0.00000000E+00
