(1, 0, 1)
1.0
3.668361 0.000000 -2.117929
-0.000000 7.570718 -4.235858
0.000000 0.000000 59.302014
Li P
42 14
Selective dynamics
direct
0.000000 0.750000 0.053571 T T T Li+
0.000000 0.250000 0.017857 T T T Li+
0.333333 0.084119 0.053628 F F F Li+
0.666667 0.584119 0.065532 F F F Li+
0.666667 0.915881 0.017801 T T T Li+
0.333333 0.415881 0.005896 T T T Li+
0.000000 0.750000 0.125000 F F F Li+
0.000000 0.250000 0.089286 F F F Li+
0.333333 0.084119 0.125056 F F F Li+
0.666667 0.584119 0.136961 F F F Li+
0.666667 0.915881 0.089230 F F F Li+
0.333333 0.415881 0.077325 F F F Li+
0.000000 0.750000 0.196429 F F F Li+
0.000000 0.250000 0.160714 F F F Li+
0.333333 0.084119 0.196485 F F F Li+
0.666667 0.584119 0.208389 F F F Li+
0.666667 0.915881 0.160658 F F F Li+
0.333333 0.415881 0.148753 F F F Li+
0.000000 0.750000 0.267857 F F F Li+
0.000000 0.250000 0.232143 F F F Li+
0.333333 0.084119 0.267913 F F F Li+
0.666667 0.584119 0.279818 F F F Li+
0.666667 0.915881 0.232087 F F F Li+
0.333333 0.415881 0.220182 F F F Li+
0.000000 0.750000 0.339286 F F F Li+
0.000000 0.250000 0.303571 F F F Li+
0.333333 0.084119 0.339342 F F F Li+
0.666667 0.584119 0.351247 F F F Li+
0.666667 0.915881 0.303515 F F F Li+
0.333333 0.415881 0.291611 F F F Li+
0.000000 0.750000 0.410714 F F F Li+
0.000000 0.250000 0.375000 F F F Li+
0.333333 0.084119 0.410770 F F F Li+
0.666667 0.584119 0.422675 F F F Li+
0.666667 0.915881 0.374944 F F F Li+
0.333333 0.415881 0.363039 F F F Li+
0.000000 0.750000 0.482143 T T T Li+
0.000000 0.250000 0.446429 T T T Li+
0.333333 0.084119 0.482199 T T T Li+
0.666667 0.584119 0.494104 T T T Li+
0.666667 0.915881 0.446372 F F F Li+
0.333333 0.415881 0.434468 F F F Li+
0.333333 0.750000 0.029762 T T T P3+
0.666667 0.250000 0.041667 T T T P3+
0.333333 0.750000 0.101190 F F F P3+
0.666667 0.250000 0.113095 F F F P3+
0.333333 0.750000 0.172619 F F F P3+
0.666667 0.250000 0.184524 F F F P3+
0.333333 0.750000 0.244048 F F F P3+
0.666667 0.250000 0.255952 F F F P3+
0.333333 0.750000 0.315476 F F F P3+
0.666667 0.250000 0.327381 F F F P3+
0.333333 0.750000 0.386905 F F F P3+
0.666667 0.250000 0.398810 F F F P3+
0.333333 0.750000 0.458333 T T T P3+
0.666667 0.250000 0.470238 T T T P3+
