Li5 P2 N1 O6                            
   1.00000000000000     
    -0.6902719224790759   -0.9593750626644739    4.7250027450559733
     6.7755347913064901   -0.3635520835685366   -0.6796703779470388
    -0.3661614431198060    4.6604644482531938   -0.9608772006108512
   Li   P    N    O 
     5     2     1     6
Direct
  0.4934351322221827  0.0789809652011341  0.8814652963691750
  0.5711053534399254  0.7838633996092933  0.4014397740307603
  0.0160536260489206  0.6379741830286667  0.5538621784212683
 -0.0505098338190117  0.2076823929351478  0.6130924090434912
  0.1862319141825784  0.3599979675084287  0.1780106666053554
  0.5983827403715235  0.5082011717218052  0.8609013842631750
 -0.0021078783226469 -0.0787317709659169  0.1176364041768210
  0.8094540527637907  0.7217583864266672  0.8260792328428070
 -0.2257969596972970  0.0051193890283773  0.2271917413861153
  0.2286976124943622  0.8697895000061403  0.4076442648703263
  0.7431299822858087  0.3308877575176393  0.8283947686599442
  0.5774181809948313  0.5372778728609353  0.1785742767805198
  0.1570704479277059  0.0884012128251767  0.9880886970279215
  0.2606276291073522  0.4487975722965081  0.6005349055223205
 
  0.00000000E+00  0.00000000E+00  0.00000000E+00
  0.00000000E+00  0.00000000E+00  0.00000000E+00
  0.00000000E+00  0.00000000E+00  0.00000000E+00
  0.00000000E+00  0.00000000E+00  0.00000000E+00
  0.00000000E+00  0.00000000E+00  0.00000000E+00
  0.00000000E+00  0.00000000E+00  0.00000000E+00
  0.00000000E+00  0.00000000E+00  0.00000000E+00
  0.00000000E+00  0.00000000E+00  0.00000000E+00
  0.00000000E+00  0.00000000E+00  0.00000000E+00
  0.00000000E+00  0.00000000E+00  0.00000000E+00
  0.00000000E+00  0.00000000E+00  0.00000000E+00
  0.00000000E+00  0.00000000E+00  0.00000000E+00
  0.00000000E+00  0.00000000E+00  0.00000000E+00
  0.00000000E+00  0.00000000E+00  0.00000000E+00
