P28 O70
1.0
4.936987 0.000000 0.023070
1.557664 8.595798 0.415402
0.000000 0.000000 53.147410
P O
28 70
direct
0.353424 0.011313 0.070412 P5+
0.659905 0.706781 0.070541 P5+
0.216992 0.527364 0.062386 P5+
0.088004 0.274064 0.036900 P5+
0.770091 0.844646 0.153745 P5+
0.076571 0.540114 0.153875 P5+
0.633659 0.360697 0.145719 P5+
0.504670 0.107397 0.120234 P5+
0.186758 0.677980 0.237078 P5+
0.493238 0.373448 0.237208 P5+
0.050325 0.194030 0.229053 P5+
0.921337 0.940730 0.203567 P5+
0.603424 0.511313 0.320412 P5+
0.909905 0.206781 0.320541 P5+
0.466992 0.027364 0.312386 P5+
0.338004 0.774064 0.286900 P5+
0.020091 0.344646 0.403745 P5+
0.326571 0.040114 0.403875 P5+
0.883659 0.860697 0.395719 P5+
0.754670 0.607397 0.370234 P5+
0.436758 0.177980 0.487078 P5+
0.743238 0.873448 0.487208 P5+
0.300325 0.694030 0.479053 P5+
0.171337 0.440730 0.453567 P5+
0.853424 0.011313 0.570412 P5+
0.159905 0.706781 0.570541 P5+
0.716992 0.527364 0.562386 P5+
0.588004 0.274064 0.536900 P5+
0.107760 0.957010 0.079868 O2-
0.231176 0.854115 0.014570 O2-
0.808907 0.609816 0.003465 O2-
0.821695 0.284642 0.049306 O2-
0.233279 0.423794 0.038103 O2-
0.587445 0.882127 0.058936 O2-
0.107262 0.254409 0.007308 O2-
0.456436 0.620933 0.055021 O2-
0.945338 0.655812 0.056606 O2-
0.326694 0.136197 0.047389 O2-
0.524426 0.790343 0.163202 O2-
0.647842 0.687448 0.097903 O2-
0.225574 0.443149 0.086798 O2-
0.238361 0.117975 0.132639 O2-
0.649945 0.257127 0.121436 O2-
0.004112 0.715461 0.142270 O2-
0.523929 0.087743 0.090641 O2-
0.873103 0.454266 0.138354 O2-
0.362005 0.489146 0.139940 O2-
0.743360 0.969530 0.130722 O2-
0.941093 0.623676 0.246535 O2-
0.064509 0.520781 0.181236 O2-
0.642240 0.276482 0.170132 O2-
0.655028 0.951309 0.215973 O2-
0.066612 0.090461 0.204770 O2-
0.420779 0.548794 0.225603 O2-
0.940596 0.921076 0.173974 O2-
0.289770 0.287600 0.221688 O2-
0.778672 0.322479 0.223273 O2-
0.160027 0.802864 0.214056 O2-
0.357760 0.457010 0.329868 O2-
0.481176 0.354115 0.264570 O2-
0.058907 0.109816 0.253465 O2-
0.071695 0.784642 0.299306 O2-
0.483279 0.923794 0.288103 O2-
0.837445 0.382127 0.308936 O2-
0.357262 0.754409 0.257308 O2-
0.706436 0.120933 0.305021 O2-
0.195338 0.155812 0.306606 O2-
0.576694 0.636197 0.297389 O2-
0.774426 0.290343 0.413202 O2-
0.897842 0.187448 0.347903 O2-
0.475574 0.943149 0.336798 O2-
0.488361 0.617975 0.382639 O2-
0.899945 0.757127 0.371436 O2-
0.254112 0.215461 0.392270 O2-
0.773929 0.587743 0.340641 O2-
0.123103 0.954266 0.388354 O2-
0.612005 0.989146 0.389940 O2-
0.993360 0.469530 0.380722 O2-
0.191093 0.123676 0.496535 O2-
0.314509 0.020781 0.431236 O2-
0.892240 0.776482 0.420132 O2-
0.905028 0.451309 0.465973 O2-
0.316612 0.590461 0.454770 O2-
0.670779 0.048794 0.475603 O2-
0.190596 0.421076 0.423974 O2-
0.539770 0.787600 0.471688 O2-
0.028672 0.822479 0.473273 O2-
0.410027 0.302864 0.464056 O2-
0.607760 0.957010 0.579868 O2-
0.731176 0.854115 0.514570 O2-
0.308907 0.609816 0.503465 O2-
0.321695 0.284642 0.549306 O2-
0.733279 0.423794 0.538103 O2-
0.087445 0.882127 0.558936 O2-
0.607262 0.254409 0.507308 O2-
0.956436 0.620933 0.555021 O2-
0.445338 0.655812 0.556606 O2-
0.826694 0.136197 0.547389 O2-
