Li71 P24 N1 O94                         
   1.00000000000000     
    14.6932262263541062   -0.0001262976176956    0.0012506989578106
    -0.0000936523458038   10.5843397653907676   -0.0046767840872066
     0.0010620371517461   -0.0054915534992549   12.3000713171222724
   Li   P    N    O 
    71    24     1    94
Direct
  0.1690449900534004  0.4224114316691629  0.0026327578640068
  0.1694877526573349  0.4221909617621766  0.4974803794557974
  0.1604854257951367  0.8991895384039219  0.0051789346114074
  0.1696376190275299  0.9219467453536556  0.4986229745777662
  0.5032702789076411  0.4235176086400619  0.0006357023501449
  0.5033263801325005  0.4227830847370084  0.4994243502666525
  0.5085215669354736  0.9195028973647624  0.0005356569152100
  0.5026888838877329  0.9229629665783443  0.4993024749559808
  0.8374885595954132  0.4229457981010546  0.0005749315596521
  0.8369980749267423  0.4231411621419205  0.4996461854665519
  0.8351789537117686  0.9211251546307866 -0.0005176352439386
  0.8359813479990139  0.9197519932014236  0.4994586604757564
  0.0124584699361254  0.0783888047636117  0.2439988600769058
  0.0010247330822621  0.0753309230866337  0.7524098498205498
  0.0036194167733746  0.5798653076037052  0.2500717310296618
  0.0028099303511962  0.5768936315488143  0.7500075270914017
  0.3338479735355983  0.0767764127564946  0.2500311577866677
  0.3361717378648169  0.0762351642924229  0.7468090652018259
  0.3355330667388278  0.5778002325336181  0.2511224259170277
  0.3369196641026346  0.5775285077687775  0.7494763722690722
  0.6716324345854265  0.0775806668349673  0.2504457926291584
  0.6697790931979095  0.0769453289773318  0.7491783992838044
  0.6702133745224489  0.5778922409341292  0.2501729391114088
  0.6700189180000927  0.5771542355793314  0.7498368146265530
  0.1696280863987318  0.1626759199424231  0.6252965744491961
  0.1699373413865203  0.6605803696172389  0.1289192436932192
  0.1693035892164317  0.6637142913158344  0.6266560585370153
  0.5072648661340521  0.1646009907848928  0.1288345635688975
  0.5023307255838140  0.1633474158124172  0.6253256908542899
  0.5032514325352603  0.6628531506723085  0.1269440291954664
  0.5031303296992969  0.6630758162045852  0.6261895068530540
  0.8404489856320060  0.1629678695401528  0.1250672679738748
  0.8353141350903112  0.1637732226323060  0.6267943426641476
  0.8364360075802867  0.6636376731556166  0.1264670536348828
  0.8357865813029536  0.6628345231883758  0.6270203544890265
  0.0070097486204937  0.3350062623773130  0.1250613301816063
  0.0032508361238546  0.3354610898741254  0.6220848418819227
  0.0014603155296231  0.8372305485200171  0.1252500410243680
  0.0024480602858100  0.8354076145582274  0.6261445952954057
  0.3327769332775623  0.3389232585347448  0.1246725781961812
  0.3360718651063471  0.3368442597433558  0.6228312505944732
  0.3360721492095354  0.8338180159876394  0.1261629700889652
  0.3366255724442351  0.8364916361479005  0.6231812054668145
  0.6707346842081712  0.3372597640939242  0.1234310031675619
  0.6696113289617912  0.3367658443777542  0.6231338635128841
  0.6704817292169244  0.8365087452025805  0.1244553891165935
  0.6692888975325938  0.8363501267280216  0.6230475715278760
  0.0034076730582486  0.3442201546677254  0.3749258284704970
  0.0018567292919280  0.3365562991405038  0.8772954029725170
  0.0038544207489822  0.8388909062810652  0.3770172450110184
  0.0004054580965329  0.8362121348733053  0.8770870474682870
  0.3357388121100906  0.3378125463387833  0.3755437349145611
  0.3358255819718635  0.3405683202323494  0.8761642175557721
  0.3354287710198382  0.8359388182710009  0.3759939987639113
  0.3363212290883048  0.8340881317359726  0.8751313032970753
  0.6703766620300723  0.3368664251904772  0.3760348023979322
  0.6699626222876974  0.3373801676052751  0.8764325084140924
  0.6699083924814098  0.8367785639144584  0.3763363492732060
  0.6697606050556102  0.8359004165610385  0.8758403703584292
  0.1742426854532688  0.1651833823344623  0.3606402407923273
  0.1625351999474857  0.1710653770272306  0.8647021776738779
  0.1685657367042176  0.6626939090866265  0.3754698213476016
  0.1692739099152940  0.6617364595671439  0.8732387756626653
  0.5027071745100090  0.1636596383036994  0.3735680580077153
  0.5071680737688599  0.1644754508967732  0.8718013677236568
  0.5029634184662499  0.6632534107669393  0.3738391488817474
  0.5031804178377958  0.6627653152626608  0.8735029058163910
  0.8386524005947779  0.1640922483022484  0.3726978161445524
  0.8347124974370675  0.1628228051975445  0.8724151461685576
  0.8370846442402664  0.6636758508651304  0.3737111731150040
  0.8359755244456866  0.6626994492105570  0.8733982307855451
  0.1682273259890025  0.4164737773029092  0.2481873684804653
  0.1669147174763365  0.4121812110199594  0.7495617366592369
  0.1689369571786429  0.9096120956825299  0.2506515941333036
  0.1669364438812494  0.9125107382376725  0.7531652125313506
  0.5008569229631848  0.4125125985011334  0.2499537789368986
  0.5003685931718420  0.4120945014051498  0.7497743349977667
  0.5010214017476655  0.9122162157444084  0.2501332287306166
  0.5002334404418399  0.9121689575090645  0.7498866157072908
  0.8336559043512537  0.4133096831858454  0.2494517126586330
  0.8336316942098376  0.4116931167903245  0.7498577282745337
  0.8342210757234597  0.9127517405679642  0.2500993769763045
  0.8325435774545957  0.9114527364666973  0.7496374687623615
 -0.0016807204365122  0.0875797371164188  0.0002096983938778
  0.0005319383104783  0.0852936451376209  0.5042259800328110
  0.0003515768553777  0.5885452490241548 -0.0004220777908791
  0.0000653257453599  0.5893417560741080  0.5013248491797885
  0.3391876106802895  0.0871384697858943  0.0003555627851299
  0.3326270605399723  0.0881177966303761  0.4989552011025104
  0.3339933255350622  0.5881452080865858 -0.0002475123824195
  0.3340993976676852  0.5878574200309741  0.5007024371948197
  0.6665743025684001  0.0877943794866754 -0.0001435735840498
  0.6672319319554869  0.0878533051019557  0.4998485968840207
  0.6672391402733504  0.5880686037256505 -0.0001097358239724
  0.6671993550590457  0.5879181542859260  0.5000694048324885
  0.0318102481028808  0.1622800582136719  0.3961938860006822
  0.0357512970155251  0.1557457161285470  0.8959238733105276
  0.0347827230172070  0.6588389520409642  0.3975985184130966
  0.0356399853628236  0.6577754302492077  0.8953905363930420
  0.3687839653410421  0.1574651528602802  0.3956872971806775
  0.3674663839473049  0.1574954496425178  0.8943833652189409
  0.3697485071096075  0.6569918417186652  0.3970494643244066
  0.3695150189342560  0.6570752611884499  0.8955589409898892
  0.7031769384656879  0.1570123621697138  0.3963593307150272
  0.7006816541013207  0.1566312838126443  0.8952677154528483
  0.7026429597113544  0.6573687938694602  0.3964319228889308
  0.7021959529502904  0.6569554903684378  0.8956520132118185
  0.2056148257661242  0.0454889978866789  0.2517950525201050
  0.2009350740507058  0.0527091794215840  0.7545110251863678
  0.2013381054764919  0.5572827748849792  0.2538203036741644
  0.2009496667756213  0.5516798529772318  0.7500153865651896
  0.5350961852032630  0.0518915764127407  0.2501847739188431
  0.5336561555039424  0.0521442331971674  0.7498240489584210
  0.5347362712844201  0.5522134181807853  0.2501997840435140
  0.5341975876797949  0.5517410523778947  0.7498771399016040
  0.8681216679133682  0.0520805592599048  0.2498064908420971
  0.8661438160259020  0.0512202339393739  0.7493129250705431
  0.8673324258385620  0.5532160137420605  0.2498408180446582
  0.8674146060038758  0.5514046325261592  0.7501745356611458
  0.0621032541619312  0.4152828611707518  0.2492063442969983
  0.0610537483995299  0.4087557367001489  0.7502263626191317
  0.0628500977616512  0.9066142679774133  0.2494135205010643
  0.0612512428504647  0.9088961334182902  0.7527265222197664
  0.3950095450746760  0.4098235477818862  0.2496742737030109
  0.3943564228519121  0.4092413578860388  0.7498012773495824
  0.3951196026016205  0.9096247893080042  0.2496926397973349
  0.3941800882329331  0.9095698089277342  0.7504165279507379
  0.7275124232927371  0.4106116560254056  0.2495758801036394
  0.7275882924005349  0.4091016899847247  0.7496775926231130
  0.7280498131496144  0.9097842661399201  0.2503507390433846
  0.7265586679163392  0.9089581001895978  0.7496621660537454
  0.2266015623078703  0.0912652844121282  0.4983292046568785
  0.2281275804414934  0.5921716671950326 -0.0006568422985101
  0.2282136165191594  0.5905239585402113  0.5015820886800615
  0.5601712930188056  0.0907718161125220  0.0002474231761378
  0.5611480625413007  0.0907205434695720  0.4995638173378796
  0.5611979100932333  0.5909522190610765 -0.0000068088120558
  0.5611745983529536  0.5905472484170496  0.4999211471661879
  0.8920982533393085  0.0860810798404645 -0.0055584842461989
  0.8941917707353854  0.0873864565074731  0.5015932725354485
  0.8943268647987220  0.5916991233266556 -0.0003827491133508
  0.8940131341220662  0.5912609218705143  0.5012151152411319
  0.2046625515141473  0.3553436763347542  0.1432146940636632
  0.2021755044783122  0.3423998898834891  0.6459512507062984
  0.2035796915662717  0.8397945782103452  0.1454529318207791
  0.2033566566436459  0.8439211920944524  0.6497387140921597
  0.5364369223729447  0.3434882478951443  0.1458331883755716
  0.5355811458393112  0.3426503979031375  0.6459468700020755
  0.5364361012989000  0.8428674649784016  0.1461229953700290
  0.5351692818349684  0.8433108966526801  0.6457614456270708
  0.8688457881859396  0.3443817906745311  0.1455407211398516
  0.8689829808669889  0.3425783321250029  0.6458654877552433
  0.8685501826307735  0.8430484886123657  0.1457708091468542
  0.8680390246557984  0.8420516662547923  0.6460057797634061
  0.0276168256466152  0.1579501999469513  0.1034075588581955
  0.0356522503775226  0.1527973046061815  0.6096648067034834
  0.0358773388137940  0.6585085459283962  0.1029964220753598
  0.0353190942631307  0.6579254969859856  0.6057775588652186
  0.3703125792061115  0.1579818296267741  0.1040549969334306
  0.3677338009570961  0.1567213330971991  0.6036450305574160
  0.3698535501799376  0.6567664362828871  0.1036879337860731
  0.3695018367633473  0.6570181171834137  0.6048670395185393
  0.7023554297429628  0.1568415931728137  0.1033988712253428
  0.7020137655088400  0.1568515419965350  0.6042375408405188
  0.7025289109742823  0.6573683942685008  0.1037295138701797
  0.7020210365649008  0.6569278957324183  0.6044312715583656
  0.0337714428679984  0.4489190539115799 -0.0009290359532642
  0.0343521417850691  0.4500955400647390  0.5013679667919573
  0.0339408747748727  0.9477866783570793  0.0001306206534209
  0.0341518289676013  0.9449240668033544  0.5055674393579089
  0.3678633771490057  0.4484419490399873 -0.0007017854507332
  0.3679738613179902  0.4480867659876333  0.5003825819885399
  0.3684695966247687  0.9460703776299051 -0.0001008467643749
  0.3665049341714405  0.9482898382454995  0.4994557901770226
  0.7010006866827978  0.4483737114030006 -0.0003102888570458
  0.7009421396960874  0.4481974456858735  0.5000215870918295
  0.6991303028977575  0.9475334860712971 -0.0003990817893066
  0.7006436601101262  0.9479266025810232  0.5000815684393151
  0.2032337937157526  0.3452558003282906  0.3519298640739570
  0.2025439307378616  0.3428620700898364  0.8537827355901231
  0.2024076141870734  0.8376218907328387  0.3545674193364877
  0.2023664022587253  0.8447963492232375  0.8582070520528017
  0.5361371538196211  0.3430374599775187  0.3537496835651371
  0.5354657407392327  0.3431740470967474  0.8540241085568829
  0.5360373728117239  0.8430862850910664  0.3540800883928613
  0.5356220329632732  0.8430533906739966  0.8537841121068167
  0.8683672025183183  0.3447811036650390  0.3538756910895476
  0.8684843180657091  0.3424355862359472  0.8539155397353637
  0.8693980640495442  0.8431859636995593  0.3538605870128237
  0.8676286223541346  0.8422108888172495  0.8535556983185334
 
  0.00000000E+00  0.00000000E+00  0.00000000E+00
  0.00000000E+00  0.00000000E+00  0.00000000E+00
  0.00000000E+00  0.00000000E+00  0.00000000E+00
  0.00000000E+00  0.00000000E+00  0.00000000E+00
  0.00000000E+00  0.00000000E+00  0.00000000E+00
  0.00000000E+00  0.00000000E+00  0.00000000E+00
  0.00000000E+00  0.00000000E+00  0.00000000E+00
  0.00000000E+00  0.00000000E+00  0.00000000E+00
  0.00000000E+00  0.00000000E+00  0.00000000E+00
  0.00000000E+00  0.00000000E+00  0.00000000E+00
  0.00000000E+00  0.00000000E+00  0.00000000E+00
  0.00000000E+00  0.00000000E+00  0.00000000E+00
  0.00000000E+00  0.00000000E+00  0.00000000E+00
  0.00000000E+00  0.00000000E+00  0.00000000E+00
  0.00000000E+00  0.00000000E+00  0.00000000E+00
  0.00000000E+00  0.00000000E+00  0.00000000E+00
  0.00000000E+00  0.00000000E+00  0.00000000E+00
  0.00000000E+00  0.00000000E+00  0.00000000E+00
  0.00000000E+00  0.00000000E+00  0.00000000E+00
  0.00000000E+00  0.00000000E+00  0.00000000E+00
  0.00000000E+00  0.00000000E+00  0.00000000E+00
  0.00000000E+00  0.00000000E+00  0.00000000E+00
  0.00000000E+00  0.00000000E+00  0.00000000E+00
  0.00000000E+00  0.00000000E+00  0.00000000E+00
  0.00000000E+00  0.00000000E+00  0.00000000E+00
  0.00000000E+00  0.00000000E+00  0.00000000E+00
  0.00000000E+00  0.00000000E+00  0.00000000E+00
  0.00000000E+00  0.00000000E+00  0.00000000E+00
  0.00000000E+00  0.00000000E+00  0.00000000E+00
  0.00000000E+00  0.00000000E+00  0.00000000E+00
  0.00000000E+00  0.00000000E+00  0.00000000E+00
  0.00000000E+00  0.00000000E+00  0.00000000E+00
  0.00000000E+00  0.00000000E+00  0.00000000E+00
  0.00000000E+00  0.00000000E+00  0.00000000E+00
  0.00000000E+00  0.00000000E+00  0.00000000E+00
  0.00000000E+00  0.00000000E+00  0.00000000E+00
  0.00000000E+00  0.00000000E+00  0.00000000E+00
  0.00000000E+00  0.00000000E+00  0.00000000E+00
  0.00000000E+00  0.00000000E+00  0.00000000E+00
  0.00000000E+00  0.00000000E+00  0.00000000E+00
  0.00000000E+00  0.00000000E+00  0.00000000E+00
  0.00000000E+00  0.00000000E+00  0.00000000E+00
  0.00000000E+00  0.00000000E+00  0.00000000E+00
  0.00000000E+00  0.00000000E+00  0.00000000E+00
  0.00000000E+00  0.00000000E+00  0.00000000E+00
  0.00000000E+00  0.00000000E+00  0.00000000E+00
  0.00000000E+00  0.00000000E+00  0.00000000E+00
  0.00000000E+00  0.00000000E+00  0.00000000E+00
  0.00000000E+00  0.00000000E+00  0.00000000E+00
  0.00000000E+00  0.00000000E+00  0.00000000E+00
  0.00000000E+00  0.00000000E+00  0.00000000E+00
  0.00000000E+00  0.00000000E+00  0.00000000E+00
  0.00000000E+00  0.00000000E+00  0.00000000E+00
  0.00000000E+00  0.00000000E+00  0.00000000E+00
  0.00000000E+00  0.00000000E+00  0.00000000E+00
  0.00000000E+00  0.00000000E+00  0.00000000E+00
  0.00000000E+00  0.00000000E+00  0.00000000E+00
  0.00000000E+00  0.00000000E+00  0.00000000E+00
  0.00000000E+00  0.00000000E+00  0.00000000E+00
  0.00000000E+00  0.00000000E+00  0.00000000E+00
  0.00000000E+00  0.00000000E+00  0.00000000E+00
  0.00000000E+00  0.00000000E+00  0.00000000E+00
  0.00000000E+00  0.00000000E+00  0.00000000E+00
  0.00000000E+00  0.00000000E+00  0.00000000E+00
  0.00000000E+00  0.00000000E+00  0.00000000E+00
  0.00000000E+00  0.00000000E+00  0.00000000E+00
  0.00000000E+00  0.00000000E+00  0.00000000E+00
  0.00000000E+00  0.00000000E+00  0.00000000E+00
  0.00000000E+00  0.00000000E+00  0.00000000E+00
  0.00000000E+00  0.00000000E+00  0.00000000E+00
  0.00000000E+00  0.00000000E+00  0.00000000E+00
  0.00000000E+00  0.00000000E+00  0.00000000E+00
  0.00000000E+00  0.00000000E+00  0.00000000E+00
  0.00000000E+00  0.00000000E+00  0.00000000E+00
  0.00000000E+00  0.00000000E+00  0.00000000E+00
  0.00000000E+00  0.00000000E+00  0.00000000E+00
  0.00000000E+00  0.00000000E+00  0.00000000E+00
  0.00000000E+00  0.00000000E+00  0.00000000E+00
  0.00000000E+00  0.00000000E+00  0.00000000E+00
  0.00000000E+00  0.00000000E+00  0.00000000E+00
  0.00000000E+00  0.00000000E+00  0.00000000E+00
  0.00000000E+00  0.00000000E+00  0.00000000E+00
  0.00000000E+00  0.00000000E+00  0.00000000E+00
  0.00000000E+00  0.00000000E+00  0.00000000E+00
  0.00000000E+00  0.00000000E+00  0.00000000E+00
  0.00000000E+00  0.00000000E+00  0.00000000E+00
  0.00000000E+00  0.00000000E+00  0.00000000E+00
  0.00000000E+00  0.00000000E+00  0.00000000E+00
  0.00000000E+00  0.00000000E+00  0.00000000E+00
  0.00000000E+00  0.00000000E+00  0.00000000E+00
  0.00000000E+00  0.00000000E+00  0.00000000E+00
  0.00000000E+00  0.00000000E+00  0.00000000E+00
  0.00000000E+00  0.00000000E+00  0.00000000E+00
  0.00000000E+00  0.00000000E+00  0.00000000E+00
  0.00000000E+00  0.00000000E+00  0.00000000E+00
  0.00000000E+00  0.00000000E+00  0.00000000E+00
  0.00000000E+00  0.00000000E+00  0.00000000E+00
  0.00000000E+00  0.00000000E+00  0.00000000E+00
  0.00000000E+00  0.00000000E+00  0.00000000E+00
  0.00000000E+00  0.00000000E+00  0.00000000E+00
  0.00000000E+00  0.00000000E+00  0.00000000E+00
  0.00000000E+00  0.00000000E+00  0.00000000E+00
  0.00000000E+00  0.00000000E+00  0.00000000E+00
  0.00000000E+00  0.00000000E+00  0.00000000E+00
  0.00000000E+00  0.00000000E+00  0.00000000E+00
  0.00000000E+00  0.00000000E+00  0.00000000E+00
  0.00000000E+00  0.00000000E+00  0.00000000E+00
  0.00000000E+00  0.00000000E+00  0.00000000E+00
  0.00000000E+00  0.00000000E+00  0.00000000E+00
  0.00000000E+00  0.00000000E+00  0.00000000E+00
  0.00000000E+00  0.00000000E+00  0.00000000E+00
  0.00000000E+00  0.00000000E+00  0.00000000E+00
  0.00000000E+00  0.00000000E+00  0.00000000E+00
  0.00000000E+00  0.00000000E+00  0.00000000E+00
  0.00000000E+00  0.00000000E+00  0.00000000E+00
  0.00000000E+00  0.00000000E+00  0.00000000E+00
  0.00000000E+00  0.00000000E+00  0.00000000E+00
  0.00000000E+00  0.00000000E+00  0.00000000E+00
  0.00000000E+00  0.00000000E+00  0.00000000E+00
  0.00000000E+00  0.00000000E+00  0.00000000E+00
  0.00000000E+00  0.00000000E+00  0.00000000E+00
  0.00000000E+00  0.00000000E+00  0.00000000E+00
  0.00000000E+00  0.00000000E+00  0.00000000E+00
  0.00000000E+00  0.00000000E+00  0.00000000E+00
  0.00000000E+00  0.00000000E+00  0.00000000E+00
  0.00000000E+00  0.00000000E+00  0.00000000E+00
  0.00000000E+00  0.00000000E+00  0.00000000E+00
  0.00000000E+00  0.00000000E+00  0.00000000E+00
  0.00000000E+00  0.00000000E+00  0.00000000E+00
  0.00000000E+00  0.00000000E+00  0.00000000E+00
  0.00000000E+00  0.00000000E+00  0.00000000E+00
  0.00000000E+00  0.00000000E+00  0.00000000E+00
  0.00000000E+00  0.00000000E+00  0.00000000E+00
  0.00000000E+00  0.00000000E+00  0.00000000E+00
  0.00000000E+00  0.00000000E+00  0.00000000E+00
  0.00000000E+00  0.00000000E+00  0.00000000E+00
  0.00000000E+00  0.00000000E+00  0.00000000E+00
  0.00000000E+00  0.00000000E+00  0.00000000E+00
  0.00000000E+00  0.00000000E+00  0.00000000E+00
  0.00000000E+00  0.00000000E+00  0.00000000E+00
  0.00000000E+00  0.00000000E+00  0.00000000E+00
  0.00000000E+00  0.00000000E+00  0.00000000E+00
  0.00000000E+00  0.00000000E+00  0.00000000E+00
  0.00000000E+00  0.00000000E+00  0.00000000E+00
  0.00000000E+00  0.00000000E+00  0.00000000E+00
  0.00000000E+00  0.00000000E+00  0.00000000E+00
  0.00000000E+00  0.00000000E+00  0.00000000E+00
  0.00000000E+00  0.00000000E+00  0.00000000E+00
  0.00000000E+00  0.00000000E+00  0.00000000E+00
  0.00000000E+00  0.00000000E+00  0.00000000E+00
  0.00000000E+00  0.00000000E+00  0.00000000E+00
  0.00000000E+00  0.00000000E+00  0.00000000E+00
  0.00000000E+00  0.00000000E+00  0.00000000E+00
  0.00000000E+00  0.00000000E+00  0.00000000E+00
  0.00000000E+00  0.00000000E+00  0.00000000E+00
  0.00000000E+00  0.00000000E+00  0.00000000E+00
  0.00000000E+00  0.00000000E+00  0.00000000E+00
  0.00000000E+00  0.00000000E+00  0.00000000E+00
  0.00000000E+00  0.00000000E+00  0.00000000E+00
  0.00000000E+00  0.00000000E+00  0.00000000E+00
  0.00000000E+00  0.00000000E+00  0.00000000E+00
  0.00000000E+00  0.00000000E+00  0.00000000E+00
  0.00000000E+00  0.00000000E+00  0.00000000E+00
  0.00000000E+00  0.00000000E+00  0.00000000E+00
  0.00000000E+00  0.00000000E+00  0.00000000E+00
  0.00000000E+00  0.00000000E+00  0.00000000E+00
  0.00000000E+00  0.00000000E+00  0.00000000E+00
  0.00000000E+00  0.00000000E+00  0.00000000E+00
  0.00000000E+00  0.00000000E+00  0.00000000E+00
  0.00000000E+00  0.00000000E+00  0.00000000E+00
  0.00000000E+00  0.00000000E+00  0.00000000E+00
  0.00000000E+00  0.00000000E+00  0.00000000E+00
  0.00000000E+00  0.00000000E+00  0.00000000E+00
  0.00000000E+00  0.00000000E+00  0.00000000E+00
  0.00000000E+00  0.00000000E+00  0.00000000E+00
  0.00000000E+00  0.00000000E+00  0.00000000E+00
  0.00000000E+00  0.00000000E+00  0.00000000E+00
  0.00000000E+00  0.00000000E+00  0.00000000E+00
  0.00000000E+00  0.00000000E+00  0.00000000E+00
  0.00000000E+00  0.00000000E+00  0.00000000E+00
  0.00000000E+00  0.00000000E+00  0.00000000E+00
  0.00000000E+00  0.00000000E+00  0.00000000E+00
  0.00000000E+00  0.00000000E+00  0.00000000E+00
  0.00000000E+00  0.00000000E+00  0.00000000E+00
  0.00000000E+00  0.00000000E+00  0.00000000E+00
  0.00000000E+00  0.00000000E+00  0.00000000E+00
  0.00000000E+00  0.00000000E+00  0.00000000E+00
  0.00000000E+00  0.00000000E+00  0.00000000E+00
  0.00000000E+00  0.00000000E+00  0.00000000E+00
  0.00000000E+00  0.00000000E+00  0.00000000E+00
