Li42 P14 O56
1.0
5.296402 0.000000 -4.922448
0.000000 6.176136 -4.922448
0.000000 0.000000 68.914272
Li P O
42 14 56
direct
0.844520 0.000000 0.022199 Li+
0.155480 0.500000 0.044411 Li+
0.326434 0.747127 0.038484 Li+
0.673566 0.752873 0.027976 Li+
0.673566 0.247127 0.063279 Li+
0.326434 0.252873 0.003180 Li+
0.844520 0.000000 0.093628 Li+
0.155480 0.500000 0.115839 Li+
0.326434 0.747127 0.109913 Li+
0.673566 0.752873 0.099404 Li+
0.673566 0.247127 0.134708 Li+
0.326434 0.252873 0.074609 Li+
0.844520 0.000000 0.165057 Li+
0.155480 0.500000 0.187268 Li+
0.326434 0.747127 0.181341 Li+
0.673566 0.752873 0.170833 Li+
0.673566 0.247127 0.206137 Li+
0.326434 0.252873 0.146038 Li+
0.844520 0.000000 0.236485 Li+
0.155480 0.500000 0.258697 Li+
0.326434 0.747127 0.252770 Li+
0.673566 0.752873 0.242261 Li+
0.673566 0.247127 0.277565 Li+
0.326434 0.252873 0.217466 Li+
0.844520 0.000000 0.307914 Li+
0.155480 0.500000 0.330125 Li+
0.326434 0.747127 0.324199 Li+
0.673566 0.752873 0.313690 Li+
0.673566 0.247127 0.348994 Li+
0.326434 0.252873 0.288895 Li+
0.844520 0.000000 0.379342 Li+
0.155480 0.500000 0.401554 Li+
0.326434 0.747127 0.395627 Li+
0.673566 0.752873 0.385118 Li+
0.673566 0.247127 0.420422 Li+
0.326434 0.252873 0.360323 Li+
0.844520 0.000000 0.450771 Li+
0.155480 0.500000 0.472982 Li+
0.326434 0.747127 0.467056 Li+
0.673566 0.752873 0.456547 Li+
0.673566 0.247127 0.491851 Li+
0.326434 0.252873 0.431752 Li+
0.824261 0.500000 0.055895 P5+
0.175739 0.000000 0.009572 P5+
0.824261 0.500000 0.127324 P5+
0.175739 0.000000 0.081001 P5+
0.824261 0.500000 0.198753 P5+
0.175739 0.000000 0.152430 P5+
0.824261 0.500000 0.270181 P5+
0.175739 0.000000 0.223858 P5+
0.824261 0.500000 0.341610 P5+
0.175739 0.000000 0.295287 P5+
0.824261 0.500000 0.413038 P5+
0.175739 0.000000 0.366715 P5+
0.824261 0.500000 0.484467 P5+
0.175739 0.000000 0.438144 P5+
0.313509 0.207138 0.041751 O2-
0.103508 0.500000 0.011606 O2-
0.818396 0.500000 0.032889 O2-
0.181604 0.000000 0.058832 O2-
0.686491 0.707138 0.068392 O2-
0.313509 0.792862 0.012160 O2-
0.896492 0.000000 0.068248 O2-
0.686491 0.292862 0.038801 O2-
0.313509 0.207138 0.113179 O2-
0.103508 0.500000 0.083035 O2-
0.818396 0.500000 0.104317 O2-
0.181604 0.000000 0.130261 O2-
0.686491 0.707138 0.139821 O2-
0.313509 0.792862 0.083588 O2-
0.896492 0.000000 0.139677 O2-
0.686491 0.292862 0.110230 O2-
0.313509 0.207138 0.184608 O2-
0.103508 0.500000 0.154464 O2-
0.818396 0.500000 0.175746 O2-
0.181604 0.000000 0.201689 O2-
0.686491 0.707138 0.211250 O2-
0.313509 0.792862 0.155017 O2-
0.896492 0.000000 0.211105 O2-
0.686491 0.292862 0.181659 O2-
0.313509 0.207138 0.256037 O2-
0.103508 0.500000 0.225892 O2-
0.818396 0.500000 0.247174 O2-
0.181604 0.000000 0.273118 O2-
0.686491 0.707138 0.282678 O2-
0.313509 0.792862 0.226445 O2-
0.896492 0.000000 0.282534 O2-
0.686491 0.292862 0.253087 O2-
0.313509 0.207138 0.327465 O2-
0.103508 0.500000 0.297321 O2-
0.818396 0.500000 0.318603 O2-
0.181604 0.000000 0.344546 O2-
0.686491 0.707138 0.354107 O2-
0.313509 0.792862 0.297874 O2-
0.896492 0.000000 0.353962 O2-
0.686491 0.292862 0.324516 O2-
0.313509 0.207138 0.398894 O2-
0.103508 0.500000 0.368749 O2-
0.818396 0.500000 0.390032 O2-
0.181604 0.000000 0.415975 O2-
0.686491 0.707138 0.425535 O2-
0.313509 0.792862 0.369303 O2-
0.896492 0.000000 0.425391 O2-
0.686491 0.292862 0.395944 O2-
0.313509 0.207138 0.470322 O2-
0.103508 0.500000 0.440178 O2-
0.818396 0.500000 0.461460 O2-
0.181604 0.000000 0.487404 O2-
0.686491 0.707138 0.496964 O2-
0.313509 0.792862 0.440731 O2-
0.896492 0.000000 0.496820 O2-
0.686491 0.292862 0.467373 O2-
