Li5 P2 N1 O6                            
   1.00000000000000     
     0.3292179700574356    0.3276503794315088    5.2288064208566185
     5.8604641172069689   -0.4023233970345247    0.4751996700816301
    -0.4172511539000426    5.1422356765628017    0.4538121196539153
   Li   P    N    O 
     5     2     1     6
Direct
  0.6889352199656634 -0.0374924795274034  0.9145207652483703
 -0.0004922654698685  0.3326522391131849 -0.0575571739763408
  0.4215884510292494  0.7979537948301523  0.4133296358867957
 -0.0340899512634886  0.6021808546429103  0.5230606972857916
  0.3519255741380130  0.2947584837981034  0.3364895422097814
  0.4942273238821179  0.4891462550708275  0.8286620290329074
 -0.1501585101576345  0.1152662109600952  0.4459224885558368
  0.7139570085500597  0.2511743128561361  0.7439961651095051
 -0.0032644958499406  0.2787443320780524  0.2876198077099076
  0.6050232827106397  0.6948097341621681  0.7156077974964052
  0.0429544272033623  0.9087023328041975  0.4918484565290631
  0.4379490069984504  0.5346241215929172  0.1327173926718783
  0.2425449380357909  0.4536178638295463  0.7104676232250149
  0.6362109902276141  0.0309889437891106  0.2903887730150829
 
  0.00000000E+00  0.00000000E+00  0.00000000E+00
  0.00000000E+00  0.00000000E+00  0.00000000E+00
  0.00000000E+00  0.00000000E+00  0.00000000E+00
  0.00000000E+00  0.00000000E+00  0.00000000E+00
  0.00000000E+00  0.00000000E+00  0.00000000E+00
  0.00000000E+00  0.00000000E+00  0.00000000E+00
  0.00000000E+00  0.00000000E+00  0.00000000E+00
  0.00000000E+00  0.00000000E+00  0.00000000E+00
  0.00000000E+00  0.00000000E+00  0.00000000E+00
  0.00000000E+00  0.00000000E+00  0.00000000E+00
  0.00000000E+00  0.00000000E+00  0.00000000E+00
  0.00000000E+00  0.00000000E+00  0.00000000E+00
  0.00000000E+00  0.00000000E+00  0.00000000E+00
  0.00000000E+00  0.00000000E+00  0.00000000E+00
