Li392 P56 N224
1.0
9.402378 0.000000 -9.402378
-0.000000 9.402378 -9.402378
0.000000 0.000000 103.426158
Li P N
392 56 224
direct
0.500000 0.500000 0.047019 Li+
0.000000 0.000000 0.001564 Li+
0.000000 0.500000 0.001564 Li+
0.500000 0.000000 0.001564 Li+
0.000000 0.500000 0.047019 Li+
0.500000 0.000000 0.047019 Li+
0.000000 0.500000 0.024292 Li+
0.500000 0.750000 0.069746 Li+
0.500000 0.250000 0.024292 Li+
0.250000 0.000000 0.024292 Li+
0.750000 0.000000 0.069746 Li+
0.000000 0.500000 0.069746 Li+
0.225374 0.225374 0.017575 Li+
0.725374 0.274626 0.071985 Li+
0.274626 0.725374 0.071985 Li+
0.274626 0.274626 0.071985 Li+
0.774626 0.225374 0.026530 Li+
0.774626 0.774626 0.026530 Li+
0.225374 0.774626 0.026530 Li+
0.725374 0.725374 0.063030 Li+
0.237083 0.975164 0.089345 Li+
0.475164 0.262917 0.045632 Li+
0.524836 0.737083 0.002345 Li+
0.262917 0.753336 0.005300 Li+
0.262917 0.246664 0.045632 Li+
0.246664 0.524836 0.002345 Li+
0.753336 0.524836 0.005300 Li+
0.253336 0.237083 0.089345 Li+
0.975164 0.253336 0.089345 Li+
0.024836 0.253336 0.050754 Li+
0.746664 0.762917 0.000178 Li+
0.975164 0.746664 0.000178 Li+
0.746664 0.237083 0.047799 Li+
0.253336 0.762917 0.050754 Li+
0.024836 0.746664 0.047799 Li+
0.762917 0.024836 0.050754 Li+
0.237083 0.024836 0.047799 Li+
0.762917 0.975164 0.000178 Li+
0.246664 0.475164 0.045632 Li+
0.753336 0.475164 0.043890 Li+
0.737083 0.246664 0.002345 Li+
0.737083 0.753336 0.043890 Li+
0.524836 0.262917 0.005300 Li+
0.475164 0.737083 0.043890 Li+
0.000000 0.000000 0.071054 Li+
0.500000 0.500000 0.068438 Li+
0.500000 0.764387 0.025600 Li+
0.500000 0.235613 0.068438 Li+
0.235613 0.500000 0.068438 Li+
0.764387 0.500000 0.025600 Li+
0.264387 0.000000 0.071054 Li+
0.000000 0.264387 0.071054 Li+
0.735613 0.000000 0.022984 Li+
0.000000 0.735613 0.022984 Li+
0.000000 0.000000 0.022984 Li+
0.500000 0.500000 0.025600 Li+
0.500000 0.500000 0.137928 Li+
0.000000 0.000000 0.092474 Li+
0.000000 0.500000 0.092474 Li+
0.500000 0.000000 0.092474 Li+
0.000000 0.500000 0.137928 Li+
0.500000 0.000000 0.137928 Li+
0.000000 0.500000 0.115201 Li+
0.500000 0.750000 0.160655 Li+
0.500000 0.250000 0.115201 Li+
0.250000 0.000000 0.115201 Li+
0.750000 0.000000 0.160655 Li+
0.000000 0.500000 0.160655 Li+
0.225374 0.225374 0.108485 Li+
0.725374 0.274626 0.162894 Li+
0.274626 0.725374 0.162894 Li+
0.274626 0.274626 0.162894 Li+
0.774626 0.225374 0.117440 Li+
0.774626 0.774626 0.117440 Li+
0.225374 0.774626 0.117440 Li+
0.725374 0.725374 0.153939 Li+
0.237083 0.975164 0.180254 Li+
0.475164 0.262917 0.136541 Li+
0.524836 0.737083 0.093254 Li+
0.262917 0.753336 0.096209 Li+
0.262917 0.246664 0.136541 Li+
0.246664 0.524836 0.093254 Li+
0.753336 0.524836 0.096209 Li+
0.253336 0.237083 0.180254 Li+
0.975164 0.253336 0.180254 Li+
0.024836 0.253336 0.141663 Li+
0.746664 0.762917 0.091087 Li+
0.975164 0.746664 0.091087 Li+
0.746664 0.237083 0.138708 Li+
0.253336 0.762917 0.141663 Li+
0.024836 0.746664 0.138708 Li+
0.762917 0.024836 0.141663 Li+
0.237083 0.024836 0.138708 Li+
0.762917 0.975164 0.091087 Li+
0.246664 0.475164 0.136541 Li+
0.753336 0.475164 0.134799 Li+
0.737083 0.246664 0.093254 Li+
0.737083 0.753336 0.134799 Li+
0.524836 0.262917 0.096209 Li+
0.475164 0.737083 0.134799 Li+
0.000000 0.000000 0.161963 Li+
0.500000 0.500000 0.159347 Li+
0.500000 0.764387 0.116509 Li+
0.500000 0.235613 0.159347 Li+
0.235613 0.500000 0.159347 Li+
0.764387 0.500000 0.116509 Li+
0.264387 0.000000 0.161963 Li+
0.000000 0.264387 0.161963 Li+
0.735613 0.000000 0.113893 Li+
0.000000 0.735613 0.113893 Li+
0.000000 0.000000 0.113893 Li+
0.500000 0.500000 0.116509 Li+
0.500000 0.500000 0.228837 Li+
0.000000 0.000000 0.183383 Li+
0.000000 0.500000 0.183383 Li+
0.500000 0.000000 0.183383 Li+
0.000000 0.500000 0.228837 Li+
0.500000 0.000000 0.228837 Li+
0.000000 0.500000 0.206110 Li+
0.500000 0.750000 0.251564 Li+
0.500000 0.250000 0.206110 Li+
0.250000 0.000000 0.206110 Li+
0.750000 0.000000 0.251564 Li+
0.000000 0.500000 0.251564 Li+
0.225374 0.225374 0.199394 Li+
0.725374 0.274626 0.253803 Li+
0.274626 0.725374 0.253803 Li+
0.274626 0.274626 0.253803 Li+
0.774626 0.225374 0.208349 Li+
0.774626 0.774626 0.208349 Li+
0.225374 0.774626 0.208349 Li+
0.725374 0.725374 0.244848 Li+
0.237083 0.975164 0.271163 Li+
0.475164 0.262917 0.227450 Li+
0.524836 0.737083 0.184163 Li+
0.262917 0.753336 0.187118 Li+
0.262917 0.246664 0.227450 Li+
0.246664 0.524836 0.184163 Li+
0.753336 0.524836 0.187118 Li+
0.253336 0.237083 0.271163 Li+
0.975164 0.253336 0.271163 Li+
0.024836 0.253336 0.232573 Li+
0.746664 0.762917 0.181996 Li+
0.975164 0.746664 0.181996 Li+
0.746664 0.237083 0.229617 Li+
0.253336 0.762917 0.232572 Li+
0.024836 0.746664 0.229617 Li+
0.762917 0.024836 0.232573 Li+
0.237083 0.024836 0.229617 Li+
0.762917 0.975164 0.181996 Li+
0.246664 0.475164 0.227450 Li+
0.753336 0.475164 0.225708 Li+
0.737083 0.246664 0.184163 Li+
0.737083 0.753336 0.225708 Li+
0.524836 0.262917 0.187118 Li+
0.475164 0.737083 0.225708 Li+
0.000000 0.000000 0.252872 Li+
0.500000 0.500000 0.250256 Li+
0.500000 0.764387 0.207418 Li+
0.500000 0.235613 0.250256 Li+
0.235613 0.500000 0.250256 Li+
0.764387 0.500000 0.207418 Li+
0.264387 0.000000 0.252872 Li+
0.000000 0.264387 0.252872 Li+
0.735613 0.000000 0.204802 Li+
0.000000 0.735613 0.204802 Li+
0.000000 0.000000 0.204802 Li+
0.500000 0.500000 0.207418 Li+
0.500000 0.500000 0.319746 Li+
0.000000 0.000000 0.274292 Li+
0.000000 0.500000 0.274292 Li+
0.500000 0.000000 0.274292 Li+
0.000000 0.500000 0.319746 Li+
0.500000 0.000000 0.319746 Li+
0.000000 0.500000 0.297019 Li+
0.500000 0.750000 0.342473 Li+
0.500000 0.250000 0.297019 Li+
0.250000 0.000000 0.297019 Li+
0.750000 0.000000 0.342473 Li+
0.000000 0.500000 0.342473 Li+
0.225374 0.225374 0.290303 Li+
0.725374 0.274626 0.344712 Li+
0.274626 0.725374 0.344712 Li+
0.274626 0.274626 0.344712 Li+
0.774626 0.225374 0.299258 Li+
0.774626 0.774626 0.299258 Li+
0.225374 0.774626 0.299258 Li+
0.725374 0.725374 0.335757 Li+
0.237083 0.975164 0.362072 Li+
0.475164 0.262917 0.318359 Li+
0.524836 0.737083 0.275072 Li+
0.262917 0.753336 0.278027 Li+
0.262917 0.246664 0.318359 Li+
0.246664 0.524836 0.275072 Li+
0.753336 0.524836 0.278027 Li+
0.253336 0.237083 0.362072 Li+
0.975164 0.253336 0.362072 Li+
0.024836 0.253336 0.323482 Li+
0.746664 0.762917 0.272905 Li+
0.975164 0.746664 0.272905 Li+
0.746664 0.237083 0.320526 Li+
0.253336 0.762917 0.323482 Li+
0.024836 0.746664 0.320526 Li+
0.762917 0.024836 0.323482 Li+
0.237083 0.024836 0.320526 Li+
0.762917 0.975164 0.272905 Li+
0.246664 0.475164 0.318359 Li+
0.753336 0.475164 0.316617 Li+
0.737083 0.246664 0.275072 Li+
0.737083 0.753336 0.316617 Li+
0.524836 0.262917 0.278027 Li+
0.475164 0.737083 0.316617 Li+
0.000000 0.000000 0.343781 Li+
0.500000 0.500000 0.341166 Li+
0.500000 0.764387 0.298327 Li+
0.500000 0.235613 0.341166 Li+
0.235613 0.500000 0.341166 Li+
0.764387 0.500000 0.298327 Li+
0.264387 0.000000 0.343781 Li+
0.000000 0.264387 0.343781 Li+
0.735613 0.000000 0.295711 Li+
0.000000 0.735613 0.295711 Li+
0.000000 0.000000 0.295711 Li+
0.500000 0.500000 0.298327 Li+
0.500000 0.500000 0.410655 Li+
0.000000 0.000000 0.365201 Li+
0.000000 0.500000 0.365201 Li+
0.500000 0.000000 0.365201 Li+
0.000000 0.500000 0.410655 Li+
0.500000 0.000000 0.410655 Li+
0.000000 0.500000 0.387928 Li+
0.500000 0.750000 0.433383 Li+
0.500000 0.250000 0.387928 Li+
0.250000 0.000000 0.387928 Li+
0.750000 0.000000 0.433383 Li+
0.000000 0.500000 0.433383 Li+
0.225374 0.225374 0.381212 Li+
0.725374 0.274626 0.435621 Li+
0.274626 0.725374 0.435621 Li+
0.274626 0.274626 0.435621 Li+
0.774626 0.225374 0.390167 Li+
0.774626 0.774626 0.390167 Li+
0.225374 0.774626 0.390167 Li+
0.725374 0.725374 0.426666 Li+
0.237083 0.975164 0.452981 Li+
0.475164 0.262917 0.409269 Li+
0.524836 0.737083 0.365981 Li+
0.262917 0.753336 0.368936 Li+
0.262917 0.246664 0.409269 Li+
0.246664 0.524836 0.365981 Li+
0.753336 0.524836 0.368936 Li+
0.253336 0.237083 0.452981 Li+
0.975164 0.253336 0.452981 Li+
0.024836 0.253336 0.414391 Li+
0.746664 0.762917 0.363814 Li+
0.975164 0.746664 0.363814 Li+
0.746664 0.237083 0.411436 Li+
0.253336 0.762917 0.414391 Li+
0.024836 0.746664 0.411436 Li+
0.762917 0.024836 0.414391 Li+
0.237083 0.024836 0.411436 Li+
0.762917 0.975164 0.363814 Li+
0.246664 0.475164 0.409269 Li+
0.753336 0.475164 0.407526 Li+
0.737083 0.246664 0.365981 Li+
0.737083 0.753336 0.407527 Li+
0.524836 0.262917 0.368936 Li+
0.475164 0.737083 0.407527 Li+
0.000000 0.000000 0.434690 Li+
0.500000 0.500000 0.432075 Li+
0.500000 0.764387 0.389236 Li+
0.500000 0.235613 0.432075 Li+
0.235613 0.500000 0.432075 Li+
0.764387 0.500000 0.389236 Li+
0.264387 0.000000 0.434690 Li+
0.000000 0.264387 0.434690 Li+
0.735613 0.000000 0.386620 Li+
0.000000 0.735613 0.386620 Li+
0.000000 0.000000 0.386620 Li+
0.500000 0.500000 0.389236 Li+
0.500000 0.500000 0.501564 Li+
0.000000 0.000000 0.456110 Li+
0.000000 0.500000 0.456110 Li+
0.500000 0.000000 0.456110 Li+
0.000000 0.500000 0.501564 Li+
0.500000 0.000000 0.501564 Li+
0.000000 0.500000 0.478837 Li+
0.500000 0.750000 0.524292 Li+
0.500000 0.250000 0.478837 Li+
0.250000 0.000000 0.478837 Li+
0.750000 0.000000 0.524292 Li+
0.000000 0.500000 0.524292 Li+
0.225374 0.225374 0.472121 Li+
0.725374 0.274626 0.526530 Li+
0.274626 0.725374 0.526530 Li+
0.274626 0.274626 0.526530 Li+
0.774626 0.225374 0.481076 Li+
0.774626 0.774626 0.481076 Li+
0.225374 0.774626 0.481076 Li+
0.725374 0.725374 0.517575 Li+
0.237083 0.975164 0.543890 Li+
0.475164 0.262917 0.500178 Li+
0.524836 0.737083 0.456890 Li+
0.262917 0.753336 0.459845 Li+
0.262917 0.246664 0.500178 Li+
0.246664 0.524836 0.456890 Li+
0.753336 0.524836 0.459845 Li+
0.253336 0.237083 0.543890 Li+
0.975164 0.253336 0.543890 Li+
0.024836 0.253336 0.505300 Li+
0.746664 0.762917 0.454723 Li+
0.975164 0.746664 0.454723 Li+
0.746664 0.237083 0.502345 Li+
0.253336 0.762917 0.505300 Li+
0.024836 0.746664 0.502345 Li+
0.762917 0.024836 0.505300 Li+
0.237083 0.024836 0.502345 Li+
0.762917 0.975164 0.454723 Li+
0.246664 0.475164 0.500178 Li+
0.753336 0.475164 0.498436 Li+
0.737083 0.246664 0.456890 Li+
0.737083 0.753336 0.498436 Li+
0.524836 0.262917 0.459845 Li+
0.475164 0.737083 0.498436 Li+
0.000000 0.000000 0.525600 Li+
0.500000 0.500000 0.522984 Li+
0.500000 0.764387 0.480145 Li+
0.500000 0.235613 0.522984 Li+
0.235613 0.500000 0.522984 Li+
0.764387 0.500000 0.480145 Li+
0.264387 0.000000 0.525600 Li+
0.000000 0.264387 0.525600 Li+
0.735613 0.000000 0.477529 Li+
0.000000 0.735613 0.477529 Li+
0.000000 0.000000 0.477529 Li+
0.500000 0.500000 0.480145 Li+
0.500000 0.500000 0.592473 Li+
0.000000 0.000000 0.547019 Li+
0.000000 0.500000 0.547019 Li+
0.500000 0.000000 0.547019 Li+
0.000000 0.500000 0.592473 Li+
0.500000 0.000000 0.592473 Li+
0.000000 0.500000 0.569746 Li+
0.500000 0.750000 0.615201 Li+
0.500000 0.250000 0.569746 Li+
0.250000 0.000000 0.569746 Li+
0.750000 0.000000 0.615201 Li+
0.000000 0.500000 0.615201 Li+
0.225374 0.225374 0.563030 Li+
0.725374 0.274626 0.617439 Li+
0.274626 0.725374 0.617439 Li+
0.274626 0.274626 0.617439 Li+
0.774626 0.225374 0.571985 Li+
0.774626 0.774626 0.571985 Li+
0.225374 0.774626 0.571985 Li+
0.725374 0.725374 0.608485 Li+
0.237083 0.975164 0.634799 Li+
0.475164 0.262917 0.591087 Li+
0.524836 0.737083 0.547799 Li+
0.262917 0.753336 0.550754 Li+
0.262917 0.246664 0.591087 Li+
0.246664 0.524836 0.547799 Li+
0.753336 0.524836 0.550754 Li+
0.253336 0.237083 0.634799 Li+
0.975164 0.253336 0.634799 Li+
0.024836 0.253336 0.596209 Li+
0.746664 0.762917 0.545632 Li+
0.975164 0.746664 0.545632 Li+
0.746664 0.237083 0.593254 Li+
0.253336 0.762917 0.596209 Li+
0.024836 0.746664 0.593254 Li+
0.762917 0.024836 0.596209 Li+
0.237083 0.024836 0.593254 Li+
0.762917 0.975164 0.545632 Li+
0.246664 0.475164 0.591087 Li+
0.753336 0.475164 0.589345 Li+
0.737083 0.246664 0.547799 Li+
0.737083 0.753336 0.589345 Li+
0.524836 0.262917 0.550754 Li+
0.475164 0.737083 0.589345 Li+
0.000000 0.000000 0.616509 Li+
0.500000 0.500000 0.613893 Li+
0.500000 0.764387 0.571054 Li+
0.500000 0.235613 0.613893 Li+
0.235613 0.500000 0.613893 Li+
0.764387 0.500000 0.571054 Li+
0.264387 0.000000 0.616509 Li+
0.000000 0.264387 0.616509 Li+
0.735613 0.000000 0.568438 Li+
0.000000 0.735613 0.568438 Li+
0.000000 0.000000 0.568438 Li+
0.500000 0.500000 0.571054 Li+
0.500000 0.500000 0.001564 P4+
0.000000 0.000000 0.047019 P4+
0.000000 0.750000 0.069746 P4+
0.500000 0.000000 0.069746 P4+
0.500000 0.000000 0.024292 P4+
0.250000 0.500000 0.024292 P4+
0.750000 0.500000 0.069746 P4+
0.000000 0.250000 0.024292 P4+
0.500000 0.500000 0.092474 P4+
0.000000 0.000000 0.137928 P4+
0.000000 0.750000 0.160655 P4+
0.500000 0.000000 0.160655 P4+
0.500000 0.000000 0.115201 P4+
0.250000 0.500000 0.115201 P4+
0.750000 0.500000 0.160655 P4+
0.000000 0.250000 0.115201 P4+
0.500000 0.500000 0.183383 P4+
0.000000 0.000000 0.228837 P4+
0.000000 0.750000 0.251564 P4+
0.500000 0.000000 0.251564 P4+
0.500000 0.000000 0.206110 P4+
0.250000 0.500000 0.206110 P4+
0.750000 0.500000 0.251564 P4+
0.000000 0.250000 0.206110 P4+
0.500000 0.500000 0.274292 P4+
0.000000 0.000000 0.319746 P4+
0.000000 0.750000 0.342473 P4+
0.500000 0.000000 0.342473 P4+
0.500000 0.000000 0.297019 P4+
0.250000 0.500000 0.297019 P4+
0.750000 0.500000 0.342473 P4+
0.000000 0.250000 0.297019 P4+
0.500000 0.500000 0.365201 P4+
0.000000 0.000000 0.410655 P4+
0.000000 0.750000 0.433383 P4+
0.500000 0.000000 0.433383 P4+
0.500000 0.000000 0.387928 P4+
0.250000 0.500000 0.387928 P4+
0.750000 0.500000 0.433383 P4+
0.000000 0.250000 0.387928 P4+
0.500000 0.500000 0.456110 P4+
0.000000 0.000000 0.501564 P4+
0.000000 0.750000 0.524292 P4+
0.500000 0.000000 0.524292 P4+
0.500000 0.000000 0.478837 P4+
0.250000 0.500000 0.478837 P4+
0.750000 0.500000 0.524292 P4+
0.000000 0.250000 0.478837 P4+
0.500000 0.500000 0.547019 P4+
0.000000 0.000000 0.592473 P4+
0.000000 0.750000 0.615201 P4+
0.500000 0.000000 0.615201 P4+
0.500000 0.000000 0.569746 P4+
0.250000 0.500000 0.569746 P4+
0.750000 0.500000 0.615201 P4+
0.000000 0.250000 0.569746 P4+
0.603461 0.603461 0.029781 N2-
0.103461 0.896539 0.037613 N2-
0.896539 0.896539 0.037613 N2-
0.896539 0.103461 0.037613 N2-
0.396539 0.396539 0.083068 N2-
0.396539 0.603461 0.083068 N2-
0.603461 0.396539 0.083068 N2-
0.103461 0.103461 0.075236 N2-
0.603461 0.603461 0.120690 N2-
0.103461 0.896539 0.128522 N2-
0.896539 0.896539 0.128522 N2-
0.896539 0.103461 0.128523 N2-
0.396539 0.396539 0.173977 N2-
0.396539 0.603461 0.173977 N2-
0.603461 0.396539 0.173977 N2-
0.103461 0.103461 0.166145 N2-
0.603461 0.603461 0.211599 N2-
0.103461 0.896539 0.219432 N2-
0.896539 0.896539 0.219432 N2-
0.896539 0.103461 0.219432 N2-
0.396539 0.396539 0.264886 N2-
0.396539 0.603461 0.264886 N2-
0.603461 0.396539 0.264886 N2-
0.103461 0.103461 0.257054 N2-
0.603461 0.603461 0.302508 N2-
0.103461 0.896539 0.310341 N2-
0.896539 0.896539 0.310341 N2-
0.896539 0.103461 0.310341 N2-
0.396539 0.396539 0.355795 N2-
0.396539 0.603461 0.355795 N2-
0.603461 0.396539 0.355795 N2-
0.103461 0.103461 0.347963 N2-
0.603461 0.603461 0.393417 N2-
0.103461 0.896539 0.401250 N2-
0.896539 0.896539 0.401250 N2-
0.896539 0.103461 0.401250 N2-
0.396539 0.396539 0.446704 N2-
0.396539 0.603461 0.446704 N2-
0.603461 0.396539 0.446704 N2-
0.103461 0.103461 0.438872 N2-
0.603461 0.603461 0.484326 N2-
0.103461 0.896539 0.492159 N2-
0.896539 0.896539 0.492159 N2-
0.896539 0.103461 0.492159 N2-
0.396539 0.396539 0.537613 N2-
0.396539 0.603461 0.537613 N2-
0.603461 0.396539 0.537613 N2-
0.103461 0.103461 0.529781 N2-
0.603461 0.603461 0.575236 N2-
0.103461 0.896539 0.583068 N2-
0.896539 0.896539 0.583068 N2-
0.896539 0.103461 0.583068 N2-
0.396539 0.396539 0.628522 N2-
0.396539 0.603461 0.628522 N2-
0.603461 0.396539 0.628522 N2-
0.103461 0.103461 0.620690 N2-
0.387385 0.099421 0.032250 N3-
0.599421 0.112615 0.034410 N3-
0.400579 0.887385 0.086767 N3-
0.112615 0.850731 0.080103 N3-
0.112615 0.149269 0.034410 N3-
0.149269 0.400579 0.086767 N3-
0.850731 0.400579 0.080103 N3-
0.350731 0.387385 0.032250 N3-
0.099421 0.350731 0.032250 N3-
0.900579 0.350731 0.034648 N3-
0.649269 0.612615 0.079865 N3-
0.099421 0.649269 0.079865 N3-
0.649269 0.387385 0.041313 N3-
0.350731 0.612615 0.034648 N3-
0.900579 0.649269 0.041313 N3-
0.612615 0.900579 0.034648 N3-
0.387385 0.900579 0.041313 N3-
0.612615 0.099421 0.079865 N3-
0.149269 0.599421 0.034410 N3-
0.850731 0.599421 0.077704 N3-
0.887385 0.149269 0.086767 N3-
0.887385 0.850731 0.077704 N3-
0.400579 0.112615 0.080103 N3-
0.599421 0.887385 0.077704 N3-
0.387385 0.099421 0.123159 N3-
0.599421 0.112615 0.125319 N3-
0.400579 0.887385 0.177677 N3-
0.112615 0.850731 0.171012 N3-
0.112615 0.149269 0.125319 N3-
0.149269 0.400579 0.177677 N3-
0.850731 0.400579 0.171012 N3-
0.350731 0.387385 0.123159 N3-
0.099421 0.350731 0.123159 N3-
0.900579 0.350731 0.125558 N3-
0.649269 0.612615 0.170774 N3-
0.099421 0.649269 0.170774 N3-
0.649269 0.387385 0.132222 N3-
0.350731 0.612615 0.125558 N3-
0.900579 0.649269 0.132222 N3-
0.612615 0.900579 0.125558 N3-
0.387385 0.900579 0.132222 N3-
0.612615 0.099421 0.170774 N3-
0.149269 0.599421 0.125319 N3-
0.850731 0.599421 0.168613 N3-
0.887385 0.149269 0.177677 N3-
0.887385 0.850731 0.168613 N3-
0.400579 0.112615 0.171012 N3-
0.599421 0.887385 0.168613 N3-
0.387385 0.099421 0.214068 N3-
0.599421 0.112615 0.216228 N3-
0.400579 0.887385 0.268586 N3-
0.112615 0.850731 0.261921 N3-
0.112615 0.149269 0.216228 N3-
0.149269 0.400579 0.268586 N3-
0.850731 0.400579 0.261921 N3-
0.350731 0.387385 0.214068 N3-
0.099421 0.350731 0.214068 N3-
0.900579 0.350731 0.216467 N3-
0.649269 0.612615 0.261683 N3-
0.099421 0.649269 0.261683 N3-
0.649269 0.387385 0.223131 N3-
0.350731 0.612615 0.216467 N3-
0.900579 0.649269 0.223131 N3-
0.612615 0.900579 0.216467 N3-
0.387385 0.900579 0.223131 N3-
0.612615 0.099421 0.261683 N3-
0.149269 0.599421 0.216228 N3-
0.850731 0.599421 0.259522 N3-
0.887385 0.149269 0.268586 N3-
0.887385 0.850731 0.259522 N3-
0.400579 0.112615 0.261921 N3-
0.599421 0.887385 0.259522 N3-
0.387385 0.099421 0.304977 N3-
0.599421 0.112615 0.307138 N3-
0.400579 0.887385 0.359495 N3-
0.112615 0.850731 0.352830 N3-
0.112615 0.149269 0.307138 N3-
0.149269 0.400579 0.359495 N3-
0.850731 0.400579 0.352830 N3-
0.350731 0.387385 0.304977 N3-
0.099421 0.350731 0.304977 N3-
0.900579 0.350731 0.307376 N3-
0.649269 0.612615 0.352592 N3-
0.099421 0.649269 0.352592 N3-
0.649269 0.387385 0.314040 N3-
0.350731 0.612615 0.307376 N3-
0.900579 0.649269 0.314040 N3-
0.612615 0.900579 0.307376 N3-
0.387385 0.900579 0.314040 N3-
0.612615 0.099421 0.352592 N3-
0.149269 0.599421 0.307138 N3-
0.850731 0.599421 0.350431 N3-
0.887385 0.149269 0.359495 N3-
0.887385 0.850731 0.350431 N3-
0.400579 0.112615 0.352830 N3-
0.599421 0.887385 0.350431 N3-
0.387385 0.099421 0.395886 N3-
0.599421 0.112615 0.398047 N3-
0.400579 0.887385 0.450404 N3-
0.112615 0.850731 0.443739 N3-
0.112615 0.149269 0.398047 N3-
0.149269 0.400579 0.450404 N3-
0.850731 0.400579 0.443739 N3-
0.350731 0.387385 0.395886 N3-
0.099421 0.350731 0.395886 N3-
0.900579 0.350731 0.398285 N3-
0.649269 0.612615 0.443501 N3-
0.099421 0.649269 0.443501 N3-
0.649269 0.387385 0.404949 N3-
0.350731 0.612615 0.398285 N3-
0.900579 0.649269 0.404949 N3-
0.612615 0.900579 0.398285 N3-
0.387385 0.900579 0.404949 N3-
0.612615 0.099421 0.443501 N3-
0.149269 0.599421 0.398047 N3-
0.850731 0.599421 0.441341 N3-
0.887385 0.149269 0.450404 N3-
0.887385 0.850731 0.441341 N3-
0.400579 0.112615 0.443739 N3-
0.599421 0.887385 0.441340 N3-
0.387385 0.099421 0.486795 N3-
0.599421 0.112615 0.488956 N3-
0.400579 0.887385 0.541313 N3-
0.112615 0.850731 0.534648 N3-
0.112615 0.149269 0.488956 N3-
0.149269 0.400579 0.541313 N3-
0.850731 0.400579 0.534648 N3-
0.350731 0.387385 0.486795 N3-
0.099421 0.350731 0.486795 N3-
0.900579 0.350731 0.489194 N3-
0.649269 0.612615 0.534410 N3-
0.099421 0.649269 0.534410 N3-
0.649269 0.387385 0.495858 N3-
0.350731 0.612615 0.489194 N3-
0.900579 0.649269 0.495858 N3-
0.612615 0.900579 0.489194 N3-
0.387385 0.900579 0.495858 N3-
0.612615 0.099421 0.534410 N3-
0.149269 0.599421 0.488956 N3-
0.850731 0.599421 0.532250 N3-
0.887385 0.149269 0.541313 N3-
0.887385 0.850731 0.532250 N3-
0.400579 0.112615 0.534648 N3-
0.599421 0.887385 0.532250 N3-
0.387385 0.099421 0.577704 N3-
0.599421 0.112615 0.579865 N3-
0.400579 0.887385 0.632222 N3-
0.112615 0.850731 0.625558 N3-
0.112615 0.149269 0.579865 N3-
0.149269 0.400579 0.632222 N3-
0.850731 0.400579 0.625558 N3-
0.350731 0.387385 0.577704 N3-
0.099421 0.350731 0.577704 N3-
0.900579 0.350731 0.580103 N3-
0.649269 0.612615 0.625319 N3-
0.099421 0.649269 0.625319 N3-
0.649269 0.387385 0.586767 N3-
0.350731 0.612615 0.580103 N3-
0.900579 0.649269 0.586767 N3-
0.612615 0.900579 0.580103 N3-
0.387385 0.900579 0.586767 N3-
0.612615 0.099421 0.625319 N3-
0.149269 0.599421 0.579865 N3-
0.850731 0.599421 0.623159 N3-
0.887385 0.149269 0.632222 N3-
0.887385 0.850731 0.623159 N3-
0.400579 0.112615 0.625558 N3-
0.599421 0.887385 0.623159 N3-
