Li61 P7 N32                             
   1.00000000000000     
     0.0184687480102417    9.5901940125728213    0.0309312469701720
    -0.0492659387219763    0.0313493252889572    9.6397478916319681
     9.5770653563068819    0.0184821586036840   -0.0488753837171189
   Li   P    N 
    61     7    32
Direct
  0.4988010692447861  0.0032551185332289  0.4934856430807684
  0.0153107414044458  0.4995336643027140 -0.0027750603480502
  0.5051718383912401  0.0050145421141629 -0.0064718878467374
 -0.0033690605075218  0.0023660220284464  0.4961054019936278
  0.5122906667680884  0.5155594245612870 -0.0210509498250247
 -0.0147585428089234  0.5007109438226145  0.4939591314461632
  0.7543973929772836 -0.0188529051024260  0.4775326919986992
  0.2482644605831922  0.0094320116170630  0.5016046062631876
  0.7108870831687172  0.4490153326308293  0.5193195274336111
  0.2322586297677019  0.5131060343141519  0.5092330120155677
  0.2672338169864702  0.0027567853352069  0.0043996687236779
  0.7426966775391011 -0.0054627308436138 -0.0100354404354711
  0.4797106993786126  0.5304576280000837  0.5486093521632142
  0.5113090554048635  0.2507897967488451 -0.0237534026109294
  0.5289852095695975  0.7674324874525910  0.0216698669351310
  0.0016984110821854  0.5220072805505863  0.2394264139080916
  0.0305813403451760  0.4937693600343630  0.7429606910432768
  0.2160853750131620  0.1872600807917912  0.2470123425872063
  0.2044483974552233  0.7528003685138581  0.7780177613764430
  0.2432210048095144  0.2662696553550906  0.7284164678649276
  0.2044662312387512  0.6884134108565861  0.3044059321380498
  0.7200933440798785  0.2344819735760611  0.2924044932909652
  0.6763045743598546  0.8260349927066254  0.6553106945592154
  0.7489486900529009  0.2351499573696149  0.7872088568787086
  0.7415838408248572  0.7577977179851704  0.2653278921371003
  0.9678539545690267  0.2667105842844129  0.2358033091409145
  0.9464907502975959  0.7326000698351283  0.7508042560159879
  0.2516784652288163  0.2574993791939062  0.4953964014843941
  0.2648756666662409  0.7619131978605116  0.5239351790416074
  0.7462620302511203  0.2138326088133828  0.5365775943343497
  0.7758630958322433  0.6847329708261631  0.5249029553717534
  0.7799271802648299  0.4905729259563707  0.2745832064490651
  0.7839527519603701  0.4853051785881804  0.7395847644816584
  0.2116481175616917  0.4310239213023032  0.2418591885107615
  0.2878637325780711  0.4942503245136161  0.7466543026037110
  0.4542462404588208  0.7828771683858425  0.2908051819352533
  0.4778491654570236  0.2370578630079989  0.7148063274065103
  0.2470977853708765  0.9480201922328204  0.2605103492360781
  0.2500937116119623  0.0053386676747260  0.7583558611221946
  0.2627795445766422  0.2420118358240261  0.9829234334170123
  0.2732482390997391  0.7654190132365227  0.0315285525837633
  0.7754949092201702 -0.0042626850896980  0.7525611404164080
  0.7622284959697716  0.0064948681690221  0.2319112158899653
  0.7943194490124003  0.7506911153696765  0.0248667107408208
  0.7620333987423333  0.2379358386959529  0.0333930828635290
 -0.0053810717847447  0.2313842825885097  0.7489562206798126
 -0.0071351707019383  0.7841631070921000  0.2424900316895267
  0.4716158581097032  0.2500499276200387  0.2327509168164067
  0.4637810029500342  0.7316719215134577  0.7656044410097891
  0.0115285988467754  0.2644230607264819 -0.0066636423921550
  0.0277729731121685  0.7395283652843530 -0.0028148225228811
  0.5057535079101091  0.2496339299505932  0.4852325945752852
  0.5011138737479697  0.7520156083312205  0.5171321061523642
  0.3796691212131480  0.5831968967017659  0.1885262438499173
  0.5366410658505345  0.4721756533369585  0.7488583645677244
  0.0030353290599831  0.0204701093487090  0.2574164525765166
  0.0103329917278356 -0.0135493244334425  0.7325484073138987
  0.4140306536225025  0.4261670553638512  0.3892700563768850
  0.5751983375029203  0.5790150641083531  0.3416356770333215
  0.5844701589563225  0.4192105157441141  0.1622931933957084
  0.6908726871129728  0.6864040489170276  0.8228018100073313
  0.0060263198292298  0.0036859074827436 -0.0040747147089157
  0.7707960563820819  0.4987504176492872  0.0046726491837555
  0.2588931869961312  0.4995606332029002 -0.0060213163327944
  0.0027672177352058  0.7570541487048040  0.4962817691070534
 -0.0043195272610803  0.2472414831451789  0.4948361096696915
  0.5027598566740872  0.0064359836612465  0.2388361045980528
  0.5037890445147343 -0.0041075717567085  0.7501918583771063
  0.6305231144157989  0.6224227991143203  0.6400885118498477
  0.6100333846093040  0.3819479682354278  0.3598095137148201
  0.9054331035396119  0.9043369539181502  0.1002299869966238
  0.9012767370402979  0.1022344851595104  0.8931663246616802
  0.1104045872530448  0.9004625551174793  0.8966989542689282
  0.1053370733651189  0.1073149392489178  0.0970724167579567
  0.3782899103312726  0.6286336813744833  0.3876521659563136
  0.3755946364530035  0.3728204179466288  0.6088000024176473
  0.0925685267678292  0.3461092651418637  0.3854033733948883
  0.0922102987811515  0.6554398666392128  0.6074317927131709
  0.1030002490160896  0.1478049880463679  0.5943464154392101
  0.1100187990057273  0.8572428879611588  0.4002877793286670
  0.8891412654583633  0.1456954230892893  0.3953764739119172
  0.8870363196028980  0.8545165482583729  0.5917803527938451
  0.8714152874215561  0.4017327424836438  0.1078679632938409
  0.8679606702827799  0.6006817068374347  0.9002713891993771
  0.1631946315110077  0.5937898248146014  0.1124423182671381
  0.1605544458252138  0.4004084822407748  0.8891455576126513
  0.4063760645267640  0.8992855072381465  0.1361621674515490
  0.4046222987648661  0.1047524175593426  0.8499137655056874
  0.3868796965239711  0.0973665324082699  0.3405676419956156
  0.3975398850514132  0.8988896350198231  0.6480250418774876
  0.3671838716850390  0.3954826985821961  0.0907506264450786
  0.3528522065184507  0.6144543123496107  0.9024474786559630
  0.6155572571572597  0.0896798355036534  0.6497576887070173
  0.6089425337493383  0.9083330425991174  0.3391697198318219
  0.6663235741138002  0.6074623641065952  0.1037025555453708
  0.6679194581357016  0.3921594002785900  0.9098681391156230
  0.8954037809966590  0.3459327289027065  0.6066348135907559
  0.9109598457223119  0.6576252023681375  0.3786425791071734
  0.6042677225349260  0.1121792542251258  0.1407294257703003
  0.6062350598738472  0.8890963170117039  0.8487558329814769
 
  0.00000000E+00  0.00000000E+00  0.00000000E+00
  0.00000000E+00  0.00000000E+00  0.00000000E+00
  0.00000000E+00  0.00000000E+00  0.00000000E+00
  0.00000000E+00  0.00000000E+00  0.00000000E+00
  0.00000000E+00  0.00000000E+00  0.00000000E+00
  0.00000000E+00  0.00000000E+00  0.00000000E+00
  0.00000000E+00  0.00000000E+00  0.00000000E+00
  0.00000000E+00  0.00000000E+00  0.00000000E+00
  0.00000000E+00  0.00000000E+00  0.00000000E+00
  0.00000000E+00  0.00000000E+00  0.00000000E+00
  0.00000000E+00  0.00000000E+00  0.00000000E+00
  0.00000000E+00  0.00000000E+00  0.00000000E+00
  0.00000000E+00  0.00000000E+00  0.00000000E+00
  0.00000000E+00  0.00000000E+00  0.00000000E+00
  0.00000000E+00  0.00000000E+00  0.00000000E+00
  0.00000000E+00  0.00000000E+00  0.00000000E+00
  0.00000000E+00  0.00000000E+00  0.00000000E+00
  0.00000000E+00  0.00000000E+00  0.00000000E+00
  0.00000000E+00  0.00000000E+00  0.00000000E+00
  0.00000000E+00  0.00000000E+00  0.00000000E+00
  0.00000000E+00  0.00000000E+00  0.00000000E+00
  0.00000000E+00  0.00000000E+00  0.00000000E+00
  0.00000000E+00  0.00000000E+00  0.00000000E+00
  0.00000000E+00  0.00000000E+00  0.00000000E+00
  0.00000000E+00  0.00000000E+00  0.00000000E+00
  0.00000000E+00  0.00000000E+00  0.00000000E+00
  0.00000000E+00  0.00000000E+00  0.00000000E+00
  0.00000000E+00  0.00000000E+00  0.00000000E+00
  0.00000000E+00  0.00000000E+00  0.00000000E+00
  0.00000000E+00  0.00000000E+00  0.00000000E+00
  0.00000000E+00  0.00000000E+00  0.00000000E+00
  0.00000000E+00  0.00000000E+00  0.00000000E+00
  0.00000000E+00  0.00000000E+00  0.00000000E+00
  0.00000000E+00  0.00000000E+00  0.00000000E+00
  0.00000000E+00  0.00000000E+00  0.00000000E+00
  0.00000000E+00  0.00000000E+00  0.00000000E+00
  0.00000000E+00  0.00000000E+00  0.00000000E+00
  0.00000000E+00  0.00000000E+00  0.00000000E+00
  0.00000000E+00  0.00000000E+00  0.00000000E+00
  0.00000000E+00  0.00000000E+00  0.00000000E+00
  0.00000000E+00  0.00000000E+00  0.00000000E+00
  0.00000000E+00  0.00000000E+00  0.00000000E+00
  0.00000000E+00  0.00000000E+00  0.00000000E+00
  0.00000000E+00  0.00000000E+00  0.00000000E+00
  0.00000000E+00  0.00000000E+00  0.00000000E+00
  0.00000000E+00  0.00000000E+00  0.00000000E+00
  0.00000000E+00  0.00000000E+00  0.00000000E+00
  0.00000000E+00  0.00000000E+00  0.00000000E+00
  0.00000000E+00  0.00000000E+00  0.00000000E+00
  0.00000000E+00  0.00000000E+00  0.00000000E+00
  0.00000000E+00  0.00000000E+00  0.00000000E+00
  0.00000000E+00  0.00000000E+00  0.00000000E+00
  0.00000000E+00  0.00000000E+00  0.00000000E+00
  0.00000000E+00  0.00000000E+00  0.00000000E+00
  0.00000000E+00  0.00000000E+00  0.00000000E+00
  0.00000000E+00  0.00000000E+00  0.00000000E+00
  0.00000000E+00  0.00000000E+00  0.00000000E+00
  0.00000000E+00  0.00000000E+00  0.00000000E+00
  0.00000000E+00  0.00000000E+00  0.00000000E+00
  0.00000000E+00  0.00000000E+00  0.00000000E+00
  0.00000000E+00  0.00000000E+00  0.00000000E+00
  0.00000000E+00  0.00000000E+00  0.00000000E+00
  0.00000000E+00  0.00000000E+00  0.00000000E+00
  0.00000000E+00  0.00000000E+00  0.00000000E+00
  0.00000000E+00  0.00000000E+00  0.00000000E+00
  0.00000000E+00  0.00000000E+00  0.00000000E+00
  0.00000000E+00  0.00000000E+00  0.00000000E+00
  0.00000000E+00  0.00000000E+00  0.00000000E+00
  0.00000000E+00  0.00000000E+00  0.00000000E+00
  0.00000000E+00  0.00000000E+00  0.00000000E+00
  0.00000000E+00  0.00000000E+00  0.00000000E+00
  0.00000000E+00  0.00000000E+00  0.00000000E+00
  0.00000000E+00  0.00000000E+00  0.00000000E+00
  0.00000000E+00  0.00000000E+00  0.00000000E+00
  0.00000000E+00  0.00000000E+00  0.00000000E+00
  0.00000000E+00  0.00000000E+00  0.00000000E+00
  0.00000000E+00  0.00000000E+00  0.00000000E+00
  0.00000000E+00  0.00000000E+00  0.00000000E+00
  0.00000000E+00  0.00000000E+00  0.00000000E+00
  0.00000000E+00  0.00000000E+00  0.00000000E+00
  0.00000000E+00  0.00000000E+00  0.00000000E+00
  0.00000000E+00  0.00000000E+00  0.00000000E+00
  0.00000000E+00  0.00000000E+00  0.00000000E+00
  0.00000000E+00  0.00000000E+00  0.00000000E+00
  0.00000000E+00  0.00000000E+00  0.00000000E+00
  0.00000000E+00  0.00000000E+00  0.00000000E+00
  0.00000000E+00  0.00000000E+00  0.00000000E+00
  0.00000000E+00  0.00000000E+00  0.00000000E+00
  0.00000000E+00  0.00000000E+00  0.00000000E+00
  0.00000000E+00  0.00000000E+00  0.00000000E+00
  0.00000000E+00  0.00000000E+00  0.00000000E+00
  0.00000000E+00  0.00000000E+00  0.00000000E+00
  0.00000000E+00  0.00000000E+00  0.00000000E+00
  0.00000000E+00  0.00000000E+00  0.00000000E+00
  0.00000000E+00  0.00000000E+00  0.00000000E+00
  0.00000000E+00  0.00000000E+00  0.00000000E+00
  0.00000000E+00  0.00000000E+00  0.00000000E+00
  0.00000000E+00  0.00000000E+00  0.00000000E+00
  0.00000000E+00  0.00000000E+00  0.00000000E+00
  0.00000000E+00  0.00000000E+00  0.00000000E+00
