Li5 P2 N1 O6                            
   1.00000000000000     
    -0.5607185152926076    0.2855142307466682    5.1581091326846664
     5.1707436074864104    0.3648168769868598   -0.7561435569446978
     0.3612618784519411    5.5102183109831921    0.3480152394642781
   Li   P    N    O 
     5     2     1     6
Direct
  0.5562642381465582 -0.0932347897355828  0.8974229839084380
 -0.1666886651718305  0.4135043250416603  0.2642118366880262
  0.4316082737624584  0.6456944875295314  0.3212850916390493
  0.2060367843868696  0.9312178546528094  0.6067199086557878
  0.0200987168325769  0.3566615497823747  0.6590382330619853
  0.4672261327897153  0.4002485269974829  0.8219774710390064
  0.0430098730625656  0.0245252128941785  0.1888812007844498
  0.2176101830912850  0.1325598315678272  0.9121954837544294
  0.1312074274720118  0.2185613782014979  0.3738453188666356
  0.3557566885136074  0.6241096872845753  0.6850747391348598
  0.0909821454917173  0.7528678621719959  0.2916229618539865
  0.6557378971820188  0.3062954306284761  0.6358955832920347
  0.6117286635114675  0.5289725581424208  0.0225668154350366
  0.7436676409290017  0.0051430848407504  0.1744323718862758
 
  0.00000000E+00  0.00000000E+00  0.00000000E+00
  0.00000000E+00  0.00000000E+00  0.00000000E+00
  0.00000000E+00  0.00000000E+00  0.00000000E+00
  0.00000000E+00  0.00000000E+00  0.00000000E+00
  0.00000000E+00  0.00000000E+00  0.00000000E+00
  0.00000000E+00  0.00000000E+00  0.00000000E+00
  0.00000000E+00  0.00000000E+00  0.00000000E+00
  0.00000000E+00  0.00000000E+00  0.00000000E+00
  0.00000000E+00  0.00000000E+00  0.00000000E+00
  0.00000000E+00  0.00000000E+00  0.00000000E+00
  0.00000000E+00  0.00000000E+00  0.00000000E+00
  0.00000000E+00  0.00000000E+00  0.00000000E+00
  0.00000000E+00  0.00000000E+00  0.00000000E+00
  0.00000000E+00  0.00000000E+00  0.00000000E+00
