Li5 P2 N1 O6
1.0
0.000000 0.000000 4.922448
6.176136 0.000000 0.000000
0.000000 5.296402 0.000000
Li P N O
5 2 1 6
direct
0.509417 0.000000 0.844520 Li+
0.009417 0.500000 0.155480 Li+
0.508363 0.747127 0.326434 Li+
0.008363 0.752873 0.673566 Li+
0.008363 0.247127 0.673566 Li+
0.501420 0.500000 0.824261 P5+
0.001420 0.000000 0.175739 P5+
0.102126 0.000000 0.896492 N3-
0.107010 0.207138 0.313509 O2-
0.607010 0.707138 0.686491 O2-
0.107010 0.792862 0.313509 O2-
0.607010 0.292862 0.686491 O2-
0.602126 0.500000 0.103508 O2-
0.685191 0.000000 0.181604 O2-
