Li71 P24 N1 O94                         
   1.00000000000000     
    14.7233514589252898    0.0061516289814877    0.0192706820883423
     0.0044069665311749   10.5578131164150264   -0.0039571046056714
     0.0160669010957591   -0.0046004563391144   12.3311834035223100
   Li   P    N    O 
    71    24     1    94
Direct
  0.1613319662791745  0.4308474509179483 -0.0196744704830060
  0.1700485978080549  0.4223138260048302  0.5114270068758264
  0.1679802040028825  0.9340889871415428  0.0084599197714299
  0.1702289217176956  0.9243011695370378  0.5000783293873415
  0.5073313346086444  0.4245613813182119 -0.0043908375933357
  0.5050306514535506  0.4225631637808183  0.5014007473784019
  0.5034501064588880  0.9222366236903565 -0.0005541659282250
  0.5029298649258870  0.9223605601901635  0.5001463291520458
  0.8349769736281436  0.4228367627793712 -0.0007944812725459
  0.8350003792390184  0.4217564999568246  0.4993399216894073
  0.8360063263334697  0.9200783999850819 -0.0013678228473285
  0.8370525616551203  0.9221466498653541  0.4995384471707378
  0.0095694869874131  0.0818020678316233  0.2452568759903145
  0.0026958933955086  0.0764535235135429  0.7505081668630630
 -0.0029583979936504  0.5792219524160087  0.2455735916161093
  0.0029624251641381  0.5776558451451869  0.7492858913118728
  0.3332582258498453  0.0777098676199186  0.2465464275538748
  0.3362711880511713  0.0778198138524448  0.7516122877946795
  0.3414830870974246  0.5798887981949727  0.2522124655484647
  0.3362813664633291  0.5773178986878461  0.7506783865453704
  0.6714422144342634  0.0767126045587173  0.2497499846411736
  0.6699272859972238  0.0762876499926903  0.7495608367051614
  0.6701546022111120  0.5790051459625493  0.2500134672129047
  0.6691586757825569  0.5784859313856514  0.7496662042741821
  0.1692273189089887  0.1617867392074301  0.6268676914363561
  0.1679798072348138  0.6656418581167851  0.1263977052852830
  0.1699924727582771  0.6646135309274387  0.6273723484936325
  0.5053095342024355  0.1575545410273183  0.1264055295240935
  0.5029477346293920  0.1624979052519853  0.6267280021807579
  0.5032150702937899  0.6643274744851005  0.1259224703476649
  0.5026508110412896  0.6639082292531873  0.6268336716811632
  0.8394800569243418  0.1615288566817530  0.1245051223295624
  0.8360700582527900  0.1624738636713768  0.6255087570835420
  0.8347645806123974  0.6641042792702119  0.1255461230708299
  0.8363983631972693  0.6627302433587732  0.6253047672630208
 -0.0012003966468881  0.3344278182640438  0.1207121759752997
  0.0017567940516671  0.3348711986406169  0.6235312078779177
  0.0033710100910086  0.8397640194802686  0.1240084847276144
  0.0031814750268319  0.8362577031297297  0.6236040791451085
  0.3703204964300839  0.3319622375327502  0.1171058640287840
  0.3378938231206823  0.3354489725476406  0.6245707041988902
  0.3362938725777492  0.8385300835175633  0.1232567663135186
  0.3360847426406329  0.8380047979904918  0.6240629727070585
  0.6694529131933123  0.3355404910866234  0.1228946285864125
  0.6694440938660569  0.3364387745718347  0.6237907991882897
  0.6698968778075154  0.8374948752189134  0.1237166413667550
  0.6694258922682543  0.8366594662081042  0.6234623310131572
 -0.0031369989549007  0.3310099398666265  0.3757098074447934
  0.0000028949773599  0.3345545441242745  0.8745849734058565
  0.0032420302350562  0.8375678761287297  0.3756551754008174
  0.0030838012156056  0.8386260526615353  0.8771852875345489
  0.3419725097035013  0.3367035133117668  0.3796952757566768
  0.3364080383389514  0.3334907575956488  0.8756272952596903
  0.3360480891156314  0.8382664850899096  0.3764161979124614
  0.3353242822571071  0.8387433832665104  0.8774964832651225
  0.6703287253654657  0.3360204945434023  0.3768133711486246
  0.6702963866780914  0.3362993737695805  0.8751375164888970
  0.6698792146132009  0.8373221032832374  0.3764933761658021
  0.6693745424028392  0.8367798900622866  0.8755467332562422
  0.1690760432933075  0.1609318751845885  0.3708436387139934
  0.1670903197992687  0.1613340181065595  0.8778851894852330
  0.1697783539066649  0.6718781157962977  0.3815240683269666
  0.1698573589301338  0.6668558301530904  0.8743560443720761
  0.5035388800569753  0.1615740402203540  0.3737380868707643
  0.5044352096818215  0.1626794333590316  0.8735015520894225
  0.5039964180964520  0.6643202533006468  0.3749284202454348
  0.5017557101834631  0.6642777536588370  0.8732934024511106
  0.8362630621134365  0.1614100514896631  0.3725826491063683
  0.8349426154645395  0.1617950695624988  0.8709045431692135
  0.8355597762139364  0.6634811258951955  0.3740508299020194
  0.8357919612960709  0.6633989912196705  0.8721948380739484
  0.1552123887562031  0.4317738924033524  0.2824817598398104
  0.1669308842727245  0.4115774201720305  0.7495125119334608
  0.1686223076993156  0.9126724253838950  0.2525249373408416
  0.1670563968041433  0.9123284298490701  0.7504880155422520
  0.5008205427547930  0.4129582632654449  0.2510102285488887
  0.5005943897246901  0.4124418588407358  0.7498976498669923
  0.5010647335842686  0.9116718924235124  0.2502715751515220
  0.5004747779554405  0.9119662185420635  0.7498064489949745
  0.8306178108438580  0.4124905604747016  0.2489592593623050
  0.8330296016636513  0.4125224995580808  0.7489974789588760
  0.8343590987744745  0.9116790515808226  0.2499664569159920
  0.8336976204849995  0.9109875765553392  0.7485634084614849
 -0.0038573543711389  0.0883704430687760 -0.0008383165662218
  0.0005846098491700  0.0871451124729181  0.5003147730977068
 -0.0007948715806845  0.5889655616038338 -0.0013221896867694
  0.0010471927267839  0.5860962735512792  0.4990743875440369
  0.3348576091777520  0.0875976288962554 -0.0013521136310614
  0.3341990946023444  0.0883969321319166  0.5001522936194088
  0.3334448308463581  0.5859826777530490  0.0010567386038589
  0.3348912133679773  0.5877122322809337  0.5014143159930151
  0.6676802257349681  0.0869978064017882 -0.0007562071159763
  0.6671953652459250  0.0874710698024218  0.5001607352708644
  0.6664631463104775  0.5885100634452537 -0.0007573619432292
  0.6669219806933689  0.5880042900913616  0.5003865291996131
  0.0588259209822492  0.4059452221690060  0.2463458000281981
  0.0364528815876178  0.1566299861043096  0.3972906473471437
  0.0328101891408250  0.1568518923958762  0.8949953468405240
  0.0368756783846305  0.6547534520532691  0.3950854616470730
  0.0355463634668166  0.6572991373963346  0.8950432919917578
  0.3702266193742311  0.1576325079305209  0.3967462340031704
  0.3730756788419327  0.1572354849985239  0.8957115042507607
  0.3701191360356672  0.6572389526698975  0.3979160480119808
  0.3668589334389203  0.6558917542588570  0.8970094475856050
  0.7023915853202681  0.1563299056675785  0.3962248265025917
  0.7019502456292971  0.1562633429469109  0.8950048922692326
  0.7020903446868418  0.6570912623374625  0.3966250551117752
  0.7021759751663584  0.6567849778863329  0.8954143458309924
  0.2041707321476329  0.0492817608599857  0.2567157297190932
  0.2002540822305385  0.0525364312268296  0.7500711390240394
  0.2079298418206704  0.5530253048213334  0.2539712886435647
  0.2003156692908318  0.5517907692409200  0.7505521884601959
  0.5356338824238334  0.0513748188357261  0.2504421422007759
  0.5347641903163207  0.0516687315779745  0.7496666986615339
  0.5343320416719608  0.5526836769096422  0.2500283948506217
  0.5336209744409678  0.5528189058830941  0.7499206162028585
  0.8677818788013881  0.0514879215256363  0.2499596440034711
  0.8669879989962194  0.0510797787887375  0.7476957720761678
  0.8637130681956943  0.5529581091632901  0.2496892096892033
  0.8675990977093545  0.5521567185367909  0.7488950044158593
  0.0612614221403607  0.4084471418122346  0.7490113660088250
  0.0626147456691276  0.9092914238500098  0.2510332466883463
  0.0612425523471390  0.9085508504306460  0.7498825694649289
  0.3946988464242191  0.4106675754134124  0.2521073453641886
  0.3947997792099712  0.4092667527925963  0.7506893830038857
  0.3954248540983308  0.9091604897342914  0.2501625361176046
  0.3947446265091189  0.9093662301754634  0.7501762458646382
  0.7247097791386699  0.4098839389655405  0.2496299382608437
  0.7272769671797413  0.4107607251765067  0.7489697999949158
  0.7284166566603971  0.9084929498071176  0.2501868455913422
  0.7278448785908552  0.9081899011048568  0.7491528761872746
  0.2308765135975390  0.0908599229635816 -0.0041012459721216
  0.2284953800254335  0.0922076517681839  0.5003649554947304
  0.2272613240402223  0.5850318584349881  0.0027872668626331
  0.2287478894885160  0.5886239655876189  0.5009506922265159
  0.5618862813294901  0.0897339145646398 -0.0004407303637949
  0.5613869837421088  0.0902393634553937  0.5003141499433158
  0.5605737167681226  0.5923682098859488 -0.0008091038504466
  0.5611210530610481  0.5910533645037589  0.5006520048128651
  0.8899841876281147  0.0858620183892676 -0.0062804483976209
  0.8947611109297473  0.0904724002386649  0.4996159388738819
  0.8935488470902750  0.5919487147664110 -0.0009662993337279
  0.8953752156652224  0.5887849152419337  0.4990226131965240
  0.2034658346249684  0.3422729690065848  0.6465666711701717
  0.2037224039559881  0.8420383933563506  0.1486241478234935
  0.2025726832478697  0.8432480350611899  0.6462694249092737
  0.5317380976396044  0.3430151005162680  0.1449930202839420
  0.5357403083908494  0.3432046485370732  0.6460259626087962
  0.5364663638108350  0.8424684265069736  0.1464014822191610
  0.5355962065154668  0.8427440420322041  0.6457470392445317
  0.8649092141903768  0.3446305331336195  0.1444069594281840
  0.8683300659436349  0.3428899694819191  0.6452719518023300
  0.8692965137901116  0.8419668690227452  0.1461710344939262
  0.8689793389942784  0.8417109664931668  0.6446042106171609
  0.0236261725489201  0.1595086312608295  0.1028142065419772
  0.0353003061122832  0.1560763556847078  0.6045209080292098
  0.0348323322715382  0.6576390818831808  0.1023603625028149
  0.0363285812433128  0.6553852767770276  0.6026753789633333
  0.3719474624357746  0.1558513049374846  0.1027635000476788
  0.3696159400458384  0.1567621918082901  0.6042992571740082
  0.3685527803404783  0.6551982872212161  0.1044810308710390
  0.3685943076955218  0.6573865678674672  0.6053463884528064
  0.7025959767924388  0.1562301988820789  0.1030299867937583
  0.7022352180033171  0.1568977630202806  0.6038081392396866
  0.7015445769332410  0.6572038590561969  0.1030314830949673
  0.7023804044761506  0.6567942367008570  0.6040253603239158
  0.0323687307795102  0.4482834937009935 -0.0028855188450448
  0.0352893784342641  0.4458016991369312  0.4991837958250693
  0.0324426618375667  0.9489871541403390  0.0000184806742125
  0.0341355544635175  0.9469589526273865  0.5004585342437786
  0.3685079171538241  0.4462768376400220 -0.0002102811857575
  0.3695926780319853  0.4481464859644549  0.5018606860935184
  0.3700235189537795  0.9474429943037913 -0.0001626350827831
  0.3676623668036388  0.9480759270154357  0.5000204962827387
  0.6988854164437504  0.4477602446477302 -0.0006046156592771
  0.7001016294261441  0.4476515763887843  0.5001592868324052
  0.7008564439603396  0.9466613478973680 -0.0008968859759148
  0.7010688190960237  0.9474463889107140  0.5002291592975048
  0.2084513469834585  0.3465660135794075  0.3608382801176319
  0.2020646858771184  0.3424217765768634  0.8531126436926051
  0.2022247907493636  0.8401251530189597  0.3563782463184151
  0.2023424395518225  0.8434492325106004  0.8540704438336014
  0.5363680607863656  0.3428813743939977  0.3534979034281692
  0.5366489172608205  0.3436833876839798  0.8532574501872955
  0.5361477263774110  0.8426231450326973  0.3541331754926868
  0.5357580680098575  0.8424048983304692  0.8532591544639675
  0.8652491514147017  0.3428871156824260  0.3527884628537237
  0.8673160543969871  0.3432321231757444  0.8529215001659461
  0.8693638637432286  0.8422019969711171  0.3538161929568036
  0.8690169030875953  0.8416782012067844  0.8519510376134092
 
  0.00000000E+00  0.00000000E+00  0.00000000E+00
  0.00000000E+00  0.00000000E+00  0.00000000E+00
  0.00000000E+00  0.00000000E+00  0.00000000E+00
  0.00000000E+00  0.00000000E+00  0.00000000E+00
  0.00000000E+00  0.00000000E+00  0.00000000E+00
  0.00000000E+00  0.00000000E+00  0.00000000E+00
  0.00000000E+00  0.00000000E+00  0.00000000E+00
  0.00000000E+00  0.00000000E+00  0.00000000E+00
  0.00000000E+00  0.00000000E+00  0.00000000E+00
  0.00000000E+00  0.00000000E+00  0.00000000E+00
  0.00000000E+00  0.00000000E+00  0.00000000E+00
  0.00000000E+00  0.00000000E+00  0.00000000E+00
  0.00000000E+00  0.00000000E+00  0.00000000E+00
  0.00000000E+00  0.00000000E+00  0.00000000E+00
  0.00000000E+00  0.00000000E+00  0.00000000E+00
  0.00000000E+00  0.00000000E+00  0.00000000E+00
  0.00000000E+00  0.00000000E+00  0.00000000E+00
  0.00000000E+00  0.00000000E+00  0.00000000E+00
  0.00000000E+00  0.00000000E+00  0.00000000E+00
  0.00000000E+00  0.00000000E+00  0.00000000E+00
  0.00000000E+00  0.00000000E+00  0.00000000E+00
  0.00000000E+00  0.00000000E+00  0.00000000E+00
  0.00000000E+00  0.00000000E+00  0.00000000E+00
  0.00000000E+00  0.00000000E+00  0.00000000E+00
  0.00000000E+00  0.00000000E+00  0.00000000E+00
  0.00000000E+00  0.00000000E+00  0.00000000E+00
  0.00000000E+00  0.00000000E+00  0.00000000E+00
  0.00000000E+00  0.00000000E+00  0.00000000E+00
  0.00000000E+00  0.00000000E+00  0.00000000E+00
  0.00000000E+00  0.00000000E+00  0.00000000E+00
  0.00000000E+00  0.00000000E+00  0.00000000E+00
  0.00000000E+00  0.00000000E+00  0.00000000E+00
  0.00000000E+00  0.00000000E+00  0.00000000E+00
  0.00000000E+00  0.00000000E+00  0.00000000E+00
  0.00000000E+00  0.00000000E+00  0.00000000E+00
  0.00000000E+00  0.00000000E+00  0.00000000E+00
  0.00000000E+00  0.00000000E+00  0.00000000E+00
  0.00000000E+00  0.00000000E+00  0.00000000E+00
  0.00000000E+00  0.00000000E+00  0.00000000E+00
  0.00000000E+00  0.00000000E+00  0.00000000E+00
  0.00000000E+00  0.00000000E+00  0.00000000E+00
  0.00000000E+00  0.00000000E+00  0.00000000E+00
  0.00000000E+00  0.00000000E+00  0.00000000E+00
  0.00000000E+00  0.00000000E+00  0.00000000E+00
  0.00000000E+00  0.00000000E+00  0.00000000E+00
  0.00000000E+00  0.00000000E+00  0.00000000E+00
  0.00000000E+00  0.00000000E+00  0.00000000E+00
  0.00000000E+00  0.00000000E+00  0.00000000E+00
  0.00000000E+00  0.00000000E+00  0.00000000E+00
  0.00000000E+00  0.00000000E+00  0.00000000E+00
  0.00000000E+00  0.00000000E+00  0.00000000E+00
  0.00000000E+00  0.00000000E+00  0.00000000E+00
  0.00000000E+00  0.00000000E+00  0.00000000E+00
  0.00000000E+00  0.00000000E+00  0.00000000E+00
  0.00000000E+00  0.00000000E+00  0.00000000E+00
  0.00000000E+00  0.00000000E+00  0.00000000E+00
  0.00000000E+00  0.00000000E+00  0.00000000E+00
  0.00000000E+00  0.00000000E+00  0.00000000E+00
  0.00000000E+00  0.00000000E+00  0.00000000E+00
  0.00000000E+00  0.00000000E+00  0.00000000E+00
  0.00000000E+00  0.00000000E+00  0.00000000E+00
  0.00000000E+00  0.00000000E+00  0.00000000E+00
  0.00000000E+00  0.00000000E+00  0.00000000E+00
  0.00000000E+00  0.00000000E+00  0.00000000E+00
  0.00000000E+00  0.00000000E+00  0.00000000E+00
  0.00000000E+00  0.00000000E+00  0.00000000E+00
  0.00000000E+00  0.00000000E+00  0.00000000E+00
  0.00000000E+00  0.00000000E+00  0.00000000E+00
  0.00000000E+00  0.00000000E+00  0.00000000E+00
  0.00000000E+00  0.00000000E+00  0.00000000E+00
  0.00000000E+00  0.00000000E+00  0.00000000E+00
  0.00000000E+00  0.00000000E+00  0.00000000E+00
  0.00000000E+00  0.00000000E+00  0.00000000E+00
  0.00000000E+00  0.00000000E+00  0.00000000E+00
  0.00000000E+00  0.00000000E+00  0.00000000E+00
  0.00000000E+00  0.00000000E+00  0.00000000E+00
  0.00000000E+00  0.00000000E+00  0.00000000E+00
  0.00000000E+00  0.00000000E+00  0.00000000E+00
  0.00000000E+00  0.00000000E+00  0.00000000E+00
  0.00000000E+00  0.00000000E+00  0.00000000E+00
  0.00000000E+00  0.00000000E+00  0.00000000E+00
  0.00000000E+00  0.00000000E+00  0.00000000E+00
  0.00000000E+00  0.00000000E+00  0.00000000E+00
  0.00000000E+00  0.00000000E+00  0.00000000E+00
  0.00000000E+00  0.00000000E+00  0.00000000E+00
  0.00000000E+00  0.00000000E+00  0.00000000E+00
  0.00000000E+00  0.00000000E+00  0.00000000E+00
  0.00000000E+00  0.00000000E+00  0.00000000E+00
  0.00000000E+00  0.00000000E+00  0.00000000E+00
  0.00000000E+00  0.00000000E+00  0.00000000E+00
  0.00000000E+00  0.00000000E+00  0.00000000E+00
  0.00000000E+00  0.00000000E+00  0.00000000E+00
  0.00000000E+00  0.00000000E+00  0.00000000E+00
  0.00000000E+00  0.00000000E+00  0.00000000E+00
  0.00000000E+00  0.00000000E+00  0.00000000E+00
  0.00000000E+00  0.00000000E+00  0.00000000E+00
  0.00000000E+00  0.00000000E+00  0.00000000E+00
  0.00000000E+00  0.00000000E+00  0.00000000E+00
  0.00000000E+00  0.00000000E+00  0.00000000E+00
  0.00000000E+00  0.00000000E+00  0.00000000E+00
  0.00000000E+00  0.00000000E+00  0.00000000E+00
  0.00000000E+00  0.00000000E+00  0.00000000E+00
  0.00000000E+00  0.00000000E+00  0.00000000E+00
  0.00000000E+00  0.00000000E+00  0.00000000E+00
  0.00000000E+00  0.00000000E+00  0.00000000E+00
  0.00000000E+00  0.00000000E+00  0.00000000E+00
  0.00000000E+00  0.00000000E+00  0.00000000E+00
  0.00000000E+00  0.00000000E+00  0.00000000E+00
  0.00000000E+00  0.00000000E+00  0.00000000E+00
  0.00000000E+00  0.00000000E+00  0.00000000E+00
  0.00000000E+00  0.00000000E+00  0.00000000E+00
  0.00000000E+00  0.00000000E+00  0.00000000E+00
  0.00000000E+00  0.00000000E+00  0.00000000E+00
  0.00000000E+00  0.00000000E+00  0.00000000E+00
  0.00000000E+00  0.00000000E+00  0.00000000E+00
  0.00000000E+00  0.00000000E+00  0.00000000E+00
  0.00000000E+00  0.00000000E+00  0.00000000E+00
  0.00000000E+00  0.00000000E+00  0.00000000E+00
  0.00000000E+00  0.00000000E+00  0.00000000E+00
  0.00000000E+00  0.00000000E+00  0.00000000E+00
  0.00000000E+00  0.00000000E+00  0.00000000E+00
  0.00000000E+00  0.00000000E+00  0.00000000E+00
  0.00000000E+00  0.00000000E+00  0.00000000E+00
  0.00000000E+00  0.00000000E+00  0.00000000E+00
  0.00000000E+00  0.00000000E+00  0.00000000E+00
  0.00000000E+00  0.00000000E+00  0.00000000E+00
  0.00000000E+00  0.00000000E+00  0.00000000E+00
  0.00000000E+00  0.00000000E+00  0.00000000E+00
  0.00000000E+00  0.00000000E+00  0.00000000E+00
  0.00000000E+00  0.00000000E+00  0.00000000E+00
  0.00000000E+00  0.00000000E+00  0.00000000E+00
  0.00000000E+00  0.00000000E+00  0.00000000E+00
  0.00000000E+00  0.00000000E+00  0.00000000E+00
  0.00000000E+00  0.00000000E+00  0.00000000E+00
  0.00000000E+00  0.00000000E+00  0.00000000E+00
  0.00000000E+00  0.00000000E+00  0.00000000E+00
  0.00000000E+00  0.00000000E+00  0.00000000E+00
  0.00000000E+00  0.00000000E+00  0.00000000E+00
  0.00000000E+00  0.00000000E+00  0.00000000E+00
  0.00000000E+00  0.00000000E+00  0.00000000E+00
  0.00000000E+00  0.00000000E+00  0.00000000E+00
  0.00000000E+00  0.00000000E+00  0.00000000E+00
  0.00000000E+00  0.00000000E+00  0.00000000E+00
  0.00000000E+00  0.00000000E+00  0.00000000E+00
  0.00000000E+00  0.00000000E+00  0.00000000E+00
  0.00000000E+00  0.00000000E+00  0.00000000E+00
  0.00000000E+00  0.00000000E+00  0.00000000E+00
  0.00000000E+00  0.00000000E+00  0.00000000E+00
  0.00000000E+00  0.00000000E+00  0.00000000E+00
  0.00000000E+00  0.00000000E+00  0.00000000E+00
  0.00000000E+00  0.00000000E+00  0.00000000E+00
  0.00000000E+00  0.00000000E+00  0.00000000E+00
  0.00000000E+00  0.00000000E+00  0.00000000E+00
  0.00000000E+00  0.00000000E+00  0.00000000E+00
  0.00000000E+00  0.00000000E+00  0.00000000E+00
  0.00000000E+00  0.00000000E+00  0.00000000E+00
  0.00000000E+00  0.00000000E+00  0.00000000E+00
  0.00000000E+00  0.00000000E+00  0.00000000E+00
  0.00000000E+00  0.00000000E+00  0.00000000E+00
  0.00000000E+00  0.00000000E+00  0.00000000E+00
  0.00000000E+00  0.00000000E+00  0.00000000E+00
  0.00000000E+00  0.00000000E+00  0.00000000E+00
  0.00000000E+00  0.00000000E+00  0.00000000E+00
  0.00000000E+00  0.00000000E+00  0.00000000E+00
  0.00000000E+00  0.00000000E+00  0.00000000E+00
  0.00000000E+00  0.00000000E+00  0.00000000E+00
  0.00000000E+00  0.00000000E+00  0.00000000E+00
  0.00000000E+00  0.00000000E+00  0.00000000E+00
  0.00000000E+00  0.00000000E+00  0.00000000E+00
  0.00000000E+00  0.00000000E+00  0.00000000E+00
  0.00000000E+00  0.00000000E+00  0.00000000E+00
  0.00000000E+00  0.00000000E+00  0.00000000E+00
  0.00000000E+00  0.00000000E+00  0.00000000E+00
  0.00000000E+00  0.00000000E+00  0.00000000E+00
  0.00000000E+00  0.00000000E+00  0.00000000E+00
  0.00000000E+00  0.00000000E+00  0.00000000E+00
  0.00000000E+00  0.00000000E+00  0.00000000E+00
  0.00000000E+00  0.00000000E+00  0.00000000E+00
  0.00000000E+00  0.00000000E+00  0.00000000E+00
  0.00000000E+00  0.00000000E+00  0.00000000E+00
  0.00000000E+00  0.00000000E+00  0.00000000E+00
  0.00000000E+00  0.00000000E+00  0.00000000E+00
  0.00000000E+00  0.00000000E+00  0.00000000E+00
  0.00000000E+00  0.00000000E+00  0.00000000E+00
  0.00000000E+00  0.00000000E+00  0.00000000E+00
  0.00000000E+00  0.00000000E+00  0.00000000E+00
  0.00000000E+00  0.00000000E+00  0.00000000E+00
  0.00000000E+00  0.00000000E+00  0.00000000E+00
  0.00000000E+00  0.00000000E+00  0.00000000E+00
  0.00000000E+00  0.00000000E+00  0.00000000E+00
