Li140 P140 O420
1.0
13.312980 0.000000 0.000000
-10.635230 16.540545 0.000000
0.000000 0.000000 60.737138
Li P O
140 140 420
direct
0.126478 0.181780 0.034100 Li+
0.126478 0.681780 0.033120 Li+
0.888830 0.065996 0.035026 Li+
0.888830 0.565996 0.032193 Li+
0.652957 0.950543 0.033084 Li+
0.652957 0.450543 0.034136 Li+
0.418297 0.835452 0.032953 Li+
0.418297 0.335452 0.034267 Li+
0.270894 0.758434 0.079721 Li+
0.270894 0.258434 0.078408 Li+
0.624263 0.681714 0.031683 Li+
0.624263 0.181714 0.035537 Li+
0.387725 0.566270 0.035763 Li+
0.387725 0.066270 0.031457 Li+
0.151818 0.449547 0.030587 Li+
0.151818 0.949547 0.036633 Li+
0.915480 0.332984 0.035634 Li+
0.915480 0.832984 0.031586 Li+
0.766829 0.256366 0.082620 Li+
0.766829 0.756366 0.075509 Li+
0.126478 0.181780 0.125009 Li+
0.126478 0.681780 0.124029 Li+
0.888830 0.065996 0.125936 Li+
0.888830 0.565996 0.123103 Li+
0.652957 0.950543 0.123993 Li+
0.652957 0.450543 0.125045 Li+
0.418297 0.835452 0.123862 Li+
0.418297 0.335452 0.125176 Li+
0.270894 0.758434 0.170630 Li+
0.270894 0.258434 0.169318 Li+
0.624263 0.681714 0.122592 Li+
0.624263 0.181714 0.126446 Li+
0.387725 0.566270 0.126672 Li+
0.387725 0.066270 0.122366 Li+
0.151818 0.449547 0.121496 Li+
0.151818 0.949547 0.127542 Li+
0.915480 0.332984 0.126543 Li+
0.915480 0.832984 0.122495 Li+
0.766829 0.256366 0.173529 Li+
0.766829 0.756366 0.166418 Li+
0.126478 0.181780 0.215918 Li+
0.126478 0.681780 0.214938 Li+
0.888830 0.065996 0.216845 Li+
0.888830 0.565996 0.214012 Li+
0.652957 0.950543 0.214902 Li+
0.652957 0.450543 0.215954 Li+
0.418297 0.835452 0.214771 Li+
0.418297 0.335452 0.216085 Li+
0.270894 0.758434 0.261539 Li+
0.270894 0.258434 0.260227 Li+
0.624263 0.681714 0.213501 Li+
0.624263 0.181714 0.217355 Li+
0.387725 0.566270 0.217582 Li+
0.387725 0.066270 0.213275 Li+
0.151818 0.449547 0.212405 Li+
0.151818 0.949547 0.218451 Li+
0.915480 0.332984 0.217452 Li+
0.915480 0.832984 0.213404 Li+
0.766829 0.256366 0.264438 Li+
0.766829 0.756366 0.257327 Li+
0.126478 0.181780 0.306827 Li+
0.126478 0.681780 0.305847 Li+
0.888830 0.065996 0.307754 Li+
0.888830 0.565996 0.304921 Li+
0.652957 0.950543 0.305811 Li+
0.652957 0.450543 0.306863 Li+
0.418297 0.835452 0.305680 Li+
0.418297 0.335452 0.306994 Li+
0.270894 0.758434 0.352448 Li+
0.270894 0.258434 0.351136 Li+
0.624263 0.681714 0.304410 Li+
0.624263 0.181714 0.308264 Li+
0.387725 0.566270 0.308491 Li+
0.387725 0.066270 0.304184 Li+
0.151818 0.449547 0.303314 Li+
0.151818 0.949547 0.309360 Li+
0.915480 0.332984 0.308361 Li+
0.915480 0.832984 0.304313 Li+
0.766829 0.256366 0.355347 Li+
0.766829 0.756366 0.348236 Li+
0.126478 0.181780 0.397737 Li+
0.126478 0.681780 0.396756 Li+
0.888830 0.065996 0.398663 Li+
0.888830 0.565996 0.395830 Li+
0.652957 0.950543 0.396721 Li+
0.652957 0.450543 0.397772 Li+
0.418297 0.835452 0.396590 Li+
0.418297 0.335452 0.397903 Li+
0.270894 0.758434 0.443357 Li+
0.270894 0.258434 0.442045 Li+
0.624263 0.681714 0.395320 Li+
0.624263 0.181714 0.399173 Li+
0.387725 0.566270 0.399400 Li+
0.387725 0.066270 0.395093 Li+
0.151818 0.449547 0.394224 Li+
0.151818 0.949547 0.400269 Li+
0.915480 0.332984 0.399270 Li+
0.915480 0.832984 0.395222 Li+
0.766829 0.256366 0.446256 Li+
0.766829 0.756366 0.439145 Li+
0.126478 0.181780 0.488646 Li+
0.126478 0.681780 0.487665 Li+
0.888830 0.065996 0.489572 Li+
0.888830 0.565996 0.486739 Li+
0.652957 0.950543 0.487630 Li+
0.652957 0.450543 0.488681 Li+
0.418297 0.835452 0.487499 Li+
0.418297 0.335452 0.488812 Li+
0.270894 0.758434 0.534266 Li+
0.270894 0.258434 0.532954 Li+
0.624263 0.681714 0.486229 Li+
0.624263 0.181714 0.490082 Li+
0.387725 0.566270 0.490309 Li+
0.387725 0.066270 0.486002 Li+
0.151818 0.449547 0.485133 Li+
0.151818 0.949547 0.491178 Li+
0.915480 0.332984 0.490179 Li+
0.915480 0.832984 0.486131 Li+
0.766829 0.256366 0.537165 Li+
0.766829 0.756366 0.530054 Li+
0.126478 0.181780 0.579555 Li+
0.126478 0.681780 0.578574 Li+
0.888830 0.065996 0.580481 Li+
0.888830 0.565996 0.577648 Li+
0.652957 0.950543 0.578539 Li+
0.652957 0.450543 0.579590 Li+
0.418297 0.835452 0.578408 Li+
0.418297 0.335452 0.579721 Li+
0.270894 0.758434 0.625175 Li+
0.270894 0.258434 0.623863 Li+
0.624263 0.681714 0.577138 Li+
0.624263 0.181714 0.580991 Li+
0.387725 0.566270 0.581218 Li+
0.387725 0.066270 0.576911 Li+
0.151818 0.449547 0.576042 Li+
0.151818 0.949547 0.582087 Li+
0.915480 0.332984 0.581088 Li+
0.915480 0.832984 0.577041 Li+
0.766829 0.256366 0.628075 Li+
0.766829 0.756366 0.620964 Li+
0.000779 0.999587 0.062212 P5+
0.000779 0.499587 0.005008 P5+
0.794387 0.906720 0.002399 P5+
0.794387 0.406720 0.064821 P5+
0.598863 0.802939 0.061933 P5+
0.598863 0.302939 0.005287 P5+
0.408395 0.691689 0.003703 P5+
0.408395 0.191689 0.063517 P5+
0.208401 0.591751 0.064543 P5+
0.208401 0.091751 0.002677 P5+
0.334920 0.425433 0.002344 P5+
0.334920 0.925433 0.064876 P5+
0.134548 0.325562 0.063217 P5+
0.134548 0.825562 0.004003 P5+
0.943677 0.213545 0.005221 P5+
0.943677 0.713545 0.061999 P5+
0.747866 0.110144 0.065255 P5+
0.747866 0.610144 0.001965 P5+
0.541580 0.017155 0.005440 P5+
0.541580 0.517155 0.061780 P5+
0.000779 0.999587 0.153121 P5+
0.000779 0.499587 0.095917 P5+
0.794387 0.906720 0.093308 P5+
0.794387 0.406720 0.155730 P5+
0.598863 0.802939 0.152842 P5+
0.598863 0.302939 0.096196 P5+
0.408395 0.691689 0.094612 P5+
0.408395 0.191689 0.154426 P5+
0.208401 0.591751 0.155452 P5+
0.208401 0.091751 0.093586 P5+
0.334920 0.425433 0.093253 P5+
0.334920 0.925433 0.155785 P5+
0.134548 0.325562 0.154126 P5+
0.134548 0.825562 0.094912 P5+
0.943677 0.213545 0.096130 P5+
0.943677 0.713545 0.152908 P5+
0.747866 0.110144 0.156164 P5+
0.747866 0.610144 0.092874 P5+
0.541580 0.017155 0.096349 P5+
0.541580 0.517155 0.152689 P5+
0.000779 0.999587 0.244030 P5+
0.000779 0.499587 0.186826 P5+
0.794387 0.906720 0.184218 P5+
0.794387 0.406720 0.246639 P5+
0.598863 0.802939 0.243751 P5+
0.598863 0.302939 0.187105 P5+
0.408395 0.691689 0.185521 P5+
0.408395 0.191689 0.245335 P5+
0.208401 0.591751 0.246361 P5+
0.208401 0.091751 0.184495 P5+
0.334920 0.425433 0.184162 P5+
0.334920 0.925433 0.246694 P5+
0.134548 0.325562 0.245035 P5+
0.134548 0.825562 0.185821 P5+
0.943677 0.213545 0.187039 P5+
0.943677 0.713545 0.243817 P5+
0.747866 0.110144 0.247074 P5+
0.747866 0.610144 0.183783 P5+
0.541580 0.017155 0.187258 P5+
0.541580 0.517155 0.243598 P5+
0.000779 0.999587 0.334939 P5+
0.000779 0.499587 0.277735 P5+
0.794387 0.906720 0.275127 P5+
0.794387 0.406720 0.337548 P5+
0.598863 0.802939 0.334660 P5+
0.598863 0.302939 0.278014 P5+
0.408395 0.691689 0.276430 P5+
0.408395 0.191689 0.336244 P5+
0.208401 0.591751 0.337270 P5+
0.208401 0.091751 0.275404 P5+
0.334920 0.425433 0.275071 P5+
0.334920 0.925433 0.337604 P5+
0.134548 0.325562 0.335944 P5+
0.134548 0.825562 0.276730 P5+
0.943677 0.213545 0.277948 P5+
0.943677 0.713545 0.334726 P5+
0.747866 0.110144 0.337983 P5+
0.747866 0.610144 0.274692 P5+
0.541580 0.017155 0.278167 P5+
0.541580 0.517155 0.334507 P5+
0.000779 0.999587 0.425848 P5+
0.000779 0.499587 0.368644 P5+
0.794387 0.906720 0.366036 P5+
0.794387 0.406720 0.428457 P5+
0.598863 0.802939 0.425570 P5+
0.598863 0.302939 0.368923 P5+
0.408395 0.691689 0.367339 P5+
0.408395 0.191689 0.427153 P5+
0.208401 0.591751 0.428179 P5+
0.208401 0.091751 0.366314 P5+
0.334920 0.425433 0.365980 P5+
0.334920 0.925433 0.428513 P5+
0.134548 0.325562 0.426853 P5+
0.134548 0.825562 0.367639 P5+
0.943677 0.213545 0.368857 P5+
0.943677 0.713545 0.425635 P5+
0.747866 0.110144 0.428892 P5+
0.747866 0.610144 0.365601 P5+
0.541580 0.017155 0.369077 P5+
0.541580 0.517155 0.425416 P5+
0.000779 0.999587 0.516757 P5+
0.000779 0.499587 0.459553 P5+
0.794387 0.906720 0.456945 P5+
0.794387 0.406720 0.519366 P5+
0.598863 0.802939 0.516479 P5+
0.598863 0.302939 0.459832 P5+
0.408395 0.691689 0.458248 P5+
0.408395 0.191689 0.518062 P5+
0.208401 0.591751 0.519088 P5+
0.208401 0.091751 0.457223 P5+
0.334920 0.425433 0.456889 P5+
0.334920 0.925433 0.519422 P5+
0.134548 0.325562 0.517763 P5+
0.134548 0.825562 0.458548 P5+
0.943677 0.213545 0.459766 P5+
0.943677 0.713545 0.516544 P5+
0.747866 0.110144 0.519801 P5+
0.747866 0.610144 0.456510 P5+
0.541580 0.017155 0.459986 P5+
0.541580 0.517155 0.516325 P5+
0.000779 0.999587 0.607667 P5+
0.000779 0.499587 0.550462 P5+
0.794387 0.906720 0.547854 P5+
0.794387 0.406720 0.610275 P5+
0.598863 0.802939 0.607388 P5+
0.598863 0.302939 0.550741 P5+
0.408395 0.691689 0.549157 P5+
0.408395 0.191689 0.608971 P5+
0.208401 0.591751 0.609997 P5+
0.208401 0.091751 0.548132 P5+
0.334920 0.425433 0.547798 P5+
0.334920 0.925433 0.610331 P5+
0.134548 0.325562 0.608672 P5+
0.134548 0.825562 0.549457 P5+
0.943677 0.213545 0.550676 P5+
0.943677 0.713545 0.607453 P5+
0.747866 0.110144 0.610710 P5+
0.747866 0.610144 0.547419 P5+
0.541580 0.017155 0.550895 P5+
0.541580 0.517155 0.607234 P5+
0.870015 0.964587 0.072792 O2-
0.870015 0.464587 0.085337 O2-
0.659821 0.859372 0.083511 O2-
0.659821 0.359372 0.074618 O2-
0.481350 0.724144 0.071790 O2-
0.481350 0.224144 0.086339 O2-
0.293096 0.607741 0.085730 O2-
0.293096 0.107741 0.072399 O2-
0.080152 0.021852 0.084335 O2-
0.080152 0.521852 0.073794 O2-
0.250064 0.409378 0.072084 O2-
0.250064 0.909378 0.086045 O2-
0.063226 0.290596 0.086170 O2-
0.063226 0.790596 0.071959 O2-
0.883201 0.156445 0.074586 O2-
0.883201 0.656445 0.083543 O2-
0.674568 0.056520 0.086448 O2-
0.674568 0.556520 0.071681 O2-
0.463629 0.495673 0.084093 O2-
0.463629 0.995673 0.074036 O2-
0.029173 0.073889 0.049719 O2-
0.029173 0.573889 0.017500 O2-
0.005091 0.933926 0.050527 O2-
0.005091 0.433926 0.016693 O2-
0.795375 0.958651 0.020558 O2-
0.795375 0.458651 0.046662 O2-
0.828944 0.846743 0.006764 O2-
0.828944 0.346743 0.060456 O2-
0.560342 0.845353 0.047067 O2-
0.560342 0.345353 0.020153 O2-
0.677417 0.775410 0.053448 O2-
0.677417 0.275410 0.013772 O2-
0.369330 0.747295 0.010742 O2-
0.369330 0.247295 0.056478 O2-
0.472480 0.669352 0.019402 O2-
0.472480 0.169352 0.047818 O2-
0.209416 0.667159 0.059508 O2-
0.209416 0.167159 0.007712 O2-
0.238895 0.553292 0.046721 O2-
0.238895 0.053292 0.020499 O2-
0.302391 0.463335 0.019984 O2-
0.302391 0.963335 0.047236 O2-
0.334913 0.350606 0.007610 O2-
0.334913 0.850606 0.059610 O2-
0.068594 0.348215 0.048083 O2-
0.068594 0.848215 0.019137 O2-
0.175312 0.271458 0.055606 O2-
0.175312 0.771458 0.011614 O2-
0.864720 0.241625 0.013089 O2-
0.864720 0.741625 0.054131 O2-
0.980120 0.171199 0.020614 O2-
0.980120 0.671199 0.046605 O2-
0.713620 0.170027 0.060403 O2-
0.713620 0.670027 0.006816 O2-
0.742996 0.055640 0.047492 O2-
0.742996 0.555640 0.019728 O2-
0.532819 0.080441 0.017476 O2-
0.532819 0.580441 0.049744 O2-
0.515310 0.942366 0.017345 O2-
0.515310 0.442366 0.049875 O2-
0.870015 0.964587 0.163701 O2-
0.870015 0.464587 0.176246 O2-
0.659821 0.859372 0.174420 O2-
0.659821 0.359372 0.165527 O2-
0.481350 0.724144 0.162699 O2-
0.481350 0.224144 0.177248 O2-
0.293096 0.607741 0.176639 O2-
0.293096 0.107741 0.163308 O2-
0.080152 0.021852 0.175244 O2-
0.080152 0.521852 0.164703 O2-
0.250064 0.409378 0.162994 O2-
0.250064 0.909378 0.176954 O2-
0.063226 0.290596 0.177079 O2-
0.063226 0.790596 0.162868 O2-
0.883201 0.156445 0.165495 O2-
0.883201 0.656445 0.174452 O2-
0.674568 0.056520 0.177357 O2-
0.674568 0.556520 0.162591 O2-
0.463629 0.495673 0.175002 O2-
0.463629 0.995673 0.164945 O2-
0.029173 0.073889 0.140629 O2-
0.029173 0.573889 0.108410 O2-
0.005091 0.933926 0.141436 O2-
0.005091 0.433926 0.107603 O2-
0.795375 0.958651 0.111467 O2-
0.795375 0.458651 0.137571 O2-
0.828944 0.846743 0.097673 O2-
0.828944 0.346743 0.151365 O2-
0.560342 0.845353 0.137976 O2-
0.560342 0.345353 0.111062 O2-
0.677417 0.775410 0.144357 O2-
0.677417 0.275410 0.104681 O2-
0.369330 0.747295 0.101651 O2-
0.369330 0.247295 0.147387 O2-
0.472480 0.669352 0.110311 O2-
0.472480 0.169352 0.138727 O2-
0.209416 0.667159 0.150417 O2-
0.209416 0.167159 0.098621 O2-
0.238895 0.553292 0.137630 O2-
0.238895 0.053292 0.111408 O2-
0.302391 0.463335 0.110893 O2-
0.302391 0.963335 0.138145 O2-
0.334913 0.350606 0.098519 O2-
0.334913 0.850606 0.150519 O2-
0.068594 0.348215 0.138992 O2-
0.068594 0.848215 0.110046 O2-
0.175312 0.271458 0.146515 O2-
0.175312 0.771458 0.102523 O2-
0.864720 0.241625 0.103998 O2-
0.864720 0.741625 0.145040 O2-
0.980120 0.171199 0.111524 O2-
0.980120 0.671199 0.137515 O2-
0.713620 0.170027 0.151313 O2-
0.713620 0.670027 0.097726 O2-
0.742996 0.055640 0.138401 O2-
0.742996 0.555640 0.110637 O2-
0.532819 0.080441 0.108385 O2-
0.532819 0.580441 0.140653 O2-
0.515310 0.942366 0.108254 O2-
0.515310 0.442366 0.140784 O2-
0.870015 0.964587 0.254610 O2-
0.870015 0.464587 0.267155 O2-
0.659821 0.859372 0.265329 O2-
0.659821 0.359372 0.256436 O2-
0.481350 0.724144 0.253608 O2-
0.481350 0.224144 0.268157 O2-
0.293096 0.607741 0.267548 O2-
0.293096 0.107741 0.254217 O2-
0.080152 0.021852 0.266153 O2-
0.080152 0.521852 0.255612 O2-
0.250064 0.409378 0.253903 O2-
0.250064 0.909378 0.267863 O2-
0.063226 0.290596 0.267988 O2-
0.063226 0.790596 0.253777 O2-
0.883201 0.156445 0.256404 O2-
0.883201 0.656445 0.265361 O2-
0.674568 0.056520 0.268266 O2-
0.674568 0.556520 0.253500 O2-
0.463629 0.495673 0.265911 O2-
0.463629 0.995673 0.255855 O2-
0.029173 0.073889 0.231538 O2-
0.029173 0.573889 0.199319 O2-
0.005091 0.933926 0.232345 O2-
0.005091 0.433926 0.198512 O2-
0.795375 0.958651 0.202376 O2-
0.795375 0.458651 0.228480 O2-
0.828944 0.846743 0.188582 O2-
0.828944 0.346743 0.242274 O2-
0.560342 0.845353 0.228885 O2-
0.560342 0.345353 0.201971 O2-
0.677417 0.775410 0.235266 O2-
0.677417 0.275410 0.195590 O2-
0.369330 0.747295 0.192560 O2-
0.369330 0.247295 0.238296 O2-
0.472480 0.669352 0.201220 O2-
0.472480 0.169352 0.229636 O2-
0.209416 0.667159 0.241326 O2-
0.209416 0.167159 0.189530 O2-
0.238895 0.553292 0.228539 O2-
0.238895 0.053292 0.202317 O2-
0.302391 0.463335 0.201802 O2-
0.302391 0.963335 0.229054 O2-
0.334913 0.350606 0.189428 O2-
0.334913 0.850606 0.241428 O2-
0.068594 0.348215 0.229902 O2-
0.068594 0.848215 0.200955 O2-
0.175312 0.271458 0.237424 O2-
0.175312 0.771458 0.193432 O2-
0.864720 0.241625 0.194907 O2-
0.864720 0.741625 0.235949 O2-
0.980120 0.171199 0.202433 O2-
0.980120 0.671199 0.228424 O2-
0.713620 0.170027 0.242222 O2-
0.713620 0.670027 0.188635 O2-
0.742996 0.055640 0.229310 O2-
0.742996 0.555640 0.201546 O2-
0.532819 0.080441 0.199294 O2-
0.532819 0.580441 0.231562 O2-
0.515310 0.942366 0.199163 O2-
0.515310 0.442366 0.231693 O2-
0.870015 0.964587 0.345519 O2-
0.870015 0.464587 0.358064 O2-
0.659821 0.859372 0.356238 O2-
0.659821 0.359372 0.347345 O2-
0.481350 0.724144 0.344517 O2-
0.481350 0.224144 0.359066 O2-
0.293096 0.607741 0.358457 O2-
0.293096 0.107741 0.345126 O2-
0.080152 0.021852 0.357062 O2-
0.080152 0.521852 0.346521 O2-
0.250064 0.409378 0.344812 O2-
0.250064 0.909378 0.358772 O2-
0.063226 0.290596 0.358897 O2-
0.063226 0.790596 0.344686 O2-
0.883201 0.156445 0.347313 O2-
0.883201 0.656445 0.356270 O2-
0.674568 0.056520 0.359175 O2-
0.674568 0.556520 0.344409 O2-
0.463629 0.495673 0.356820 O2-
0.463629 0.995673 0.346764 O2-
0.029173 0.073889 0.322447 O2-
0.029173 0.573889 0.290228 O2-
0.005091 0.933926 0.323254 O2-
0.005091 0.433926 0.289421 O2-
0.795375 0.958651 0.293285 O2-
0.795375 0.458651 0.319390 O2-
0.828944 0.846743 0.279491 O2-
0.828944 0.346743 0.333183 O2-
0.560342 0.845353 0.319794 O2-
0.560342 0.345353 0.292880 O2-
0.677417 0.775410 0.326175 O2-
0.677417 0.275410 0.286499 O2-
0.369330 0.747295 0.283469 O2-
0.369330 0.247295 0.329205 O2-
0.472480 0.669352 0.292129 O2-
0.472480 0.169352 0.320545 O2-
0.209416 0.667159 0.332235 O2-
0.209416 0.167159 0.280439 O2-
0.238895 0.553292 0.319448 O2-
0.238895 0.053292 0.293226 O2-
0.302391 0.463335 0.292711 O2-
0.302391 0.963335 0.319964 O2-
0.334913 0.350606 0.280338 O2-
0.334913 0.850606 0.332337 O2-
0.068594 0.348215 0.320811 O2-
0.068594 0.848215 0.291864 O2-
0.175312 0.271458 0.328333 O2-
0.175312 0.771458 0.284341 O2-
0.864720 0.241625 0.285816 O2-
0.864720 0.741625 0.326858 O2-
0.980120 0.171199 0.293342 O2-
0.980120 0.671199 0.319333 O2-
0.713620 0.170027 0.333131 O2-
0.713620 0.670027 0.279544 O2-
0.742996 0.055640 0.320219 O2-
0.742996 0.555640 0.292455 O2-
0.532819 0.080441 0.290204 O2-
0.532819 0.580441 0.322471 O2-
0.515310 0.942366 0.290072 O2-
0.515310 0.442366 0.322602 O2-
0.870015 0.964587 0.436428 O2-
0.870015 0.464587 0.448974 O2-
0.659821 0.859372 0.447148 O2-
0.659821 0.359372 0.438254 O2-
0.481350 0.724144 0.435426 O2-
0.481350 0.224144 0.449975 O2-
0.293096 0.607741 0.449366 O2-
0.293096 0.107741 0.436036 O2-
0.080152 0.021852 0.447972 O2-
0.080152 0.521852 0.437430 O2-
0.250064 0.409378 0.435721 O2-
0.250064 0.909378 0.449681 O2-
0.063226 0.290596 0.449806 O2-
0.063226 0.790596 0.435596 O2-
0.883201 0.156445 0.438222 O2-
0.883201 0.656445 0.447180 O2-
0.674568 0.056520 0.450084 O2-
0.674568 0.556520 0.435318 O2-
0.463629 0.495673 0.447729 O2-
0.463629 0.995673 0.437673 O2-
0.029173 0.073889 0.413356 O2-
0.029173 0.573889 0.381137 O2-
0.005091 0.933926 0.414163 O2-
0.005091 0.433926 0.380330 O2-
0.795375 0.958651 0.384194 O2-
0.795375 0.458651 0.410299 O2-
0.828944 0.846743 0.370400 O2-
0.828944 0.346743 0.424092 O2-
0.560342 0.845353 0.410703 O2-
0.560342 0.345353 0.383789 O2-
0.677417 0.775410 0.417084 O2-
0.677417 0.275410 0.377408 O2-
0.369330 0.747295 0.374379 O2-
0.369330 0.247295 0.420114 O2-
0.472480 0.669352 0.383038 O2-
0.472480 0.169352 0.411455 O2-
0.209416 0.667159 0.423144 O2-
0.209416 0.167159 0.371348 O2-
0.238895 0.553292 0.410357 O2-
0.238895 0.053292 0.384135 O2-
0.302391 0.463335 0.383620 O2-
0.302391 0.963335 0.410873 O2-
0.334913 0.350606 0.371247 O2-
0.334913 0.850606 0.423246 O2-
0.068594 0.348215 0.411720 O2-
0.068594 0.848215 0.382773 O2-
0.175312 0.271458 0.419242 O2-
0.175312 0.771458 0.375250 O2-
0.864720 0.241625 0.376725 O2-
0.864720 0.741625 0.417768 O2-
0.980120 0.171199 0.384251 O2-
0.980120 0.671199 0.410242 O2-
0.713620 0.170027 0.424040 O2-
0.713620 0.670027 0.370453 O2-
0.742996 0.055640 0.411129 O2-
0.742996 0.555640 0.383364 O2-
0.532819 0.080441 0.381113 O2-
0.532819 0.580441 0.413380 O2-
0.515310 0.942366 0.380981 O2-
0.515310 0.442366 0.413511 O2-
0.870015 0.964587 0.527337 O2-
0.870015 0.464587 0.539883 O2-
0.659821 0.859372 0.538057 O2-
0.659821 0.359372 0.529163 O2-
0.481350 0.724144 0.526336 O2-
0.481350 0.224144 0.540884 O2-
0.293096 0.607741 0.540275 O2-
0.293096 0.107741 0.526945 O2-
0.080152 0.021852 0.538881 O2-
0.080152 0.521852 0.528339 O2-
0.250064 0.409378 0.526630 O2-
0.250064 0.909378 0.540590 O2-
0.063226 0.290596 0.540715 O2-
0.063226 0.790596 0.526505 O2-
0.883201 0.156445 0.529131 O2-
0.883201 0.656445 0.538089 O2-
0.674568 0.056520 0.540993 O2-
0.674568 0.556520 0.526227 O2-
0.463629 0.495673 0.538638 O2-
0.463629 0.995673 0.528582 O2-
0.029173 0.073889 0.504265 O2-
0.029173 0.573889 0.472046 O2-
0.005091 0.933926 0.505072 O2-
0.005091 0.433926 0.471239 O2-
0.795375 0.958651 0.475103 O2-
0.795375 0.458651 0.501208 O2-
0.828944 0.846743 0.461309 O2-
0.828944 0.346743 0.515001 O2-
0.560342 0.845353 0.501612 O2-
0.560342 0.345353 0.474698 O2-
0.677417 0.775410 0.507993 O2-
0.677417 0.275410 0.468317 O2-
0.369330 0.747295 0.465288 O2-
0.369330 0.247295 0.511023 O2-
0.472480 0.669352 0.473947 O2-
0.472480 0.169352 0.502364 O2-
0.209416 0.667159 0.514053 O2-
0.209416 0.167159 0.462257 O2-
0.238895 0.553292 0.501267 O2-
0.238895 0.053292 0.475044 O2-
0.302391 0.463335 0.474529 O2-
0.302391 0.963335 0.501782 O2-
0.334913 0.350606 0.462156 O2-
0.334913 0.850606 0.514155 O2-
0.068594 0.348215 0.502629 O2-
0.068594 0.848215 0.473682 O2-
0.175312 0.271458 0.510151 O2-
0.175312 0.771458 0.466159 O2-
0.864720 0.241625 0.467634 O2-
0.864720 0.741625 0.508677 O2-
0.980120 0.171199 0.475160 O2-
0.980120 0.671199 0.501151 O2-
0.713620 0.170027 0.514949 O2-
0.713620 0.670027 0.461362 O2-
0.742996 0.055640 0.502038 O2-
0.742996 0.555640 0.474273 O2-
0.532819 0.080441 0.472022 O2-
0.532819 0.580441 0.504289 O2-
0.515310 0.942366 0.471890 O2-
0.515310 0.442366 0.504420 O2-
0.870015 0.964587 0.618246 O2-
0.870015 0.464587 0.630792 O2-
0.659821 0.859372 0.628966 O2-
0.659821 0.359372 0.620072 O2-
0.481350 0.724144 0.617245 O2-
0.481350 0.224144 0.631793 O2-
0.293096 0.607741 0.631184 O2-
0.293096 0.107741 0.617854 O2-
0.080152 0.021852 0.629790 O2-
0.080152 0.521852 0.619248 O2-
0.250064 0.409378 0.617539 O2-
0.250064 0.909378 0.631499 O2-
0.063226 0.290596 0.631624 O2-
0.063226 0.790596 0.617414 O2-
0.883201 0.156445 0.620040 O2-
0.883201 0.656445 0.628998 O2-
0.674568 0.056520 0.631902 O2-
0.674568 0.556520 0.617136 O2-
0.463629 0.495673 0.629547 O2-
0.463629 0.995673 0.619491 O2-
0.029173 0.073889 0.595174 O2-
0.029173 0.573889 0.562955 O2-
0.005091 0.933926 0.595981 O2-
0.005091 0.433926 0.562148 O2-
0.795375 0.958651 0.566012 O2-
0.795375 0.458651 0.592117 O2-
0.828944 0.846743 0.552219 O2-
0.828944 0.346743 0.605910 O2-
0.560342 0.845353 0.592521 O2-
0.560342 0.345353 0.565608 O2-
0.677417 0.775410 0.598903 O2-
0.677417 0.275410 0.559226 O2-
0.369330 0.747295 0.556197 O2-
0.369330 0.247295 0.601932 O2-
0.472480 0.669352 0.564856 O2-
0.472480 0.169352 0.593273 O2-
0.209416 0.667159 0.604963 O2-
0.209416 0.167159 0.553166 O2-
0.238895 0.553292 0.592176 O2-
0.238895 0.053292 0.565953 O2-
0.302391 0.463335 0.565438 O2-
0.302391 0.963335 0.592691 O2-
0.334913 0.350606 0.553065 O2-
0.334913 0.850606 0.605064 O2-
0.068594 0.348215 0.593538 O2-
0.068594 0.848215 0.564591 O2-
0.175312 0.271458 0.601060 O2-
0.175312 0.771458 0.557068 O2-
0.864720 0.241625 0.558543 O2-
0.864720 0.741625 0.599586 O2-
0.980120 0.171199 0.566069 O2-
0.980120 0.671199 0.592060 O2-
0.713620 0.170027 0.605858 O2-
0.713620 0.670027 0.552271 O2-
0.742996 0.055640 0.592947 O2-
0.742996 0.555640 0.565182 O2-
0.532819 0.080441 0.562931 O2-
0.532819 0.580441 0.595198 O2-
0.515310 0.942366 0.562800 O2-
0.515310 0.442366 0.595329 O2-
