Li28 P14 N14 O28
1.0
5.326139 0.000000 0.213140
2.513782 6.660749 0.530285
0.000000 0.000000 43.506175
Li P N O
28 14 14 28
Selective dynamics
direct
0.965087 0.741845 0.990431 T T T Li
0.142124 0.433234 0.938996 T T T Li
0.781410 0.849663 0.925068 F F F Li
0.604372 0.158274 0.976503 T T T Li
0.734317 0.280307 0.913508 F F F Li
0.911355 0.971696 0.862073 F F F Li
0.550640 0.388125 0.848144 F F F Li
0.373603 0.696736 0.899580 F F F Li
0.503548 0.818768 0.836585 F F F Li
0.680586 0.510158 0.785150 F F F Li
0.319871 0.926586 0.771221 F F F Li
0.142834 0.235197 0.822657 F F F Li
0.272779 0.357230 0.759662 F F F Li
0.449817 0.048619 0.708227 F F F Li
0.089102 0.465048 0.694298 F F F Li
0.912064 0.773659 0.745733 F F F Li
0.042010 0.895692 0.682739 F F F Li
0.219047 0.587081 0.631304 F F F Li
0.858333 0.003509 0.617375 F F F Li
0.681295 0.312120 0.668810 F F F Li
0.811241 0.434153 0.605816 F F F Li
0.988278 0.125542 0.554381 F F F Li
0.627563 0.541971 0.540452 F F F Li
0.450526 0.850582 0.591887 F F F Li
0.580471 0.972615 0.528893 F F F Li
0.757509 0.664004 0.477458 T T T Li
0.396794 0.080432 0.463529 T T T Li
0.219757 0.389043 0.514964 T T T Li
0.549912 0.588538 0.965387 T T T P
0.197989 0.999692 0.950580 T T T P
0.319143 0.126999 0.888464 F F F P
0.967220 0.538153 0.873657 F F F P
0.088374 0.665461 0.811541 F F F P
0.736451 0.076615 0.796734 F F F P
0.857605 0.203922 0.734618 F F F P
0.505682 0.615076 0.719811 F F F P
0.626835 0.742384 0.657695 F F F P
0.274912 0.153538 0.642887 F F F P
0.396066 0.280845 0.580772 F F F P
0.044143 0.691999 0.565964 F F F P
0.165297 0.819307 0.503849 T T T P
0.813374 0.230461 0.489041 T T T P
0.381028 0.626934 0.998009 T T T N
0.439490 0.791857 0.942163 T T T N
0.150259 0.165396 0.921086 F F F N
0.208720 0.330319 0.865240 F F F N
0.919490 0.703857 0.844163 F F F N
0.977951 0.868780 0.788317 F F F N
0.688720 0.242319 0.767240 F F F N
0.747182 0.407242 0.711394 F F F N
0.457951 0.780780 0.690317 F F F N
0.516413 0.945704 0.634471 F F F N
0.227182 0.319242 0.613394 F F F N
0.285644 0.484165 0.557548 F F F N
0.996413 0.857704 0.536471 F F F N
0.054874 0.022627 0.480625 T T T N
0.513795 0.411588 0.949131 T T T O
0.856065 0.539939 0.970523 T T T O
0.270757 0.091123 0.979053 T T T O
0.928488 0.962772 0.957662 F F F O
0.283026 0.950049 0.872208 F F F O
0.625296 0.078400 0.893600 F F F O
0.039988 0.629585 0.902130 F F F O
0.697718 0.501234 0.880738 F F F O
0.052257 0.488511 0.795285 F F F O
0.394526 0.616862 0.816676 F F F O
0.809219 0.168046 0.825207 F F F O
0.466949 0.039695 0.803815 F F F O
0.821488 0.026972 0.718362 F F F O
0.163757 0.155323 0.739753 F F F O
0.578449 0.706508 0.748284 F F F O
0.236180 0.578157 0.726892 F F F O
0.590718 0.565434 0.641438 F F F O
0.932988 0.693785 0.662830 F F F O
0.347680 0.244969 0.671361 F F F O
0.005411 0.116618 0.649969 F F F O
0.359949 0.103895 0.564515 F F F O
0.702219 0.232246 0.585907 F F F O
0.116911 0.783431 0.594438 F F F O
0.774641 0.655080 0.573046 F F F O
0.129180 0.642357 0.487592 T T T O
0.471449 0.770708 0.508984 T T T O
0.886142 0.321893 0.517515 T T T O
0.543872 0.193541 0.496123 T T T O
