P2 N2 O2
1.0
-2.216824 2.367457 3.451371
2.262065 -2.415772 3.521807
2.262065 2.415772 -3.521807
P N O
2 2 2
direct
0.889517 0.139517 0.750000 P
0.610483 0.360483 0.250000 P
0.250000 0.109231 0.859231 N
0.750000 0.390769 0.640769 N
0.627000 0.750000 0.377000 O
0.873000 0.250000 0.123000 O
