Li71 P24 N1 O94                         
   1.00000000000000     
    14.7550777530740227    0.0027627416096830    0.0062517703661588
     0.0019817495266555   10.5761398646561258   -0.0050528773623518
     0.0052293686905083   -0.0058925223892050   12.3228883844992758
   Li   P    N    O 
    71    24     1    94
Direct
  0.1694099599302797  0.4220301482558619  0.0010360142644813
  0.1697842292033301  0.4222483921223822  0.4995175600896517
  0.1683268184489865  0.9200327759061050  0.0014391771891274
  0.1696856059321904  0.9224703561182024  0.4993682360212324
  0.5032873434542252  0.4226851547878426  0.0000978303244644
  0.5031119411521342  0.4224414906940068  0.4999101342649732
  0.5041654460116212  0.9219716554570639  0.0001107764702375
  0.5031135492579603  0.9224374366117578  0.4998999391981825
  0.8366816161401511  0.4223082638491162  0.0002277960636341
  0.8365821971990947  0.4223138589086938  0.4997919142673971
  0.8366845432892077  0.9225503297273070  0.0001166339741089
  0.8366027792850335  0.9224430156570653  0.4998794740838070
  0.0042153512187752  0.0784943119804060  0.2491773062746305
  0.0028949571683793  0.0777907242644981  0.7499449661335912
  0.0028105805632438  0.5781105593871044  0.2493389144605357
  0.0030419918507207  0.5776442677294685  0.7500359244475708
  0.3349882788161535  0.0776432026339973  0.2506036685685123
  0.3365713894889687  0.0773584936536822  0.7488204563000160
  0.3361143947300415  0.5775363872159442  0.2501660234875967
  0.3364670553489267  0.5776093325620340  0.7498535551727492
  0.6700248732465144  0.0775910473435554  0.2500727994814153
  0.6700118001678818  0.0776204103388835  0.7499275330966046
  0.6699798889964503  0.5775136310318562  0.2500320290593375
  0.6699333235710453  0.5775896603094581  0.7499681281284376
  0.1692831956118033  0.1633831665663281  0.6258151771201115
  0.1692186157635941  0.6628447434841782  0.1268260840208811
  0.1693834380961430  0.6630194214710999  0.6261216004146242
  0.5037055605835149  0.1633616436475409  0.1268016739962367
  0.5028688954752253  0.1632287553514498  0.6261262237766653
  0.5028849956564942  0.6630430565716877  0.1264734044856556
  0.5028291663815126  0.6630944576674260  0.6262384943425855
  0.8366895708560289  0.1632741626139255  0.1264284147231179
  0.8362564406837977  0.1631648530454582  0.6262764631197369
  0.8363440065206055  0.6631045627265765  0.1265154314801692
  0.8362160289266172  0.6631568890234095  0.6263250965559968
  0.0025453935334273  0.3351747763642249  0.1230364463031201
  0.0027540759357308  0.3367071350426860  0.6234333565929910
  0.0029138944382793  0.8369840348073638  0.1239146737154645
  0.0027121094015066  0.8368025516116382  0.6233428762196729
  0.3352836382165770  0.3373474684674469  0.1242173979984684
  0.3361162041030133  0.3368947636641358  0.6233173502650983
  0.3357647928322582  0.8360678747515632  0.1246822612415516
  0.3361687545878994  0.8367023343150416  0.6232847367336803
  0.6697321742755106  0.3369200986162823  0.1237439402494832
  0.6696129541238860  0.3368485246956829  0.6235517530330562
  0.6696953960482800  0.8367820154490231  0.1237211673902107
  0.6696321697140457  0.8368067957865430  0.6235463041879803
  0.0023454527387516  0.3354082388776288  0.3763865046968782
  0.0027139092553947  0.3367983293246897  0.8767568272699089
  0.0029677982879488  0.8369768572784000  0.3760996125093578
  0.0026097644395077  0.8367300956003265  0.8766349078485279
  0.3357653385097795  0.3367974522068822  0.3762959360763353
  0.3361007035421508  0.3381825149496010  0.8761659170311938
  0.3357824507065734  0.8368711789122117  0.3763016401311999
  0.3362046259139335  0.8358244423444346  0.8757357634953004
  0.6696570193990337  0.3368692875932235  0.3763095252452587
  0.6696870455339468  0.3368998231975374  0.8763961487911773
  0.6696306426693581  0.8368183630661259  0.3763437341541934
  0.6696961401607390  0.8367711100821021  0.8763893592126468
  0.1692309945663094  0.1632322445764329  0.3718583876964964
  0.1680714668360781  0.1649832515340320  0.8723233551907696
  0.1694785966678810  0.6632448772158381  0.3732913566105964
  0.1692453575357952  0.6627736888802537  0.8738029552128590
  0.5027851724273806  0.1632332647317540  0.3737395821893455
  0.5039068579084263  0.1633758075954885  0.8732970058466869
  0.5027908586100505  0.6631257168247321  0.3736522837432217
  0.5029222050236979  0.6630118284448876  0.8736358504462118
  0.8363988979863786  0.1632899901825650  0.3734805135306510
  0.8363273609562011  0.1631151851435085  0.8738100100886741
  0.8362810758212658  0.6631201941838341  0.3734601693108918
  0.8362570722614922  0.6631428046512376  0.8736992047210247
  0.1737460872807058  0.4093088788198816  0.2477760334945637
  0.1664780182552895  0.4125913027390647  0.7489536581841693
  0.1674145405213676  0.9196035926117986  0.2509074672392987
  0.1658278510699364  0.9106404352395442  0.7481963303520522
  0.5003240339138278  0.4124704348545629  0.2505654806983073
  0.5007913695031233  0.4124844931629069  0.7494052006230073
  0.5004520852801632  0.9118259338073031  0.2506760275969500
  0.5011309570098467  0.9116891104838702  0.7493115867856452
  0.8350374919734149  0.4119038770573001  0.2498137098717455
  0.8340952232136890  0.4120213743590102  0.7500459677756869
  0.8344912250560982  0.9126620290900405  0.2499581400421913
  0.8341005213073772  0.9121671510457777  0.7500259067769709
  0.0013271496209803  0.0918305465489859  0.0067397021078688
  0.0008115555125625  0.0884637797252574  0.4983797843970994
  0.0006654637170116  0.5874356633948733  0.0012008331355025
  0.0004263881239731  0.5879905893310333  0.4993285197958752
  0.3389368954230705  0.0885026740234841  0.0023945203291976
  0.3331710081997470  0.0878358447794291  0.4989735705106003
  0.3331161701767959  0.5878308830626507  0.0005938121573542
  0.3334477569462607  0.5877249867767216  0.4994096916367857
  0.6684730054546465  0.0879414080578561  0.0002494860454027
  0.6675097717664022  0.0879332536558880  0.4997483508544032
  0.6676310777055132  0.5878409688932050  0.0002340230543969
  0.6674370934140482  0.5878069212605513  0.4997672299804292
  0.0547934042176334  0.4092042715375474  0.2498319211838245
  0.0353139729191929  0.1562912700689607  0.3976611955265224
  0.0370282043008500  0.1566632533535767  0.8942546984362182
  0.0356728062141756  0.6567095506851621  0.3966694722671452
  0.0359701547048173  0.6572671098054078  0.8956295356417877
  0.3694241063253209  0.1568434309470603  0.3965854736930336
  0.3669819971817063  0.1571323788280950  0.8957523070324819
  0.3692832411127829  0.6568923948167457  0.3964250794560468
  0.3692050912616922  0.6573241156103899  0.8960103701419982
  0.7021918250577213  0.1568030759081565  0.3963803939198434
  0.7019981260227210  0.1568218050203699  0.8962783742648646
  0.7022447163929071  0.6569095432155627  0.3963756635362881
  0.7022433740840830  0.6569644350647466  0.8961598012137880
  0.2015469664589398  0.0478780839070965  0.2506383783334346
  0.2014242293229654  0.0529750214986474  0.7518190931213654
  0.2028539263976643  0.5547551627030246  0.2508986481365143
  0.2009469340657322  0.5518824738472181  0.7502591430049085
  0.5339538817762578  0.0522865172039008  0.2496702513307332
  0.5337583912582093  0.0522382887077730  0.7503518213102656
  0.5341014062762629  0.5520127428300642  0.2498754472850654
  0.5339810793422659  0.5518985674176279  0.7501280319108712
  0.8669776449320368  0.0516210020296210  0.2501246711072224
  0.8673918901493671  0.0519812139003303  0.7499702480744262
  0.8669381602043009  0.5524105917594475  0.2500883797984051
  0.8674042381956498  0.5520854971586890  0.7499789427065395
  0.0618575680166147  0.4091504622868218  0.7501350322154181
  0.0609937476292679  0.9077384412988225  0.2500044934854369
  0.0622165451431636  0.9093857657361052  0.7502295841963879
  0.3950769913041881  0.4090568704548858  0.2497526671387404
  0.3945821367130526  0.4089219407553194  0.7503001872170981
  0.3950779712814353  0.9093290256515322  0.2494885807152003
  0.3943657390469540  0.9095598298935100  0.7505439079622427
  0.7274794214176488  0.4092335104483931  0.2500039766388689
  0.7278341392608622  0.4092221919997364  0.7500208691424799
  0.7276145071064694  0.9091344599688697  0.2499669244622189
  0.7278040681498735  0.9092329043073716  0.7500325189915192
  0.2285076633017152  0.0907271054111112  0.5007562884556531
  0.2285935616247077  0.5910032946006831 -0.0004451008462995
  0.2283054943016272  0.5908415099377337  0.5003678656445524
  0.5602052713535326  0.0907668114581297 -0.0001210432115609
  0.5612132762518420  0.0907476174258906  0.5001039467720180
  0.5610931990977430  0.5908082869985888 -0.0000878504253510
  0.5612455533164128  0.5908085055602642  0.5000874927876683
  0.8936634595827421  0.0899543068677770 -0.0013728746279606
  0.8944529929792896  0.0906399825996889  0.5003641668012140
  0.8945511498897614  0.5908919130574050 -0.0002742246562604
  0.8947071103087662  0.5908047719703737  0.5002147217846076
  0.2023075665605526  0.3459751420530083  0.1464125908360328
  0.2025522038408284  0.3430252090320001  0.6467388358672392
  0.2031501392784482  0.8421659136934394  0.1438427912273297
  0.2025159656597417  0.8435998641646896  0.6471384977295863
  0.5355828600559058  0.3426349217145482  0.1458059764665374
  0.5356132642179406  0.3430922484991243  0.6465354862183423
  0.5355712015569477  0.8432186002322856  0.1457693302845623
  0.5355235439985340  0.8433274058136586  0.6466645284843747
  0.8683730488917999  0.3432792637202896  0.1461372951686289
  0.8690063512895521  0.3431500866196095  0.6463234939052787
  0.8688340964555012  0.8429971613721452  0.1461639599813933
  0.8690169469081075  0.8430907229045086  0.6463378021732715
  0.0336390010673387  0.1551721958282933  0.1004598991274797
  0.0359261140823143  0.1569771530795256  0.6045637014568587
  0.0356202876224359  0.6573334656179732  0.1030155452700707
  0.0358728589618265  0.6570264163145072  0.6041456911336354
  0.3672490060487945  0.1561571945131159  0.1019853964651087
  0.3692427781960705  0.1570316039792770  0.6045131036080379
  0.3692781571808972  0.6570893654047414  0.1034003987116057
  0.3691898137647033  0.6571055920326108  0.6041726768687777
  0.7019193215649904  0.1567059717602211  0.1034352411823913
  0.7022697197678126  0.1569065390990024  0.6038996108114598
  0.7021763080944892  0.6569038633595675  0.1035764616032979
  0.7023113138115460  0.6569685199535467  0.6038886381634129
  0.0340731861195485  0.4483662060341329 -0.0006353835356820
  0.0341969957078605  0.4479999246918845  0.5001557264101056
  0.0351204224521297  0.9465038814788168 -0.0013714292356257
  0.0341200662523578  0.9475710998499713  0.5005314216857569
  0.3676747942948183  0.4474506452544530 -0.0002709975118477
  0.3676355177323005  0.4479545219758464  0.5002315337820996
  0.3655648439338682  0.9477594804110189 -0.0003193294984654
  0.3676682457331591  0.9478296790673073  0.5002993180850118
  0.7005489124200186  0.4480058859895631 -0.0001187948708048
  0.7006377160333963  0.4480187094395865  0.5001164995379817
  0.7003602059159726  0.9481217313790742 -0.0000930046612043
  0.7006351937384833  0.9479485304364433  0.5000958121381855
  0.2042491480790850  0.3436412502210807  0.3559643961143154
  0.2029820870586830  0.3417028128671605  0.8544878613184697
  0.2026422342187953  0.8411236748849266  0.3546062813156766
  0.2030051540728132  0.8443633079097667  0.8549971300282356
  0.5357304695712241  0.3430571597592909  0.3536344983256556
  0.5354532945576961  0.3426354944261137  0.8540543688731327
  0.5356974124228112  0.8432278935438949  0.3535525298793473
  0.5353977216948070  0.8433199172345235  0.8540175877209776
  0.8684977260714654  0.3431446413609922  0.3540916995433450
  0.8689669483493752  0.3431434265746421  0.8535992068386949
  0.8688749960475838  0.8429861657034972  0.3538764745381718
  0.8690015689508628  0.8430775597643934  0.8536384640724722
 
  0.00000000E+00  0.00000000E+00  0.00000000E+00
  0.00000000E+00  0.00000000E+00  0.00000000E+00
  0.00000000E+00  0.00000000E+00  0.00000000E+00
  0.00000000E+00  0.00000000E+00  0.00000000E+00
  0.00000000E+00  0.00000000E+00  0.00000000E+00
  0.00000000E+00  0.00000000E+00  0.00000000E+00
  0.00000000E+00  0.00000000E+00  0.00000000E+00
  0.00000000E+00  0.00000000E+00  0.00000000E+00
  0.00000000E+00  0.00000000E+00  0.00000000E+00
  0.00000000E+00  0.00000000E+00  0.00000000E+00
  0.00000000E+00  0.00000000E+00  0.00000000E+00
  0.00000000E+00  0.00000000E+00  0.00000000E+00
  0.00000000E+00  0.00000000E+00  0.00000000E+00
  0.00000000E+00  0.00000000E+00  0.00000000E+00
  0.00000000E+00  0.00000000E+00  0.00000000E+00
  0.00000000E+00  0.00000000E+00  0.00000000E+00
  0.00000000E+00  0.00000000E+00  0.00000000E+00
  0.00000000E+00  0.00000000E+00  0.00000000E+00
  0.00000000E+00  0.00000000E+00  0.00000000E+00
  0.00000000E+00  0.00000000E+00  0.00000000E+00
  0.00000000E+00  0.00000000E+00  0.00000000E+00
  0.00000000E+00  0.00000000E+00  0.00000000E+00
  0.00000000E+00  0.00000000E+00  0.00000000E+00
  0.00000000E+00  0.00000000E+00  0.00000000E+00
  0.00000000E+00  0.00000000E+00  0.00000000E+00
  0.00000000E+00  0.00000000E+00  0.00000000E+00
  0.00000000E+00  0.00000000E+00  0.00000000E+00
  0.00000000E+00  0.00000000E+00  0.00000000E+00
  0.00000000E+00  0.00000000E+00  0.00000000E+00
  0.00000000E+00  0.00000000E+00  0.00000000E+00
  0.00000000E+00  0.00000000E+00  0.00000000E+00
  0.00000000E+00  0.00000000E+00  0.00000000E+00
  0.00000000E+00  0.00000000E+00  0.00000000E+00
  0.00000000E+00  0.00000000E+00  0.00000000E+00
  0.00000000E+00  0.00000000E+00  0.00000000E+00
  0.00000000E+00  0.00000000E+00  0.00000000E+00
  0.00000000E+00  0.00000000E+00  0.00000000E+00
  0.00000000E+00  0.00000000E+00  0.00000000E+00
  0.00000000E+00  0.00000000E+00  0.00000000E+00
  0.00000000E+00  0.00000000E+00  0.00000000E+00
  0.00000000E+00  0.00000000E+00  0.00000000E+00
  0.00000000E+00  0.00000000E+00  0.00000000E+00
  0.00000000E+00  0.00000000E+00  0.00000000E+00
  0.00000000E+00  0.00000000E+00  0.00000000E+00
  0.00000000E+00  0.00000000E+00  0.00000000E+00
  0.00000000E+00  0.00000000E+00  0.00000000E+00
  0.00000000E+00  0.00000000E+00  0.00000000E+00
  0.00000000E+00  0.00000000E+00  0.00000000E+00
  0.00000000E+00  0.00000000E+00  0.00000000E+00
  0.00000000E+00  0.00000000E+00  0.00000000E+00
  0.00000000E+00  0.00000000E+00  0.00000000E+00
  0.00000000E+00  0.00000000E+00  0.00000000E+00
  0.00000000E+00  0.00000000E+00  0.00000000E+00
  0.00000000E+00  0.00000000E+00  0.00000000E+00
  0.00000000E+00  0.00000000E+00  0.00000000E+00
  0.00000000E+00  0.00000000E+00  0.00000000E+00
  0.00000000E+00  0.00000000E+00  0.00000000E+00
  0.00000000E+00  0.00000000E+00  0.00000000E+00
  0.00000000E+00  0.00000000E+00  0.00000000E+00
  0.00000000E+00  0.00000000E+00  0.00000000E+00
  0.00000000E+00  0.00000000E+00  0.00000000E+00
  0.00000000E+00  0.00000000E+00  0.00000000E+00
  0.00000000E+00  0.00000000E+00  0.00000000E+00
  0.00000000E+00  0.00000000E+00  0.00000000E+00
  0.00000000E+00  0.00000000E+00  0.00000000E+00
  0.00000000E+00  0.00000000E+00  0.00000000E+00
  0.00000000E+00  0.00000000E+00  0.00000000E+00
  0.00000000E+00  0.00000000E+00  0.00000000E+00
  0.00000000E+00  0.00000000E+00  0.00000000E+00
  0.00000000E+00  0.00000000E+00  0.00000000E+00
  0.00000000E+00  0.00000000E+00  0.00000000E+00
  0.00000000E+00  0.00000000E+00  0.00000000E+00
  0.00000000E+00  0.00000000E+00  0.00000000E+00
  0.00000000E+00  0.00000000E+00  0.00000000E+00
  0.00000000E+00  0.00000000E+00  0.00000000E+00
  0.00000000E+00  0.00000000E+00  0.00000000E+00
  0.00000000E+00  0.00000000E+00  0.00000000E+00
  0.00000000E+00  0.00000000E+00  0.00000000E+00
  0.00000000E+00  0.00000000E+00  0.00000000E+00
  0.00000000E+00  0.00000000E+00  0.00000000E+00
  0.00000000E+00  0.00000000E+00  0.00000000E+00
  0.00000000E+00  0.00000000E+00  0.00000000E+00
  0.00000000E+00  0.00000000E+00  0.00000000E+00
  0.00000000E+00  0.00000000E+00  0.00000000E+00
  0.00000000E+00  0.00000000E+00  0.00000000E+00
  0.00000000E+00  0.00000000E+00  0.00000000E+00
  0.00000000E+00  0.00000000E+00  0.00000000E+00
  0.00000000E+00  0.00000000E+00  0.00000000E+00
  0.00000000E+00  0.00000000E+00  0.00000000E+00
  0.00000000E+00  0.00000000E+00  0.00000000E+00
  0.00000000E+00  0.00000000E+00  0.00000000E+00
  0.00000000E+00  0.00000000E+00  0.00000000E+00
  0.00000000E+00  0.00000000E+00  0.00000000E+00
  0.00000000E+00  0.00000000E+00  0.00000000E+00
  0.00000000E+00  0.00000000E+00  0.00000000E+00
  0.00000000E+00  0.00000000E+00  0.00000000E+00
  0.00000000E+00  0.00000000E+00  0.00000000E+00
  0.00000000E+00  0.00000000E+00  0.00000000E+00
  0.00000000E+00  0.00000000E+00  0.00000000E+00
  0.00000000E+00  0.00000000E+00  0.00000000E+00
  0.00000000E+00  0.00000000E+00  0.00000000E+00
  0.00000000E+00  0.00000000E+00  0.00000000E+00
  0.00000000E+00  0.00000000E+00  0.00000000E+00
  0.00000000E+00  0.00000000E+00  0.00000000E+00
  0.00000000E+00  0.00000000E+00  0.00000000E+00
  0.00000000E+00  0.00000000E+00  0.00000000E+00
  0.00000000E+00  0.00000000E+00  0.00000000E+00
  0.00000000E+00  0.00000000E+00  0.00000000E+00
  0.00000000E+00  0.00000000E+00  0.00000000E+00
  0.00000000E+00  0.00000000E+00  0.00000000E+00
  0.00000000E+00  0.00000000E+00  0.00000000E+00
  0.00000000E+00  0.00000000E+00  0.00000000E+00
  0.00000000E+00  0.00000000E+00  0.00000000E+00
  0.00000000E+00  0.00000000E+00  0.00000000E+00
  0.00000000E+00  0.00000000E+00  0.00000000E+00
  0.00000000E+00  0.00000000E+00  0.00000000E+00
  0.00000000E+00  0.00000000E+00  0.00000000E+00
  0.00000000E+00  0.00000000E+00  0.00000000E+00
  0.00000000E+00  0.00000000E+00  0.00000000E+00
  0.00000000E+00  0.00000000E+00  0.00000000E+00
  0.00000000E+00  0.00000000E+00  0.00000000E+00
  0.00000000E+00  0.00000000E+00  0.00000000E+00
  0.00000000E+00  0.00000000E+00  0.00000000E+00
  0.00000000E+00  0.00000000E+00  0.00000000E+00
  0.00000000E+00  0.00000000E+00  0.00000000E+00
  0.00000000E+00  0.00000000E+00  0.00000000E+00
  0.00000000E+00  0.00000000E+00  0.00000000E+00
  0.00000000E+00  0.00000000E+00  0.00000000E+00
  0.00000000E+00  0.00000000E+00  0.00000000E+00
  0.00000000E+00  0.00000000E+00  0.00000000E+00
  0.00000000E+00  0.00000000E+00  0.00000000E+00
  0.00000000E+00  0.00000000E+00  0.00000000E+00
  0.00000000E+00  0.00000000E+00  0.00000000E+00
  0.00000000E+00  0.00000000E+00  0.00000000E+00
  0.00000000E+00  0.00000000E+00  0.00000000E+00
  0.00000000E+00  0.00000000E+00  0.00000000E+00
  0.00000000E+00  0.00000000E+00  0.00000000E+00
  0.00000000E+00  0.00000000E+00  0.00000000E+00
  0.00000000E+00  0.00000000E+00  0.00000000E+00
  0.00000000E+00  0.00000000E+00  0.00000000E+00
  0.00000000E+00  0.00000000E+00  0.00000000E+00
  0.00000000E+00  0.00000000E+00  0.00000000E+00
  0.00000000E+00  0.00000000E+00  0.00000000E+00
  0.00000000E+00  0.00000000E+00  0.00000000E+00
  0.00000000E+00  0.00000000E+00  0.00000000E+00
  0.00000000E+00  0.00000000E+00  0.00000000E+00
  0.00000000E+00  0.00000000E+00  0.00000000E+00
  0.00000000E+00  0.00000000E+00  0.00000000E+00
  0.00000000E+00  0.00000000E+00  0.00000000E+00
  0.00000000E+00  0.00000000E+00  0.00000000E+00
  0.00000000E+00  0.00000000E+00  0.00000000E+00
  0.00000000E+00  0.00000000E+00  0.00000000E+00
  0.00000000E+00  0.00000000E+00  0.00000000E+00
  0.00000000E+00  0.00000000E+00  0.00000000E+00
  0.00000000E+00  0.00000000E+00  0.00000000E+00
  0.00000000E+00  0.00000000E+00  0.00000000E+00
  0.00000000E+00  0.00000000E+00  0.00000000E+00
  0.00000000E+00  0.00000000E+00  0.00000000E+00
  0.00000000E+00  0.00000000E+00  0.00000000E+00
  0.00000000E+00  0.00000000E+00  0.00000000E+00
  0.00000000E+00  0.00000000E+00  0.00000000E+00
  0.00000000E+00  0.00000000E+00  0.00000000E+00
  0.00000000E+00  0.00000000E+00  0.00000000E+00
  0.00000000E+00  0.00000000E+00  0.00000000E+00
  0.00000000E+00  0.00000000E+00  0.00000000E+00
  0.00000000E+00  0.00000000E+00  0.00000000E+00
  0.00000000E+00  0.00000000E+00  0.00000000E+00
  0.00000000E+00  0.00000000E+00  0.00000000E+00
  0.00000000E+00  0.00000000E+00  0.00000000E+00
  0.00000000E+00  0.00000000E+00  0.00000000E+00
  0.00000000E+00  0.00000000E+00  0.00000000E+00
  0.00000000E+00  0.00000000E+00  0.00000000E+00
  0.00000000E+00  0.00000000E+00  0.00000000E+00
  0.00000000E+00  0.00000000E+00  0.00000000E+00
  0.00000000E+00  0.00000000E+00  0.00000000E+00
  0.00000000E+00  0.00000000E+00  0.00000000E+00
  0.00000000E+00  0.00000000E+00  0.00000000E+00
  0.00000000E+00  0.00000000E+00  0.00000000E+00
  0.00000000E+00  0.00000000E+00  0.00000000E+00
  0.00000000E+00  0.00000000E+00  0.00000000E+00
  0.00000000E+00  0.00000000E+00  0.00000000E+00
  0.00000000E+00  0.00000000E+00  0.00000000E+00
  0.00000000E+00  0.00000000E+00  0.00000000E+00
  0.00000000E+00  0.00000000E+00  0.00000000E+00
  0.00000000E+00  0.00000000E+00  0.00000000E+00
  0.00000000E+00  0.00000000E+00  0.00000000E+00
  0.00000000E+00  0.00000000E+00  0.00000000E+00
  0.00000000E+00  0.00000000E+00  0.00000000E+00
  0.00000000E+00  0.00000000E+00  0.00000000E+00
  0.00000000E+00  0.00000000E+00  0.00000000E+00
