Li7 P2 N1 O7                            
   1.00000000000000     
     5.2687836052336783   -0.0031023753645739   -0.0850858564591585
    -0.0025478791734460    5.1922996952129203   -0.0160757050301378
    -0.1038372183874484   -0.0180400847663671    6.2204109678746207
   Li   P    N    O 
     7     2     1     7
Direct
 -0.0789499642826891  0.6873593620759343  0.2784276939533236
  0.0055827694435673  0.6763494711907545  0.7380718249416829
  0.5080510668027000  0.3300959196833348  0.7404116454324026
  0.5370527820257960  0.8664258024969322 -0.0275876182494658
  0.0093863758231320  0.1468482636888089  0.5038907299024802
  0.5277720587918001  0.2953402700565905  0.2633679593242540
  0.2635740613283626  0.6551497133629530  0.2027217506488103
  0.4835796704067925  0.8264810428879522  0.5084426371515286
  0.0068467974223699  0.1779609884868150  0.0001340056527762
  0.1860602645374853  0.8094752041124958  0.4889513283058570
  0.1048906343199961  0.3088003288102804  0.7957089740574447
  0.6097559923984989  0.1034569362613200  0.5066969528179127
  0.7092062655586961  0.1817337041704085  0.0026547690522142
  0.5901435691443377  0.6827920699385750  0.2921970532472741
  0.1078364292422642  0.3321266801434610  0.2032909173754972
  0.1001671325520817  0.8910530603504402  0.0105886060470280
  0.6127440944848401  0.6901111822829459  0.7108507703389801
 
  0.00000000E+00  0.00000000E+00  0.00000000E+00
  0.00000000E+00  0.00000000E+00  0.00000000E+00
  0.00000000E+00  0.00000000E+00  0.00000000E+00
  0.00000000E+00  0.00000000E+00  0.00000000E+00
  0.00000000E+00  0.00000000E+00  0.00000000E+00
  0.00000000E+00  0.00000000E+00  0.00000000E+00
  0.00000000E+00  0.00000000E+00  0.00000000E+00
  0.00000000E+00  0.00000000E+00  0.00000000E+00
  0.00000000E+00  0.00000000E+00  0.00000000E+00
  0.00000000E+00  0.00000000E+00  0.00000000E+00
  0.00000000E+00  0.00000000E+00  0.00000000E+00
  0.00000000E+00  0.00000000E+00  0.00000000E+00
  0.00000000E+00  0.00000000E+00  0.00000000E+00
  0.00000000E+00  0.00000000E+00  0.00000000E+00
  0.00000000E+00  0.00000000E+00  0.00000000E+00
  0.00000000E+00  0.00000000E+00  0.00000000E+00
  0.00000000E+00  0.00000000E+00  0.00000000E+00
