P4 O10
1.0
0.000000 3.971911 8.067275
2.699301 0.000000 8.067275
2.699301 3.971911 0.000000
P O
4 10
direct
0.601454 0.550686 0.244834 P
0.603026 0.244834 0.550686 P
0.005166 0.646974 0.648546 P
0.699314 0.648546 0.646974 P
0.273124 0.843622 0.393673 O
0.489581 0.393673 0.843622 O
0.856327 0.760419 0.976876 O
0.406378 0.976876 0.760419 O
0.990763 0.509237 0.509237 O
0.740763 0.259237 0.259237 O
0.787761 0.481261 0.370687 O
0.360290 0.370687 0.481261 O
0.879313 0.889710 0.462239 O
0.768739 0.462239 0.889710 O
