Li71 P24 N1 O94                         
   1.00000000000000     
    14.7306685205403411   -0.0013925692271431    0.0016329921419427
    -0.0009701636559849   10.5860979467271754    0.0076073563916550
     0.0013341359458964    0.0088750513564186   12.2824831669822530
   Li   P    N    O 
    71    24     1    94
Direct
  0.1749264847306695  0.4171244499671474  0.0025293722058990
  0.1695080632880913  0.4258897536026162  0.5013603272853334
  0.1670271902075881  0.9286834767979983  0.0001661883945028
  0.1686010526093675  0.9228456944713677  0.5031136155471057
  0.5032682656736236  0.4223464222858926 -0.0002241260803594
  0.5031341058496610  0.4230195431494581  0.5003041555431895
  0.5044757990024225  0.9229791023064431 -0.0009933715827319
  0.5032426508422219  0.9228882075082021  0.5007528592664321
  0.8408844208534789  0.4252800551645444 -0.0000183371204126
  0.8362233099041765  0.4228213785174758  0.4998941123776115
  0.8348399117382374  0.9203069361074828 -0.0014693544339841
  0.8352499955107371  0.9233740468050914  0.5002668199572662
  0.0007575572030806  0.0796645803238122  0.2481505143992448
  0.0034143133114166  0.0772870721505553  0.7512894824113769
  0.0027770475132913  0.5764259815749558  0.2496842093123943
  0.0027228124069579  0.5755272205189058  0.7506965136023925
  0.3611345247255021  0.0835902495322768  0.2459526566776702
  0.3360407732722706  0.0777793336271447  0.7519408857096558
  0.3354759369542307  0.5761755669330378  0.2489675820968620
  0.3367047164097653  0.5767572703254618  0.7510759204390662
  0.6695818266957625  0.0783864814564814  0.2492831896704326
  0.6692797106924383  0.0777523765586414  0.7496348545779693
  0.6697519267120052  0.5766430130790818  0.2497946862497701
  0.6696282195774381  0.5771089520342296  0.7500217833553254
  0.1701245617035599  0.1630641589588960  0.6279601629470183
  0.1683532626739337  0.6562671973800338  0.1239536581058324
  0.1694864999617764  0.6633504823617948  0.6282378293248342
  0.5048584024175398  0.1651611258715201  0.1229974514327230
  0.5019560192563838  0.1638040806930774  0.6264550324668813
  0.5036888522958501  0.6622983261190450  0.1260583902643799
  0.5031470638215694  0.6635129793903962  0.6266130849631975
  0.8387823422176579  0.1628491051784344  0.1239877274684236
  0.8359752409265970  0.1641970927331332  0.6259026915627995
  0.8348145671045720  0.6647544441589215  0.1275639406633547
  0.8357134220264849  0.6634084979686951  0.6265016018619078
  0.0069192346747336  0.3257846836240809  0.1245984358812039
  0.0031643202185487  0.3368371452978175  0.6243416534136775
 -0.0012378561664911  0.8388040188805641  0.1222982230187846
  0.0021610665417651  0.8362953916054988  0.6244047239721552
  0.3346095561051767  0.3333213454722004  0.1229898212191353
  0.3354208506481184  0.3373642106429450  0.6238774215408273
  0.3390823718987924  0.8354455955899700  0.1208464881696924
  0.3362494583742933  0.8365244270044071  0.6242701878909629
  0.6711634723424743  0.3368653814406377  0.1229192163453054
  0.6692263583841916  0.3368154098073208  0.6235451885974367
  0.6697074337411353  0.8366152579511140  0.1235219667040304
  0.6691034755857507  0.8366942971256538  0.6236419647895386
  0.0021204435672875  0.3384814123123394  0.3747241276009168
  0.0009430688470666  0.3285445465446469  0.8774288280693433
 -0.0007468981963110  0.8358475523629028  0.3793063757444093
  0.0015751067871386  0.8393607117306692  0.8750794116531153
  0.3357426180039610  0.3384314738742036  0.3756357300904620
  0.3375634555597519  0.3344682627509714  0.8767960681386162
  0.3384437466342218  0.8346839361006080  0.3770293582542074
  0.3364974133104565  0.8371136185592514  0.8771660142160633
  0.6696535519888381  0.3373687998310592  0.3762195017949787
  0.6704096191332429  0.3371255867005736  0.8767107697695945
  0.6691444657143264  0.8363560952847789  0.3770804567208759
  0.6695027633796031  0.8370946090143500  0.8755501950065870
  0.1643336902258267  0.1805225264236928  0.3851970795844348
  0.1688325919465379  0.1627263602925502  0.8808217047070422
  0.1679937341475643  0.6590408359710638  0.3771359242203217
  0.1695632092934811  0.6623519574149275  0.8745269480845560
  0.5048057902144907  0.1651309344596616  0.3750350693218065
  0.5033927777208802  0.1632319851176206  0.8734009299280864
  0.5030311228677521  0.6623767448303948  0.3735108436861622
  0.5036423655756154  0.6633752280199826  0.8733587101415359
  0.8351957311019734  0.1644710388157404  0.3733797814796239
  0.8351899180403645  0.1623373666531965  0.8718761702394134
  0.8354599837295086  0.6630652509028313  0.3737293655333311
  0.8352470166499806  0.6646290970357002  0.8725195540347742
  0.1680427603104142  0.4155575599400715  0.2491776931476639
  0.1673834856698473  0.4107581498589928  0.7509060120260480
  0.1658581197539960  0.9029728410014520  0.2508072003249481
  0.1671163556774196  0.9121685263925750  0.7501892394770548
  0.5009078761813862  0.4119576789992973  0.2499062523233467
  0.5007298701807543  0.4120124874958062  0.7498170403516807
  0.5003243901836602  0.9109238463154669  0.2500972872925897
  0.5003767628236451  0.9124505053552722  0.7495267865568189
  0.8340399500553975  0.4124259985392743  0.2496502774315584
  0.8335144816297889  0.4121061217382881  0.7496219624240315
  0.8319584987475040  0.9129259448811408  0.2509355753665167
  0.8332826361197762  0.9125399915023106  0.7484069947120391
 -0.0032889459572714  0.0846682070405217  0.0012017360490510
  0.0001389912414293  0.0878562237672771  0.4997701733445155
 -0.0005904446232632  0.5933473133007147  0.0001105557698790
 -0.0002130785993311  0.5880444295486704  0.5006043873842103
  0.3349891595513850  0.0853412595959367 -0.0006535122685771
  0.3331198428122343  0.0877034724849444  0.4977056917960319
  0.3353130327974511  0.5875614595737703 -0.0004772578860836
  0.3341751419584713  0.5880068805190034  0.5007187301304241
  0.6676204206556189  0.0876475175864060 -0.0006220408926874
  0.6666111602559640  0.0882314612485785  0.5000490055520973
  0.6675355586445360  0.5879692783100969 -0.0001419395346436
  0.6668819573116642  0.5879029521210913  0.4999830064175674
  0.0388442563898077  0.4499093253773328 -0.0013211601353247
  0.0358542357600976  0.1566929951569323  0.3950524769498995
  0.0344742270674735  0.1533938027618824  0.8977073191612730
  0.0349216260130641  0.6579901309085080  0.3966009177364881
  0.0346434998331031  0.6600077569078111  0.8944708361704178
  0.3684932691519511  0.1564140242052704  0.3930355913797135
  0.3714985737701960  0.1558460864886500  0.8956776091340096
  0.3692536188746088  0.6565253979562246  0.3961215325074470
  0.3707143839058781  0.6571293285309845  0.8955064493908987
  0.7012872371602370  0.1572514567292116  0.3955008255520923
  0.7023302756278400  0.1566976124698005  0.8949748816237539
  0.7019526130687846  0.6570083084837067  0.3956779082643855
  0.7021036915945698  0.6577658915321577  0.8956083816324372
  0.2007551681799490  0.0518337005641884  0.7499141364777085
  0.1987535062957169  0.5574822352273187  0.2536769718681044
  0.2005259056761739  0.5508504159599310  0.7505464738510853
  0.5307736936449027  0.0525205196072717  0.2500064851997876
  0.5341181761196965  0.0521583900388499  0.7491282988100592
  0.5345459321852100  0.5517231042785911  0.2502365337984918
  0.5345168464545126  0.5517126271387081  0.7495014187877737
  0.8657427383769932  0.0523385230877300  0.2512582765117226
  0.8675150687462714  0.0519117726021817  0.7477027279054894
  0.8673854513842444  0.5524170786910332  0.2503471932593938
  0.8673510105413379  0.5518047763015312  0.7499831734608494
  0.0618660939027898  0.4101315550570075  0.2485164133519729
  0.0614087214286297  0.4074420970988804  0.7525546123949751
  0.0606373072060400  0.9082560042983147  0.2514124880422435
  0.0612940038657181  0.9097291546731054  0.7492171519839723
  0.3952860240057206  0.4085745110863182  0.2496076847978622
  0.3950018338782783  0.4090801688721099  0.7497879335231339
  0.3942943181714069  0.9071034689437799  0.2497270322298634
  0.3946684221256094  0.9098205067486164  0.7496578086386565
  0.7282575959041513  0.4094264712120524  0.2499205163601585
  0.7277836417192657  0.4096655873912720  0.7492235563203361
  0.7262703620623926  0.9099811016827485  0.2508346548515649
  0.7275437432253277  0.9103210767153994  0.7488990520446464
  0.2309595375176830  0.0841561376823649 -0.0019465131499013
  0.2270129152602810  0.0904693101828455  0.4957086355681652
  0.2298644005133579  0.5911276389808988 -0.0006892806278006
  0.2284263414517662  0.5915195829403542  0.5018162311714317
  0.5619526676124444  0.0905306348553192 -0.0005832406475486
  0.5608045326537987  0.0907933864341805  0.5004878661966248
  0.5617834381079070  0.5896335474207957 -0.0002312790123338
  0.5611479669728998  0.5905383927570504  0.5000568380641452
  0.8906074405659417  0.0851368412660527 -0.0049400668011794
  0.8946127003395686  0.0912342709665067  0.4993810137911317
  0.8933810396359416  0.5991543037649741  0.0005025676529084
  0.8941496668564177  0.5907339047404655  0.5003168401294745
  0.2073811400248589  0.3528160337674623  0.1472931801587757
  0.2012079312187993  0.3432893474571253  0.6449935617182064
  0.2033297197500729  0.8406159602227175  0.1458208121438191
  0.2024164344335221  0.8432511024823177  0.6456813823391988
  0.5370447282782097  0.3431755449862227  0.1461889652710099
  0.5357097768762041  0.3427709163667147  0.6455794141352237
  0.5364195210614412  0.8427852659862421  0.1465432859664012
  0.5353854947068003  0.8433468562476576  0.6452170837308382
  0.8696600471267795  0.3439228032063092  0.1458534936980738
  0.8691213957881901  0.3434664821207021  0.6453996225240779
  0.8671741374752342  0.8438839203236926  0.1470614152141566
  0.8682602371149577  0.8430856776558253  0.6442788895395414
  0.0248935163585045  0.1510411707137766  0.1074117727340863
  0.0361970658312724  0.1570509823398691  0.6031530952669573
  0.0341368266846683  0.6619266814335599  0.1051854246564820
  0.0353294669579368  0.6565411372482346  0.6047529826191475
  0.3718074711122767  0.1552950814206857  0.1030429316704080
  0.3673024874780418  0.1574763690931390  0.6015462306936206
  0.3705528786991083  0.6562570738624995  0.1039995690417736
  0.3697980674503867  0.6570349606646455  0.6044882345149800
  0.7028436561213373  0.1565629721372058  0.1035267914575318
  0.7022918455857668  0.1574562138361271  0.6036582950494848
  0.7018937430660488  0.6574047948532341  0.1042360907988463
  0.7020948422000058  0.6571192969531285  0.6039536016602074
  0.0338535675888251  0.4485029123338739  0.4998700301565063
  0.0316079304723765  0.9449489735188970  0.0003736351667507
  0.0336821145134191  0.9480293662570820  0.4996429124027155
  0.3688284242915187  0.4478542486937768 -0.0006547450094509
  0.3674494682480966  0.4481323968663895  0.5003198796685939
  0.3719213776098981  0.9463291567407099  0.0000826357975796
  0.3668521933585292  0.9482571145701504  0.4988586121593096
  0.7024513082354735  0.4489302536013197 -0.0001887316729117
  0.7007597886693038  0.4482989542809807  0.4999385188369883
  0.7004419928267218  0.9475171771619455 -0.0004815945953059
  0.7001911192544847  0.9485420940159748  0.5000039223385286
  0.2019615576851942  0.3473649662304448  0.3556785764212029
  0.2046541563140687  0.3406358419115348  0.8529725988101190
  0.2030917398095679  0.8411357644196761  0.3568872790865719
  0.2020435199664852  0.8423888118891423  0.8539061391490570
  0.5360064327116669  0.3430916762080246  0.3544829903303002
  0.5363614509592393  0.3431027702973968  0.8538275877279747
  0.5354010237437177  0.8432723465577078  0.3547930462483564
  0.5362347711407295  0.8432119351910387  0.8532234481962064
  0.8691083249764004  0.3434053320953807  0.3541734571474172
  0.8682915420058985  0.3423122803864690  0.8534736901190405
  0.8673473292758774  0.8434000988666169  0.3550328058913263
  0.8683878520713496  0.8429051075740419  0.8521492250653300
 
  0.00000000E+00  0.00000000E+00  0.00000000E+00
  0.00000000E+00  0.00000000E+00  0.00000000E+00
  0.00000000E+00  0.00000000E+00  0.00000000E+00
  0.00000000E+00  0.00000000E+00  0.00000000E+00
  0.00000000E+00  0.00000000E+00  0.00000000E+00
  0.00000000E+00  0.00000000E+00  0.00000000E+00
  0.00000000E+00  0.00000000E+00  0.00000000E+00
  0.00000000E+00  0.00000000E+00  0.00000000E+00
  0.00000000E+00  0.00000000E+00  0.00000000E+00
  0.00000000E+00  0.00000000E+00  0.00000000E+00
  0.00000000E+00  0.00000000E+00  0.00000000E+00
  0.00000000E+00  0.00000000E+00  0.00000000E+00
  0.00000000E+00  0.00000000E+00  0.00000000E+00
  0.00000000E+00  0.00000000E+00  0.00000000E+00
  0.00000000E+00  0.00000000E+00  0.00000000E+00
  0.00000000E+00  0.00000000E+00  0.00000000E+00
  0.00000000E+00  0.00000000E+00  0.00000000E+00
  0.00000000E+00  0.00000000E+00  0.00000000E+00
  0.00000000E+00  0.00000000E+00  0.00000000E+00
  0.00000000E+00  0.00000000E+00  0.00000000E+00
  0.00000000E+00  0.00000000E+00  0.00000000E+00
  0.00000000E+00  0.00000000E+00  0.00000000E+00
  0.00000000E+00  0.00000000E+00  0.00000000E+00
  0.00000000E+00  0.00000000E+00  0.00000000E+00
  0.00000000E+00  0.00000000E+00  0.00000000E+00
  0.00000000E+00  0.00000000E+00  0.00000000E+00
  0.00000000E+00  0.00000000E+00  0.00000000E+00
  0.00000000E+00  0.00000000E+00  0.00000000E+00
  0.00000000E+00  0.00000000E+00  0.00000000E+00
  0.00000000E+00  0.00000000E+00  0.00000000E+00
  0.00000000E+00  0.00000000E+00  0.00000000E+00
  0.00000000E+00  0.00000000E+00  0.00000000E+00
  0.00000000E+00  0.00000000E+00  0.00000000E+00
  0.00000000E+00  0.00000000E+00  0.00000000E+00
  0.00000000E+00  0.00000000E+00  0.00000000E+00
  0.00000000E+00  0.00000000E+00  0.00000000E+00
  0.00000000E+00  0.00000000E+00  0.00000000E+00
  0.00000000E+00  0.00000000E+00  0.00000000E+00
  0.00000000E+00  0.00000000E+00  0.00000000E+00
  0.00000000E+00  0.00000000E+00  0.00000000E+00
  0.00000000E+00  0.00000000E+00  0.00000000E+00
  0.00000000E+00  0.00000000E+00  0.00000000E+00
  0.00000000E+00  0.00000000E+00  0.00000000E+00
  0.00000000E+00  0.00000000E+00  0.00000000E+00
  0.00000000E+00  0.00000000E+00  0.00000000E+00
  0.00000000E+00  0.00000000E+00  0.00000000E+00
  0.00000000E+00  0.00000000E+00  0.00000000E+00
  0.00000000E+00  0.00000000E+00  0.00000000E+00
  0.00000000E+00  0.00000000E+00  0.00000000E+00
  0.00000000E+00  0.00000000E+00  0.00000000E+00
  0.00000000E+00  0.00000000E+00  0.00000000E+00
  0.00000000E+00  0.00000000E+00  0.00000000E+00
  0.00000000E+00  0.00000000E+00  0.00000000E+00
  0.00000000E+00  0.00000000E+00  0.00000000E+00
  0.00000000E+00  0.00000000E+00  0.00000000E+00
  0.00000000E+00  0.00000000E+00  0.00000000E+00
  0.00000000E+00  0.00000000E+00  0.00000000E+00
  0.00000000E+00  0.00000000E+00  0.00000000E+00
  0.00000000E+00  0.00000000E+00  0.00000000E+00
  0.00000000E+00  0.00000000E+00  0.00000000E+00
  0.00000000E+00  0.00000000E+00  0.00000000E+00
  0.00000000E+00  0.00000000E+00  0.00000000E+00
  0.00000000E+00  0.00000000E+00  0.00000000E+00
  0.00000000E+00  0.00000000E+00  0.00000000E+00
  0.00000000E+00  0.00000000E+00  0.00000000E+00
  0.00000000E+00  0.00000000E+00  0.00000000E+00
  0.00000000E+00  0.00000000E+00  0.00000000E+00
  0.00000000E+00  0.00000000E+00  0.00000000E+00
  0.00000000E+00  0.00000000E+00  0.00000000E+00
  0.00000000E+00  0.00000000E+00  0.00000000E+00
  0.00000000E+00  0.00000000E+00  0.00000000E+00
  0.00000000E+00  0.00000000E+00  0.00000000E+00
  0.00000000E+00  0.00000000E+00  0.00000000E+00
  0.00000000E+00  0.00000000E+00  0.00000000E+00
  0.00000000E+00  0.00000000E+00  0.00000000E+00
  0.00000000E+00  0.00000000E+00  0.00000000E+00
  0.00000000E+00  0.00000000E+00  0.00000000E+00
  0.00000000E+00  0.00000000E+00  0.00000000E+00
  0.00000000E+00  0.00000000E+00  0.00000000E+00
  0.00000000E+00  0.00000000E+00  0.00000000E+00
  0.00000000E+00  0.00000000E+00  0.00000000E+00
  0.00000000E+00  0.00000000E+00  0.00000000E+00
  0.00000000E+00  0.00000000E+00  0.00000000E+00
  0.00000000E+00  0.00000000E+00  0.00000000E+00
  0.00000000E+00  0.00000000E+00  0.00000000E+00
  0.00000000E+00  0.00000000E+00  0.00000000E+00
  0.00000000E+00  0.00000000E+00  0.00000000E+00
  0.00000000E+00  0.00000000E+00  0.00000000E+00
  0.00000000E+00  0.00000000E+00  0.00000000E+00
  0.00000000E+00  0.00000000E+00  0.00000000E+00
  0.00000000E+00  0.00000000E+00  0.00000000E+00
  0.00000000E+00  0.00000000E+00  0.00000000E+00
  0.00000000E+00  0.00000000E+00  0.00000000E+00
  0.00000000E+00  0.00000000E+00  0.00000000E+00
  0.00000000E+00  0.00000000E+00  0.00000000E+00
  0.00000000E+00  0.00000000E+00  0.00000000E+00
  0.00000000E+00  0.00000000E+00  0.00000000E+00
  0.00000000E+00  0.00000000E+00  0.00000000E+00
  0.00000000E+00  0.00000000E+00  0.00000000E+00
  0.00000000E+00  0.00000000E+00  0.00000000E+00
  0.00000000E+00  0.00000000E+00  0.00000000E+00
  0.00000000E+00  0.00000000E+00  0.00000000E+00
  0.00000000E+00  0.00000000E+00  0.00000000E+00
  0.00000000E+00  0.00000000E+00  0.00000000E+00
  0.00000000E+00  0.00000000E+00  0.00000000E+00
  0.00000000E+00  0.00000000E+00  0.00000000E+00
  0.00000000E+00  0.00000000E+00  0.00000000E+00
  0.00000000E+00  0.00000000E+00  0.00000000E+00
  0.00000000E+00  0.00000000E+00  0.00000000E+00
  0.00000000E+00  0.00000000E+00  0.00000000E+00
  0.00000000E+00  0.00000000E+00  0.00000000E+00
  0.00000000E+00  0.00000000E+00  0.00000000E+00
  0.00000000E+00  0.00000000E+00  0.00000000E+00
  0.00000000E+00  0.00000000E+00  0.00000000E+00
  0.00000000E+00  0.00000000E+00  0.00000000E+00
  0.00000000E+00  0.00000000E+00  0.00000000E+00
  0.00000000E+00  0.00000000E+00  0.00000000E+00
  0.00000000E+00  0.00000000E+00  0.00000000E+00
  0.00000000E+00  0.00000000E+00  0.00000000E+00
  0.00000000E+00  0.00000000E+00  0.00000000E+00
  0.00000000E+00  0.00000000E+00  0.00000000E+00
  0.00000000E+00  0.00000000E+00  0.00000000E+00
  0.00000000E+00  0.00000000E+00  0.00000000E+00
  0.00000000E+00  0.00000000E+00  0.00000000E+00
  0.00000000E+00  0.00000000E+00  0.00000000E+00
  0.00000000E+00  0.00000000E+00  0.00000000E+00
  0.00000000E+00  0.00000000E+00  0.00000000E+00
  0.00000000E+00  0.00000000E+00  0.00000000E+00
  0.00000000E+00  0.00000000E+00  0.00000000E+00
  0.00000000E+00  0.00000000E+00  0.00000000E+00
  0.00000000E+00  0.00000000E+00  0.00000000E+00
  0.00000000E+00  0.00000000E+00  0.00000000E+00
  0.00000000E+00  0.00000000E+00  0.00000000E+00
  0.00000000E+00  0.00000000E+00  0.00000000E+00
  0.00000000E+00  0.00000000E+00  0.00000000E+00
  0.00000000E+00  0.00000000E+00  0.00000000E+00
  0.00000000E+00  0.00000000E+00  0.00000000E+00
  0.00000000E+00  0.00000000E+00  0.00000000E+00
  0.00000000E+00  0.00000000E+00  0.00000000E+00
  0.00000000E+00  0.00000000E+00  0.00000000E+00
  0.00000000E+00  0.00000000E+00  0.00000000E+00
  0.00000000E+00  0.00000000E+00  0.00000000E+00
  0.00000000E+00  0.00000000E+00  0.00000000E+00
  0.00000000E+00  0.00000000E+00  0.00000000E+00
  0.00000000E+00  0.00000000E+00  0.00000000E+00
  0.00000000E+00  0.00000000E+00  0.00000000E+00
  0.00000000E+00  0.00000000E+00  0.00000000E+00
  0.00000000E+00  0.00000000E+00  0.00000000E+00
  0.00000000E+00  0.00000000E+00  0.00000000E+00
  0.00000000E+00  0.00000000E+00  0.00000000E+00
  0.00000000E+00  0.00000000E+00  0.00000000E+00
  0.00000000E+00  0.00000000E+00  0.00000000E+00
  0.00000000E+00  0.00000000E+00  0.00000000E+00
  0.00000000E+00  0.00000000E+00  0.00000000E+00
  0.00000000E+00  0.00000000E+00  0.00000000E+00
  0.00000000E+00  0.00000000E+00  0.00000000E+00
  0.00000000E+00  0.00000000E+00  0.00000000E+00
  0.00000000E+00  0.00000000E+00  0.00000000E+00
  0.00000000E+00  0.00000000E+00  0.00000000E+00
  0.00000000E+00  0.00000000E+00  0.00000000E+00
  0.00000000E+00  0.00000000E+00  0.00000000E+00
  0.00000000E+00  0.00000000E+00  0.00000000E+00
  0.00000000E+00  0.00000000E+00  0.00000000E+00
  0.00000000E+00  0.00000000E+00  0.00000000E+00
  0.00000000E+00  0.00000000E+00  0.00000000E+00
  0.00000000E+00  0.00000000E+00  0.00000000E+00
  0.00000000E+00  0.00000000E+00  0.00000000E+00
  0.00000000E+00  0.00000000E+00  0.00000000E+00
  0.00000000E+00  0.00000000E+00  0.00000000E+00
  0.00000000E+00  0.00000000E+00  0.00000000E+00
  0.00000000E+00  0.00000000E+00  0.00000000E+00
  0.00000000E+00  0.00000000E+00  0.00000000E+00
  0.00000000E+00  0.00000000E+00  0.00000000E+00
  0.00000000E+00  0.00000000E+00  0.00000000E+00
  0.00000000E+00  0.00000000E+00  0.00000000E+00
  0.00000000E+00  0.00000000E+00  0.00000000E+00
  0.00000000E+00  0.00000000E+00  0.00000000E+00
  0.00000000E+00  0.00000000E+00  0.00000000E+00
  0.00000000E+00  0.00000000E+00  0.00000000E+00
  0.00000000E+00  0.00000000E+00  0.00000000E+00
  0.00000000E+00  0.00000000E+00  0.00000000E+00
  0.00000000E+00  0.00000000E+00  0.00000000E+00
  0.00000000E+00  0.00000000E+00  0.00000000E+00
  0.00000000E+00  0.00000000E+00  0.00000000E+00
  0.00000000E+00  0.00000000E+00  0.00000000E+00
  0.00000000E+00  0.00000000E+00  0.00000000E+00
  0.00000000E+00  0.00000000E+00  0.00000000E+00
  0.00000000E+00  0.00000000E+00  0.00000000E+00
  0.00000000E+00  0.00000000E+00  0.00000000E+00
  0.00000000E+00  0.00000000E+00  0.00000000E+00
