Li42 P14 O56
1.0
4.922448 0.000000 0.000000
-0.000000 6.176136 -5.296402
0.000000 0.000000 63.556824
Li P O
42 14 56
direct
0.490583 0.000000 0.002165 Li+
0.990583 0.500000 0.017919 Li+
0.491637 0.252873 0.066412 Li+
0.991637 0.247127 0.037006 Li+
0.991637 0.752873 0.079151 Li+
0.491637 0.747127 0.024267 Li+
0.490583 0.000000 0.085499 Li+
0.990583 0.500000 0.101252 Li+
0.491637 0.252873 0.149745 Li+
0.991637 0.247127 0.120339 Li+
0.991637 0.752873 0.162484 Li+
0.491637 0.747127 0.107600 Li+
0.490583 0.000000 0.168832 Li+
0.990583 0.500000 0.184586 Li+
0.491637 0.252873 0.233079 Li+
0.991637 0.247127 0.203672 Li+
0.991637 0.752873 0.245818 Li+
0.491637 0.747127 0.190933 Li+
0.490583 0.000000 0.252165 Li+
0.990583 0.500000 0.267919 Li+
0.491637 0.252873 0.316412 Li+
0.991637 0.247127 0.287006 Li+
0.991637 0.752873 0.329151 Li+
0.491637 0.747127 0.274267 Li+
0.490583 0.000000 0.335499 Li+
0.990583 0.500000 0.351252 Li+
0.491637 0.252873 0.399745 Li+
0.991637 0.247127 0.370339 Li+
0.991637 0.752873 0.412484 Li+
0.491637 0.747127 0.357600 Li+
0.490583 0.000000 0.418832 Li+
0.990583 0.500000 0.434586 Li+
0.491637 0.252873 0.483079 Li+
0.991637 0.247127 0.453672 Li+
0.991637 0.752873 0.495818 Li+
0.491637 0.747127 0.440933 Li+
0.490583 0.000000 0.502166 Li+
0.990583 0.500000 0.517919 Li+
0.491637 0.252873 0.566412 Li+
0.991637 0.247127 0.537006 Li+
0.991637 0.752873 0.579151 Li+
0.491637 0.747127 0.524267 Li+
0.498580 0.500000 0.045520 P5+
0.998580 0.000000 0.057897 P5+
0.498580 0.500000 0.128854 P5+
0.998580 0.000000 0.141231 P5+
0.498580 0.500000 0.212187 P5+
0.998580 0.000000 0.224564 P5+
0.498580 0.500000 0.295520 P5+
0.998580 0.000000 0.307897 P5+
0.498580 0.500000 0.378854 P5+
0.998580 0.000000 0.391231 P5+
0.498580 0.500000 0.462187 P5+
0.998580 0.000000 0.474564 P5+
0.498580 0.500000 0.545520 P5+
0.998580 0.000000 0.557897 P5+
0.892990 0.792862 0.029155 O2-
0.397874 0.500000 0.022250 O2-
0.814809 0.500000 0.046009 O2-
0.314809 0.000000 0.057409 O2-
0.392990 0.292862 0.039740 O2-
0.892990 0.207138 0.063678 O2-
0.897874 0.000000 0.081168 O2-
0.392990 0.707138 0.074263 O2-
0.892990 0.792862 0.112488 O2-
0.397874 0.500000 0.105583 O2-
0.814809 0.500000 0.129342 O2-
0.314809 0.000000 0.140742 O2-
0.392990 0.292862 0.123073 O2-
0.892990 0.207138 0.147011 O2-
0.897874 0.000000 0.164501 O2-
0.392990 0.707138 0.157596 O2-
0.892990 0.792862 0.195822 O2-
0.397874 0.500000 0.188916 O2-
0.814809 0.500000 0.212676 O2-
0.314809 0.000000 0.224075 O2-
0.392990 0.292862 0.206406 O2-
0.892990 0.207138 0.230345 O2-
0.897874 0.000000 0.247835 O2-
0.392990 0.707138 0.240929 O2-
0.892990 0.792862 0.279155 O2-
0.397874 0.500000 0.272250 O2-
0.814809 0.500000 0.296009 O2-
0.314809 0.000000 0.307409 O2-
0.392990 0.292862 0.289740 O2-
0.892990 0.207138 0.313678 O2-
0.897874 0.000000 0.331168 O2-
0.392990 0.707138 0.324263 O2-
0.892990 0.792862 0.362488 O2-
0.397874 0.500000 0.355583 O2-
0.814809 0.500000 0.379342 O2-
0.314809 0.000000 0.390742 O2-
0.392990 0.292862 0.373073 O2-
0.892990 0.207138 0.397011 O2-
0.897874 0.000000 0.414501 O2-
0.392990 0.707138 0.407596 O2-
0.892990 0.792862 0.445822 O2-
0.397874 0.500000 0.438917 O2-
0.814809 0.500000 0.462676 O2-
0.314809 0.000000 0.474075 O2-
0.392990 0.292862 0.456406 O2-
0.892990 0.207138 0.480345 O2-
0.897874 0.000000 0.497835 O2-
0.392990 0.707138 0.490929 O2-
0.892990 0.792862 0.529155 O2-
0.397874 0.500000 0.522250 O2-
0.814809 0.500000 0.546009 O2-
0.314809 0.000000 0.557408 O2-
0.392990 0.292862 0.539740 O2-
0.892990 0.207138 0.563678 O2-
0.897874 0.000000 0.581168 O2-
0.392990 0.707138 0.574263 O2-
