Li71 P24 N1 O94                         
   1.00000000000000     
    14.7171601296842134   -0.0026657002354902    0.0000047862786940
    -0.0019249524282056   10.5624235841833247    0.0000018531477023
     0.0000038696368547    0.0000022603463591   12.3401011428196217
   Li   P    N    O 
    71    24     1    94
Direct
  0.1687873943960710  0.4224968338923374 -0.0037146465512667
  0.1687848284047084  0.4224967096190144  0.5037140833341025
  0.1710510001045485  0.9228333313107934  0.0004698076552898
  0.1710511977840601  0.9228334531453490  0.4995304437451759
  0.5033134552099910  0.4211628689603013 -0.0009662623333230
  0.5033127048137946  0.4211623893210756  0.5009669590453960
  0.5037704826184162  0.9229346385061963 -0.0001156811736227
  0.5037705202535553  0.9229340659740524  0.5001157777386055
  0.8344016322768562  0.4227158078608402 -0.0015845834927546
  0.8344021494352234  0.4227164871192681  0.5015845781904978
  0.8368019061837086  0.9248916482531349  0.0004806679305394
  0.8368032387326931  0.9248917076916177  0.4995172893960877
  0.0014356293057666  0.0727986061878587  0.7499996534842406
 -0.0096561177763085  0.6323789719796015  0.2499997278866027
  0.0022008382278570  0.5788323672792062  0.7499999968795421
  0.3399226114537597  0.0753219983027687  0.2499985364588197
  0.3365789430223477  0.0766786063603939  0.7500005217655855
  0.3418529088171656  0.5823607255361909  0.2500006561228573
  0.3366883489313160  0.5776280975611299  0.7500005266726960
  0.6773492908962240  0.0730722276302873  0.2500000648296328
  0.6701046056225007  0.0761343407789147  0.7499999917354571
  0.6693477198088194  0.5797848118707872  0.2500003139825715
  0.6689796961941209  0.5773995996838684  0.7500000678986736
  0.1643796935047823  0.1631289461308171  0.1278902920173265
  0.1688371630997959  0.1613275807968084  0.6271478649979653
  0.1676133176619988  0.6647343355565175  0.1223264112860330
  0.1699096765771112  0.6631305606193234  0.6265040589415393
  0.5056521502542903  0.1617747609147007  0.1269467608257748
  0.5028273858701031  0.1627166683700743  0.6265444037399478
  0.5037583723996613  0.6631231106837198  0.1251952649638065
  0.5025631522848635  0.6630542366638549  0.6267242564166707
  0.8396295756833038  0.1613920987854532  0.1280066206518853
  0.8364210698156627  0.1630079327861694  0.6269914854028313
  0.8330895269109236  0.6655183561881095  0.1234614457196689
  0.8352834965722257  0.6637054872566707  0.6268968223373121
 -0.0036673554962468  0.3309331015599211  0.1101659791868295
  0.0026318186242758  0.3349561385594889  0.6267506397528956
  0.0007284758318850  0.8489125625947886  0.1222936804167138
  0.0031360103046536  0.8372513499763169  0.6233262017863955
  0.3411171361963944  0.3350634447200579  0.1217681674524306
  0.3359094797727519  0.3359381082865697  0.6243122045596208
  0.3389625559724755  0.8376449531126247  0.1237757541461611
  0.3368198446003700  0.8367477551949023  0.6233014713044349
  0.6699528792981956  0.3365569162609429  0.1241188444208189
  0.6690966890690241  0.3354218959678256  0.6245583912256019
  0.6686412933566840  0.8346563112712413  0.1216533771753891
  0.6693704043969200  0.8364252696436805  0.6235139177224129
 -0.0036662026382349  0.3309361420460069  0.3898337455223301
  0.0026318217474360  0.3349552835603047  0.8732494683890674
  0.0007293492781977  0.8489131332156044  0.3777049857210905
  0.0031361621747968  0.8372500650916299  0.8766731252794673
  0.3411171956528540  0.3350634407745989  0.3782318504587839
  0.3359099006840593  0.3359404538005729  0.8756889003816356
  0.3389614313218766  0.8376425724210391  0.3762240730106665
  0.3368191625895539  0.8367472102591043  0.8766977439736801
  0.6699541909198006  0.3365575967507486  0.3758803471600564
  0.6690969382974844  0.3354218760096662  0.8754419435730482
  0.6686451477891633  0.8346606842053030  0.3783408923757458
  0.6693699841793112  0.8364251807409878  0.8764855814415107
  0.1643804651678586  0.1631269466106399  0.3721078954323999
  0.1688372778275163  0.1613274986242449  0.8728528828107283
  0.1676143783330371  0.6647339030997155  0.3776735945644745
  0.1699109179503059  0.6631301841709841  0.8734946291768122
  0.5056514686770320  0.1617750233301527  0.3730541464361883
  0.5028262856187101  0.1627174019544005  0.8734563732051692
  0.5037578931732291  0.6631227017768117  0.3748054289052057
  0.5025632837421433  0.6630545518413091  0.8732757919880806
  0.8396325854830083  0.1613905839197176  0.3719949687532995
  0.8364210131791701  0.1630073515975929  0.8730080132139413
  0.8330896890952184  0.6655183359602046  0.3765376056085158
  0.8352831293761069  0.6637056318690715  0.8731025423778677
  0.1724215756886497  0.4151492953805044  0.2499997054826240
  0.1668489723889620  0.4124380833890022  0.7500004733091887
  0.1686018452717409  0.8996989317694319  0.2499999788794790
  0.1678528380307604  0.9102743490563063  0.7500001616938911
  0.5002675676766971  0.4126608453791804  0.2500002695473810
  0.5000162402270869  0.4118948560118597  0.7500000174927639
  0.5029024650621997  0.9110384150802052  0.2500000804744993
  0.5004481950523556  0.9117704591229819  0.7500006095901141
  0.8349277039815618  0.4161179047883110  0.2499999819243044
  0.8332113405570398  0.4128131686713283  0.7500001934059691
  0.8297424666001593  0.9105159177267722  0.2499997894610092
  0.8330043304741551  0.9111677427189144  0.7499992909198907
  0.0018162944235652  0.0911332488263000 -0.0055356067616337
  0.0018169601935866  0.0911341272580924  0.5055351086041965
 -0.0008586538853308  0.5882604867278887 -0.0004854770041623
 -0.0008581713889841  0.5882609258649646  0.5004855068323343
  0.3346507096429662  0.0881762664609543  0.0003142295454594
  0.3346505699797737  0.0881761129287953  0.4996860395457635
  0.3340550646353864  0.5868499014649674 -0.0002543877929426
  0.3340535646591833  0.5868471479511261  0.5002581214368768
  0.6675690100040538  0.0881906796734836 -0.0007200784653217
  0.6675693250726535  0.0881908209158085  0.5007194454120287
  0.6661888875410255  0.5862651840014856 -0.0011074770931019
  0.6661889014453672  0.5862652149077147  0.5011074419414081
  0.2046102682299172  0.0455515449405869  0.2500001544193667
  0.0400564723489672  0.1688570845575444  0.4102572904302471
  0.0336102624209820  0.1542604148510947  0.8860050492772014
  0.0341565177534944  0.6579443133071886  0.3971162237315216
  0.0352484817865251  0.6564027506197415  0.8959895136541736
  0.3717575810722130  0.1574297455024397  0.3969593340019299
  0.3687640517081058  0.1569150134755316  0.8957191204055082
  0.3698805731708255  0.6556244241119515  0.3967154934900000
  0.3689809773724522  0.6561236735937461  0.8961105151337795
  0.7029277910595864  0.1581058410227681  0.3976683087151565
  0.7024149589287317  0.1564309953852758  0.8948880596518713
  0.7012606452251462  0.6550974025237103  0.3973477760603917
  0.7016267065998038  0.6557254225751263  0.8955101457306568
  0.2017049356219971  0.0502244312882288  0.7500004732807891
  0.2001289602933308  0.5565454502779672  0.2500006961413296
  0.2015856842281010  0.5519866824560361  0.7499999877581348
  0.5375321932767115  0.0506625192668722  0.2500000454296281
  0.5341378053096668  0.0518235758012191  0.7500001556763897
  0.5334512703499484  0.5529262585312250  0.2500000563619115
  0.5336274567772941  0.5520175905193140  0.7499998286987944
  0.8517848630419840  0.0527561217619294  0.2500005448530899
  0.8655903601112128  0.0514297616243006  0.7499994426484666
  0.8680341727769009  0.5567765108808032  0.2499991003045445
  0.8668667887432030  0.5529226896060720  0.7499997810346571
  0.0610630725297504  0.4118736773424916  0.7500001643687912
  0.0651072531126645  0.8765725611766155  0.2499990492462133
  0.0621256988245051  0.9057797016605393  0.7499996442121755
  0.3940369062718905  0.4100315040292912  0.2500001156633032
  0.3941746939316538  0.4091513099206785  0.7499996253878426
  0.3972963583458615  0.9084484840422276  0.2499998220565542
  0.3946381516813065  0.9088085973589543  0.7499999507704493
  0.7292483212806495  0.4119972867759683  0.2500003798948986
  0.7274143723374451  0.4096124204947555  0.7500001371550175
  0.7241146495541806  0.8953300237284013  0.2499990612002558
  0.7271678763337962  0.9069332201315337  0.7499995028817185
  0.2287592536102095  0.0915974430165331  0.0020075307194982
  0.2287589560811051  0.0915968048933078  0.4979928109163160
  0.2281020848362615  0.5889290035791621 -0.0000650201425225
  0.2281007672740627  0.5889222671775105  0.5000654523576142
  0.5616481884719047  0.0907419726346169 -0.0006424286182636
  0.5616484159171629  0.0907417953283069  0.5006423698531846
  0.5604205588679486  0.5891674660850431 -0.0011017536707828
  0.5604205390081770  0.5891671753734561  0.5011019052413516
  0.8957355808614784  0.0920668872495881 -0.0014898347960730
  0.8957362981183050  0.0920665638296756  0.5014906888340317
  0.8934323632961783  0.5901689983799806 -0.0008511021524838
  0.8934328835733517  0.5901700363361955  0.5008496305760948
  0.2014253307018860  0.3453195285439353  0.1450768250363911
  0.2015588160793314  0.3426327662288883  0.6463550695490365
  0.2074455877518400  0.8375340926617921  0.1438277052808415
  0.2033333166831016  0.8416699027407707  0.6460462128604960
  0.5353417010332330  0.3436269349920613  0.1463247591260981
  0.5353090647330184  0.3426995232926370  0.6463894796919309
  0.5367956532725697  0.8416883544935402  0.1456770116024101
  0.5356110172228585  0.8426536037949843  0.6461999221575699
  0.8707455157936312  0.3471881264538615  0.1465088122509345
  0.8686098579062492  0.3439518120635335  0.6462433197282001
  0.8682467418918292  0.8430586645490433  0.1464068339069986
  0.8687875447276758  0.8426070748974005  0.6461821354819294
  0.0400573886064747  0.1688560602977184  0.0897404089468104
  0.0336111443751178  0.1542617239719205  0.6139941497342842
  0.0341561058301655  0.6579441893766272  0.1028835800096329
  0.0352491988272738  0.6564046687738259  0.6040097668188819
  0.3717572165886014  0.1574300007800258  0.1030410600282361
  0.3687646291996303  0.1569134246269498  0.6042814367439701
  0.3698806770127058  0.6556258065535007  0.1032900612488488
  0.3689800915727868  0.6561211035826539  0.6038922896850362
  0.7029272293520503  0.1581057100355869  0.1023314308392030
  0.7024150456604058  0.1564311250643374  0.6051114686481481
  0.7012604498099134  0.6550971247405719  0.1026521252531072
  0.7016267818556453  0.6557251853333426  0.6044898299686063
  0.0336925185918976  0.4482096000118068  0.0008985823188307
  0.0336934816152149  0.4482099895566752  0.4991015882018727
  0.0359795261561416  0.9510263265524586 -0.0019056726530688
  0.0359802932805342  0.9510271013845576  0.5019040497241061
  0.3676008409592421  0.4466176268413599 -0.0005410815546756
  0.3676007239348989  0.4466165385024657  0.5005431788834103
  0.3684273092737064  0.9481677942277206 -0.0003046063890309
  0.3684272758171241  0.9481679205883470  0.5003040374946821
  0.6998874438916256  0.4462178977808927 -0.0008471243468457
  0.6998877491267166  0.4462180118458761  0.5008472024648674
  0.7011215309576450  0.9479848008507831 -0.0003264576657969
  0.7011222543088034  0.9479849326264512  0.5003257454673001
  0.2014263264578963  0.3453194540373185  0.3549218041574206
  0.2015591451714927  0.3426331436629562  0.8536454347585954
  0.2074442420458327  0.8375338614555227  0.3561729972675916
  0.2033331273169424  0.8416695450848897  0.8539537856535507
  0.5353416030050044  0.3436269688756827  0.3536755785114347
  0.5353084382535557  0.3426995910652175  0.8536108367453002
  0.5367952562520388  0.8416873223004711  0.3543229642256656
  0.5356108553114399  0.8426521291285550  0.8538007906920038
  0.8707458179463994  0.3471879615968069  0.3534909602449715
  0.8686100308387275  0.3439510456790834  0.8537575131714130
  0.8682479164969148  0.8430582380932345  0.3535924726176465
  0.8687878939418292  0.8426062549435192  0.8538161707727431
 
  0.00000000E+00  0.00000000E+00  0.00000000E+00
  0.00000000E+00  0.00000000E+00  0.00000000E+00
  0.00000000E+00  0.00000000E+00  0.00000000E+00
  0.00000000E+00  0.00000000E+00  0.00000000E+00
  0.00000000E+00  0.00000000E+00  0.00000000E+00
  0.00000000E+00  0.00000000E+00  0.00000000E+00
  0.00000000E+00  0.00000000E+00  0.00000000E+00
  0.00000000E+00  0.00000000E+00  0.00000000E+00
  0.00000000E+00  0.00000000E+00  0.00000000E+00
  0.00000000E+00  0.00000000E+00  0.00000000E+00
  0.00000000E+00  0.00000000E+00  0.00000000E+00
  0.00000000E+00  0.00000000E+00  0.00000000E+00
  0.00000000E+00  0.00000000E+00  0.00000000E+00
  0.00000000E+00  0.00000000E+00  0.00000000E+00
  0.00000000E+00  0.00000000E+00  0.00000000E+00
  0.00000000E+00  0.00000000E+00  0.00000000E+00
  0.00000000E+00  0.00000000E+00  0.00000000E+00
  0.00000000E+00  0.00000000E+00  0.00000000E+00
  0.00000000E+00  0.00000000E+00  0.00000000E+00
  0.00000000E+00  0.00000000E+00  0.00000000E+00
  0.00000000E+00  0.00000000E+00  0.00000000E+00
  0.00000000E+00  0.00000000E+00  0.00000000E+00
  0.00000000E+00  0.00000000E+00  0.00000000E+00
  0.00000000E+00  0.00000000E+00  0.00000000E+00
  0.00000000E+00  0.00000000E+00  0.00000000E+00
  0.00000000E+00  0.00000000E+00  0.00000000E+00
  0.00000000E+00  0.00000000E+00  0.00000000E+00
  0.00000000E+00  0.00000000E+00  0.00000000E+00
  0.00000000E+00  0.00000000E+00  0.00000000E+00
  0.00000000E+00  0.00000000E+00  0.00000000E+00
  0.00000000E+00  0.00000000E+00  0.00000000E+00
  0.00000000E+00  0.00000000E+00  0.00000000E+00
  0.00000000E+00  0.00000000E+00  0.00000000E+00
  0.00000000E+00  0.00000000E+00  0.00000000E+00
  0.00000000E+00  0.00000000E+00  0.00000000E+00
  0.00000000E+00  0.00000000E+00  0.00000000E+00
  0.00000000E+00  0.00000000E+00  0.00000000E+00
  0.00000000E+00  0.00000000E+00  0.00000000E+00
  0.00000000E+00  0.00000000E+00  0.00000000E+00
  0.00000000E+00  0.00000000E+00  0.00000000E+00
  0.00000000E+00  0.00000000E+00  0.00000000E+00
  0.00000000E+00  0.00000000E+00  0.00000000E+00
  0.00000000E+00  0.00000000E+00  0.00000000E+00
  0.00000000E+00  0.00000000E+00  0.00000000E+00
  0.00000000E+00  0.00000000E+00  0.00000000E+00
  0.00000000E+00  0.00000000E+00  0.00000000E+00
  0.00000000E+00  0.00000000E+00  0.00000000E+00
  0.00000000E+00  0.00000000E+00  0.00000000E+00
  0.00000000E+00  0.00000000E+00  0.00000000E+00
  0.00000000E+00  0.00000000E+00  0.00000000E+00
  0.00000000E+00  0.00000000E+00  0.00000000E+00
  0.00000000E+00  0.00000000E+00  0.00000000E+00
  0.00000000E+00  0.00000000E+00  0.00000000E+00
  0.00000000E+00  0.00000000E+00  0.00000000E+00
  0.00000000E+00  0.00000000E+00  0.00000000E+00
  0.00000000E+00  0.00000000E+00  0.00000000E+00
  0.00000000E+00  0.00000000E+00  0.00000000E+00
  0.00000000E+00  0.00000000E+00  0.00000000E+00
  0.00000000E+00  0.00000000E+00  0.00000000E+00
  0.00000000E+00  0.00000000E+00  0.00000000E+00
  0.00000000E+00  0.00000000E+00  0.00000000E+00
  0.00000000E+00  0.00000000E+00  0.00000000E+00
  0.00000000E+00  0.00000000E+00  0.00000000E+00
  0.00000000E+00  0.00000000E+00  0.00000000E+00
  0.00000000E+00  0.00000000E+00  0.00000000E+00
  0.00000000E+00  0.00000000E+00  0.00000000E+00
  0.00000000E+00  0.00000000E+00  0.00000000E+00
  0.00000000E+00  0.00000000E+00  0.00000000E+00
  0.00000000E+00  0.00000000E+00  0.00000000E+00
  0.00000000E+00  0.00000000E+00  0.00000000E+00
  0.00000000E+00  0.00000000E+00  0.00000000E+00
  0.00000000E+00  0.00000000E+00  0.00000000E+00
  0.00000000E+00  0.00000000E+00  0.00000000E+00
  0.00000000E+00  0.00000000E+00  0.00000000E+00
  0.00000000E+00  0.00000000E+00  0.00000000E+00
  0.00000000E+00  0.00000000E+00  0.00000000E+00
  0.00000000E+00  0.00000000E+00  0.00000000E+00
  0.00000000E+00  0.00000000E+00  0.00000000E+00
  0.00000000E+00  0.00000000E+00  0.00000000E+00
  0.00000000E+00  0.00000000E+00  0.00000000E+00
  0.00000000E+00  0.00000000E+00  0.00000000E+00
  0.00000000E+00  0.00000000E+00  0.00000000E+00
  0.00000000E+00  0.00000000E+00  0.00000000E+00
  0.00000000E+00  0.00000000E+00  0.00000000E+00
  0.00000000E+00  0.00000000E+00  0.00000000E+00
  0.00000000E+00  0.00000000E+00  0.00000000E+00
  0.00000000E+00  0.00000000E+00  0.00000000E+00
  0.00000000E+00  0.00000000E+00  0.00000000E+00
  0.00000000E+00  0.00000000E+00  0.00000000E+00
  0.00000000E+00  0.00000000E+00  0.00000000E+00
  0.00000000E+00  0.00000000E+00  0.00000000E+00
  0.00000000E+00  0.00000000E+00  0.00000000E+00
  0.00000000E+00  0.00000000E+00  0.00000000E+00
  0.00000000E+00  0.00000000E+00  0.00000000E+00
  0.00000000E+00  0.00000000E+00  0.00000000E+00
  0.00000000E+00  0.00000000E+00  0.00000000E+00
  0.00000000E+00  0.00000000E+00  0.00000000E+00
  0.00000000E+00  0.00000000E+00  0.00000000E+00
  0.00000000E+00  0.00000000E+00  0.00000000E+00
  0.00000000E+00  0.00000000E+00  0.00000000E+00
  0.00000000E+00  0.00000000E+00  0.00000000E+00
  0.00000000E+00  0.00000000E+00  0.00000000E+00
  0.00000000E+00  0.00000000E+00  0.00000000E+00
  0.00000000E+00  0.00000000E+00  0.00000000E+00
  0.00000000E+00  0.00000000E+00  0.00000000E+00
  0.00000000E+00  0.00000000E+00  0.00000000E+00
  0.00000000E+00  0.00000000E+00  0.00000000E+00
  0.00000000E+00  0.00000000E+00  0.00000000E+00
  0.00000000E+00  0.00000000E+00  0.00000000E+00
  0.00000000E+00  0.00000000E+00  0.00000000E+00
  0.00000000E+00  0.00000000E+00  0.00000000E+00
  0.00000000E+00  0.00000000E+00  0.00000000E+00
  0.00000000E+00  0.00000000E+00  0.00000000E+00
  0.00000000E+00  0.00000000E+00  0.00000000E+00
  0.00000000E+00  0.00000000E+00  0.00000000E+00
  0.00000000E+00  0.00000000E+00  0.00000000E+00
  0.00000000E+00  0.00000000E+00  0.00000000E+00
  0.00000000E+00  0.00000000E+00  0.00000000E+00
  0.00000000E+00  0.00000000E+00  0.00000000E+00
  0.00000000E+00  0.00000000E+00  0.00000000E+00
  0.00000000E+00  0.00000000E+00  0.00000000E+00
  0.00000000E+00  0.00000000E+00  0.00000000E+00
  0.00000000E+00  0.00000000E+00  0.00000000E+00
  0.00000000E+00  0.00000000E+00  0.00000000E+00
  0.00000000E+00  0.00000000E+00  0.00000000E+00
  0.00000000E+00  0.00000000E+00  0.00000000E+00
  0.00000000E+00  0.00000000E+00  0.00000000E+00
  0.00000000E+00  0.00000000E+00  0.00000000E+00
  0.00000000E+00  0.00000000E+00  0.00000000E+00
  0.00000000E+00  0.00000000E+00  0.00000000E+00
  0.00000000E+00  0.00000000E+00  0.00000000E+00
  0.00000000E+00  0.00000000E+00  0.00000000E+00
  0.00000000E+00  0.00000000E+00  0.00000000E+00
  0.00000000E+00  0.00000000E+00  0.00000000E+00
  0.00000000E+00  0.00000000E+00  0.00000000E+00
  0.00000000E+00  0.00000000E+00  0.00000000E+00
  0.00000000E+00  0.00000000E+00  0.00000000E+00
  0.00000000E+00  0.00000000E+00  0.00000000E+00
  0.00000000E+00  0.00000000E+00  0.00000000E+00
  0.00000000E+00  0.00000000E+00  0.00000000E+00
  0.00000000E+00  0.00000000E+00  0.00000000E+00
  0.00000000E+00  0.00000000E+00  0.00000000E+00
  0.00000000E+00  0.00000000E+00  0.00000000E+00
  0.00000000E+00  0.00000000E+00  0.00000000E+00
  0.00000000E+00  0.00000000E+00  0.00000000E+00
  0.00000000E+00  0.00000000E+00  0.00000000E+00
  0.00000000E+00  0.00000000E+00  0.00000000E+00
  0.00000000E+00  0.00000000E+00  0.00000000E+00
  0.00000000E+00  0.00000000E+00  0.00000000E+00
  0.00000000E+00  0.00000000E+00  0.00000000E+00
  0.00000000E+00  0.00000000E+00  0.00000000E+00
  0.00000000E+00  0.00000000E+00  0.00000000E+00
  0.00000000E+00  0.00000000E+00  0.00000000E+00
  0.00000000E+00  0.00000000E+00  0.00000000E+00
  0.00000000E+00  0.00000000E+00  0.00000000E+00
  0.00000000E+00  0.00000000E+00  0.00000000E+00
  0.00000000E+00  0.00000000E+00  0.00000000E+00
  0.00000000E+00  0.00000000E+00  0.00000000E+00
  0.00000000E+00  0.00000000E+00  0.00000000E+00
  0.00000000E+00  0.00000000E+00  0.00000000E+00
  0.00000000E+00  0.00000000E+00  0.00000000E+00
  0.00000000E+00  0.00000000E+00  0.00000000E+00
  0.00000000E+00  0.00000000E+00  0.00000000E+00
  0.00000000E+00  0.00000000E+00  0.00000000E+00
  0.00000000E+00  0.00000000E+00  0.00000000E+00
  0.00000000E+00  0.00000000E+00  0.00000000E+00
  0.00000000E+00  0.00000000E+00  0.00000000E+00
  0.00000000E+00  0.00000000E+00  0.00000000E+00
  0.00000000E+00  0.00000000E+00  0.00000000E+00
  0.00000000E+00  0.00000000E+00  0.00000000E+00
  0.00000000E+00  0.00000000E+00  0.00000000E+00
  0.00000000E+00  0.00000000E+00  0.00000000E+00
  0.00000000E+00  0.00000000E+00  0.00000000E+00
  0.00000000E+00  0.00000000E+00  0.00000000E+00
  0.00000000E+00  0.00000000E+00  0.00000000E+00
  0.00000000E+00  0.00000000E+00  0.00000000E+00
  0.00000000E+00  0.00000000E+00  0.00000000E+00
  0.00000000E+00  0.00000000E+00  0.00000000E+00
  0.00000000E+00  0.00000000E+00  0.00000000E+00
  0.00000000E+00  0.00000000E+00  0.00000000E+00
  0.00000000E+00  0.00000000E+00  0.00000000E+00
  0.00000000E+00  0.00000000E+00  0.00000000E+00
  0.00000000E+00  0.00000000E+00  0.00000000E+00
  0.00000000E+00  0.00000000E+00  0.00000000E+00
  0.00000000E+00  0.00000000E+00  0.00000000E+00
  0.00000000E+00  0.00000000E+00  0.00000000E+00
  0.00000000E+00  0.00000000E+00  0.00000000E+00
  0.00000000E+00  0.00000000E+00  0.00000000E+00
  0.00000000E+00  0.00000000E+00  0.00000000E+00
  0.00000000E+00  0.00000000E+00  0.00000000E+00
