Li61 P7 N32                             
   1.00000000000000     
     0.0084434346264771    9.4754678862335222    0.0084158340399124
     0.0146273818331851    0.0089235571644808    9.5651578406393867
     9.5523960292782224    0.0085727919885250    0.0147544874576467
   Li   P    N 
    61     7    32
Direct
  0.5074023523020014 -0.0014796365305608  0.4971863244319851
  0.0163195316491285  0.4864387937763106  0.0222219223993292
  0.5041046431416963  0.0031162917964847 -0.0024202056300344
  0.0117394246283727 -0.0035840318614205  0.5010096618289185
  0.5022474992676083  0.5069434596939977 -0.0025751036935632
  0.0149272187434163  0.4960344180866317  0.4977485656215310
  0.7591470914202580 -0.0015439936605838  0.4921248441553545
  0.2601248323708482  0.9959655685060591  0.4987305935580063
  0.7752224804437677  0.4977083910860047  0.4943877011200008
  0.2472451138660292  0.4952312514350550  0.4967066404137037
  0.2704687478366531 -0.0013953242858509 -0.0005692664982638
  0.7424260192808191  0.0020224301674168 -0.0056761576585561
  0.8349199429199198  0.5903489964797807  0.0748436189298513
  0.5117825308857356  0.2472084429303311  0.9855817016098345
  0.5116624917567026  0.7593831568936609  0.0077461816422270
  0.0009020205972683  0.4843658444912243  0.2627217697627803
  0.9822397090834670  0.5068847736466781  0.7239106068484594
  0.2449692983558374  0.2135780055060137  0.2210724859608881
  0.2615175220672148  0.7910601819750810  0.7847156462707019
  0.2797208512064319  0.2685124007269345  0.7168499224394669
  0.2702019805365938  0.7143993487348830  0.2875169667152068
  0.7646310401425015  0.2944205026388025  0.2974852857900535
  0.7761926777027717  0.6921044053892601  0.6914526283419041
  0.7513750405346236  0.1952345441315525  0.7965210017737842
  0.7446670943198295  0.8014710180243693  0.1951811623440516
 -0.0051628455814274  0.2447072306850568  0.2445835287527708
  0.9900642865984408  0.7733175704177208  0.7546830312115531
  0.2725250677185916  0.2416285150856099  0.4722908481104734
  0.2716864954720584  0.7503059741874033  0.5320722083426677
  0.7531685967636574  0.2299955592662468  0.5390857974496799
  0.7529044319871316  0.7634062924936073  0.4503003367843801
  0.7455879989306458  0.5458515290016688  0.2759505043178510
  0.7337867929199300  0.4331785853326923  0.7066047560785295
  0.0182227434187662  0.2560491891461206  0.0156910145923563
  0.1078394138270358  0.6163599064554942  0.8554787609608939
  0.5202758097292339  0.7448630224253306  0.2487707961986595
  0.5239757488593517  0.2541073491933571  0.7446335291511275
  0.2459665550030699  0.9700778133869372  0.2538226166915962
  0.2418544212745039  0.0259833913018042  0.7433630686227376
  0.2678716455949878  0.2390012357459228  0.9684382290371555
  0.2697945600290757  0.7592450901123381  0.0394027420571300
  0.7590628470246368  0.9491903425574053  0.7252833427310698
  0.7671330912870364  0.0389489114836342  0.2545960317647498
  0.7632312178544488  0.7804361149453112  0.9476893463726016
  0.6805837854984093  0.4222778105151020  0.0860439530691880
  0.0261176035427193  0.2582170170746780  0.7636477148849993
  0.0207154475925761  0.7432468225633595  0.2422800137041391
  0.4948882774419304  0.2636146228648117  0.2443942444591574
  0.5057347954032314  0.7375349945501474  0.7461741454149153
  0.7683258057873960  0.2206006557326798  0.0470999744854279
  0.0053945358194319  0.7533903976694569 -0.0012300803372235
  0.5116872525993971  0.2370067362524980  0.4929082520983267
  0.5119124501461086  0.7600813356353816  0.4999501726930408
  0.4967157666371221  0.5143497206883708  0.2387045811412926
  0.5011411368147005  0.4843294452790534  0.7599962878997941
  0.0067682509707600 -0.0060312518935096  0.2633170856418449
  0.0025480300259399  0.0152427750730262  0.7399536082566696
  0.2465114452288048  0.4624981106996159  0.2594775410787364
  0.2652931020510589  0.5142461984149946  0.7293697316548271
  0.8413565358208925  0.4070189942416086  0.9167339194897426
  0.6909822041782344  0.5743653362384438  0.9000693398580014
  0.5067536514579827  0.4982043235616029  0.4993176387791232
  0.0102865337849155  0.0024622578677279  0.0011857865492374
  0.2609830443512787  0.4969125814744514  0.0032783560533939
  0.0105635564638634  0.7460477340167914  0.4997501125196455
  0.0114198858284985  0.2471814825093733  0.5015095402543631
  0.5058699010614857  0.0028226715560975  0.2467119648888618
  0.5049519043861819  0.9982147197161886  0.7479621154830337
  0.6120893890189610  0.5957151162077733  0.6037983863865223
  0.6101407803315894  0.4006132861880744  0.3938544607402022
  0.9031477623952701  0.9010206588316507  0.1006983450201525
  0.9083291524324110  0.1088536670296814  0.9032208968822715
  0.1118548284896702  0.9015728604028512  0.8939297565602341
  0.1159755320385930  0.0961317838023240  0.1065322358971774
  0.4021333404481217  0.6044099228244695  0.4038860360779298
  0.4032721690435099  0.3922984199298455  0.5980271252458698
  0.1123689683159172  0.3456092029266922  0.3927319907720030
  0.1083256408246835  0.6484180339599764  0.6147291201843845
  0.1205766284013011  0.1486274890290211  0.6030002321850448
  0.1218034390082562  0.8445599417257961  0.4006277275438951
  0.9003230994318708  0.1457706450399169  0.4063339820810312
  0.8953623497789148  0.8493128000249988  0.5895022175297931
  0.8747601891884709  0.3816450745132302  0.1323295269259991
  0.8892214583831924  0.6224289076612551  0.8720048613982568
  0.1604043668950787  0.5969920036245651  0.1134615082542311
  0.1580871706888702  0.4032700965930823  0.8902501673821839
  0.4057676668271663  0.8938123916102416  0.1484691015800904
  0.4036335890254384  0.1084697934592725  0.8442797987001609
  0.3960168706468151  0.1010091982149427  0.3482278932268117
  0.3971306834587327  0.8968465966295849  0.6487486633546798
  0.3608836629944084  0.3870271565983030  0.0985510163194609
  0.3498026331764109  0.6125879914519138  0.8983743294451356
  0.6185842777820094  0.0919305593835528  0.6456013373230013
  0.6189833825032952  0.9060792128298775  0.3469360258994754
  0.6402414715827173  0.6313795157141331  0.1113879601368924
  0.6431765273651964  0.3693324608283204  0.8791448812102437
  0.9098398464190632  0.3499028320136528  0.6065094964915798
  0.9135987040014831  0.6422154493102118  0.3937611655174044
  0.6044656277563456  0.1100262489895324  0.1444488070837922
  0.6040938546826237  0.8930263273475753  0.8517179589179522
 
  0.00000000E+00  0.00000000E+00  0.00000000E+00
  0.00000000E+00  0.00000000E+00  0.00000000E+00
  0.00000000E+00  0.00000000E+00  0.00000000E+00
  0.00000000E+00  0.00000000E+00  0.00000000E+00
  0.00000000E+00  0.00000000E+00  0.00000000E+00
  0.00000000E+00  0.00000000E+00  0.00000000E+00
  0.00000000E+00  0.00000000E+00  0.00000000E+00
  0.00000000E+00  0.00000000E+00  0.00000000E+00
  0.00000000E+00  0.00000000E+00  0.00000000E+00
  0.00000000E+00  0.00000000E+00  0.00000000E+00
  0.00000000E+00  0.00000000E+00  0.00000000E+00
  0.00000000E+00  0.00000000E+00  0.00000000E+00
  0.00000000E+00  0.00000000E+00  0.00000000E+00
  0.00000000E+00  0.00000000E+00  0.00000000E+00
  0.00000000E+00  0.00000000E+00  0.00000000E+00
  0.00000000E+00  0.00000000E+00  0.00000000E+00
  0.00000000E+00  0.00000000E+00  0.00000000E+00
  0.00000000E+00  0.00000000E+00  0.00000000E+00
  0.00000000E+00  0.00000000E+00  0.00000000E+00
  0.00000000E+00  0.00000000E+00  0.00000000E+00
  0.00000000E+00  0.00000000E+00  0.00000000E+00
  0.00000000E+00  0.00000000E+00  0.00000000E+00
  0.00000000E+00  0.00000000E+00  0.00000000E+00
  0.00000000E+00  0.00000000E+00  0.00000000E+00
  0.00000000E+00  0.00000000E+00  0.00000000E+00
  0.00000000E+00  0.00000000E+00  0.00000000E+00
  0.00000000E+00  0.00000000E+00  0.00000000E+00
  0.00000000E+00  0.00000000E+00  0.00000000E+00
  0.00000000E+00  0.00000000E+00  0.00000000E+00
  0.00000000E+00  0.00000000E+00  0.00000000E+00
  0.00000000E+00  0.00000000E+00  0.00000000E+00
  0.00000000E+00  0.00000000E+00  0.00000000E+00
  0.00000000E+00  0.00000000E+00  0.00000000E+00
  0.00000000E+00  0.00000000E+00  0.00000000E+00
  0.00000000E+00  0.00000000E+00  0.00000000E+00
  0.00000000E+00  0.00000000E+00  0.00000000E+00
  0.00000000E+00  0.00000000E+00  0.00000000E+00
  0.00000000E+00  0.00000000E+00  0.00000000E+00
  0.00000000E+00  0.00000000E+00  0.00000000E+00
  0.00000000E+00  0.00000000E+00  0.00000000E+00
  0.00000000E+00  0.00000000E+00  0.00000000E+00
  0.00000000E+00  0.00000000E+00  0.00000000E+00
  0.00000000E+00  0.00000000E+00  0.00000000E+00
  0.00000000E+00  0.00000000E+00  0.00000000E+00
  0.00000000E+00  0.00000000E+00  0.00000000E+00
  0.00000000E+00  0.00000000E+00  0.00000000E+00
  0.00000000E+00  0.00000000E+00  0.00000000E+00
  0.00000000E+00  0.00000000E+00  0.00000000E+00
  0.00000000E+00  0.00000000E+00  0.00000000E+00
  0.00000000E+00  0.00000000E+00  0.00000000E+00
  0.00000000E+00  0.00000000E+00  0.00000000E+00
  0.00000000E+00  0.00000000E+00  0.00000000E+00
  0.00000000E+00  0.00000000E+00  0.00000000E+00
  0.00000000E+00  0.00000000E+00  0.00000000E+00
  0.00000000E+00  0.00000000E+00  0.00000000E+00
  0.00000000E+00  0.00000000E+00  0.00000000E+00
  0.00000000E+00  0.00000000E+00  0.00000000E+00
  0.00000000E+00  0.00000000E+00  0.00000000E+00
  0.00000000E+00  0.00000000E+00  0.00000000E+00
  0.00000000E+00  0.00000000E+00  0.00000000E+00
  0.00000000E+00  0.00000000E+00  0.00000000E+00
  0.00000000E+00  0.00000000E+00  0.00000000E+00
  0.00000000E+00  0.00000000E+00  0.00000000E+00
  0.00000000E+00  0.00000000E+00  0.00000000E+00
  0.00000000E+00  0.00000000E+00  0.00000000E+00
  0.00000000E+00  0.00000000E+00  0.00000000E+00
  0.00000000E+00  0.00000000E+00  0.00000000E+00
  0.00000000E+00  0.00000000E+00  0.00000000E+00
  0.00000000E+00  0.00000000E+00  0.00000000E+00
  0.00000000E+00  0.00000000E+00  0.00000000E+00
  0.00000000E+00  0.00000000E+00  0.00000000E+00
  0.00000000E+00  0.00000000E+00  0.00000000E+00
  0.00000000E+00  0.00000000E+00  0.00000000E+00
  0.00000000E+00  0.00000000E+00  0.00000000E+00
  0.00000000E+00  0.00000000E+00  0.00000000E+00
  0.00000000E+00  0.00000000E+00  0.00000000E+00
  0.00000000E+00  0.00000000E+00  0.00000000E+00
  0.00000000E+00  0.00000000E+00  0.00000000E+00
  0.00000000E+00  0.00000000E+00  0.00000000E+00
  0.00000000E+00  0.00000000E+00  0.00000000E+00
  0.00000000E+00  0.00000000E+00  0.00000000E+00
  0.00000000E+00  0.00000000E+00  0.00000000E+00
  0.00000000E+00  0.00000000E+00  0.00000000E+00
  0.00000000E+00  0.00000000E+00  0.00000000E+00
  0.00000000E+00  0.00000000E+00  0.00000000E+00
  0.00000000E+00  0.00000000E+00  0.00000000E+00
  0.00000000E+00  0.00000000E+00  0.00000000E+00
  0.00000000E+00  0.00000000E+00  0.00000000E+00
  0.00000000E+00  0.00000000E+00  0.00000000E+00
  0.00000000E+00  0.00000000E+00  0.00000000E+00
  0.00000000E+00  0.00000000E+00  0.00000000E+00
  0.00000000E+00  0.00000000E+00  0.00000000E+00
  0.00000000E+00  0.00000000E+00  0.00000000E+00
  0.00000000E+00  0.00000000E+00  0.00000000E+00
  0.00000000E+00  0.00000000E+00  0.00000000E+00
  0.00000000E+00  0.00000000E+00  0.00000000E+00
  0.00000000E+00  0.00000000E+00  0.00000000E+00
  0.00000000E+00  0.00000000E+00  0.00000000E+00
  0.00000000E+00  0.00000000E+00  0.00000000E+00
  0.00000000E+00  0.00000000E+00  0.00000000E+00
