Li1 O8                                  
   1.00000000000000     
     4.6827329999999998    0.0306750000000000    1.9160400000000000
     2.3405830000000001    4.4531029999999996    1.5412150000000000
     0.5423430000000000   -0.3404670000000000    5.0690739999999996
   Li   O 
     1     8
Direct
  0.4955300000000022  0.8037059999999983  0.8037059999999983
  0.8420980000000000  0.3333579999999969  0.8203930000000028
  0.1505999999999972  0.2332970000000003  0.6996170000000035
  0.1505999999999972  0.6996170000000035  0.2332970000000003
  0.8420980000000000  0.8203930000000028  0.3333579999999969
  0.8380170000000007  0.2558220000000020  0.2558220000000020
  0.1537130000000033  0.7412250000000000  0.7412250000000000
  0.1420590000000033  0.1525490000000005  0.1525490000000005
  0.8436179999999993  0.8647950000000009  0.8647950000000009
 
  0.00000000E+00  0.00000000E+00  0.00000000E+00
  0.00000000E+00  0.00000000E+00  0.00000000E+00
  0.00000000E+00  0.00000000E+00  0.00000000E+00
  0.00000000E+00  0.00000000E+00  0.00000000E+00
  0.00000000E+00  0.00000000E+00  0.00000000E+00
  0.00000000E+00  0.00000000E+00  0.00000000E+00
  0.00000000E+00  0.00000000E+00  0.00000000E+00
  0.00000000E+00  0.00000000E+00  0.00000000E+00
  0.00000000E+00  0.00000000E+00  0.00000000E+00
