Li71 P24 N1 O94                         
   1.00000000000000     
    14.7225615261350615   -0.0043135061904332    0.0120127462879395
    -0.0031226193130212   10.5637813374666969   -0.0003602112289180
     0.0100493774465753   -0.0004225767851955   12.3409717261064706
   Li   P    N    O 
    71    24     1    94
Direct
  0.1675060967891771  0.4233662465257532  0.0011418781430719
  0.1683256902439234  0.4226738258743244  0.4998156027766090
  0.1588712528167579  0.8922323728756804  0.0016276173727521
  0.1700230623059307  0.9215712109403242  0.4978070537267901
  0.5034956921500126  0.4220588415180873  0.0007057363257761
  0.5036132223401992  0.4212254849070975  0.5002927841262865
  0.5097368457123714  0.9183767481124604  0.0006564488364622
  0.5042622956376109  0.9218847336167085  0.5001534968420915
  0.8362021762555344  0.4243954162935856  0.0000119322677583
  0.8371753129961120  0.4223267932282277  0.4995014947912322
  0.8353274088513406  0.9250317942137827  0.0007761476007479
  0.8377607738041953  0.9256828371635168  0.4979820412238607
 -0.0018925433968552  0.0722174950384124  0.7463101161428067
  0.0027851146850403  0.5837012193496620  0.2503349879292956
  0.0016856368974630  0.5790692189478697  0.7489877835993742
  0.3404134854370606  0.0755044618475169  0.2560248925260193
  0.3364484885320743  0.0748911670469923  0.7472255753296918
  0.3375004965799593  0.5785033298929860  0.2515364571751058
  0.3373549837490637  0.5771083972360888  0.7493630565245332
  0.6782984511151571  0.0744966539432510  0.2510386921367512
  0.6707088779038745  0.0762475349536197  0.7488740231315384
  0.6705973224397185  0.5792963531672993  0.2506532906604477
  0.6695661243742167  0.5775218039010153  0.7497804653408831
  0.1479079771239307  0.1783071809395149  0.1558725158178994
  0.1684722563829647  0.1614385874442003  0.6246460552783846
  0.1684574941388202  0.6615774964023963  0.1270600629493984
  0.1692213815106272  0.6629864876628873  0.6258344408307075
  0.5102254645986437  0.1632156093256857  0.1299677784474246
  0.5033779406131015  0.1624012182153095  0.6264157134028027
  0.5039200966807326  0.6619607496459569  0.1268139532811804
  0.5031991371478690  0.6621504294556305  0.6263009113043440
  0.8399485446501860  0.1634580398795853  0.1271049001200478
  0.8367242337201737  0.1640004987479028  0.6250154148620385
  0.8357168430228541  0.6656885008318389  0.1260710054904608
  0.8356998635716039  0.6636353405608787  0.6260518064032277
  0.0004262452104877  0.3410066905538885  0.1229575782647745
  0.0027164987850670  0.3350312163993417  0.6241922593052254
 -0.0023705372031422  0.8452053378583277  0.1262978076087097
  0.0029763614977578  0.8370789940580636  0.6218041693040359
  0.3355499173495663  0.3390692915802369  0.1254768486633040
  0.3362506907363376  0.3358759143020794  0.6238327186906146
  0.3396104491488896  0.8345595658434711  0.1267964749621522
  0.3372852355408050  0.8354839681010866  0.6235581050905776
  0.6711790896756551  0.3374702639782572  0.1242005966404100
  0.6698536220879140  0.3359260753538752  0.6239706605528339
  0.6695026634941909  0.8340559175098189  0.1228543115734418
  0.6696045258676735  0.8357258520441814  0.6227739200640406
  0.0028684790854822  0.3358641904930505  0.3747241849365837
  0.0004822896699879  0.3375736617461317  0.8750379243920836
  0.0004365236491101  0.8429006002399066  0.3747775062118270
 -0.0000844069664264  0.8378995914328614  0.8750623510338938
  0.3373855245613444  0.3366505531478093  0.3768783493761864
  0.3350921548268468  0.3398181300062763  0.8761531575729455
  0.3381980527614498  0.8360178181384493  0.3767802608541671
  0.3364017402552861  0.8334692432997133  0.8750972729244191
  0.6710717084897178  0.3365920144201391  0.3764363389162416
  0.6697486216549799  0.3369282169801333  0.8759619495827324
  0.6695619576273654  0.8342767386962305  0.3787428376140278
  0.6699126288917664  0.8355359264351012  0.8757494930210610
  0.1688210017168846  0.1697510566350347  0.3778742832563178
  0.1584285775208273  0.1712718133158602  0.8546134090701606
  0.1681226596856963  0.6631381284616903  0.3757195855130028
  0.1691196777619951  0.6605690919175399  0.8722005071204342
  0.5063321236282092  0.1625568983965169  0.3745336966435200
  0.5075115443842889  0.1635949005180709  0.8715614668387991
  0.5039429329323606  0.6620880147612938  0.3747436030548335
  0.5031984038226294  0.6620096829874564  0.8736663902149160
  0.8409784356460419  0.1631060481250433  0.3713945503670936
  0.8351646944625202  0.1641044817222587  0.8724049078923468
  0.8365863065960404  0.6652886094852730  0.3739870427337209
  0.8350984760836024  0.6642266699287078  0.8731382000682441
  0.1678348896695711  0.4165265520229558  0.2504739146000520
  0.1667131375415915  0.4127095059767137  0.7496533736167170
  0.1682895575811049  0.9036647707604231  0.2495966375986695
  0.1671590453395523  0.9107471140937750  0.7511244657994407
  0.5011318901838226  0.4123072010064399  0.2504847417583122
  0.5000995673446796  0.4115021118374302  0.7501974261503653
  0.5029193229643055  0.9108973610640607  0.2509374433194126
  0.5005482110992260  0.9110956696493595  0.7503101825663125
  0.8337357755188635  0.4145915546855291  0.2497400498531294
  0.8329737246608446  0.4130392752379741  0.7499241638789093
  0.8286310168729620  0.9126339550413611  0.2496892563410773
  0.8320909030941491  0.9117261767724191  0.7491640813610146
  0.0010418743855568  0.0922092728161975 -0.0079245268114706
  0.0030764201536028  0.0909676441081856  0.5033323837156360
 -0.0001266188818524  0.5911173032617247 -0.0016682794715949
 -0.0000369812856509  0.5882250651376254  0.5007119991725316
  0.3402845706971061  0.0861994504709772  0.0008634333993371
  0.3353758501399136  0.0872048819877877  0.5007187800402627
  0.3337580419998609  0.5873508998729323  0.0001943465652184
  0.3342867442334522  0.5867189514052608  0.5006664950925701
  0.6661862313752737  0.0879880480228039 -0.0007729658388219
  0.6677508617257136  0.0877957909198518  0.5008637733907957
  0.6666720473312925  0.5869197730435776 -0.0005937649096520
  0.6672492150125353  0.5863081482787903  0.5008944251163558
  0.2056579134887908  0.0490116806842240  0.2455823877276862
  0.0427483034326048  0.1681790726493130  0.4087931545164243
  0.0319280108086306  0.1529963829329924  0.8819581110105953
  0.0351665194505400  0.6579585051251323  0.3975859358863722
  0.0353867194912937  0.6598335605261935  0.8941456124216860
  0.3722308938678406  0.1574562279406139  0.3984960131391954
  0.3672214291589213  0.1570181653063186  0.8950697631248432
  0.3703796076445539  0.6555438528781395  0.3972505663801804
  0.3691729120087494  0.6558467166729158  0.8961255954042550
  0.7027421175760517  0.1577239249597913  0.3978384033599499
  0.7004894675883461  0.1563000688247991  0.8946589068864855
  0.7025969736697284  0.6553908300846127  0.3974623129061637
  0.7015318072568046  0.6562081027088659  0.8955219484881863
  0.2017522288653404  0.0508821438849079  0.7523049454413460
  0.2020397970887768  0.5560645555122394  0.2503423602294189
  0.2020557327480989  0.5517433769910246  0.7498188261923570
  0.5369888217395751  0.0507590932017584  0.2508679718937795
  0.5339017703101142  0.0512986128307923  0.7503037216128370
  0.5345579107419904  0.5523981533967987  0.2503526516966675
  0.5335690548866647  0.5515593190709771  0.7501876674516804
  0.8506474542740063  0.0548902962694388  0.2489769214135698
  0.8639976141851055  0.0523117676740717  0.7490043189494286
  0.8673224765787481  0.5548684443462293  0.2494956137443581
  0.8666042816520416  0.5531567865709980  0.7500158425498168
  0.0622050693027964  0.4134595069464675  0.2494225921107829
  0.0611635451827503  0.4112370037771887  0.7501014439159613
  0.0649647290742689  0.8855099896758238  0.2493081625898154
  0.0617792478944285  0.9067487346751040  0.7500545314252781
  0.3952270947399819  0.4093850851663554  0.2504248049494753
  0.3942087903327370  0.4084367017980156  0.7503044230040098
  0.3971601582840632  0.9085510440462694  0.2508689500213750
  0.3945996632367390  0.9082413805741086  0.7508904065411279
  0.7278413751438431  0.4114523657749060  0.2502737809233428
  0.7271559006440143  0.4098014455284167  0.7497818135086424
  0.7229117705487484  0.8976274050728744  0.2504558023893749
  0.7263558083867029  0.9067998090776388  0.7491956563769001
  0.2295248389910184  0.0899871166913462  0.4993793082979999
  0.2278545803260039  0.5913162542821504  0.0000480296330671
  0.2284943870397579  0.5896751951517823  0.5007451861773475
  0.5598818250465030  0.0902904981356187 -0.0003195281098123
  0.5617583952942344  0.0896722103678155  0.5013323825764670
  0.5607610070456566  0.5898973320527515 -0.0002439582925065
  0.5613314526702053  0.5890295370881340  0.5008228547771635
  0.8953483493713621  0.0920013184287578 -0.0028654791457943
  0.8970283851835750  0.0927892575468990  0.5000288073450131
  0.8941143765706251  0.5936999603314106 -0.0011225273884709
  0.8941572582945141  0.5911135081278831  0.5008188444390254
  0.2029199729144405  0.3466484938013085  0.1466225693638697
  0.2019322501275481  0.3417581554057763  0.6468723454278814
  0.2076901965793258  0.8419478900620683  0.1426004505137849
  0.2040263922693694  0.8423014899268851  0.6482215629742260
  0.5362759745642031  0.3433717616340792  0.1464741895966906
  0.5354802280718357  0.3421027346811991  0.6468200251739866
  0.5366449253859267  0.8415925139590789  0.1463992126986514
  0.5354551045630843  0.8421443948169158  0.6465462982430454
  0.8682010938554469  0.3462594615508982  0.1452336922734324
  0.8687596040050706  0.3438653126751842  0.6466182313031422
  0.8660435904837417  0.8457760532320502  0.1453338964228279
  0.8687804456843604  0.8432859262051114  0.6459009756310174
  0.0404635468197710  0.1735765243383008  0.0837853344900420
  0.0347231227400284  0.1532897885605989  0.6126178694793381
  0.0357156334162852  0.6611953639862095  0.1009796688741564
  0.0354553627869029  0.6572580490852392  0.6046229679813178
  0.3707559090916567  0.1575092033047451  0.1044381631254362
  0.3691373080861460  0.1556360836321907  0.6055299081750004
  0.3698785239568574  0.6557343458213452  0.1036034551335691
  0.3694207074391888  0.6558577082668902  0.6044824215481789
  0.7012708642591783  0.1577166620467886  0.1020451327693066
  0.7024316542053960  0.1564709816630251  0.6050762296747851
  0.7020032628433662  0.6556534067005330  0.1028464803087441
  0.7018727341980990  0.6558924728670985  0.6046524139205102
  0.0334653556867008  0.4510939498043078 -0.0018705206090830
  0.0337556697338696  0.4482793353121368  0.5009230659003343
  0.0358626432018595  0.9522342692087385 -0.0020493079146427
  0.0361794357965865  0.9500758523991863  0.5003191901893032
  0.3668020603125539  0.4469476937713193  0.0000862103603159
  0.3678988810209834  0.4466176041644167  0.5009886020112402
  0.3700282647676503  0.9453778009512065 -0.0000700034142309
  0.3689572728830258  0.9472194611317518  0.5008386819574200
  0.7002098480961587  0.4469497608207685 -0.0008840209804887
  0.7009168422464049  0.4464076717318471  0.5010926408790949
  0.6990439283581122  0.9476117964441760 -0.0007297271920025
  0.7015107350491800  0.9478134777277848  0.5007140308250665
  0.2035308033168704  0.3470127151676554  0.3536033350596698
  0.2013198213452574  0.3427393802833706  0.8540098376951529
  0.2069092198417300  0.8377672834432709  0.3539421936186892
  0.2023181579454673  0.8429696074146534  0.8561279091000760
  0.5363908977546655  0.3430738194630401  0.3538950078997122
  0.5350629348779379  0.3426964125056328  0.8542178128260952
  0.5368721830565715  0.8414104178263143  0.3547844316012330
  0.5357015222518992  0.8420867112187141  0.8540394352873512
  0.8692526384422911  0.3456297298080001  0.3530452334724951
  0.8676727271825891  0.3444402190293334  0.8540899229207840
  0.8673406326734626  0.8455629396691686  0.3529040534184751
  0.8675576176150737  0.8440712850654748  0.8534939605400403
 
  0.00000000E+00  0.00000000E+00  0.00000000E+00
  0.00000000E+00  0.00000000E+00  0.00000000E+00
  0.00000000E+00  0.00000000E+00  0.00000000E+00
  0.00000000E+00  0.00000000E+00  0.00000000E+00
  0.00000000E+00  0.00000000E+00  0.00000000E+00
  0.00000000E+00  0.00000000E+00  0.00000000E+00
  0.00000000E+00  0.00000000E+00  0.00000000E+00
  0.00000000E+00  0.00000000E+00  0.00000000E+00
  0.00000000E+00  0.00000000E+00  0.00000000E+00
  0.00000000E+00  0.00000000E+00  0.00000000E+00
  0.00000000E+00  0.00000000E+00  0.00000000E+00
  0.00000000E+00  0.00000000E+00  0.00000000E+00
  0.00000000E+00  0.00000000E+00  0.00000000E+00
  0.00000000E+00  0.00000000E+00  0.00000000E+00
  0.00000000E+00  0.00000000E+00  0.00000000E+00
  0.00000000E+00  0.00000000E+00  0.00000000E+00
  0.00000000E+00  0.00000000E+00  0.00000000E+00
  0.00000000E+00  0.00000000E+00  0.00000000E+00
  0.00000000E+00  0.00000000E+00  0.00000000E+00
  0.00000000E+00  0.00000000E+00  0.00000000E+00
  0.00000000E+00  0.00000000E+00  0.00000000E+00
  0.00000000E+00  0.00000000E+00  0.00000000E+00
  0.00000000E+00  0.00000000E+00  0.00000000E+00
  0.00000000E+00  0.00000000E+00  0.00000000E+00
  0.00000000E+00  0.00000000E+00  0.00000000E+00
  0.00000000E+00  0.00000000E+00  0.00000000E+00
  0.00000000E+00  0.00000000E+00  0.00000000E+00
  0.00000000E+00  0.00000000E+00  0.00000000E+00
  0.00000000E+00  0.00000000E+00  0.00000000E+00
  0.00000000E+00  0.00000000E+00  0.00000000E+00
  0.00000000E+00  0.00000000E+00  0.00000000E+00
  0.00000000E+00  0.00000000E+00  0.00000000E+00
  0.00000000E+00  0.00000000E+00  0.00000000E+00
  0.00000000E+00  0.00000000E+00  0.00000000E+00
  0.00000000E+00  0.00000000E+00  0.00000000E+00
  0.00000000E+00  0.00000000E+00  0.00000000E+00
  0.00000000E+00  0.00000000E+00  0.00000000E+00
  0.00000000E+00  0.00000000E+00  0.00000000E+00
  0.00000000E+00  0.00000000E+00  0.00000000E+00
  0.00000000E+00  0.00000000E+00  0.00000000E+00
  0.00000000E+00  0.00000000E+00  0.00000000E+00
  0.00000000E+00  0.00000000E+00  0.00000000E+00
  0.00000000E+00  0.00000000E+00  0.00000000E+00
  0.00000000E+00  0.00000000E+00  0.00000000E+00
  0.00000000E+00  0.00000000E+00  0.00000000E+00
  0.00000000E+00  0.00000000E+00  0.00000000E+00
  0.00000000E+00  0.00000000E+00  0.00000000E+00
  0.00000000E+00  0.00000000E+00  0.00000000E+00
  0.00000000E+00  0.00000000E+00  0.00000000E+00
  0.00000000E+00  0.00000000E+00  0.00000000E+00
  0.00000000E+00  0.00000000E+00  0.00000000E+00
  0.00000000E+00  0.00000000E+00  0.00000000E+00
  0.00000000E+00  0.00000000E+00  0.00000000E+00
  0.00000000E+00  0.00000000E+00  0.00000000E+00
  0.00000000E+00  0.00000000E+00  0.00000000E+00
  0.00000000E+00  0.00000000E+00  0.00000000E+00
  0.00000000E+00  0.00000000E+00  0.00000000E+00
  0.00000000E+00  0.00000000E+00  0.00000000E+00
  0.00000000E+00  0.00000000E+00  0.00000000E+00
  0.00000000E+00  0.00000000E+00  0.00000000E+00
  0.00000000E+00  0.00000000E+00  0.00000000E+00
  0.00000000E+00  0.00000000E+00  0.00000000E+00
  0.00000000E+00  0.00000000E+00  0.00000000E+00
  0.00000000E+00  0.00000000E+00  0.00000000E+00
  0.00000000E+00  0.00000000E+00  0.00000000E+00
  0.00000000E+00  0.00000000E+00  0.00000000E+00
  0.00000000E+00  0.00000000E+00  0.00000000E+00
  0.00000000E+00  0.00000000E+00  0.00000000E+00
  0.00000000E+00  0.00000000E+00  0.00000000E+00
  0.00000000E+00  0.00000000E+00  0.00000000E+00
  0.00000000E+00  0.00000000E+00  0.00000000E+00
  0.00000000E+00  0.00000000E+00  0.00000000E+00
  0.00000000E+00  0.00000000E+00  0.00000000E+00
  0.00000000E+00  0.00000000E+00  0.00000000E+00
  0.00000000E+00  0.00000000E+00  0.00000000E+00
  0.00000000E+00  0.00000000E+00  0.00000000E+00
  0.00000000E+00  0.00000000E+00  0.00000000E+00
  0.00000000E+00  0.00000000E+00  0.00000000E+00
  0.00000000E+00  0.00000000E+00  0.00000000E+00
  0.00000000E+00  0.00000000E+00  0.00000000E+00
  0.00000000E+00  0.00000000E+00  0.00000000E+00
  0.00000000E+00  0.00000000E+00  0.00000000E+00
  0.00000000E+00  0.00000000E+00  0.00000000E+00
  0.00000000E+00  0.00000000E+00  0.00000000E+00
  0.00000000E+00  0.00000000E+00  0.00000000E+00
  0.00000000E+00  0.00000000E+00  0.00000000E+00
  0.00000000E+00  0.00000000E+00  0.00000000E+00
  0.00000000E+00  0.00000000E+00  0.00000000E+00
  0.00000000E+00  0.00000000E+00  0.00000000E+00
  0.00000000E+00  0.00000000E+00  0.00000000E+00
  0.00000000E+00  0.00000000E+00  0.00000000E+00
  0.00000000E+00  0.00000000E+00  0.00000000E+00
  0.00000000E+00  0.00000000E+00  0.00000000E+00
  0.00000000E+00  0.00000000E+00  0.00000000E+00
  0.00000000E+00  0.00000000E+00  0.00000000E+00
  0.00000000E+00  0.00000000E+00  0.00000000E+00
  0.00000000E+00  0.00000000E+00  0.00000000E+00
  0.00000000E+00  0.00000000E+00  0.00000000E+00
  0.00000000E+00  0.00000000E+00  0.00000000E+00
  0.00000000E+00  0.00000000E+00  0.00000000E+00
  0.00000000E+00  0.00000000E+00  0.00000000E+00
  0.00000000E+00  0.00000000E+00  0.00000000E+00
  0.00000000E+00  0.00000000E+00  0.00000000E+00
  0.00000000E+00  0.00000000E+00  0.00000000E+00
  0.00000000E+00  0.00000000E+00  0.00000000E+00
  0.00000000E+00  0.00000000E+00  0.00000000E+00
  0.00000000E+00  0.00000000E+00  0.00000000E+00
  0.00000000E+00  0.00000000E+00  0.00000000E+00
  0.00000000E+00  0.00000000E+00  0.00000000E+00
  0.00000000E+00  0.00000000E+00  0.00000000E+00
  0.00000000E+00  0.00000000E+00  0.00000000E+00
  0.00000000E+00  0.00000000E+00  0.00000000E+00
  0.00000000E+00  0.00000000E+00  0.00000000E+00
  0.00000000E+00  0.00000000E+00  0.00000000E+00
  0.00000000E+00  0.00000000E+00  0.00000000E+00
  0.00000000E+00  0.00000000E+00  0.00000000E+00
  0.00000000E+00  0.00000000E+00  0.00000000E+00
  0.00000000E+00  0.00000000E+00  0.00000000E+00
  0.00000000E+00  0.00000000E+00  0.00000000E+00
  0.00000000E+00  0.00000000E+00  0.00000000E+00
  0.00000000E+00  0.00000000E+00  0.00000000E+00
  0.00000000E+00  0.00000000E+00  0.00000000E+00
  0.00000000E+00  0.00000000E+00  0.00000000E+00
  0.00000000E+00  0.00000000E+00  0.00000000E+00
  0.00000000E+00  0.00000000E+00  0.00000000E+00
  0.00000000E+00  0.00000000E+00  0.00000000E+00
  0.00000000E+00  0.00000000E+00  0.00000000E+00
  0.00000000E+00  0.00000000E+00  0.00000000E+00
  0.00000000E+00  0.00000000E+00  0.00000000E+00
  0.00000000E+00  0.00000000E+00  0.00000000E+00
  0.00000000E+00  0.00000000E+00  0.00000000E+00
  0.00000000E+00  0.00000000E+00  0.00000000E+00
  0.00000000E+00  0.00000000E+00  0.00000000E+00
  0.00000000E+00  0.00000000E+00  0.00000000E+00
  0.00000000E+00  0.00000000E+00  0.00000000E+00
  0.00000000E+00  0.00000000E+00  0.00000000E+00
  0.00000000E+00  0.00000000E+00  0.00000000E+00
  0.00000000E+00  0.00000000E+00  0.00000000E+00
  0.00000000E+00  0.00000000E+00  0.00000000E+00
  0.00000000E+00  0.00000000E+00  0.00000000E+00
  0.00000000E+00  0.00000000E+00  0.00000000E+00
  0.00000000E+00  0.00000000E+00  0.00000000E+00
  0.00000000E+00  0.00000000E+00  0.00000000E+00
  0.00000000E+00  0.00000000E+00  0.00000000E+00
  0.00000000E+00  0.00000000E+00  0.00000000E+00
  0.00000000E+00  0.00000000E+00  0.00000000E+00
  0.00000000E+00  0.00000000E+00  0.00000000E+00
  0.00000000E+00  0.00000000E+00  0.00000000E+00
  0.00000000E+00  0.00000000E+00  0.00000000E+00
  0.00000000E+00  0.00000000E+00  0.00000000E+00
  0.00000000E+00  0.00000000E+00  0.00000000E+00
  0.00000000E+00  0.00000000E+00  0.00000000E+00
  0.00000000E+00  0.00000000E+00  0.00000000E+00
  0.00000000E+00  0.00000000E+00  0.00000000E+00
  0.00000000E+00  0.00000000E+00  0.00000000E+00
  0.00000000E+00  0.00000000E+00  0.00000000E+00
  0.00000000E+00  0.00000000E+00  0.00000000E+00
  0.00000000E+00  0.00000000E+00  0.00000000E+00
  0.00000000E+00  0.00000000E+00  0.00000000E+00
  0.00000000E+00  0.00000000E+00  0.00000000E+00
  0.00000000E+00  0.00000000E+00  0.00000000E+00
  0.00000000E+00  0.00000000E+00  0.00000000E+00
  0.00000000E+00  0.00000000E+00  0.00000000E+00
  0.00000000E+00  0.00000000E+00  0.00000000E+00
  0.00000000E+00  0.00000000E+00  0.00000000E+00
  0.00000000E+00  0.00000000E+00  0.00000000E+00
  0.00000000E+00  0.00000000E+00  0.00000000E+00
  0.00000000E+00  0.00000000E+00  0.00000000E+00
  0.00000000E+00  0.00000000E+00  0.00000000E+00
  0.00000000E+00  0.00000000E+00  0.00000000E+00
  0.00000000E+00  0.00000000E+00  0.00000000E+00
  0.00000000E+00  0.00000000E+00  0.00000000E+00
  0.00000000E+00  0.00000000E+00  0.00000000E+00
  0.00000000E+00  0.00000000E+00  0.00000000E+00
  0.00000000E+00  0.00000000E+00  0.00000000E+00
  0.00000000E+00  0.00000000E+00  0.00000000E+00
  0.00000000E+00  0.00000000E+00  0.00000000E+00
  0.00000000E+00  0.00000000E+00  0.00000000E+00
  0.00000000E+00  0.00000000E+00  0.00000000E+00
  0.00000000E+00  0.00000000E+00  0.00000000E+00
  0.00000000E+00  0.00000000E+00  0.00000000E+00
  0.00000000E+00  0.00000000E+00  0.00000000E+00
  0.00000000E+00  0.00000000E+00  0.00000000E+00
  0.00000000E+00  0.00000000E+00  0.00000000E+00
  0.00000000E+00  0.00000000E+00  0.00000000E+00
  0.00000000E+00  0.00000000E+00  0.00000000E+00
  0.00000000E+00  0.00000000E+00  0.00000000E+00
  0.00000000E+00  0.00000000E+00  0.00000000E+00
  0.00000000E+00  0.00000000E+00  0.00000000E+00
  0.00000000E+00  0.00000000E+00  0.00000000E+00
