Li5 P2 N1 O6                            
   1.00000000000000     
     0.1275829624881399    0.0052517905868649    5.0555278503610994
     6.3299918187807771    0.1160775282159959    0.1552618263543386
     0.1006213235232376    5.4078852410358147    0.0045232827563315
   Li   P    N    O 
     5     2     1     6
Direct
  0.5007429913780687  0.0245645314593587  0.8464665875306986
 -0.0109683926823030  0.4394952992323538  0.1290463819925451
  0.5496492233398886  0.7346240178969028  0.3291060733023308
 -0.0243559105938606  0.7627410648551821  0.7182042440755626
 -0.0038823594677657  0.2578637367053784  0.6525791494041562
  0.5161876552030419  0.5153870649457082  0.8309001563205862
 -0.0084207970344230  0.0002313284025731  0.1655854158490754
  0.1941030084891605  0.5087784040239230  0.8190253543938842
  0.0762783675036934  0.1854984751016982  0.3180008856466341
  0.6102611585431468  0.7151339449416929  0.6752572636960538
  0.6196996269780771  0.3045605372555513  0.7194608191596003
  0.6234962305155346  0.5301572603211792  0.0975089089793413
  0.1071997348154650  0.0043632805533641  0.8954930810374685
  0.6924364630122982 -0.0291339456948665  0.1634226786120604
 
  0.00000000E+00  0.00000000E+00  0.00000000E+00
  0.00000000E+00  0.00000000E+00  0.00000000E+00
  0.00000000E+00  0.00000000E+00  0.00000000E+00
  0.00000000E+00  0.00000000E+00  0.00000000E+00
  0.00000000E+00  0.00000000E+00  0.00000000E+00
  0.00000000E+00  0.00000000E+00  0.00000000E+00
  0.00000000E+00  0.00000000E+00  0.00000000E+00
  0.00000000E+00  0.00000000E+00  0.00000000E+00
  0.00000000E+00  0.00000000E+00  0.00000000E+00
  0.00000000E+00  0.00000000E+00  0.00000000E+00
  0.00000000E+00  0.00000000E+00  0.00000000E+00
  0.00000000E+00  0.00000000E+00  0.00000000E+00
  0.00000000E+00  0.00000000E+00  0.00000000E+00
  0.00000000E+00  0.00000000E+00  0.00000000E+00
