(2, 1, 0)                               
   1.00000000000000     
     7.6710005355678081    0.0000001739159613   -0.0000002214307751
     0.0000003094441602    5.6055997808865632   -6.3114856443444118
    -0.0000012676196944   -0.5515687880458385   43.7001472650319371
   Li   O 
    32    32
Selective dynamics
Direct
  0.4916375273282452  0.5357745763436029  0.0256793824762620   T   T   T
  0.4373092032927053 -0.0190936180202816  0.0479273404994711   T   T   T
  0.0083626940679516  0.5357742069227550  0.0256793552683404   T   T   T
  0.0626908877182640 -0.0190936941122951  0.0479272735410877   T   T   T
  0.2500000250635618  0.3290245687188768  0.0332669902864006   T   T   T
  0.2500000000000000  0.8333330000000032  0.0654759999999968   F   F   F
  0.7500000311824889  0.2244256323501512  0.0451150004479685   T   T   T
  0.7500000000000000  0.6666669999999968  0.0059520000000006   F   F   F
  0.5000000000000000  0.5000000000000000  0.0892860000000013   F   F   F
  0.5000000000000000  0.0000000000000000  0.1250000000000000   F   F   F
  0.0000000000000000  0.5000000000000000  0.0892860000000013   F   F   F
  0.0000000000000000  0.0000000000000000  0.1250000000000000   F   F   F
  0.2500000000000000  0.3333330000000032  0.1011900000000026   F   F   F
  0.2500000000000000  0.8333330000000032  0.1369049999999987   F   F   F
  0.7500000000000000  0.1666669999999968  0.1130950000000013   F   F   F
  0.7500000000000000  0.6666669999999968  0.0773810000000026   F   F   F
  0.5000000000000000  0.5000000000000000  0.1607139999999987   F   F   F
  0.5000000000000000  0.0000000000000000  0.1964290000000020   F   F   F
  0.0000000000000000  0.5000000000000000  0.1607139999999987   F   F   F
  0.0000000000000000  0.0000000000000000  0.1964290000000020   F   F   F
  0.2500000000000000  0.3333330000000032  0.1726189999999974   F   F   F
  0.2500000000000000  0.8333330000000032  0.2083330000000032   F   F   F
  0.7500000000000000  0.1666669999999968  0.1845240000000032   F   F   F
  0.7500000000000000  0.6666669999999968  0.1488099999999974   F   F   F
  0.5626916952815990  0.5190944264610936  0.2377870703705259   T   T   T
  0.5083608107556631 -0.0357767970303386  0.2600342252775099   T   T   T
 -0.0626918094777876  0.5190944801290355  0.2377871321563755   T   T   T
 -0.0083609129481682 -0.0357765929583683  0.2600342277984621   T   T   T
  0.2499999606653711  0.2755747444081303  0.2405988426816456   T   T   T
  0.2500000000000000  0.8333330000000032  0.2797619999999981   F   F   F
  0.7499999925327704  0.1709709267487453  0.2524455035828844   T   T   T
  0.7500000000000000  0.6666669999999968  0.2202380000000019   F   F   F
  0.8513045138684081  0.3558588635193896  0.0290264541708919   T   T   T
  0.8506900000000002  0.8333330000000032  0.0654759999999968   F   F   F
  0.3509393244286402  0.1769622038770492  0.0439235646038463   T   T   T
  0.3507231873590457  0.6515650233851547  0.0076186330301916   T   T   T
  0.1490606234667527  0.1769623080453482  0.0439235646504213   T   T   T
  0.1492768918535708  0.6515650147170360  0.0076186308901190   T   T   T
  0.6486955622408264  0.3558589128562983  0.0290264506916520   T   T   T
  0.6493099999999998  0.8333330000000032  0.0654759999999968   F   F   F
  0.8506900000000002  0.3333330000000032  0.1011900000000026   F   F   F
  0.8506900000000002  0.8333330000000032  0.1369049999999987   F   F   F
  0.3506900000000002  0.1666669999999968  0.1130950000000013   F   F   F
  0.3506900000000002  0.6666669999999968  0.0773810000000026   F   F   F
  0.1493099999999998  0.1666669999999968  0.1130950000000013   F   F   F
  0.1493099999999998  0.6666669999999968  0.0773810000000026   F   F   F
  0.6493099999999998  0.3333330000000032  0.1011900000000026   F   F   F
  0.6493099999999998  0.8333330000000032  0.1369049999999987   F   F   F
  0.8506900000000002  0.3333330000000032  0.1726189999999974   F   F   F
  0.8506900000000002  0.8333330000000032  0.2083330000000032   F   F   F
  0.3506900000000002  0.1666669999999968  0.1845240000000032   F   F   F
  0.3506900000000002  0.6666669999999968  0.1488099999999974   F   F   F
  0.1493099999999998  0.1666669999999968  0.1845240000000032   F   F   F
  0.1493099999999998  0.6666669999999968  0.1488099999999974   F   F   F
  0.6493099999999998  0.3333330000000032  0.1726189999999974   F   F   F
  0.6493099999999998  0.8333330000000032  0.2083330000000032   F   F   F
  0.8509395272684087  0.3230381620269893  0.2417907486392524   T   T   T
  0.8507231392905793  0.8484349111458315  0.2780953340474141   T   T   T
  0.3513042991035061  0.1441409343512290  0.2566875554440540   T   T   T
  0.3506900000000002  0.6666669999999968  0.2202380000000019   F   F   F
  0.1486956321897265  0.1441409704172454  0.2566875517345166   T   T   T
  0.1493099999999998  0.6666669999999968  0.2202380000000019   F   F   F
  0.6490605105395346  0.3230382668097384  0.2417907493943883   T   T   T
  0.6492768047811034  0.8484349377229758  0.2780953359623624   T   T   T
 
  0.00000000E+00  0.00000000E+00  0.00000000E+00
  0.00000000E+00  0.00000000E+00  0.00000000E+00
  0.00000000E+00  0.00000000E+00  0.00000000E+00
  0.00000000E+00  0.00000000E+00  0.00000000E+00
  0.00000000E+00  0.00000000E+00  0.00000000E+00
  0.00000000E+00  0.00000000E+00  0.00000000E+00
  0.00000000E+00  0.00000000E+00  0.00000000E+00
  0.00000000E+00  0.00000000E+00  0.00000000E+00
  0.00000000E+00  0.00000000E+00  0.00000000E+00
  0.00000000E+00  0.00000000E+00  0.00000000E+00
  0.00000000E+00  0.00000000E+00  0.00000000E+00
  0.00000000E+00  0.00000000E+00  0.00000000E+00
  0.00000000E+00  0.00000000E+00  0.00000000E+00
  0.00000000E+00  0.00000000E+00  0.00000000E+00
  0.00000000E+00  0.00000000E+00  0.00000000E+00
  0.00000000E+00  0.00000000E+00  0.00000000E+00
  0.00000000E+00  0.00000000E+00  0.00000000E+00
  0.00000000E+00  0.00000000E+00  0.00000000E+00
  0.00000000E+00  0.00000000E+00  0.00000000E+00
  0.00000000E+00  0.00000000E+00  0.00000000E+00
  0.00000000E+00  0.00000000E+00  0.00000000E+00
  0.00000000E+00  0.00000000E+00  0.00000000E+00
  0.00000000E+00  0.00000000E+00  0.00000000E+00
  0.00000000E+00  0.00000000E+00  0.00000000E+00
  0.00000000E+00  0.00000000E+00  0.00000000E+00
  0.00000000E+00  0.00000000E+00  0.00000000E+00
  0.00000000E+00  0.00000000E+00  0.00000000E+00
  0.00000000E+00  0.00000000E+00  0.00000000E+00
  0.00000000E+00  0.00000000E+00  0.00000000E+00
  0.00000000E+00  0.00000000E+00  0.00000000E+00
  0.00000000E+00  0.00000000E+00  0.00000000E+00
  0.00000000E+00  0.00000000E+00  0.00000000E+00
  0.00000000E+00  0.00000000E+00  0.00000000E+00
  0.00000000E+00  0.00000000E+00  0.00000000E+00
  0.00000000E+00  0.00000000E+00  0.00000000E+00
  0.00000000E+00  0.00000000E+00  0.00000000E+00
  0.00000000E+00  0.00000000E+00  0.00000000E+00
  0.00000000E+00  0.00000000E+00  0.00000000E+00
  0.00000000E+00  0.00000000E+00  0.00000000E+00
  0.00000000E+00  0.00000000E+00  0.00000000E+00
  0.00000000E+00  0.00000000E+00  0.00000000E+00
  0.00000000E+00  0.00000000E+00  0.00000000E+00
  0.00000000E+00  0.00000000E+00  0.00000000E+00
  0.00000000E+00  0.00000000E+00  0.00000000E+00
  0.00000000E+00  0.00000000E+00  0.00000000E+00
  0.00000000E+00  0.00000000E+00  0.00000000E+00
  0.00000000E+00  0.00000000E+00  0.00000000E+00
  0.00000000E+00  0.00000000E+00  0.00000000E+00
  0.00000000E+00  0.00000000E+00  0.00000000E+00
  0.00000000E+00  0.00000000E+00  0.00000000E+00
  0.00000000E+00  0.00000000E+00  0.00000000E+00
  0.00000000E+00  0.00000000E+00  0.00000000E+00
  0.00000000E+00  0.00000000E+00  0.00000000E+00
  0.00000000E+00  0.00000000E+00  0.00000000E+00
  0.00000000E+00  0.00000000E+00  0.00000000E+00
  0.00000000E+00  0.00000000E+00  0.00000000E+00
  0.00000000E+00  0.00000000E+00  0.00000000E+00
  0.00000000E+00  0.00000000E+00  0.00000000E+00
  0.00000000E+00  0.00000000E+00  0.00000000E+00
  0.00000000E+00  0.00000000E+00  0.00000000E+00
  0.00000000E+00  0.00000000E+00  0.00000000E+00
  0.00000000E+00  0.00000000E+00  0.00000000E+00
  0.00000000E+00  0.00000000E+00  0.00000000E+00
  0.00000000E+00  0.00000000E+00  0.00000000E+00
