(2, 1, 0)
1.0
7.703522 0.000000 0.000000
0.000000 5.508548 -6.360724
0.000000 0.000000 44.525066
Li O
32 32
Selective dynamics
direct
0.500000 0.500000 0.017857 T T T Li+
0.500000 0.000000 0.053571 T T T Li+
0.000000 0.500000 0.017857 T T T Li+
0.000000 0.000000 0.053571 T T T Li+
0.250000 0.333333 0.029762 T T T Li+
0.250000 0.833333 0.065476 F F F Li+
0.750000 0.166667 0.041667 T T T Li+
0.750000 0.666667 0.005952 F F F Li+
0.500000 0.500000 0.089286 F F F Li+
0.500000 0.000000 0.125000 F F F Li+
0.000000 0.500000 0.089286 F F F Li+
0.000000 0.000000 0.125000 F F F Li+
0.250000 0.333333 0.101190 F F F Li+
0.250000 0.833333 0.136905 F F F Li+
0.750000 0.166667 0.113095 F F F Li+
0.750000 0.666667 0.077381 F F F Li+
0.500000 0.500000 0.160714 F F F Li+
0.500000 0.000000 0.196429 F F F Li+
0.000000 0.500000 0.160714 F F F Li+
0.000000 0.000000 0.196429 F F F Li+
0.250000 0.333333 0.172619 F F F Li+
0.250000 0.833333 0.208333 F F F Li+
0.750000 0.166667 0.184524 F F F Li+
0.750000 0.666667 0.148810 F F F Li+
0.500000 0.500000 0.232143 T T T Li+
0.500000 0.000000 0.267857 T T T Li+
0.000000 0.500000 0.232143 T T T Li+
0.000000 0.000000 0.267857 T T T Li+
0.250000 0.333333 0.244048 T T T Li+
0.250000 0.833333 0.279762 F F F Li+
0.750000 0.166667 0.255952 T T T Li+
0.750000 0.666667 0.220238 F F F Li+
0.850690 0.333333 0.029762 T T T O-
0.850690 0.833333 0.065476 F F F O-
0.350690 0.166667 0.041667 T T T O-
0.350690 0.666667 0.005952 T T T O-
0.149310 0.166667 0.041667 T T T O-
0.149310 0.666667 0.005952 T T T O-
0.649310 0.333333 0.029762 T T T O-
0.649310 0.833333 0.065476 F F F O-
0.850690 0.333333 0.101190 F F F O-
0.850690 0.833333 0.136905 F F F O-
0.350690 0.166667 0.113095 F F F O-
0.350690 0.666667 0.077381 F F F O-
0.149310 0.166667 0.113095 F F F O-
0.149310 0.666667 0.077381 F F F O-
0.649310 0.333333 0.101190 F F F O-
0.649310 0.833333 0.136905 F F F O-
0.850690 0.333333 0.172619 F F F O-
0.850690 0.833333 0.208333 F F F O-
0.350690 0.166667 0.184524 F F F O-
0.350690 0.666667 0.148810 F F F O-
0.149310 0.166667 0.184524 F F F O-
0.149310 0.666667 0.148810 F F F O-
0.649310 0.333333 0.172619 F F F O-
0.649310 0.833333 0.208333 F F F O-
0.850690 0.333333 0.244048 T T T O-
0.850690 0.833333 0.279762 T T T O-
0.350690 0.166667 0.255952 T T T O-
0.350690 0.666667 0.220238 F F F O-
0.149310 0.166667 0.255952 T T T O-
0.149310 0.666667 0.220238 F F F O-
0.649310 0.333333 0.244048 T T T O-
0.649310 0.833333 0.279762 T T T O-
