Li7 P2 N1 O7                            
   1.00000000000000     
     5.0758856902926368    0.0000000000000000   -0.0723155063087434
     0.0000000000000000    6.1576567651288245    0.0000000000000000
    -0.0714057721508479    0.0000000000000000    5.3559501846396342
   Li   P    N    O 
     7     2     1     7
Direct
  0.0036371831241550  0.5000000000000000  0.1519820960705294
  0.4957459886297330  0.7348738994651935  0.3286944057279369
  0.4957459886297330  0.2651261005348061  0.3286944057279369
  0.0884195383149609  0.7512497701269576  0.6730077990085265
  0.0884195383149608  0.2487502298730430  0.6730077990085265
  0.4478486245401369 -0.0000000000000000  0.9377954956685228
  0.7447591909352108 -0.0000000000000000  0.6241754853485006
  0.4979259503920483  0.5000000000000000  0.8316404512034741
 -0.0081207091010642 -0.0000000000000000  0.1722620334543094
  0.0486397706440171 -0.0000000000000000  0.8854756036508470
  0.1081721647235496  0.2076935363654831  0.3177325318749803
  0.1081721647235496  0.7923064636345170  0.3177325318749803
  0.6116245837119368  0.5000000000000000  0.1041934435455021
  0.1918433813973306  0.5000000000000000  0.8383059551777348
  0.6829915661325519 -0.0000000000000000  0.2427916234182952
  0.5811625374436084  0.7099660827649802  0.6900091696196989
  0.5811625374436084  0.2900339172350203  0.6900091696196989
 
  0.00000000E+00  0.00000000E+00  0.00000000E+00
  0.00000000E+00  0.00000000E+00  0.00000000E+00
  0.00000000E+00  0.00000000E+00  0.00000000E+00
  0.00000000E+00  0.00000000E+00  0.00000000E+00
  0.00000000E+00  0.00000000E+00  0.00000000E+00
  0.00000000E+00  0.00000000E+00  0.00000000E+00
  0.00000000E+00  0.00000000E+00  0.00000000E+00
  0.00000000E+00  0.00000000E+00  0.00000000E+00
  0.00000000E+00  0.00000000E+00  0.00000000E+00
  0.00000000E+00  0.00000000E+00  0.00000000E+00
  0.00000000E+00  0.00000000E+00  0.00000000E+00
  0.00000000E+00  0.00000000E+00  0.00000000E+00
  0.00000000E+00  0.00000000E+00  0.00000000E+00
  0.00000000E+00  0.00000000E+00  0.00000000E+00
  0.00000000E+00  0.00000000E+00  0.00000000E+00
  0.00000000E+00  0.00000000E+00  0.00000000E+00
  0.00000000E+00  0.00000000E+00  0.00000000E+00
