Li61 P7 N32                             
   1.00000000000000     
     0.0308969251868899    9.5774716608159913    0.0695964540675582
    -0.0486399669414007    0.0696477527383832    9.5752713620094543
     9.6113548504281212    0.0305029297025689   -0.0484480452800585
   Li   P    N 
    61     7    32
Direct
  0.5052473557384813  0.0076888119527073  0.4939113212198186
  0.0075942831193614  0.5101993127022416 -0.0029373366386433
  0.4999319277929396  0.0055904542461142 -0.0061957925348644
  0.0078327620369884  0.0010016577194553  0.4967023972987366
  0.5062781706507153  0.5072021145645278 -0.0058002152755664
 -0.0307937013970633  0.5060855513380397  0.5004901719983562
  0.7722481277950456 -0.0384426016916690  0.4571175505619852
  0.2574247304793179 -0.0057548370105571  0.4931035602661851
  0.6625835355456421  0.4215384626107556  0.5540429205764512
  0.2064242454201913  0.4884294837715811  0.5001505223078040
  0.2623988544493977  0.0096417334295290 -0.0105185496530885
  0.7394668472237562  0.0037607188764854 -0.0347169167644241
  0.4350045718431982  0.5663298071877876  0.5695097663377920
  0.5169345018685021  0.2502065941484518 -0.0205412003732876
  0.5087365243071337  0.7572075414991465 -0.0059279589142260
  0.0200096523872616  0.4996318623445182  0.2451362194025435
  0.0201321220593977  0.5051271285008805  0.7494510826629183
  0.2064755955546177  0.2684529888546627  0.2134299327074539
  0.2247883305172573  0.7764069068537873  0.7680472161369589
  0.2276636772030346  0.2830314369683721  0.7138778795933256
  0.2874544234721824  0.7770018472256373  0.2792494118549596
  0.6656105668652895  0.1759303650640617  0.3346364965518079
  0.7086052680831491  0.7203650161245964  0.7718474404223709
  0.7312885822748653  0.2251507583239780  0.7838058542784001
  0.7820696629366310  0.7884716494910414  0.2485647814132841
  0.9657398949061995  0.2426884061375452  0.2275823165183916
  0.9697459472145343  0.7448935808026543  0.7479577444207089
  0.2520466374069185  0.2425715377951215  0.4753550496754004
  0.2624292592583456  0.7425017729926231  0.5060722212179144
  0.7562111059406362  0.1850000946012414  0.5561609982692814
  0.7725334789218166  0.7033870948389396  0.5347423010364329
  0.8127900593772516  0.3539799182056294  0.3828167373105545
  0.7737701282022693  0.4899383813023573  0.7382756403546936
  0.2771138204906379  0.5408336375915327  0.2412107066514474
  0.2690481558296447  0.5092108002247143  0.7423735875375096
  0.5201872020217720  0.7591488502045337  0.2438848275343150
  0.4655945628338796  0.2514285894965453  0.7216309706637605
  0.2427300733435308  0.0153734131893064  0.2340222978011063
  0.2381734707775229  0.0285456252422825  0.7412692911105730
  0.2758158172653195  0.2520846310108142  0.9609731414150905
  0.2624084762174168  0.7698898063247472  0.0216306345517151
  0.7497679512806503  0.9572455014713614  0.7094885624983049
  0.7605586242109202  0.0198921547850877  0.2034048900234766
  0.7695519482009580  0.7647855881999677  0.0013897736634940
  0.7903362435668376  0.2489798962995435  0.0025540156666438
 -0.0161920441462068  0.2384603321217386  0.7476148977645188
  0.0392407450429654  0.7451380488909713  0.2308834383238906
  0.4584715277569910  0.2679419335554988  0.2252073570286451
  0.4798920030582260  0.7443878002485859  0.7489898362666250
  0.0268935809976383  0.2722363198548670 -0.0123401392620806
  0.0127592049721829  0.7480109385515729 -0.0094832427822804
  0.4927834745248557  0.2438060231307003  0.4943195135460884
  0.5123925274058447  0.7773989524884123  0.5024759217572786
  0.5118719113288210  0.5192398414374806  0.2216431431035947
  0.5235990056206529  0.4949336046008132  0.7652404085890862
  0.0025758917162165 -0.0033108324243456  0.2581329198814838
 -0.0031916720359956 -0.0046457399740301  0.7344622187766300
  0.4270658603718112  0.4327344477880509  0.4120337071124032
  0.6022695134905052  0.5779866829605684  0.4206175778504752
  0.7821665577990630  0.5474737082728014  0.2497009501164544
  0.6736192305934620  0.3369310933802835  0.1692120532175921
  0.0027436759370221  0.0087035219499354 -0.0059945366700654
  0.7623926326353239  0.5094045588423118 -0.0032727447895458
  0.2537808785878824  0.5110896034594419 -0.0065319397150925
  0.0077258404633592  0.7564305094821602  0.4894694192132465
 -0.0056328243252538  0.2442638463118785  0.4955697184455952
  0.4982192232705300  0.0129626946283553  0.2371640730624539
  0.4961644710419219  0.0018049247159798  0.7485475193135908
  0.6204674473855202  0.6152449802769671  0.6274914957943010
  0.6164792217880700  0.3765185201507695  0.3571718104353211
  0.8992938582343829  0.9062687053246627  0.0929874294974073
  0.9016557360493876  0.1124020775785708  0.8921155423000510
  0.1064490300198105  0.9063881143641981  0.8915082818252832
  0.1011084980603796  0.1108546166057581  0.0993086807418418
  0.4032104014809454  0.6355513486090324  0.3742091392198502
  0.3636990856950776  0.3796937211573905  0.6011593821071919
  0.0780975934096248  0.3471095391771413  0.3839015589352539
  0.0954908969541699  0.6494934803023308  0.6000836875810748
  0.1018794452548903  0.1501119696282201  0.5961548582418872
  0.1176027769470770  0.8556484705815578  0.3954204224958968
  0.8851786349286482  0.1409055431756327  0.3973367542321103
  0.8984572155475606  0.8567637114217787  0.5903932341791531
  0.8647530775117662  0.4116737814637762  0.1055941126758186
  0.8599857154051741  0.6080367251654942  0.8895512753841156
  0.1515871168884618  0.6119368996008970  0.0994607691865095
  0.1560558620186333  0.4101634168186813  0.8868221839273025
  0.4001508978589713  0.9044675926546974  0.1409044324104672
  0.3971634110122302  0.1104713870694977  0.8501911553544472
  0.3922057270821439  0.1090818707223427  0.3442790446715503
  0.3901334555354800  0.9069441843305335  0.6450547880550609
  0.3533061671229622  0.4027731728231167  0.0941039527353823
  0.3564310398853154  0.6177085198290500  0.8973257644638298
  0.6037153710313020  0.1027913356383668  0.6511627730214583
  0.6176865947832281  0.9243717793616247  0.3306931902125214
  0.6589070959251581  0.6176673288283631  0.0951987129674508
  0.6649724436519617  0.3933689847666679  0.9073378378210242
  0.8830580171003551  0.3417427790397753  0.6001459273765869
  0.9087855474395020  0.6630691443420462  0.3758623354459095
  0.5940774724487469  0.1240452322330247  0.1354232895225455
  0.5983804539408889  0.8949002068713205  0.8456998436729456
 
  0.00000000E+00  0.00000000E+00  0.00000000E+00
  0.00000000E+00  0.00000000E+00  0.00000000E+00
  0.00000000E+00  0.00000000E+00  0.00000000E+00
  0.00000000E+00  0.00000000E+00  0.00000000E+00
  0.00000000E+00  0.00000000E+00  0.00000000E+00
  0.00000000E+00  0.00000000E+00  0.00000000E+00
  0.00000000E+00  0.00000000E+00  0.00000000E+00
  0.00000000E+00  0.00000000E+00  0.00000000E+00
  0.00000000E+00  0.00000000E+00  0.00000000E+00
  0.00000000E+00  0.00000000E+00  0.00000000E+00
  0.00000000E+00  0.00000000E+00  0.00000000E+00
  0.00000000E+00  0.00000000E+00  0.00000000E+00
  0.00000000E+00  0.00000000E+00  0.00000000E+00
  0.00000000E+00  0.00000000E+00  0.00000000E+00
  0.00000000E+00  0.00000000E+00  0.00000000E+00
  0.00000000E+00  0.00000000E+00  0.00000000E+00
  0.00000000E+00  0.00000000E+00  0.00000000E+00
  0.00000000E+00  0.00000000E+00  0.00000000E+00
  0.00000000E+00  0.00000000E+00  0.00000000E+00
  0.00000000E+00  0.00000000E+00  0.00000000E+00
  0.00000000E+00  0.00000000E+00  0.00000000E+00
  0.00000000E+00  0.00000000E+00  0.00000000E+00
  0.00000000E+00  0.00000000E+00  0.00000000E+00
  0.00000000E+00  0.00000000E+00  0.00000000E+00
  0.00000000E+00  0.00000000E+00  0.00000000E+00
  0.00000000E+00  0.00000000E+00  0.00000000E+00
  0.00000000E+00  0.00000000E+00  0.00000000E+00
  0.00000000E+00  0.00000000E+00  0.00000000E+00
  0.00000000E+00  0.00000000E+00  0.00000000E+00
  0.00000000E+00  0.00000000E+00  0.00000000E+00
  0.00000000E+00  0.00000000E+00  0.00000000E+00
  0.00000000E+00  0.00000000E+00  0.00000000E+00
  0.00000000E+00  0.00000000E+00  0.00000000E+00
  0.00000000E+00  0.00000000E+00  0.00000000E+00
  0.00000000E+00  0.00000000E+00  0.00000000E+00
  0.00000000E+00  0.00000000E+00  0.00000000E+00
  0.00000000E+00  0.00000000E+00  0.00000000E+00
  0.00000000E+00  0.00000000E+00  0.00000000E+00
  0.00000000E+00  0.00000000E+00  0.00000000E+00
  0.00000000E+00  0.00000000E+00  0.00000000E+00
  0.00000000E+00  0.00000000E+00  0.00000000E+00
  0.00000000E+00  0.00000000E+00  0.00000000E+00
  0.00000000E+00  0.00000000E+00  0.00000000E+00
  0.00000000E+00  0.00000000E+00  0.00000000E+00
  0.00000000E+00  0.00000000E+00  0.00000000E+00
  0.00000000E+00  0.00000000E+00  0.00000000E+00
  0.00000000E+00  0.00000000E+00  0.00000000E+00
  0.00000000E+00  0.00000000E+00  0.00000000E+00
  0.00000000E+00  0.00000000E+00  0.00000000E+00
  0.00000000E+00  0.00000000E+00  0.00000000E+00
  0.00000000E+00  0.00000000E+00  0.00000000E+00
  0.00000000E+00  0.00000000E+00  0.00000000E+00
  0.00000000E+00  0.00000000E+00  0.00000000E+00
  0.00000000E+00  0.00000000E+00  0.00000000E+00
  0.00000000E+00  0.00000000E+00  0.00000000E+00
  0.00000000E+00  0.00000000E+00  0.00000000E+00
  0.00000000E+00  0.00000000E+00  0.00000000E+00
  0.00000000E+00  0.00000000E+00  0.00000000E+00
  0.00000000E+00  0.00000000E+00  0.00000000E+00
  0.00000000E+00  0.00000000E+00  0.00000000E+00
  0.00000000E+00  0.00000000E+00  0.00000000E+00
  0.00000000E+00  0.00000000E+00  0.00000000E+00
  0.00000000E+00  0.00000000E+00  0.00000000E+00
  0.00000000E+00  0.00000000E+00  0.00000000E+00
  0.00000000E+00  0.00000000E+00  0.00000000E+00
  0.00000000E+00  0.00000000E+00  0.00000000E+00
  0.00000000E+00  0.00000000E+00  0.00000000E+00
  0.00000000E+00  0.00000000E+00  0.00000000E+00
  0.00000000E+00  0.00000000E+00  0.00000000E+00
  0.00000000E+00  0.00000000E+00  0.00000000E+00
  0.00000000E+00  0.00000000E+00  0.00000000E+00
  0.00000000E+00  0.00000000E+00  0.00000000E+00
  0.00000000E+00  0.00000000E+00  0.00000000E+00
  0.00000000E+00  0.00000000E+00  0.00000000E+00
  0.00000000E+00  0.00000000E+00  0.00000000E+00
  0.00000000E+00  0.00000000E+00  0.00000000E+00
  0.00000000E+00  0.00000000E+00  0.00000000E+00
  0.00000000E+00  0.00000000E+00  0.00000000E+00
  0.00000000E+00  0.00000000E+00  0.00000000E+00
  0.00000000E+00  0.00000000E+00  0.00000000E+00
  0.00000000E+00  0.00000000E+00  0.00000000E+00
  0.00000000E+00  0.00000000E+00  0.00000000E+00
  0.00000000E+00  0.00000000E+00  0.00000000E+00
  0.00000000E+00  0.00000000E+00  0.00000000E+00
  0.00000000E+00  0.00000000E+00  0.00000000E+00
  0.00000000E+00  0.00000000E+00  0.00000000E+00
  0.00000000E+00  0.00000000E+00  0.00000000E+00
  0.00000000E+00  0.00000000E+00  0.00000000E+00
  0.00000000E+00  0.00000000E+00  0.00000000E+00
  0.00000000E+00  0.00000000E+00  0.00000000E+00
  0.00000000E+00  0.00000000E+00  0.00000000E+00
  0.00000000E+00  0.00000000E+00  0.00000000E+00
  0.00000000E+00  0.00000000E+00  0.00000000E+00
  0.00000000E+00  0.00000000E+00  0.00000000E+00
  0.00000000E+00  0.00000000E+00  0.00000000E+00
  0.00000000E+00  0.00000000E+00  0.00000000E+00
  0.00000000E+00  0.00000000E+00  0.00000000E+00
  0.00000000E+00  0.00000000E+00  0.00000000E+00
  0.00000000E+00  0.00000000E+00  0.00000000E+00
  0.00000000E+00  0.00000000E+00  0.00000000E+00
