Li42 P14 O56
1.0
4.922448 0.000000 0.000000
-0.000000 6.176136 -5.296402
0.000000 0.000000 63.556824
Li P O
42 14 56
direct
0.490583 0.000000 0.042624 Li+
0.990583 0.500000 0.058378 Li+
0.491637 0.252873 0.023538 Li+
0.991637 0.247127 0.077464 Li+
0.991637 0.752873 0.036277 Li+
0.491637 0.747127 0.064725 Li+
0.490583 0.000000 0.125958 Li+
0.990583 0.500000 0.141711 Li+
0.491637 0.252873 0.106871 Li+
0.991637 0.247127 0.160798 Li+
0.991637 0.752873 0.119610 Li+
0.491637 0.747127 0.148059 Li+
0.490583 0.000000 0.209291 Li+
0.990583 0.500000 0.225044 Li+
0.491637 0.252873 0.190204 Li+
0.991637 0.247127 0.244131 Li+
0.991637 0.752873 0.202943 Li+
0.491637 0.747127 0.231392 Li+
0.490583 0.000000 0.292624 Li+
0.990583 0.500000 0.308378 Li+
0.491637 0.252873 0.273538 Li+
0.991637 0.247127 0.327464 Li+
0.991637 0.752873 0.286277 Li+
0.491637 0.747127 0.314725 Li+
0.490583 0.000000 0.375958 Li+
0.990583 0.500000 0.391711 Li+
0.491637 0.252873 0.356871 Li+
0.991637 0.247127 0.410798 Li+
0.991637 0.752873 0.369610 Li+
0.491637 0.747127 0.398059 Li+
0.490583 0.000000 0.459291 Li+
0.990583 0.500000 0.475044 Li+
0.491637 0.252873 0.440204 Li+
0.991637 0.247127 0.494131 Li+
0.991637 0.752873 0.452943 Li+
0.491637 0.747127 0.481392 Li+
0.490583 0.000000 0.542624 Li+
0.990583 0.500000 0.558378 Li+
0.491637 0.252873 0.523538 Li+
0.991637 0.247127 0.577464 Li+
0.991637 0.752873 0.536277 Li+
0.491637 0.747127 0.564725 Li+
0.498580 0.500000 0.002646 P5+
0.998580 0.000000 0.015023 P5+
0.498580 0.500000 0.085979 P5+
0.998580 0.000000 0.098356 P5+
0.498580 0.500000 0.169313 P5+
0.998580 0.000000 0.181689 P5+
0.498580 0.500000 0.252646 P5+
0.998580 0.000000 0.265023 P5+
0.498580 0.500000 0.335979 P5+
0.998580 0.000000 0.348356 P5+
0.498580 0.500000 0.419313 P5+
0.998580 0.000000 0.431689 P5+
0.498580 0.500000 0.502646 P5+
0.998580 0.000000 0.515023 P5+
0.892990 0.792862 0.069614 O2-
0.397874 0.500000 0.062709 O2-
0.814809 0.500000 0.003135 O2-
0.314809 0.000000 0.014534 O2-
0.392990 0.292862 0.080199 O2-
0.892990 0.207138 0.020803 O2-
0.897874 0.000000 0.038293 O2-
0.392990 0.707138 0.031388 O2-
0.892990 0.792862 0.152947 O2-
0.397874 0.500000 0.146042 O2-
0.814809 0.500000 0.086468 O2-
0.314809 0.000000 0.097867 O2-
0.392990 0.292862 0.163532 O2-
0.892990 0.207138 0.104137 O2-
0.897874 0.000000 0.121627 O2-
0.392990 0.707138 0.114722 O2-
0.892990 0.792862 0.236280 O2-
0.397874 0.500000 0.229375 O2-
0.814809 0.500000 0.169801 O2-
0.314809 0.000000 0.181201 O2-
0.392990 0.292862 0.246865 O2-
0.892990 0.207138 0.187470 O2-
0.897874 0.000000 0.204960 O2-
0.392990 0.707138 0.198055 O2-
0.892990 0.792862 0.319614 O2-
0.397874 0.500000 0.312709 O2-
0.814809 0.500000 0.253135 O2-
0.314809 0.000000 0.264534 O2-
0.392990 0.292862 0.330199 O2-
0.892990 0.207138 0.270803 O2-
0.897874 0.000000 0.288293 O2-
0.392990 0.707138 0.281388 O2-
0.892990 0.792862 0.402947 O2-
0.397874 0.500000 0.396042 O2-
0.814809 0.500000 0.336468 O2-
0.314809 0.000000 0.347867 O2-
0.392990 0.292862 0.413532 O2-
0.892990 0.207138 0.354137 O2-
0.897874 0.000000 0.371627 O2-
0.392990 0.707138 0.364722 O2-
0.892990 0.792862 0.486280 O2-
0.397874 0.500000 0.479375 O2-
0.814809 0.500000 0.419801 O2-
0.314809 0.000000 0.431201 O2-
0.392990 0.292862 0.496865 O2-
0.892990 0.207138 0.437470 O2-
0.897874 0.000000 0.454960 O2-
0.392990 0.707138 0.448055 O2-
0.892990 0.792862 0.569614 O2-
0.397874 0.500000 0.562709 O2-
0.814809 0.500000 0.503135 O2-
0.314809 0.000000 0.514534 O2-
0.392990 0.292862 0.580199 O2-
0.892990 0.207138 0.520803 O2-
0.897874 0.000000 0.538293 O2-
0.392990 0.707138 0.531388 O2-
