Li61 P7 N32                             
   1.00000000000000     
     0.0588773079938985    9.6032215195241886    0.0254890117045285
     0.0335654101663850    0.0258295237320183    9.5955547445344465
     9.5914511312028647    0.0589499114041801    0.0336412440437267
   Li   P    N 
    61     7    32
Direct
  0.4914249483153547 -0.0038029295097611  0.4985278658881275
  0.0024791424968875  0.4914213912455193 -0.0090182132802755
  0.5072170711611432 -0.0072362345339122 -0.0023528089912165
  0.0013030923727803 -0.0064859895078580  0.5002432554360535
  0.4994506844611662  0.4942999588205562 -0.0045057561928498
 -0.0268992759639947  0.4953521661714368  0.4947605235009670
  0.7528078275380968 -0.0144392193649394  0.5038410338637435
  0.2475511754953084 -0.0072891098815592  0.4999990274560683
  0.6543558759739123  0.4570155106492408  0.5219891679195496
  0.2178038533547849  0.4903918487765046  0.4922076621121205
  0.2678969951847370 -0.0015007927587878 -0.0010187108568648
  0.7579156190166947  0.0190725147923685  0.0727771408402991
  0.4456242350265867  0.5649080040322545  0.5615484295981260
  0.5202803910096174  0.2347779867013601 -0.0235284881354917
  0.4918179719334853  0.7479284143255763  0.0017104737541243
  0.0166100994395266  0.4873997983216611  0.2449894020880024
  0.0232425465030261  0.4800897915996339  0.7382819417024244
  0.2224323719404627  0.2452706987038555  0.2206243487906940
  0.2044450652641325  0.7662996666611454  0.7630146227962988
  0.2293876169190931  0.2748110091293399  0.7159277117382078
  0.2990556079629861  0.7695315063814048  0.2835263919180833
  0.8244743070486431  0.3373081379567470  0.3469659746166754
  0.6880466343611574  0.8177340615462011  0.6653938208585474
  0.7295208644453005  0.2505398355725894  0.7567027406126485
  0.7914039485277189  0.8422737485356266  0.2941328019767224
 -0.0145147867451185  0.2207636337297263  0.2387416651806887
  0.9335344730838946  0.7118610533882012  0.7328768108471293
  0.2523330665000098  0.2393268823443779  0.4796094484905484
  0.2597805720430073  0.7387114986829090  0.5090538751873049
  0.7334411935462273  0.2209986587421161  0.5283782885972452
  0.7673160867745256  0.6790067946957772  0.5095697710766345
  0.7340421350836631  0.5296935192857205  0.2780233662273862
  0.7754599833070192  0.4884833270047376  0.7301441656929346
  0.2702208609666356  0.5268861609180681  0.2402257005253023
  0.2694934172087213  0.5008815401385124  0.7409874331115531
  0.5344921079401923  0.7492880050531061  0.2395723342783506
  0.4650436365438119  0.2317960943447431  0.7132770613712407
  0.2342425764052905 -0.0061434587934046  0.2452637229925008
  0.2334453168964641  0.0192549809709288  0.7511591307034512
  0.2813129804029878  0.2419336717353292  0.9613529119485517
  0.2528122889848323  0.7571246427344358  0.0178219800480686
  0.7397840815446173  0.0108868334287532  0.8060827160585546
  0.7001890185830414  0.1237601623373117  0.3120826828201907
  0.7529602941907136  0.7878455806640218  0.9849084257907984
  0.7963805714736361  0.2511309084993279 -0.0118735601186264
 -0.0148035577565048  0.2179820019661096  0.7575337554968236
  0.0611303540395161  0.7420390362900583  0.2307245914646947
  0.4626421337955074  0.2567763827097611  0.2314815016627831
  0.4581576271243524  0.7318615830815941  0.7507626369938784
  0.0352143745295010  0.2505650142023014 -0.0058043186160323
  0.0135579523515697  0.7329352375279293 -0.0250402918610772
  0.4982754659293812  0.2300704799300541  0.4800998914053954
  0.5180448983685013  0.7547177345652297  0.4770233571292518
  0.5070251906440392  0.5134171109928857  0.2320690459892078
  0.5153758787135837  0.4710853389401704  0.7528727891331143
 -0.0058351574426477 -0.0138177416912300  0.2643341091568398
 -0.0110653484689031 -0.0279419617287991  0.7390104039508257
  0.4403818827975851  0.4273006261569657  0.4177012096078124
  0.8650017514186344  0.6691651808795015  0.1523883386563150
  0.6687382778133624  0.3103633297548293  0.1680793778817700
  0.6619483097814133  0.6640196285059546  0.8272475898403291
  0.0068669490710092 -0.0102461331103639  0.0036857294701982
  0.7558866087195565  0.5007033718610044  0.0012697246127938
  0.2483552571788695  0.4973061275392733 -0.0064511025700728
  0.0042074922450089  0.7477710475404037  0.4840775987662234
 -0.0069976441807074  0.2379572542567675  0.5053730974341873
  0.4921219669144166  0.0047336947721028  0.2432907078102838
  0.4912467639637298 -0.0120971052732090  0.7520249448682483
  0.6218431133956636  0.6219035991853313  0.6378743046210531
  0.6232081550068875  0.3516423625399098  0.3567634825636639
  0.9103232721482122  0.8783549989338572  0.1038168222033225
  0.8987963453467773  0.0939133759085260  0.9094085473915677
  0.1101617002426954  0.8982791510457145  0.8959171327394522
  0.1023017694647163  0.0931455041544760  0.1083274353870037
  0.3891818136228868  0.6212540077889225  0.3746027356218851
  0.3722160625340554  0.3743887138616812  0.6049609952902023
  0.0787196452596116  0.3397983312317692  0.3897515051928219
  0.0878069590455261  0.6412936987854858  0.5983722303887026
  0.1006636018943645  0.1404809594730475  0.6037682729975830
  0.1167467466015868  0.8520184155365569  0.3968839301538637
  0.8866088535732956  0.1377218096079743  0.4080574017611616
  0.8862250351713296  0.8411989211577747  0.5777073035834760
  0.8547785882316227  0.4061558637272439  0.1138153478984578
  0.8553401233961171  0.6019073515913419  0.8969429023737828
  0.1427684057256274  0.5962367486597741  0.0953583215591069
  0.1538759378733397  0.3947668472355336  0.8858664070088259
  0.3999445068180783  0.8928590289125348  0.1453667215130576
  0.3989268306836850  0.0983624354921120  0.8536871604333262
  0.3798300354125369  0.1000272823902230  0.3448559966320074
  0.3819885848702521  0.8988139869610815  0.6502656435615835
  0.3474118069569041  0.3907566594472525  0.0951642467821026
  0.3506530456358683  0.6068242791899953  0.8975776726606881
  0.6085090971130001  0.0853870097165248  0.6552211963933312
  0.6062761565988014  0.9190045868368566  0.3454825891750604
  0.6525213827099994  0.6113240156064825  0.0927193188409703
  0.6625594458901342  0.3884737407546583  0.9054323549524228
  0.8880295313268417  0.3356764508435326  0.6142720903347810
  0.9126307251888959  0.6537744800329727  0.3630784925188824
  0.5864455546192281  0.1141688221641284  0.1383523146119915
  0.5904821955679134  0.8748240572865287  0.8489571437294775
 
  0.00000000E+00  0.00000000E+00  0.00000000E+00
  0.00000000E+00  0.00000000E+00  0.00000000E+00
  0.00000000E+00  0.00000000E+00  0.00000000E+00
  0.00000000E+00  0.00000000E+00  0.00000000E+00
  0.00000000E+00  0.00000000E+00  0.00000000E+00
  0.00000000E+00  0.00000000E+00  0.00000000E+00
  0.00000000E+00  0.00000000E+00  0.00000000E+00
  0.00000000E+00  0.00000000E+00  0.00000000E+00
  0.00000000E+00  0.00000000E+00  0.00000000E+00
  0.00000000E+00  0.00000000E+00  0.00000000E+00
  0.00000000E+00  0.00000000E+00  0.00000000E+00
  0.00000000E+00  0.00000000E+00  0.00000000E+00
  0.00000000E+00  0.00000000E+00  0.00000000E+00
  0.00000000E+00  0.00000000E+00  0.00000000E+00
  0.00000000E+00  0.00000000E+00  0.00000000E+00
  0.00000000E+00  0.00000000E+00  0.00000000E+00
  0.00000000E+00  0.00000000E+00  0.00000000E+00
  0.00000000E+00  0.00000000E+00  0.00000000E+00
  0.00000000E+00  0.00000000E+00  0.00000000E+00
  0.00000000E+00  0.00000000E+00  0.00000000E+00
  0.00000000E+00  0.00000000E+00  0.00000000E+00
  0.00000000E+00  0.00000000E+00  0.00000000E+00
  0.00000000E+00  0.00000000E+00  0.00000000E+00
  0.00000000E+00  0.00000000E+00  0.00000000E+00
  0.00000000E+00  0.00000000E+00  0.00000000E+00
  0.00000000E+00  0.00000000E+00  0.00000000E+00
  0.00000000E+00  0.00000000E+00  0.00000000E+00
  0.00000000E+00  0.00000000E+00  0.00000000E+00
  0.00000000E+00  0.00000000E+00  0.00000000E+00
  0.00000000E+00  0.00000000E+00  0.00000000E+00
  0.00000000E+00  0.00000000E+00  0.00000000E+00
  0.00000000E+00  0.00000000E+00  0.00000000E+00
  0.00000000E+00  0.00000000E+00  0.00000000E+00
  0.00000000E+00  0.00000000E+00  0.00000000E+00
  0.00000000E+00  0.00000000E+00  0.00000000E+00
  0.00000000E+00  0.00000000E+00  0.00000000E+00
  0.00000000E+00  0.00000000E+00  0.00000000E+00
  0.00000000E+00  0.00000000E+00  0.00000000E+00
  0.00000000E+00  0.00000000E+00  0.00000000E+00
  0.00000000E+00  0.00000000E+00  0.00000000E+00
  0.00000000E+00  0.00000000E+00  0.00000000E+00
  0.00000000E+00  0.00000000E+00  0.00000000E+00
  0.00000000E+00  0.00000000E+00  0.00000000E+00
  0.00000000E+00  0.00000000E+00  0.00000000E+00
  0.00000000E+00  0.00000000E+00  0.00000000E+00
  0.00000000E+00  0.00000000E+00  0.00000000E+00
  0.00000000E+00  0.00000000E+00  0.00000000E+00
  0.00000000E+00  0.00000000E+00  0.00000000E+00
  0.00000000E+00  0.00000000E+00  0.00000000E+00
  0.00000000E+00  0.00000000E+00  0.00000000E+00
  0.00000000E+00  0.00000000E+00  0.00000000E+00
  0.00000000E+00  0.00000000E+00  0.00000000E+00
  0.00000000E+00  0.00000000E+00  0.00000000E+00
  0.00000000E+00  0.00000000E+00  0.00000000E+00
  0.00000000E+00  0.00000000E+00  0.00000000E+00
  0.00000000E+00  0.00000000E+00  0.00000000E+00
  0.00000000E+00  0.00000000E+00  0.00000000E+00
  0.00000000E+00  0.00000000E+00  0.00000000E+00
  0.00000000E+00  0.00000000E+00  0.00000000E+00
  0.00000000E+00  0.00000000E+00  0.00000000E+00
  0.00000000E+00  0.00000000E+00  0.00000000E+00
  0.00000000E+00  0.00000000E+00  0.00000000E+00
  0.00000000E+00  0.00000000E+00  0.00000000E+00
  0.00000000E+00  0.00000000E+00  0.00000000E+00
  0.00000000E+00  0.00000000E+00  0.00000000E+00
  0.00000000E+00  0.00000000E+00  0.00000000E+00
  0.00000000E+00  0.00000000E+00  0.00000000E+00
  0.00000000E+00  0.00000000E+00  0.00000000E+00
  0.00000000E+00  0.00000000E+00  0.00000000E+00
  0.00000000E+00  0.00000000E+00  0.00000000E+00
  0.00000000E+00  0.00000000E+00  0.00000000E+00
  0.00000000E+00  0.00000000E+00  0.00000000E+00
  0.00000000E+00  0.00000000E+00  0.00000000E+00
  0.00000000E+00  0.00000000E+00  0.00000000E+00
  0.00000000E+00  0.00000000E+00  0.00000000E+00
  0.00000000E+00  0.00000000E+00  0.00000000E+00
  0.00000000E+00  0.00000000E+00  0.00000000E+00
  0.00000000E+00  0.00000000E+00  0.00000000E+00
  0.00000000E+00  0.00000000E+00  0.00000000E+00
  0.00000000E+00  0.00000000E+00  0.00000000E+00
  0.00000000E+00  0.00000000E+00  0.00000000E+00
  0.00000000E+00  0.00000000E+00  0.00000000E+00
  0.00000000E+00  0.00000000E+00  0.00000000E+00
  0.00000000E+00  0.00000000E+00  0.00000000E+00
  0.00000000E+00  0.00000000E+00  0.00000000E+00
  0.00000000E+00  0.00000000E+00  0.00000000E+00
  0.00000000E+00  0.00000000E+00  0.00000000E+00
  0.00000000E+00  0.00000000E+00  0.00000000E+00
  0.00000000E+00  0.00000000E+00  0.00000000E+00
  0.00000000E+00  0.00000000E+00  0.00000000E+00
  0.00000000E+00  0.00000000E+00  0.00000000E+00
  0.00000000E+00  0.00000000E+00  0.00000000E+00
  0.00000000E+00  0.00000000E+00  0.00000000E+00
  0.00000000E+00  0.00000000E+00  0.00000000E+00
  0.00000000E+00  0.00000000E+00  0.00000000E+00
  0.00000000E+00  0.00000000E+00  0.00000000E+00
  0.00000000E+00  0.00000000E+00  0.00000000E+00
  0.00000000E+00  0.00000000E+00  0.00000000E+00
  0.00000000E+00  0.00000000E+00  0.00000000E+00
  0.00000000E+00  0.00000000E+00  0.00000000E+00
