Li71 P24 N1 O94                         
   1.00000000000000     
    14.7286596227791584   -0.0083232631629936    0.0131099187440499
    -0.0059568669771930   10.5562678497140965   -0.0105392662534348
     0.0109459260451292   -0.0122710015828137   12.3158932074685836
   Li   P    N    O 
    71    24     1    94
Direct
  0.1641812029990029  0.4277533189200123 -0.0193167231877324
  0.1688191559246332  0.4230541954867468  0.5038523378117526
  0.1650708513697562  0.9308762553314690  0.0079361543358653
  0.1701556136321820  0.9229010751843011  0.4998996975470631
  0.5054063159454683  0.4227470375094595 -0.0026673101909166
  0.5036800899965765  0.4221825130926879  0.5010042111766605
  0.5060385517139145  0.9222149652229019 -0.0002094949702264
  0.5028687911345220  0.9224420286922586  0.5000867301411616
  0.8351342136993269  0.4217056011118320 -0.0002445052418686
  0.8353105007042710  0.4216736754648607  0.4998838191289044
  0.8360374258829742  0.9204743377971496 -0.0008897163928187
  0.8369015285659848  0.9226068556529798  0.4996613494784132
  0.0086011014727502  0.0789362348115641  0.2455777933603443
  0.0021513414846457  0.0766059233840306  0.7506804582840096
 -0.0001453405929645  0.5819079250993447  0.2492654593294178
  0.0028856440211183  0.5790831757129007  0.7493608307878392
  0.3341395583605883  0.0761441634900632  0.2487021456482297
  0.3367590715392310  0.0771958790697772  0.7521397499017333
  0.3388355989328790  0.5803418322998816  0.2513557679626386
  0.3362722438262668  0.5772139245201187  0.7500790030135569
  0.6714173320172386  0.0768968882570685  0.2501571777232882
  0.6704404252077094  0.0764415380719823  0.7495554779905832
  0.6695775893675656  0.5788332998264751  0.2502514272265542
  0.6690525723673226  0.5784152914132547  0.7499569541774916
  0.1694674832641749  0.1628251409923287  0.6268919172235979
  0.1688546502297858  0.6658416158840810  0.1254567607097403
  0.1698182080627582  0.6657216238264880  0.6259393157291154
  0.5064471500019760  0.1596858168156439  0.1276885911769857
  0.5027919629738611  0.1625555136331722  0.6268542589226528
  0.5026921914226306  0.6639555374993322  0.1261108759349923
  0.5025594018158946  0.6633693063172531  0.6265276635538447
  0.8392018060245140  0.1621810007166009  0.1256156954289630
  0.8361975508595229  0.1628348968179039  0.6258885773333269
  0.8355426643575266  0.6633886411907005  0.1262520186603718
  0.8358251336822832  0.6632205006322280  0.6260513413046457
  0.0007073657658481  0.3346471566395513  0.1221380825459548
  0.0019151211786179  0.3359564300996529  0.6233545303706933
  0.0027155633676640  0.8391640318571758  0.1241465359759861
  0.0031437532889403  0.8372808113403695  0.6237252118887406
  0.3583093087350642  0.3321871361217091  0.1195388859661032
  0.3367262784764143  0.3359808254438187  0.6239722913042383
  0.3362827059108682  0.8388724827467787  0.1227152350830871
  0.3361998602429609  0.8375052041372874  0.6243835405908222
  0.6695801970775236  0.3362859585486099  0.1236263181890026
  0.6691985371489976  0.3367173999949177  0.6237732557719774
  0.6701789715747150  0.8370650920915831  0.1240549506795329
  0.6692561402223297  0.8367167867089489  0.6231511257649933
  0.0001723808193110  0.3338448614738354  0.3774686616646416
 -0.0001852595704580  0.3364192584567168  0.8748465900529439
  0.0032969896506007  0.8376583712135415  0.3757974837193702
  0.0025845226726958  0.8383503571631852  0.8773737678285080
  0.3389401028303472  0.3355188557207090  0.3784815908410364
  0.3354565173335332  0.3313112800085030  0.8756428083991357
  0.3353832227029601  0.8370698116376880  0.3762809885681311
  0.3364295385682828  0.8386050456679206  0.8785392119508972
  0.6696193888310601  0.3363674455887364  0.3766320384037943
  0.6700657172602317  0.3367187821020485  0.8755888501314677
  0.6697422828007491  0.8370172502304585  0.3765217897931848
  0.6698390039928294  0.8365728962393291  0.8758431692718461
  0.1698305619413751  0.1586676045985717  0.3712669507583418
  0.1615088821792612  0.1685866102826829  0.8761440664009016
  0.1682884054052923  0.6659587920656893  0.3779179389109532
  0.1701975691240306  0.6667227887815775  0.8736947671574057
  0.5031231470429068  0.1620568958423965  0.3738355103271138
  0.5068009621378736  0.1621940277064145  0.8729622081254472
  0.5033171613561065  0.6640904192408347  0.3748180270049361
  0.5021405625616884  0.6637272773553275  0.8737239124772563
  0.8367826654929416  0.1622626791637353  0.3728491387023273
  0.8355941460153914  0.1626254193392654  0.8716074861917602
  0.8355987001875453  0.6638232133194907  0.3744007047621610
  0.8360120460477144  0.6629297943581238  0.8733155900991303
  0.1666065497834462  0.4157270007883408  0.2563680284173194
  0.1664095954994031  0.4139323016697283  0.7469860823800684
  0.1685909657920137  0.9107542514125970  0.2521840041242929
  0.1671414956384259  0.9134421642823704  0.7515279599139241
  0.5003353333908862  0.4128955246007884  0.2507833852340647
  0.5002311107019072  0.4122802426843907  0.7500254199088107
  0.5012958257587714  0.9113563473370263  0.2505410444973189
  0.5009160404992526  0.9114836781002033  0.7497580821891636
  0.8325461490743991  0.4130358772929072  0.2497615196828557
  0.8330753661330693  0.4130611430727805  0.7494087157020117
  0.8342736090709366  0.9117076851861948  0.2503449960496198
  0.8337117822182560  0.9110626475029441  0.7488311398033269
 -0.0048007128756638  0.0892234250381820  0.0000927637444499
  0.0007369611857606  0.0880077877220437  0.4999909226777703
  0.0001926865753410  0.5880564801354099  0.0001803482053576
 -0.0000144970064161  0.5869794854677507  0.4993337723551528
  0.3379518536702131  0.0876521015946847  0.0003633931917993
  0.3338727319089156  0.0878590401396504  0.5006652341459069
  0.3330666014985750  0.5856012548698780  0.0006360186100290
  0.3340852099966096  0.5874130353749751  0.5005469704011681
  0.6683606267134378  0.0877940474310054 -0.0000513611096671
  0.6673180380331735  0.0879977121830381  0.5000827026949657
  0.6666944415143163  0.5878655594432997 -0.0000171472030969
  0.6668502852379177  0.5876467951239369  0.5002120658182367
  0.2283750379870233  0.0963210644148019 -0.0033762105893508
  0.0363674658282703  0.1575833360490605  0.3965349959558830
  0.0301420174216805  0.1582929231715648  0.8953117341737225
  0.0351155837777072  0.6554016179407386  0.3949511428129219
  0.0362259072857154  0.6569025006286804  0.8966799745717020
  0.3697465398002051  0.1572440632144902  0.3971324799396379
  0.3759535616651120  0.1550321252468831  0.8958495434473461
  0.3696302642330151  0.6566518965140512  0.3969113185746589
  0.3674033643457572  0.6552268450019948  0.8968629260668566
  0.7027269009513311  0.1571486083896268  0.3962301688485772
  0.7025166740137366  0.1568932099693462  0.8954865549682742
  0.7021210849282677  0.6568242061070046  0.3963932285727645
  0.7024431597112853  0.6565410320047010  0.8962280554536255
  0.2047936064403495  0.0472987057610616  0.2567328760790975
  0.2000653488332409  0.0540544112094221  0.7520086221661115
  0.2022111230926134  0.5542449817539540  0.2511889866074708
  0.1999958666221845  0.5541022339767410  0.7485649253107253
  0.5358113189970707  0.0512365345085540  0.2508651723628992
  0.5355038320311193  0.0511871283802375  0.7493463093009508
  0.5339585136698727  0.5527712392765664  0.2502480664198010
  0.5334310335222527  0.5527322761254285  0.7499706004197427
  0.8681379332430316  0.0514531756479176  0.2503553557572581
  0.8671368507500986  0.0512272612052686  0.7483197609497559
  0.8664194477399710  0.5532275805221041  0.2504926368901426
  0.8675430869486327  0.5528737855621326  0.7494216466188521
  0.0615822057197643  0.4093981612599284  0.2496676982359927
  0.0606846751144450  0.4105617306497574  0.7485437852397229
  0.0625007446878578  0.9084198037289348  0.2505357638511691
  0.0613061195368015  0.9090513299357865  0.7506553513730220
  0.3941803165948889  0.4103947098333114  0.2513829214306716
  0.3944610910248812  0.4087858926018525  0.7507540371915272
  0.3956745501063346  0.9083729549977094  0.2504120551534352
  0.3951810805106333  0.9087895712458072  0.7505479524553876
  0.7267977882570464  0.4102418833730337  0.2503889539312388
  0.7273446171732848  0.4108462945188177  0.7492328857727379
  0.7283958644435813  0.9087656510927365  0.2505210204587564
  0.7279293424815948  0.9080851215654248  0.7492412887827701
  0.2281937413959086  0.0912100821429216  0.5008470573738113
  0.2269669858481045  0.5857858151127237  0.0011591305477757
  0.2281977696821146  0.5892475407675070  0.5000436704594523
  0.5626775682468809  0.0907932424242696  0.0004441116443411
  0.5615515800856101  0.0908239964496677  0.5001691341368145
  0.5608638628399731  0.5911708410039023 -0.0001810032043938
  0.5610912097082145  0.5902939987526145  0.5003652197508137
  0.8890069548182034  0.0871428259436806 -0.0042929705169730
  0.8949355949194723  0.0910717085710302  0.4996133164355036
  0.8945783014123129  0.5900804851371453 -0.0001097033665965
  0.8943537863522083  0.5894359826452387  0.4999127489662442
  0.2019007062705339  0.3446833076530570  0.6434039091808899
  0.2033366230373176  0.8408776208637008  0.1477351721888731
  0.2027530782506596  0.8448861263415887  0.6469403073145584
  0.5332676259996537  0.3432224130421110  0.1456296540537278
  0.5354246432693076  0.3430827135855267  0.6459811912752977
  0.5370171941088642  0.8420108884904541  0.1467789898952361
  0.5355704765256512  0.8423050641248607  0.6453509857198046
  0.8675308112471398  0.3451317856574661  0.1453416054201273
  0.8684935285929013  0.3432186144883454  0.6457551385417015
  0.8690589309335224  0.8416864547322811  0.1464773357238924
  0.8690974127906506  0.8420865991894942  0.6446969197361971
  0.0238308868743200  0.1602879447283447  0.1039416504967171
  0.0355656774059196  0.1569804790999238  0.6043463378832408
  0.0352991196048811  0.6566157523742390  0.1044739076341172
  0.0359602759615670  0.6566459679139623  0.6026058995967916
  0.3731120459761612  0.1559135364497877  0.1056091391023231
  0.3691631508621933  0.1566032074670278  0.6049613831145063
  0.3681925848729584  0.6550580789259594  0.1042410508238053
  0.3685403439218829  0.6568148155146925  0.6046130111716521
  0.7034120104222105  0.1571750949131232  0.1039198439227953
  0.7025169619508022  0.1573276139269013  0.6040053313661031
  0.7020452991451084  0.6566987646366191  0.1039598961268874
  0.7021853561270759  0.6567837106707949  0.6040466289849132
  0.0342506530999653  0.4475749612517801 -0.0002603121626983
  0.0339751446439335  0.4467929000886516  0.4989072584707709
  0.0303944232460591  0.9494391766259618  0.0005088781269827
  0.0343470223319078  0.9479292310720696  0.5000087323506844
  0.3670535319898229  0.4453256469316683  0.0001243404072742
  0.3681736926697269  0.4474925919904583  0.5006389388633684
  0.3742709400392367  0.9476802611948072  0.0007295696924034
  0.3674386352209267  0.9477031737372632  0.5001846680744683
  0.6995883892697929  0.4473873360041464  0.0000349974916494
  0.7003664122026697  0.4474682463268476  0.4999813836411409
  0.7011054451160741  0.9472760847081028 -0.0002955602025661
  0.7010989376047858  0.9479912527521805  0.5000273841289430
  0.2035138081891688  0.3425826875598534  0.3562094944902116
  0.2021396570246708  0.3443651627941054  0.8499568306991900
  0.2015961434089449  0.8376421289734192  0.3560018329292986
  0.2025373327578140  0.8441523061111406  0.8549328881245759
  0.5356320913421968  0.3431345407572022  0.3537601800296414
  0.5364843174490993  0.3437291760679224  0.8534616702650080
  0.5362992198765688  0.8425265525307696  0.3545867516857809
  0.5365901702614858  0.8419538969247797  0.8530694604307497
  0.8681700688044364  0.3433728221437797  0.3531062220136954
  0.8674949144550030  0.3441577949035537  0.8535003617853670
  0.8692643017839351  0.8424151972048783  0.3542478928755040
  0.8689270756058913  0.8415337787281250  0.8522764606028610
 
  0.00000000E+00  0.00000000E+00  0.00000000E+00
  0.00000000E+00  0.00000000E+00  0.00000000E+00
  0.00000000E+00  0.00000000E+00  0.00000000E+00
  0.00000000E+00  0.00000000E+00  0.00000000E+00
  0.00000000E+00  0.00000000E+00  0.00000000E+00
  0.00000000E+00  0.00000000E+00  0.00000000E+00
  0.00000000E+00  0.00000000E+00  0.00000000E+00
  0.00000000E+00  0.00000000E+00  0.00000000E+00
  0.00000000E+00  0.00000000E+00  0.00000000E+00
  0.00000000E+00  0.00000000E+00  0.00000000E+00
  0.00000000E+00  0.00000000E+00  0.00000000E+00
  0.00000000E+00  0.00000000E+00  0.00000000E+00
  0.00000000E+00  0.00000000E+00  0.00000000E+00
  0.00000000E+00  0.00000000E+00  0.00000000E+00
  0.00000000E+00  0.00000000E+00  0.00000000E+00
  0.00000000E+00  0.00000000E+00  0.00000000E+00
  0.00000000E+00  0.00000000E+00  0.00000000E+00
  0.00000000E+00  0.00000000E+00  0.00000000E+00
  0.00000000E+00  0.00000000E+00  0.00000000E+00
  0.00000000E+00  0.00000000E+00  0.00000000E+00
  0.00000000E+00  0.00000000E+00  0.00000000E+00
  0.00000000E+00  0.00000000E+00  0.00000000E+00
  0.00000000E+00  0.00000000E+00  0.00000000E+00
  0.00000000E+00  0.00000000E+00  0.00000000E+00
  0.00000000E+00  0.00000000E+00  0.00000000E+00
  0.00000000E+00  0.00000000E+00  0.00000000E+00
  0.00000000E+00  0.00000000E+00  0.00000000E+00
  0.00000000E+00  0.00000000E+00  0.00000000E+00
  0.00000000E+00  0.00000000E+00  0.00000000E+00
  0.00000000E+00  0.00000000E+00  0.00000000E+00
  0.00000000E+00  0.00000000E+00  0.00000000E+00
  0.00000000E+00  0.00000000E+00  0.00000000E+00
  0.00000000E+00  0.00000000E+00  0.00000000E+00
  0.00000000E+00  0.00000000E+00  0.00000000E+00
  0.00000000E+00  0.00000000E+00  0.00000000E+00
  0.00000000E+00  0.00000000E+00  0.00000000E+00
  0.00000000E+00  0.00000000E+00  0.00000000E+00
  0.00000000E+00  0.00000000E+00  0.00000000E+00
  0.00000000E+00  0.00000000E+00  0.00000000E+00
  0.00000000E+00  0.00000000E+00  0.00000000E+00
  0.00000000E+00  0.00000000E+00  0.00000000E+00
  0.00000000E+00  0.00000000E+00  0.00000000E+00
  0.00000000E+00  0.00000000E+00  0.00000000E+00
  0.00000000E+00  0.00000000E+00  0.00000000E+00
  0.00000000E+00  0.00000000E+00  0.00000000E+00
  0.00000000E+00  0.00000000E+00  0.00000000E+00
  0.00000000E+00  0.00000000E+00  0.00000000E+00
  0.00000000E+00  0.00000000E+00  0.00000000E+00
  0.00000000E+00  0.00000000E+00  0.00000000E+00
  0.00000000E+00  0.00000000E+00  0.00000000E+00
  0.00000000E+00  0.00000000E+00  0.00000000E+00
  0.00000000E+00  0.00000000E+00  0.00000000E+00
  0.00000000E+00  0.00000000E+00  0.00000000E+00
  0.00000000E+00  0.00000000E+00  0.00000000E+00
  0.00000000E+00  0.00000000E+00  0.00000000E+00
  0.00000000E+00  0.00000000E+00  0.00000000E+00
  0.00000000E+00  0.00000000E+00  0.00000000E+00
  0.00000000E+00  0.00000000E+00  0.00000000E+00
  0.00000000E+00  0.00000000E+00  0.00000000E+00
  0.00000000E+00  0.00000000E+00  0.00000000E+00
  0.00000000E+00  0.00000000E+00  0.00000000E+00
  0.00000000E+00  0.00000000E+00  0.00000000E+00
  0.00000000E+00  0.00000000E+00  0.00000000E+00
  0.00000000E+00  0.00000000E+00  0.00000000E+00
  0.00000000E+00  0.00000000E+00  0.00000000E+00
  0.00000000E+00  0.00000000E+00  0.00000000E+00
  0.00000000E+00  0.00000000E+00  0.00000000E+00
  0.00000000E+00  0.00000000E+00  0.00000000E+00
  0.00000000E+00  0.00000000E+00  0.00000000E+00
  0.00000000E+00  0.00000000E+00  0.00000000E+00
  0.00000000E+00  0.00000000E+00  0.00000000E+00
  0.00000000E+00  0.00000000E+00  0.00000000E+00
  0.00000000E+00  0.00000000E+00  0.00000000E+00
  0.00000000E+00  0.00000000E+00  0.00000000E+00
  0.00000000E+00  0.00000000E+00  0.00000000E+00
  0.00000000E+00  0.00000000E+00  0.00000000E+00
  0.00000000E+00  0.00000000E+00  0.00000000E+00
  0.00000000E+00  0.00000000E+00  0.00000000E+00
  0.00000000E+00  0.00000000E+00  0.00000000E+00
  0.00000000E+00  0.00000000E+00  0.00000000E+00
  0.00000000E+00  0.00000000E+00  0.00000000E+00
  0.00000000E+00  0.00000000E+00  0.00000000E+00
  0.00000000E+00  0.00000000E+00  0.00000000E+00
  0.00000000E+00  0.00000000E+00  0.00000000E+00
  0.00000000E+00  0.00000000E+00  0.00000000E+00
  0.00000000E+00  0.00000000E+00  0.00000000E+00
  0.00000000E+00  0.00000000E+00  0.00000000E+00
  0.00000000E+00  0.00000000E+00  0.00000000E+00
  0.00000000E+00  0.00000000E+00  0.00000000E+00
  0.00000000E+00  0.00000000E+00  0.00000000E+00
  0.00000000E+00  0.00000000E+00  0.00000000E+00
  0.00000000E+00  0.00000000E+00  0.00000000E+00
  0.00000000E+00  0.00000000E+00  0.00000000E+00
  0.00000000E+00  0.00000000E+00  0.00000000E+00
  0.00000000E+00  0.00000000E+00  0.00000000E+00
  0.00000000E+00  0.00000000E+00  0.00000000E+00
  0.00000000E+00  0.00000000E+00  0.00000000E+00
  0.00000000E+00  0.00000000E+00  0.00000000E+00
  0.00000000E+00  0.00000000E+00  0.00000000E+00
  0.00000000E+00  0.00000000E+00  0.00000000E+00
  0.00000000E+00  0.00000000E+00  0.00000000E+00
  0.00000000E+00  0.00000000E+00  0.00000000E+00
  0.00000000E+00  0.00000000E+00  0.00000000E+00
  0.00000000E+00  0.00000000E+00  0.00000000E+00
  0.00000000E+00  0.00000000E+00  0.00000000E+00
  0.00000000E+00  0.00000000E+00  0.00000000E+00
  0.00000000E+00  0.00000000E+00  0.00000000E+00
  0.00000000E+00  0.00000000E+00  0.00000000E+00
  0.00000000E+00  0.00000000E+00  0.00000000E+00
  0.00000000E+00  0.00000000E+00  0.00000000E+00
  0.00000000E+00  0.00000000E+00  0.00000000E+00
  0.00000000E+00  0.00000000E+00  0.00000000E+00
  0.00000000E+00  0.00000000E+00  0.00000000E+00
  0.00000000E+00  0.00000000E+00  0.00000000E+00
  0.00000000E+00  0.00000000E+00  0.00000000E+00
  0.00000000E+00  0.00000000E+00  0.00000000E+00
  0.00000000E+00  0.00000000E+00  0.00000000E+00
  0.00000000E+00  0.00000000E+00  0.00000000E+00
  0.00000000E+00  0.00000000E+00  0.00000000E+00
  0.00000000E+00  0.00000000E+00  0.00000000E+00
  0.00000000E+00  0.00000000E+00  0.00000000E+00
  0.00000000E+00  0.00000000E+00  0.00000000E+00
  0.00000000E+00  0.00000000E+00  0.00000000E+00
  0.00000000E+00  0.00000000E+00  0.00000000E+00
  0.00000000E+00  0.00000000E+00  0.00000000E+00
  0.00000000E+00  0.00000000E+00  0.00000000E+00
  0.00000000E+00  0.00000000E+00  0.00000000E+00
  0.00000000E+00  0.00000000E+00  0.00000000E+00
  0.00000000E+00  0.00000000E+00  0.00000000E+00
  0.00000000E+00  0.00000000E+00  0.00000000E+00
  0.00000000E+00  0.00000000E+00  0.00000000E+00
  0.00000000E+00  0.00000000E+00  0.00000000E+00
  0.00000000E+00  0.00000000E+00  0.00000000E+00
  0.00000000E+00  0.00000000E+00  0.00000000E+00
  0.00000000E+00  0.00000000E+00  0.00000000E+00
  0.00000000E+00  0.00000000E+00  0.00000000E+00
  0.00000000E+00  0.00000000E+00  0.00000000E+00
  0.00000000E+00  0.00000000E+00  0.00000000E+00
  0.00000000E+00  0.00000000E+00  0.00000000E+00
  0.00000000E+00  0.00000000E+00  0.00000000E+00
  0.00000000E+00  0.00000000E+00  0.00000000E+00
  0.00000000E+00  0.00000000E+00  0.00000000E+00
  0.00000000E+00  0.00000000E+00  0.00000000E+00
  0.00000000E+00  0.00000000E+00  0.00000000E+00
  0.00000000E+00  0.00000000E+00  0.00000000E+00
  0.00000000E+00  0.00000000E+00  0.00000000E+00
  0.00000000E+00  0.00000000E+00  0.00000000E+00
  0.00000000E+00  0.00000000E+00  0.00000000E+00
  0.00000000E+00  0.00000000E+00  0.00000000E+00
  0.00000000E+00  0.00000000E+00  0.00000000E+00
  0.00000000E+00  0.00000000E+00  0.00000000E+00
  0.00000000E+00  0.00000000E+00  0.00000000E+00
  0.00000000E+00  0.00000000E+00  0.00000000E+00
  0.00000000E+00  0.00000000E+00  0.00000000E+00
  0.00000000E+00  0.00000000E+00  0.00000000E+00
  0.00000000E+00  0.00000000E+00  0.00000000E+00
  0.00000000E+00  0.00000000E+00  0.00000000E+00
  0.00000000E+00  0.00000000E+00  0.00000000E+00
  0.00000000E+00  0.00000000E+00  0.00000000E+00
  0.00000000E+00  0.00000000E+00  0.00000000E+00
  0.00000000E+00  0.00000000E+00  0.00000000E+00
  0.00000000E+00  0.00000000E+00  0.00000000E+00
  0.00000000E+00  0.00000000E+00  0.00000000E+00
  0.00000000E+00  0.00000000E+00  0.00000000E+00
  0.00000000E+00  0.00000000E+00  0.00000000E+00
  0.00000000E+00  0.00000000E+00  0.00000000E+00
  0.00000000E+00  0.00000000E+00  0.00000000E+00
  0.00000000E+00  0.00000000E+00  0.00000000E+00
  0.00000000E+00  0.00000000E+00  0.00000000E+00
  0.00000000E+00  0.00000000E+00  0.00000000E+00
  0.00000000E+00  0.00000000E+00  0.00000000E+00
  0.00000000E+00  0.00000000E+00  0.00000000E+00
  0.00000000E+00  0.00000000E+00  0.00000000E+00
  0.00000000E+00  0.00000000E+00  0.00000000E+00
  0.00000000E+00  0.00000000E+00  0.00000000E+00
  0.00000000E+00  0.00000000E+00  0.00000000E+00
  0.00000000E+00  0.00000000E+00  0.00000000E+00
  0.00000000E+00  0.00000000E+00  0.00000000E+00
  0.00000000E+00  0.00000000E+00  0.00000000E+00
  0.00000000E+00  0.00000000E+00  0.00000000E+00
  0.00000000E+00  0.00000000E+00  0.00000000E+00
  0.00000000E+00  0.00000000E+00  0.00000000E+00
  0.00000000E+00  0.00000000E+00  0.00000000E+00
  0.00000000E+00  0.00000000E+00  0.00000000E+00
  0.00000000E+00  0.00000000E+00  0.00000000E+00
  0.00000000E+00  0.00000000E+00  0.00000000E+00
  0.00000000E+00  0.00000000E+00  0.00000000E+00
  0.00000000E+00  0.00000000E+00  0.00000000E+00
  0.00000000E+00  0.00000000E+00  0.00000000E+00
  0.00000000E+00  0.00000000E+00  0.00000000E+00
