Li71 P24 N1 O94                         
   1.00000000000000     
    14.7221878158757047    0.0089375023077248   -0.0013892111679269
     0.0064114851946486   10.5667903059177970    0.0132053334445672
    -0.0011820835573115    0.0154140222104924   12.3215011703268704
   Li   P    N    O 
    71    24     1    94
Direct
  0.1691439596822254  0.4196125660883114 -0.0032716657761702
  0.1631378626941949  0.4367866609972356  0.5239607031521147
  0.1680235638239693  0.9302588356207860  0.0046529240542899
  0.1703113199506963  0.9246064241766722  0.4996832282756539
  0.5037272114479940  0.4220192612928181 -0.0008500274003056
  0.5062545311464131  0.4248698785216761  0.5035356374948020
  0.5047322272035288  0.9226233278865562 -0.0001180405867368
  0.5023766777933103  0.9226301204344641  0.4997665076655069
  0.8363453141918029  0.4215515997600580 -0.0000534331655730
  0.8344056862888558  0.4217999425877180  0.5004744169809165
  0.8359747675339161  0.9200546514090298 -0.0014089496095456
  0.8361857029583837  0.9225848153010747  0.4997136143717440
  0.0079473608840252  0.0762938375081961  0.2460578270423836
  0.0028594413238956  0.0768232847414655  0.7524537461953643
  0.0002916728537122  0.5818094963992623  0.2501594844982410
  0.0027127118796500  0.5777026830933746  0.7514024255383638
  0.3388870452731771  0.0794643329066125  0.2428367955505850
  0.3359979627401566  0.0774404769310695  0.7520806739037570
  0.3375364814560377  0.5804088768384154  0.2480415230173457
  0.3366027095399662  0.5777675628685790  0.7513524562948991
  0.6712034088275609  0.0769610538454666  0.2484125063681098
  0.6697795233801808  0.0763447219294548  0.7498970269570806
  0.6698526800613089  0.5788578462602845  0.2491513851944160
  0.6691442265730481  0.5781650834350971  0.7502957682840758
  0.1686455594684856  0.1631495485293805  0.6286960102250642
  0.1686042490789367  0.6653851908505904  0.1217249477380493
  0.1699231803693822  0.6676716938794118  0.6286947783703927
  0.5040043489404037  0.1624808687675008  0.1245689649260193
  0.5029160372603531  0.1630169533932407  0.6268557981825192
  0.5029830808392785  0.6644097343849983  0.1247909031333434
  0.5026939046186460  0.6643287021495264  0.6266332819588478
  0.8404085368291080  0.1613075222548523  0.1246683746911377
  0.8354972586936056  0.1629062310121463  0.6263969907776961
  0.8358449668604633  0.6629278166570194  0.1257738811428126
  0.8352957159436674  0.6634486884167200  0.6267509817511797
  0.0034781257307695  0.3315720858014509  0.1228120107230910
  0.0005449429503540  0.3357253411570243  0.6261480931224744
  0.0021254382982414  0.8358915529670956  0.1223221300488486
  0.0026347740791806  0.8379375096703466  0.6234836819689966
  0.3358102676037057  0.3322667950219484  0.1201544745804703
  0.3363388586408230  0.3358833905459310  0.6257000983127123
  0.3357187827296769  0.8390597330355040  0.1222884685324198
  0.3359487287899763  0.8382187527619223  0.6238785368428249
  0.6713964775666899  0.3357741036185746  0.1229368246132330
  0.6694062445837583  0.3365681012681460  0.6245753900662494
  0.6708858567758844  0.8367059322396522  0.1233253844680500
  0.6691090551873340  0.8368763534250484  0.6233136703924682
 -0.0008232500417811  0.3377297982000083  0.3770793200908065
  0.0018716078663152  0.3344828954112904  0.8775027950656633
  0.0020114274913469  0.8376377616641139  0.3761704197730201
  0.0032026375193852  0.8369866284230718  0.8770747582321800
  0.3669127136572741  0.3361399830814014  0.3806259031232082
  0.3375181345417239  0.3339507894279172  0.8770301201085136
  0.3354190313349122  0.8390401008832965  0.3741732589742214
  0.3363593575329937  0.8381707989064054  0.8776414606394380
  0.6683493445454946  0.3369332648862237  0.3761503765213242
  0.6697886344238528  0.3364233605867962  0.8761893972037905
  0.6697482614628394  0.8373812405520695  0.3765089718091301
  0.6697089333731179  0.8366092366977259  0.8757747365465418
  0.1626246016702572  0.1535529688178119  0.3742869783319061
  0.1681839092279765  0.1621985120604626  0.8805078303880617
  0.1671287738444157  0.6640305264319104  0.3769944947451558
  0.1696914307665188  0.6645278064399512  0.8746378574667172
  0.5056585594403319  0.1596201922427459  0.3723270192934562
  0.5038555401092261  0.1623426272015802  0.8734723774773090
  0.5030265785160890  0.6645415053716895  0.3733552460048176
  0.5026192990542006  0.6635142720143886  0.8735611329876659
  0.8361181526923125  0.1625857728347805  0.3723754910697467
  0.8353519414968232  0.1620434116922159  0.8713622766464544
  0.8353022991033779  0.6635283475992604  0.3741878244900398
  0.8361404696421567  0.6626210726935872  0.8734359177472729
  0.1670891864553521  0.4186813582523135  0.2415361792711355
  0.1667877799771225  0.4119350029250403  0.7525224451528704
  0.1666350706248141  0.9078430639824475  0.2495388130946407
  0.1668281378327632  0.9129229358770586  0.7504657878166662
  0.5005374485039691  0.4137149298175685  0.2480661872136968
  0.5004640038578611  0.4124479087781909  0.7502668136429147
  0.5019165155459310  0.9113189177127197  0.2495723233516765
  0.5005959512680388  0.9119168922542518  0.7495155668294624
  0.8326786517830954  0.4127731262976985  0.2501353097022717
  0.8331573976733058  0.4124851581508166  0.7500915733103187
  0.8339139936636601  0.9114218858975102  0.2503656492459202
  0.8337826640534078  0.9110892967332219  0.7488413580663712
 -0.0034777714138695  0.0867492146781419  0.0004798471454381
 -0.0004358920444287  0.0896255857553338  0.5010326452228582
  0.0000409444322970  0.5861545051133393  0.0000382601129087
 -0.0008242618639037  0.5879295653786508  0.5006513507119515
  0.3357753456943896  0.0862830780607988 -0.0020504863623807
  0.3337591738272172  0.0902022962195132  0.4996851368198957
  0.3342394824667771  0.5871761458950795 -0.0008753417644155
  0.3336292140350871  0.5880940765931661  0.5001730426358277
  0.6684037120915546  0.0873723867878791 -0.0008573259971135
  0.6669511129779750  0.0880298802994856  0.5000029537337551
  0.6672853638043359  0.5875330888286848 -0.0004934134457881
  0.6664597308874913  0.5882836439212726  0.4999703591148283
  0.2075401126945195  0.0493407612644119  0.2604185327265617
  0.0346866586891328  0.1616180324806554  0.3981491631588319
  0.0337039990005299  0.1564185183972825  0.8971056121238729
  0.0340065501089689  0.6563640154286537  0.3964173855080029
  0.0357332263599906  0.6557310058294060  0.8965603113763674
  0.3712718495925601  0.1591502429906440  0.3968129101261427
  0.3722086384656846  0.1558547099464679  0.8937111533635682
  0.3683130993649087  0.6568024577681643  0.3961797362746292
  0.3688969300792413  0.6570762365909995  0.8952128069231767
  0.7015145327009944  0.1575891556453939  0.3958275890363498
  0.7025609027718805  0.1564958938754721  0.8945928438717440
  0.7019359826604319  0.6569564867900317  0.3960864783625953
  0.7024983606125496  0.6567327256163566  0.8955892892926915
  0.1997201691708083  0.0530385922251313  0.7503969298135570
  0.2004874527956932  0.5577723612924398  0.2541330905888307
  0.2001178326536340  0.5520573637306416  0.7503644943405167
  0.5355385991546536  0.0514733521764416  0.2492503260230332
  0.5348195716947434  0.0515516648680926  0.7492585061259220
  0.5345301232126608  0.5531189797046853  0.2495773858698466
  0.5338781601224206  0.5525219949037828  0.7496437765124837
  0.8678892423328899  0.0509072925450955  0.2506086508886685
  0.8672939102628646  0.0509876715726723  0.7483209967429865
  0.8664759336091690  0.5527822850966359  0.2506781501224125
  0.8675107212164577  0.5520881152882724  0.7497517682974988
  0.0620012784719372  0.4098114152050422  0.2516123954757342
  0.0610208481737501  0.4089962493655780  0.7511094611101021
  0.0603592043825557  0.9028418916429318  0.2485035589503361
  0.0609600428151518  0.9087825265098110  0.7497178956057157
  0.3944911148737699  0.4117169158801414  0.2460496290307845
  0.3946687470007387  0.4096743470544255  0.7501777976958430
  0.3964330884089146  0.9078466743241699  0.2489487503285770
  0.3948374380143636  0.9092345992017209  0.7496134038346940
  0.7268560679253731  0.4101282430182926  0.2503693252300352
  0.7273988942954633  0.4105389154423368  0.7498985568440075
  0.7280449632574084  0.9089640077121899  0.2503011616403468
  0.7279515402100631  0.9083631795810871  0.7490289138391866
  0.2316822208477161  0.0856788190041553 -0.0043331209659986
  0.2277390423703907  0.0970187966935227  0.4991468227606101
  0.2283492166709629  0.5889557516562304 -0.0007248527396507
  0.2274677955183584  0.5892364080869990  0.5010432252349262
  0.5627301624567786  0.0905679281259842 -0.0002692780629832
  0.5610987426210728  0.0903944825686400  0.5003582031020107
  0.5614892911412128  0.5903736377081180 -0.0004054083194310
  0.5606108278627714  0.5920288226921325  0.5000425668944704
  0.8903552954761463  0.0853581209435122 -0.0057973719820561
  0.8939105216623622  0.0913833421153176  0.5001817189869318
  0.8942915807367344  0.5896985812423173 -0.0001858083821915
  0.8936529686053439  0.5894693815060608  0.5011044508528564
  0.2054185630948000  0.3544140248719749  0.1407053908072887
  0.2022773510071077  0.3429635327966201  0.6483576057567825
  0.2009400032395486  0.8382309921183654  0.1451841070528205
  0.2022926249936072  0.8451759986786797  0.6456185892156884
  0.5376711902348377  0.3433883956399913  0.1465812854132580
  0.5356040127587119  0.3434183677177031  0.6462756320806756
  0.5382206407963318  0.8419673123430256  0.1466181628644033
  0.5352902028040900  0.8431027432742162  0.6451560308196665
  0.8681704052756565  0.3443755341459701  0.1465957249457027
  0.8679111129457343  0.3431722187447824  0.6460807284542129
  0.8686121285677795  0.8415200781728194  0.1467943364581739
  0.8688819598089098  0.8424106212285867  0.6446596875632887
  0.0234804458107942  0.1559652265254138  0.1054386186701956
  0.0346276318651894  0.1575563699449275  0.6053156178992044
  0.0352662819320339  0.6542992976088619  0.1042693333428052
  0.0357135607974285  0.6565081653190812  0.6038461336978812
  0.3732145463272517  0.1569770794946524  0.1002023444004239
  0.3690202593868210  0.1573493538514202  0.6042129949059016
  0.3691586781976184  0.6567602225917352  0.1028185865575768
  0.3683454387635067  0.6569280829412729  0.6038531073959714
  0.7042691900595208  0.1562841787020160  0.1026583633277329
  0.7020900661438265  0.1572186203415555  0.6036633325470737
  0.7026598649422235  0.6563723396304241  0.1032191757085492
  0.7019276934537489  0.6567024308137389  0.6037226623157955
  0.0336545598491099  0.4461408574177161  0.0003093410415294
  0.0338664935774769  0.4475722943158387  0.5008997577063885
  0.0322411303785329  0.9471756004746739  0.0001682994669382
  0.0344082697455615  0.9501647029711545  0.4992613795794489
  0.3690421635809659  0.4477797981029527 -0.0012516449521077
  0.3673545830052637  0.4476954389488057  0.5005294893643009
  0.3723001720847405  0.9466920372905083 -0.0005120241784625
  0.3652786350629483  0.9492710137800052  0.4991963719754645
  0.7010414612146142  0.4475145068181942 -0.0004427654859951
  0.6990182518849191  0.4476217890970916  0.4999761847814003
  0.7013618341737609  0.9469573467169301 -0.0009486560926808
  0.7010514665378428  0.9482749025181800  0.5000116684893962
  0.2026221022535789  0.3426947162765513  0.8553531796578919
  0.2012339277425914  0.8388685753949758  0.3552360633966431
  0.2022794515937429  0.8426438983303796  0.8534436844760307
  0.5311060689519798  0.3440000768177663  0.3547362759128755
  0.5362763998681908  0.3433107911480213  0.8537563414861512
  0.5365732101628027  0.8431991807319795  0.3546000690073440
  0.5364706349758114  0.8421911763097703  0.8528368353907395
  0.8677938735329089  0.3437064850262980  0.3544130365184622
  0.8683431509288519  0.3428776998418623  0.8537014240117309
  0.8686605370520510  0.8420396967693659  0.3547431967583675
  0.8692235287559203  0.8410345131220260  0.8521618448195240
 
  0.00000000E+00  0.00000000E+00  0.00000000E+00
  0.00000000E+00  0.00000000E+00  0.00000000E+00
  0.00000000E+00  0.00000000E+00  0.00000000E+00
  0.00000000E+00  0.00000000E+00  0.00000000E+00
  0.00000000E+00  0.00000000E+00  0.00000000E+00
  0.00000000E+00  0.00000000E+00  0.00000000E+00
  0.00000000E+00  0.00000000E+00  0.00000000E+00
  0.00000000E+00  0.00000000E+00  0.00000000E+00
  0.00000000E+00  0.00000000E+00  0.00000000E+00
  0.00000000E+00  0.00000000E+00  0.00000000E+00
  0.00000000E+00  0.00000000E+00  0.00000000E+00
  0.00000000E+00  0.00000000E+00  0.00000000E+00
  0.00000000E+00  0.00000000E+00  0.00000000E+00
  0.00000000E+00  0.00000000E+00  0.00000000E+00
  0.00000000E+00  0.00000000E+00  0.00000000E+00
  0.00000000E+00  0.00000000E+00  0.00000000E+00
  0.00000000E+00  0.00000000E+00  0.00000000E+00
  0.00000000E+00  0.00000000E+00  0.00000000E+00
  0.00000000E+00  0.00000000E+00  0.00000000E+00
  0.00000000E+00  0.00000000E+00  0.00000000E+00
  0.00000000E+00  0.00000000E+00  0.00000000E+00
  0.00000000E+00  0.00000000E+00  0.00000000E+00
  0.00000000E+00  0.00000000E+00  0.00000000E+00
  0.00000000E+00  0.00000000E+00  0.00000000E+00
  0.00000000E+00  0.00000000E+00  0.00000000E+00
  0.00000000E+00  0.00000000E+00  0.00000000E+00
  0.00000000E+00  0.00000000E+00  0.00000000E+00
  0.00000000E+00  0.00000000E+00  0.00000000E+00
  0.00000000E+00  0.00000000E+00  0.00000000E+00
  0.00000000E+00  0.00000000E+00  0.00000000E+00
  0.00000000E+00  0.00000000E+00  0.00000000E+00
  0.00000000E+00  0.00000000E+00  0.00000000E+00
  0.00000000E+00  0.00000000E+00  0.00000000E+00
  0.00000000E+00  0.00000000E+00  0.00000000E+00
  0.00000000E+00  0.00000000E+00  0.00000000E+00
  0.00000000E+00  0.00000000E+00  0.00000000E+00
  0.00000000E+00  0.00000000E+00  0.00000000E+00
  0.00000000E+00  0.00000000E+00  0.00000000E+00
  0.00000000E+00  0.00000000E+00  0.00000000E+00
  0.00000000E+00  0.00000000E+00  0.00000000E+00
  0.00000000E+00  0.00000000E+00  0.00000000E+00
  0.00000000E+00  0.00000000E+00  0.00000000E+00
  0.00000000E+00  0.00000000E+00  0.00000000E+00
  0.00000000E+00  0.00000000E+00  0.00000000E+00
  0.00000000E+00  0.00000000E+00  0.00000000E+00
  0.00000000E+00  0.00000000E+00  0.00000000E+00
  0.00000000E+00  0.00000000E+00  0.00000000E+00
  0.00000000E+00  0.00000000E+00  0.00000000E+00
  0.00000000E+00  0.00000000E+00  0.00000000E+00
  0.00000000E+00  0.00000000E+00  0.00000000E+00
  0.00000000E+00  0.00000000E+00  0.00000000E+00
  0.00000000E+00  0.00000000E+00  0.00000000E+00
  0.00000000E+00  0.00000000E+00  0.00000000E+00
  0.00000000E+00  0.00000000E+00  0.00000000E+00
  0.00000000E+00  0.00000000E+00  0.00000000E+00
  0.00000000E+00  0.00000000E+00  0.00000000E+00
  0.00000000E+00  0.00000000E+00  0.00000000E+00
  0.00000000E+00  0.00000000E+00  0.00000000E+00
  0.00000000E+00  0.00000000E+00  0.00000000E+00
  0.00000000E+00  0.00000000E+00  0.00000000E+00
  0.00000000E+00  0.00000000E+00  0.00000000E+00
  0.00000000E+00  0.00000000E+00  0.00000000E+00
  0.00000000E+00  0.00000000E+00  0.00000000E+00
  0.00000000E+00  0.00000000E+00  0.00000000E+00
  0.00000000E+00  0.00000000E+00  0.00000000E+00
  0.00000000E+00  0.00000000E+00  0.00000000E+00
  0.00000000E+00  0.00000000E+00  0.00000000E+00
  0.00000000E+00  0.00000000E+00  0.00000000E+00
  0.00000000E+00  0.00000000E+00  0.00000000E+00
  0.00000000E+00  0.00000000E+00  0.00000000E+00
  0.00000000E+00  0.00000000E+00  0.00000000E+00
  0.00000000E+00  0.00000000E+00  0.00000000E+00
  0.00000000E+00  0.00000000E+00  0.00000000E+00
  0.00000000E+00  0.00000000E+00  0.00000000E+00
  0.00000000E+00  0.00000000E+00  0.00000000E+00
  0.00000000E+00  0.00000000E+00  0.00000000E+00
  0.00000000E+00  0.00000000E+00  0.00000000E+00
  0.00000000E+00  0.00000000E+00  0.00000000E+00
  0.00000000E+00  0.00000000E+00  0.00000000E+00
  0.00000000E+00  0.00000000E+00  0.00000000E+00
  0.00000000E+00  0.00000000E+00  0.00000000E+00
  0.00000000E+00  0.00000000E+00  0.00000000E+00
  0.00000000E+00  0.00000000E+00  0.00000000E+00
  0.00000000E+00  0.00000000E+00  0.00000000E+00
  0.00000000E+00  0.00000000E+00  0.00000000E+00
  0.00000000E+00  0.00000000E+00  0.00000000E+00
  0.00000000E+00  0.00000000E+00  0.00000000E+00
  0.00000000E+00  0.00000000E+00  0.00000000E+00
  0.00000000E+00  0.00000000E+00  0.00000000E+00
  0.00000000E+00  0.00000000E+00  0.00000000E+00
  0.00000000E+00  0.00000000E+00  0.00000000E+00
  0.00000000E+00  0.00000000E+00  0.00000000E+00
  0.00000000E+00  0.00000000E+00  0.00000000E+00
  0.00000000E+00  0.00000000E+00  0.00000000E+00
  0.00000000E+00  0.00000000E+00  0.00000000E+00
  0.00000000E+00  0.00000000E+00  0.00000000E+00
  0.00000000E+00  0.00000000E+00  0.00000000E+00
  0.00000000E+00  0.00000000E+00  0.00000000E+00
  0.00000000E+00  0.00000000E+00  0.00000000E+00
  0.00000000E+00  0.00000000E+00  0.00000000E+00
  0.00000000E+00  0.00000000E+00  0.00000000E+00
  0.00000000E+00  0.00000000E+00  0.00000000E+00
  0.00000000E+00  0.00000000E+00  0.00000000E+00
  0.00000000E+00  0.00000000E+00  0.00000000E+00
  0.00000000E+00  0.00000000E+00  0.00000000E+00
  0.00000000E+00  0.00000000E+00  0.00000000E+00
  0.00000000E+00  0.00000000E+00  0.00000000E+00
  0.00000000E+00  0.00000000E+00  0.00000000E+00
  0.00000000E+00  0.00000000E+00  0.00000000E+00
  0.00000000E+00  0.00000000E+00  0.00000000E+00
  0.00000000E+00  0.00000000E+00  0.00000000E+00
  0.00000000E+00  0.00000000E+00  0.00000000E+00
  0.00000000E+00  0.00000000E+00  0.00000000E+00
  0.00000000E+00  0.00000000E+00  0.00000000E+00
  0.00000000E+00  0.00000000E+00  0.00000000E+00
  0.00000000E+00  0.00000000E+00  0.00000000E+00
  0.00000000E+00  0.00000000E+00  0.00000000E+00
  0.00000000E+00  0.00000000E+00  0.00000000E+00
  0.00000000E+00  0.00000000E+00  0.00000000E+00
  0.00000000E+00  0.00000000E+00  0.00000000E+00
  0.00000000E+00  0.00000000E+00  0.00000000E+00
  0.00000000E+00  0.00000000E+00  0.00000000E+00
  0.00000000E+00  0.00000000E+00  0.00000000E+00
  0.00000000E+00  0.00000000E+00  0.00000000E+00
  0.00000000E+00  0.00000000E+00  0.00000000E+00
  0.00000000E+00  0.00000000E+00  0.00000000E+00
  0.00000000E+00  0.00000000E+00  0.00000000E+00
  0.00000000E+00  0.00000000E+00  0.00000000E+00
  0.00000000E+00  0.00000000E+00  0.00000000E+00
  0.00000000E+00  0.00000000E+00  0.00000000E+00
  0.00000000E+00  0.00000000E+00  0.00000000E+00
  0.00000000E+00  0.00000000E+00  0.00000000E+00
  0.00000000E+00  0.00000000E+00  0.00000000E+00
  0.00000000E+00  0.00000000E+00  0.00000000E+00
  0.00000000E+00  0.00000000E+00  0.00000000E+00
  0.00000000E+00  0.00000000E+00  0.00000000E+00
  0.00000000E+00  0.00000000E+00  0.00000000E+00
  0.00000000E+00  0.00000000E+00  0.00000000E+00
  0.00000000E+00  0.00000000E+00  0.00000000E+00
  0.00000000E+00  0.00000000E+00  0.00000000E+00
  0.00000000E+00  0.00000000E+00  0.00000000E+00
  0.00000000E+00  0.00000000E+00  0.00000000E+00
  0.00000000E+00  0.00000000E+00  0.00000000E+00
  0.00000000E+00  0.00000000E+00  0.00000000E+00
  0.00000000E+00  0.00000000E+00  0.00000000E+00
  0.00000000E+00  0.00000000E+00  0.00000000E+00
  0.00000000E+00  0.00000000E+00  0.00000000E+00
  0.00000000E+00  0.00000000E+00  0.00000000E+00
  0.00000000E+00  0.00000000E+00  0.00000000E+00
  0.00000000E+00  0.00000000E+00  0.00000000E+00
  0.00000000E+00  0.00000000E+00  0.00000000E+00
  0.00000000E+00  0.00000000E+00  0.00000000E+00
  0.00000000E+00  0.00000000E+00  0.00000000E+00
  0.00000000E+00  0.00000000E+00  0.00000000E+00
  0.00000000E+00  0.00000000E+00  0.00000000E+00
  0.00000000E+00  0.00000000E+00  0.00000000E+00
  0.00000000E+00  0.00000000E+00  0.00000000E+00
  0.00000000E+00  0.00000000E+00  0.00000000E+00
  0.00000000E+00  0.00000000E+00  0.00000000E+00
  0.00000000E+00  0.00000000E+00  0.00000000E+00
  0.00000000E+00  0.00000000E+00  0.00000000E+00
  0.00000000E+00  0.00000000E+00  0.00000000E+00
  0.00000000E+00  0.00000000E+00  0.00000000E+00
  0.00000000E+00  0.00000000E+00  0.00000000E+00
  0.00000000E+00  0.00000000E+00  0.00000000E+00
  0.00000000E+00  0.00000000E+00  0.00000000E+00
  0.00000000E+00  0.00000000E+00  0.00000000E+00
  0.00000000E+00  0.00000000E+00  0.00000000E+00
  0.00000000E+00  0.00000000E+00  0.00000000E+00
  0.00000000E+00  0.00000000E+00  0.00000000E+00
  0.00000000E+00  0.00000000E+00  0.00000000E+00
  0.00000000E+00  0.00000000E+00  0.00000000E+00
  0.00000000E+00  0.00000000E+00  0.00000000E+00
  0.00000000E+00  0.00000000E+00  0.00000000E+00
  0.00000000E+00  0.00000000E+00  0.00000000E+00
  0.00000000E+00  0.00000000E+00  0.00000000E+00
  0.00000000E+00  0.00000000E+00  0.00000000E+00
  0.00000000E+00  0.00000000E+00  0.00000000E+00
  0.00000000E+00  0.00000000E+00  0.00000000E+00
  0.00000000E+00  0.00000000E+00  0.00000000E+00
  0.00000000E+00  0.00000000E+00  0.00000000E+00
  0.00000000E+00  0.00000000E+00  0.00000000E+00
  0.00000000E+00  0.00000000E+00  0.00000000E+00
  0.00000000E+00  0.00000000E+00  0.00000000E+00
  0.00000000E+00  0.00000000E+00  0.00000000E+00
  0.00000000E+00  0.00000000E+00  0.00000000E+00
  0.00000000E+00  0.00000000E+00  0.00000000E+00
  0.00000000E+00  0.00000000E+00  0.00000000E+00
  0.00000000E+00  0.00000000E+00  0.00000000E+00
  0.00000000E+00  0.00000000E+00  0.00000000E+00
