Li56 P8 N32
1.0
9.402378 0.000000 0.000000
0.000000 9.402378 0.000000
0.000000 0.000000 9.402378
Li P N
56 8 32
direct
0.000000 0.500000 0.500000 Li
0.500000 0.000000 0.000000 Li
0.000000 0.000000 0.500000 Li
0.000000 0.500000 0.000000 Li
0.500000 0.000000 0.500000 Li
0.500000 0.500000 0.000000 Li
0.250000 0.000000 0.500000 Li
0.000000 0.500000 0.750000 Li
0.000000 0.500000 0.250000 Li
0.500000 0.250000 0.000000 Li
0.500000 0.750000 0.000000 Li
0.750000 0.000000 0.500000 Li
0.225374 0.225374 0.225374 Li
0.274626 0.725374 0.274626 Li
0.274626 0.274626 0.725374 Li
0.725374 0.274626 0.274626 Li
0.774626 0.774626 0.225374 Li
0.225374 0.774626 0.774626 Li
0.774626 0.225374 0.774626 Li
0.725374 0.725374 0.725374 Li
0.253336 0.237083 0.975164 Li
0.246664 0.475164 0.262917 Li
0.246664 0.524836 0.737083 Li
0.524836 0.262917 0.753336 Li
0.475164 0.262917 0.246664 Li
0.737083 0.246664 0.524836 Li
0.262917 0.753336 0.524836 Li
0.975164 0.253336 0.237083 Li
0.237083 0.975164 0.253336 Li
0.762917 0.024836 0.253336 Li
0.975164 0.746664 0.762917 Li
0.762917 0.975164 0.746664 Li
0.024836 0.746664 0.237083 Li
0.024836 0.253336 0.762917 Li
0.237083 0.024836 0.746664 Li
0.253336 0.762917 0.024836 Li
0.746664 0.237083 0.024836 Li
0.746664 0.762917 0.975164 Li
0.262917 0.246664 0.475164 Li
0.737083 0.753336 0.475164 Li
0.524836 0.737083 0.246664 Li
0.475164 0.737083 0.753336 Li
0.753336 0.524836 0.262917 Li
0.753336 0.475164 0.737083 Li
0.264387 0.000000 0.000000 Li
0.235613 0.500000 0.500000 Li
0.500000 0.500000 0.764387 Li
0.500000 0.500000 0.235613 Li
0.500000 0.235613 0.500000 Li
0.500000 0.764387 0.500000 Li
0.000000 0.264387 0.000000 Li
0.000000 0.000000 0.264387 Li
0.000000 0.735613 0.000000 Li
0.000000 0.000000 0.735613 Li
0.735613 0.000000 0.000000 Li
0.764387 0.500000 0.500000 Li
0.500000 0.500000 0.500000 P
0.000000 0.000000 0.000000 P
0.500000 0.000000 0.750000 P
0.750000 0.500000 0.000000 P
0.250000 0.500000 0.000000 P
0.000000 0.250000 0.500000 P
0.000000 0.750000 0.500000 P
0.500000 0.000000 0.250000 P
0.603461 0.603461 0.603461 N
0.896539 0.103461 0.896539 N
0.103461 0.896539 0.896539 N
0.896539 0.896539 0.103461 N
0.603461 0.396539 0.396539 N
0.396539 0.396539 0.603461 N
0.396539 0.603461 0.396539 N
0.103461 0.103461 0.103461 N
0.350731 0.387385 0.099421 N
0.149269 0.599421 0.112615 N
0.149269 0.400579 0.887385 N
0.400579 0.112615 0.850731 N
0.599421 0.112615 0.149269 N
0.887385 0.149269 0.400579 N
0.112615 0.850731 0.400579 N
0.099421 0.350731 0.387385 N
0.387385 0.099421 0.350731 N
0.612615 0.900579 0.350731 N
0.099421 0.649269 0.612615 N
0.612615 0.099421 0.649269 N
0.900579 0.649269 0.387385 N
0.900579 0.350731 0.612615 N
0.387385 0.900579 0.649269 N
0.350731 0.612615 0.900579 N
0.649269 0.387385 0.900579 N
0.649269 0.612615 0.099421 N
0.112615 0.149269 0.599421 N
0.887385 0.850731 0.599421 N
0.400579 0.887385 0.149269 N
0.599421 0.887385 0.850731 N
0.850731 0.400579 0.112615 N
0.850731 0.599421 0.887385 N
