Li7 P2 N1 O7                            
   1.00000000000000     
     4.9965004594783951    0.0000000000000000   -0.0720499300360857
     0.0000000000000000    6.0686809545496336    0.0000000000000000
    -0.0745411807696703    0.0000000000000000    5.5309897363417573
   Li   P    N    O 
     7     2     1     7
Direct
  0.1319419019371856  0.5000000000000000  0.4131098101859704
  0.5005285384607621  0.7619259920838720  0.2876609503802604
  0.5005285384607621  0.2380740079161271  0.2876609503802604
 -0.0222105793832421  0.7877618893817175  0.6524062119160515
 -0.0222105793832421  0.2122381106182824  0.6524062119160515
  0.4904153960860020 -0.0000000000000000  0.8319140366747928
  0.9593934838092786  0.5000000000000000  0.0343650660794769
  0.4797521247875255  0.5000000000000000  0.7793113841638253
 -0.0052369996137286 -0.0000000000000000  0.1429136705486347
  0.0999847311727766 -0.0000000000000000  0.8816433971395724
  0.0890404281205275  0.2149829400215624  0.2999694486868386
  0.0890404281205275  0.7850170599784375  0.2999694486868386
  0.5637908781986404  0.5000000000000000  0.0536029432984276
  0.1649705606883716  0.5000000000000000  0.7490130494762222
  0.6795413171058028 -0.0000000000000000  0.1629047757516216
  0.5882349157160403  0.7077721260307914  0.6491743223575761
  0.5882349157160403  0.2922278739692083  0.6491743223575761
 
  0.00000000E+00  0.00000000E+00  0.00000000E+00
  0.00000000E+00  0.00000000E+00  0.00000000E+00
  0.00000000E+00  0.00000000E+00  0.00000000E+00
  0.00000000E+00  0.00000000E+00  0.00000000E+00
  0.00000000E+00  0.00000000E+00  0.00000000E+00
  0.00000000E+00  0.00000000E+00  0.00000000E+00
  0.00000000E+00  0.00000000E+00  0.00000000E+00
  0.00000000E+00  0.00000000E+00  0.00000000E+00
  0.00000000E+00  0.00000000E+00  0.00000000E+00
  0.00000000E+00  0.00000000E+00  0.00000000E+00
  0.00000000E+00  0.00000000E+00  0.00000000E+00
  0.00000000E+00  0.00000000E+00  0.00000000E+00
  0.00000000E+00  0.00000000E+00  0.00000000E+00
  0.00000000E+00  0.00000000E+00  0.00000000E+00
  0.00000000E+00  0.00000000E+00  0.00000000E+00
  0.00000000E+00  0.00000000E+00  0.00000000E+00
  0.00000000E+00  0.00000000E+00  0.00000000E+00
