Li61 P7 N32                             
   1.00000000000000     
    -0.0052624473836891    9.4915584422380324   -0.0042712089067529
    -0.0078550404693070   -0.0046020943835147    9.5582337667640971
     9.5392727863108906   -0.0052508534730056   -0.0075624076768758
   Li   P    N 
    61     7    32
Direct
  0.4979428689382578  0.0039518056109812  0.5028779031852144
  0.0094148476802088  0.5012807844240812  0.0035280713187432
  0.4991449861788271 -0.0071186935438656  0.0027690656195530
  0.0018505308460739  0.0017585199797748  0.5031107987300150
  0.4925503567966699  0.4895749715885627 -0.0005957663419895
  0.0073260467351825  0.5027847660438707  0.5086262573232483
  0.7497005001530432 -0.0003958753842124  0.5047721296846004
  0.2482404052780585 -0.0077588945046671  0.5078010251068827
  0.7691385650634140  0.5005548620142568  0.5052246777677489
  0.2365816624175493  0.5079804682560980  0.5078635030315967
  0.2646184951581468  0.0054697066142312  0.0031639478222268
  0.7373668240905495 -0.0011349766222869  0.0026992312548884
  0.6722548637943287  0.5786003071912956 -0.0845101913358876
  0.5177815069142551  0.2323981570090416 -0.0134333374658835
  0.5025405753039293  0.7512717861241913  0.0174432973142736
 -0.0250377905776047  0.4880261282157355  0.2724795399187671
 -0.0020873139973883  0.5131530626479720  0.7501389063265644
  0.2452577142615767  0.2098569868759805  0.2125666057664917
  0.2337256924745576  0.7902563511665117  0.7763654834736101
  0.2596343748176139  0.2931842543761566  0.7204300075822072
  0.2676467538719081  0.7167685203583720  0.2783429565495659
  0.7710155232273397  0.3044514110523646  0.3102949747071773
  0.7568745944098351  0.7071577724046130  0.7068608390460809
  0.7386447889030064  0.1999363333644686  0.8080861790552240
  0.7429242869266600  0.8043667272551308  0.2031748125712929
  0.9948220531973578  0.2425430840203791  0.2475502842750217
  0.9854100460033339  0.7536988568192626  0.7587851301740225
  0.2600117155166435  0.2279578372589175  0.4855369121935679
  0.2660544850909744  0.7534654389121964  0.5254731964900976
  0.7518016245055438  0.2313715651866974  0.5557153011061700
  0.7469512033575151  0.7657007895761059  0.4614080076251474
  0.6777240774967633  0.4233446587749499  0.0975973661037607
  0.7429557503210444  0.4566584503972344  0.7270677990124563
  0.1933261029126865  0.4652847313865008  0.2417828031541340
  0.2379376961301911  0.5425767197186242  0.7469927893802593
  0.5173349922659152  0.7505125313684130  0.2595377587704958
  0.5132293573981075  0.2552395478537245  0.7486908926265430
  0.2374902535939556  0.9719488944864674  0.2591874229790648
  0.2396282633393770  0.0336935657700538  0.7513720404909321
  0.2730729147859956  0.2489816898378950  0.9669279330043669
  0.2586210142452809  0.7682717684805187  0.0282444698614136
  0.7604618229144201  0.9600031130956462  0.7414577016272993
  0.7598482538986869  0.0447753077605070  0.2697924742223191
  0.7613591709894191  0.7795429192964372  0.9559221361664201
  0.7736924962998304  0.2149705236904631  0.0597663829682497
  0.0109392967353870  0.2525112582297823  0.7685283137859319
  0.0163866828911073  0.7444063316933625  0.2377602458489995
  0.5145999605248784  0.2565278889852051  0.2417165168259478
  0.4844547669866285  0.7364270765398520  0.7609249521988023
  0.0192627221078798  0.2615792101031152  0.0180393416240996
  0.0119384884957122  0.7413704390010399 -0.0132485331257145
  0.5130007258848112  0.2383695771938232  0.5010931101483524
  0.5052345813503221  0.7659432531125984  0.5119567918095305
  0.4875699300265465  0.5292123084874163  0.2315925929571312
  0.4899298582501977  0.4847962195764015  0.7616997414485114
 -0.0005212928560139 -0.0088271241938871  0.2638402219794784
  0.0005684742090739  0.0053766466276520  0.7419872489378259
  0.3632551598432660  0.3789918074465057  0.3536937748749526
  0.7295614283459810  0.5577929769159394  0.2877064376580370
  0.8269103318398563  0.4075910834801667  0.9283567378128273
  0.8299493611381765  0.5930702439509055  0.0822950259537704
  0.5028587215062732  0.5055081658914340  0.5042397529640921
  0.0046839265338956  0.0006744803565273  0.0031477335398618
  0.2514829792115386  0.5076541156691157  0.0031012539019567
  0.0044062065962324  0.7513713625750733  0.5014289186133167
  0.0057379229380642  0.2522549807393404  0.5075776621430590
  0.5011322735129138  0.0035582165759084  0.2516293159332930
  0.5005128051850195 -0.0028186331059633  0.7537426002057211
  0.6058065738266651  0.6000275647076012  0.6087064535042913
  0.5994663977220132  0.4051974687735438  0.3927198331899335
  0.9002633192829528  0.8954228797476013  0.1004355178407013
  0.9003313164407573  0.1062869588386641  0.9054287524113888
  0.1090296884014476  0.9055867360127964  0.8963056491646483
  0.1078032048195425  0.0964104660517757  0.1113539808923382
  0.3962887649517366  0.6078861918136724  0.4069849490568094
  0.3963454569998279  0.3938084804601154  0.5931188646100285
  0.1102990861623596  0.3498608242517678  0.3985663000516491
  0.1057197144302425  0.6549994027759022  0.6119103796249278
  0.1127131386459168  0.1506519681176473  0.6081588822491664
  0.1133368411464199  0.8505845601420331  0.4008115021594881
  0.8931830246030888  0.1519374226206827  0.4117050476002322
  0.8912641497140421  0.8526125031787454  0.5958513491253939
  0.8726651011334213  0.3812863206551239  0.1356271340956409
  0.8673775315236578  0.6167380015287552  0.8724937250311184
  0.1498623220306864  0.6096271126601500  0.1084653385252883
  0.1567290271871844  0.4050227421362260  0.8905831031876357
  0.3987609735760351  0.8941707905430115  0.1570839146750814
  0.4025337561304689  0.1065354084636745  0.8540155832042806
  0.3941842990386843  0.1117376261835071  0.3498054250484623
  0.3891083459310316  0.8999346478160026  0.6524370689967786
  0.3441305867588913  0.3952885530427080  0.1134821894157751
  0.3544317571377769  0.6143643608585322  0.9049886567454759
  0.6129512783404062  0.0937520363200099  0.6526385106095756
  0.6119244226452140  0.9104130486726980  0.3563714205652212
  0.6346732380505306  0.6335840544029119  0.1217218391107241
  0.6312930073755236  0.3704232487353251  0.8857703867808026
  0.9073327066848927  0.3560519478677759  0.6121560846946578
  0.9050570031325192  0.6465463790634248  0.3963407423748874
  0.6033380093823538  0.1035826666190078  0.1460789892425751
  0.5996596916069120  0.8894085048776439  0.8540289479312899
 
  0.00000000E+00  0.00000000E+00  0.00000000E+00
  0.00000000E+00  0.00000000E+00  0.00000000E+00
  0.00000000E+00  0.00000000E+00  0.00000000E+00
  0.00000000E+00  0.00000000E+00  0.00000000E+00
  0.00000000E+00  0.00000000E+00  0.00000000E+00
  0.00000000E+00  0.00000000E+00  0.00000000E+00
  0.00000000E+00  0.00000000E+00  0.00000000E+00
  0.00000000E+00  0.00000000E+00  0.00000000E+00
  0.00000000E+00  0.00000000E+00  0.00000000E+00
  0.00000000E+00  0.00000000E+00  0.00000000E+00
  0.00000000E+00  0.00000000E+00  0.00000000E+00
  0.00000000E+00  0.00000000E+00  0.00000000E+00
  0.00000000E+00  0.00000000E+00  0.00000000E+00
  0.00000000E+00  0.00000000E+00  0.00000000E+00
  0.00000000E+00  0.00000000E+00  0.00000000E+00
  0.00000000E+00  0.00000000E+00  0.00000000E+00
  0.00000000E+00  0.00000000E+00  0.00000000E+00
  0.00000000E+00  0.00000000E+00  0.00000000E+00
  0.00000000E+00  0.00000000E+00  0.00000000E+00
  0.00000000E+00  0.00000000E+00  0.00000000E+00
  0.00000000E+00  0.00000000E+00  0.00000000E+00
  0.00000000E+00  0.00000000E+00  0.00000000E+00
  0.00000000E+00  0.00000000E+00  0.00000000E+00
  0.00000000E+00  0.00000000E+00  0.00000000E+00
  0.00000000E+00  0.00000000E+00  0.00000000E+00
  0.00000000E+00  0.00000000E+00  0.00000000E+00
  0.00000000E+00  0.00000000E+00  0.00000000E+00
  0.00000000E+00  0.00000000E+00  0.00000000E+00
  0.00000000E+00  0.00000000E+00  0.00000000E+00
  0.00000000E+00  0.00000000E+00  0.00000000E+00
  0.00000000E+00  0.00000000E+00  0.00000000E+00
  0.00000000E+00  0.00000000E+00  0.00000000E+00
  0.00000000E+00  0.00000000E+00  0.00000000E+00
  0.00000000E+00  0.00000000E+00  0.00000000E+00
  0.00000000E+00  0.00000000E+00  0.00000000E+00
  0.00000000E+00  0.00000000E+00  0.00000000E+00
  0.00000000E+00  0.00000000E+00  0.00000000E+00
  0.00000000E+00  0.00000000E+00  0.00000000E+00
  0.00000000E+00  0.00000000E+00  0.00000000E+00
  0.00000000E+00  0.00000000E+00  0.00000000E+00
  0.00000000E+00  0.00000000E+00  0.00000000E+00
  0.00000000E+00  0.00000000E+00  0.00000000E+00
  0.00000000E+00  0.00000000E+00  0.00000000E+00
  0.00000000E+00  0.00000000E+00  0.00000000E+00
  0.00000000E+00  0.00000000E+00  0.00000000E+00
  0.00000000E+00  0.00000000E+00  0.00000000E+00
  0.00000000E+00  0.00000000E+00  0.00000000E+00
  0.00000000E+00  0.00000000E+00  0.00000000E+00
  0.00000000E+00  0.00000000E+00  0.00000000E+00
  0.00000000E+00  0.00000000E+00  0.00000000E+00
  0.00000000E+00  0.00000000E+00  0.00000000E+00
  0.00000000E+00  0.00000000E+00  0.00000000E+00
  0.00000000E+00  0.00000000E+00  0.00000000E+00
  0.00000000E+00  0.00000000E+00  0.00000000E+00
  0.00000000E+00  0.00000000E+00  0.00000000E+00
  0.00000000E+00  0.00000000E+00  0.00000000E+00
  0.00000000E+00  0.00000000E+00  0.00000000E+00
  0.00000000E+00  0.00000000E+00  0.00000000E+00
  0.00000000E+00  0.00000000E+00  0.00000000E+00
  0.00000000E+00  0.00000000E+00  0.00000000E+00
  0.00000000E+00  0.00000000E+00  0.00000000E+00
  0.00000000E+00  0.00000000E+00  0.00000000E+00
  0.00000000E+00  0.00000000E+00  0.00000000E+00
  0.00000000E+00  0.00000000E+00  0.00000000E+00
  0.00000000E+00  0.00000000E+00  0.00000000E+00
  0.00000000E+00  0.00000000E+00  0.00000000E+00
  0.00000000E+00  0.00000000E+00  0.00000000E+00
  0.00000000E+00  0.00000000E+00  0.00000000E+00
  0.00000000E+00  0.00000000E+00  0.00000000E+00
  0.00000000E+00  0.00000000E+00  0.00000000E+00
  0.00000000E+00  0.00000000E+00  0.00000000E+00
  0.00000000E+00  0.00000000E+00  0.00000000E+00
  0.00000000E+00  0.00000000E+00  0.00000000E+00
  0.00000000E+00  0.00000000E+00  0.00000000E+00
  0.00000000E+00  0.00000000E+00  0.00000000E+00
  0.00000000E+00  0.00000000E+00  0.00000000E+00
  0.00000000E+00  0.00000000E+00  0.00000000E+00
  0.00000000E+00  0.00000000E+00  0.00000000E+00
  0.00000000E+00  0.00000000E+00  0.00000000E+00
  0.00000000E+00  0.00000000E+00  0.00000000E+00
  0.00000000E+00  0.00000000E+00  0.00000000E+00
  0.00000000E+00  0.00000000E+00  0.00000000E+00
  0.00000000E+00  0.00000000E+00  0.00000000E+00
  0.00000000E+00  0.00000000E+00  0.00000000E+00
  0.00000000E+00  0.00000000E+00  0.00000000E+00
  0.00000000E+00  0.00000000E+00  0.00000000E+00
  0.00000000E+00  0.00000000E+00  0.00000000E+00
  0.00000000E+00  0.00000000E+00  0.00000000E+00
  0.00000000E+00  0.00000000E+00  0.00000000E+00
  0.00000000E+00  0.00000000E+00  0.00000000E+00
  0.00000000E+00  0.00000000E+00  0.00000000E+00
  0.00000000E+00  0.00000000E+00  0.00000000E+00
  0.00000000E+00  0.00000000E+00  0.00000000E+00
  0.00000000E+00  0.00000000E+00  0.00000000E+00
  0.00000000E+00  0.00000000E+00  0.00000000E+00
  0.00000000E+00  0.00000000E+00  0.00000000E+00
  0.00000000E+00  0.00000000E+00  0.00000000E+00
  0.00000000E+00  0.00000000E+00  0.00000000E+00
  0.00000000E+00  0.00000000E+00  0.00000000E+00
  0.00000000E+00  0.00000000E+00  0.00000000E+00
