(1, 0, 0)
1.0
2.754274 0.000000 -1.590181
0.000000 7.703522 0.000000
0.000000 0.000000 47.705428
Li O
28 28
Selective dynamics
direct
0.000000 0.500000 0.033333 T T T Li+
0.000000 0.000000 0.033333 T T T Li+
0.333333 0.750000 0.011111 F F F Li+
0.666667 0.250000 0.055556 F F F Li+
0.000000 0.500000 0.100000 F F F Li+
0.000000 0.000000 0.100000 F F F Li+
0.333333 0.750000 0.077778 F F F Li+
0.666667 0.250000 0.122222 F F F Li+
0.000000 0.500000 0.166667 F F F Li+
0.000000 0.000000 0.166667 F F F Li+
0.333333 0.750000 0.144444 F F F Li+
0.666667 0.250000 0.188889 F F F Li+
0.000000 0.500000 0.233333 F F F Li+
0.000000 0.000000 0.233333 F F F Li+
0.333333 0.750000 0.211111 F F F Li+
0.666667 0.250000 0.255556 F F F Li+
0.000000 0.500000 0.300000 F F F Li+
0.000000 0.000000 0.300000 F F F Li+
0.333333 0.750000 0.277778 F F F Li+
0.666667 0.250000 0.322222 F F F Li+
0.000000 0.500000 0.366667 F F F Li+
0.000000 0.000000 0.366667 F F F Li+
0.333333 0.750000 0.344444 F F F Li+
0.666667 0.250000 0.388889 F F F Li+
0.000000 0.500000 0.433333 T T T Li+
0.000000 0.000000 0.433333 T T T Li+
0.333333 0.750000 0.411111 F F F Li+
0.666667 0.250000 0.455556 F F F Li+
0.333333 0.149310 0.011111 T T T O-
0.666667 0.649310 0.055556 F F F O-
0.666667 0.850690 0.055556 F F F O-
0.333333 0.350690 0.011111 T T T O-
0.333333 0.149310 0.077778 F F F O-
0.666667 0.649310 0.122222 F F F O-
0.666667 0.850690 0.122222 F F F O-
0.333333 0.350690 0.077778 F F F O-
0.333333 0.149310 0.144444 F F F O-
0.666667 0.649310 0.188889 F F F O-
0.666667 0.850690 0.188889 F F F O-
0.333333 0.350690 0.144444 F F F O-
0.333333 0.149310 0.211111 F F F O-
0.666667 0.649310 0.255556 F F F O-
0.666667 0.850690 0.255556 F F F O-
0.333333 0.350690 0.211111 F F F O-
0.333333 0.149310 0.277778 F F F O-
0.666667 0.649310 0.322222 F F F O-
0.666667 0.850690 0.322222 F F F O-
0.333333 0.350690 0.277778 F F F O-
0.333333 0.149310 0.344444 F F F O-
0.666667 0.649310 0.388889 F F F O-
0.666667 0.850690 0.388889 F F F O-
0.333333 0.350690 0.344444 F F F O-
0.333333 0.149310 0.411111 F F F O-
0.666667 0.649310 0.455556 T T T O-
0.666667 0.850690 0.455556 T T T O-
0.333333 0.350690 0.411111 F F F O-
