Li5 P2 N1 O6                            
   1.00000000000000     
    -0.3524787721517439    0.4272652237980273    6.0270503884932234
     5.0935197663862306    0.8026181253917584   -0.6241999698691212
     0.8376139146184864    4.8870439353246944    0.5917882495291391
   Li   P    N    O 
     5     2     1     6
Direct
  0.6889081863706854  0.9423477238505679  0.7481048777954096
  0.7181799473836705  0.4038662983927619  0.2881316720952607
  0.4313328511102250  0.6984843587120969  0.3026824949631045
  0.2605004424644387  0.9950712921016338  0.5830428354944659
  0.9849233405517035  0.3915779020496767  0.6070266323604693
  0.4125042965408731  0.3832823918841192  0.8903610568963898
  0.9936082891711836  0.9758323535093031  0.1826392227002007
  0.1702413642170228  0.1906854953814801  0.8781741667144612
  0.9008220358388366  0.1381324586350920  0.3768570104610953
  0.1188235511096034  0.7705064333538445  0.3608659406324339
  0.6229711224641667  0.3018839879027991  0.7345828812059512
  0.4219215020101766  0.3436490155182633  0.2100192987959124
  0.4276114388405353  0.6938439098718938  0.7201090096488186
  0.7900786319269026  0.8108253788364597  0.1044779002360379
 
  0.00000000E+00  0.00000000E+00  0.00000000E+00
  0.00000000E+00  0.00000000E+00  0.00000000E+00
  0.00000000E+00  0.00000000E+00  0.00000000E+00
  0.00000000E+00  0.00000000E+00  0.00000000E+00
  0.00000000E+00  0.00000000E+00  0.00000000E+00
  0.00000000E+00  0.00000000E+00  0.00000000E+00
  0.00000000E+00  0.00000000E+00  0.00000000E+00
  0.00000000E+00  0.00000000E+00  0.00000000E+00
  0.00000000E+00  0.00000000E+00  0.00000000E+00
  0.00000000E+00  0.00000000E+00  0.00000000E+00
  0.00000000E+00  0.00000000E+00  0.00000000E+00
  0.00000000E+00  0.00000000E+00  0.00000000E+00
  0.00000000E+00  0.00000000E+00  0.00000000E+00
  0.00000000E+00  0.00000000E+00  0.00000000E+00
