Li71 P24 N1 O94                         
   1.00000000000000     
    14.7214680437351806    0.0082369154012674   -0.0053070005007819
     0.0059132862044949   10.5654245197860774   -0.0104910575242116
    -0.0044442221162772   -0.0122193452297679   12.3270073749612532
   Li   P    N    O 
    71    24     1    94
Direct
  0.1701987114429544  0.4247212580081625 -0.0022258523688355
  0.1688858793483125  0.4215549661376691  0.4993608296446306
  0.1736379777661049  0.9210816956499617  0.0014403443800608
  0.1700561585701836  0.9225408531344715  0.4978543730541098
  0.5030164316752286  0.4224930150011535 -0.0002370320606881
  0.5034243605006580  0.4222289270928973  0.4997497633338395
  0.5032146233054626  0.9222140040330468 -0.0001278396539507
  0.5034790447082702  0.9226823212498910  0.4997824114514177
  0.8345100067317154  0.4228213802071270 -0.0009107009459145
  0.8366052180607791  0.4219340679546608  0.4999628948246360
  0.8330953742640027  0.9197529028392423  0.0023077414337633
  0.8374478664886580  0.9251121526395477  0.4988391033592562
  0.0017236621734264  0.0736860804097400  0.7469213933483771
  0.0034413169666024  0.5844894973144311  0.2528512057044138
  0.0027746791939563  0.5774686466494673  0.7482729145530145
  0.3389680104619804  0.0765941843546769  0.2548654082808450
  0.3371423626746167  0.0766661895597426  0.7490053889782416
  0.3362472046105109  0.5791091440477283  0.2506345339150501
  0.3367326983454293  0.5779700540579633  0.7493537066435068
  0.6741937776641354  0.0745971229635559  0.2510554093612360
  0.6692956981482018  0.0771379976328891  0.7494063934670983
  0.6695937714733672  0.5788209005361216  0.2504374226790954
  0.6693514377895509  0.5779106072910897  0.7495811212508015
  0.1861852975894824  0.1691955516074898  0.1278568865826326
  0.1688527452182253  0.1623007571789196  0.6259440782949404
  0.1688473878824412  0.6626010960926344  0.1251504668316812
  0.1694114956628761  0.6627815237468588  0.6253972931908447
  0.5033679831877569  0.1630592987733659  0.1272468306030165
  0.5029412227097617  0.1630212108663416  0.6262722063875573
  0.5030790811962623  0.6628539982473006  0.1264159676827587
  0.5027380376949868  0.6631300210449910  0.6260546077205551
  0.8341815418725435  0.1633229441243008  0.1301043651890478
  0.8370420569431768  0.1633194051700822  0.6261173720571174
  0.8353017126549528  0.6638712974165999  0.1266000807141478
  0.8360649556700495  0.6638934563108085  0.6263398318440956
 -0.0026611319744533  0.3580179849521847  0.1271272674576124
  0.0031784227353047  0.3349502960301420  0.6236536174452146
 -0.0015490890689426  0.8374994189560296  0.1271174104813524
  0.0038711976175451  0.8373088800705035  0.6225541015261548
  0.3374594636882384  0.3391846782295055  0.1233667593107824
  0.3363344242782675  0.3364529833139061  0.6233945983116098
  0.3393658128692274  0.8368893799895337  0.1245279262133151
  0.3362468957954530  0.8365234344321983  0.6228609457168645
  0.6688061208893327  0.3371354941277669  0.1237361290604424
  0.6696473988966345  0.3362891275619723  0.6236291076936115
  0.6677092195632944  0.8347298756581982  0.1227711915068036
  0.6698448740914277  0.8366353648201074  0.6234668964755229
  0.0027240082583948  0.3347445002114940  0.3762524857296319
  0.0018849401063089  0.3395929617845205  0.8736219155859907
  0.0001570700688605  0.8425379709153813  0.3760150532188066
  0.0025450499870464  0.8318987241562573  0.8733686752403126
  0.3370955313509363  0.3367867674201915  0.3763389309803091
  0.3368254003188154  0.3374286149058517  0.8755462806480658
  0.3368396763226892  0.8366836612874492  0.3763582871345273
  0.3369106952546701  0.8362592889576584  0.8758902567472028
  0.6703662841970169  0.3360908889978021  0.3762498184084140
  0.6686289726222447  0.3369251900197012  0.8755529404577018
  0.6691406537779587  0.8347146993022124  0.3779157486269020
  0.6687994756957605  0.8364378946338420  0.8760513637927028
  0.1673226652183576  0.1681663499965822  0.3743150051929157
  0.1728222081677110  0.1637875656960380  0.8702916003928950
  0.1680748419295056  0.6628105571905627  0.3752943641043872
  0.1701281777149664  0.6632218169900069  0.8729329895538652
  0.5048608061401083  0.1632213627312981  0.3740913195838931
  0.5030218770311414  0.1635608621360910  0.8729746910064159
  0.5029010363997105  0.6631223544816691  0.3741036716612499
  0.5028275583807708  0.6631904857014203  0.8735256897503479
  0.8405096685817877  0.1613668892416668  0.3721438149109050
  0.8330199342017994  0.1658590268235670  0.8719481756643490
  0.8360920814230289  0.6648121855363075  0.3742347974168224
  0.8352528736470566  0.6632563326200429  0.8733895134840128
  0.1668253748684856  0.4144992540999384  0.2491021633383789
  0.1672341780145955  0.4125667461477622  0.7493008984128899
  0.1665631318628838  0.9023850992473168  0.2500761877435987
  0.1677047731416368  0.9112385514973035  0.7501622063243364
  0.5005113652122962  0.4126949621933226  0.2499460601868173
  0.5003340291800087  0.4123805365742454  0.7497217338641180
  0.5014496164492388  0.9119963649162209  0.2503438455332535
  0.5004436959145905  0.9117944445296505  0.7498066916345021
  0.8335063521490177  0.4130731498318331  0.2503776380689107
  0.8334180734659110  0.4126457526595810  0.7498070868747758
  0.8290641047183758  0.9122034730723652  0.2496158937012331
  0.8336055582272224  0.9122118143759437  0.7511098146594785
  0.0003641224043744  0.0848897998000498 -0.0064239434288129
  0.0024343300712726  0.0904614545390150  0.5041158086347114
 -0.0003419888782620  0.5878287314426984 -0.0012552063221245
 -0.0002496880892076  0.5877848423032563  0.5010147453347531
  0.3342641480460765  0.0883456696332083 -0.0009141092879325
  0.3345718030711764  0.0881319070550728  0.5003405753381855
  0.3340575224023659  0.5880373275107037 -0.0002775265484537
  0.3338848484191501  0.5870973140474307  0.5000259632003520
  0.6659662581865824  0.0882227126401089 -0.0004479722012697
  0.6677131577236867  0.0878354235546941  0.5008289600417993
  0.6666240279963743  0.5872080370053808 -0.0005048080315085
  0.6671818160585929  0.5868978386901413  0.5005002760697942
  0.2008975729770825  0.0486149441837687  0.2429942259815612
  0.0414420760936196  0.1670940774698580  0.4091217398417277
  0.0370845000044573  0.1577163683411747  0.8932053980301580
  0.0346614949457975  0.6576786731846195  0.3980108678394704
  0.0353489865457485  0.6555055655730416  0.8948059256891843
  0.3713391987271940  0.1579432201685967  0.3978557118119041
  0.3692309540290842  0.1572888621146387  0.8954331474148312
  0.3694857517163179  0.6560848071105915  0.3965826893435564
  0.3692366247710117  0.6569543304062126  0.8960056727356303
  0.7028419720206951  0.1572357638679984  0.3976232567897765
  0.7012485765376513  0.1568754612504517  0.8955146019689358
  0.7025158508828364  0.6553703150559214  0.3968101162408916
  0.7019484644754204  0.6566177446226573  0.8959634108285411
  0.2015922479137199  0.0510508689904809  0.7498323442596246
  0.2004848118762575  0.5540803199943493  0.2488847603627988
  0.2011870717967251  0.5523273013829054  0.7495753309520816
  0.5355409453028840  0.0517804379567713  0.2501488429135790
  0.5339447649053437  0.0518491792606440  0.7500227872761080
  0.5342138103921092  0.5526239057014318  0.2499544441656284
  0.5340287455538129  0.5523425803627219  0.7498673923307355
  0.8533701164694648  0.0537609183797567  0.2485048992090101
  0.8668806370860218  0.0524742892089413  0.7524434705692232
  0.8677216777571759  0.5527973220357162  0.2494984441510503
  0.8672604180733663  0.5524843200878394  0.7504123454445210
  0.0609542988039500  0.4119656195173548  0.2501098079698053
  0.0614269065695019  0.4102867791263787  0.7496921772941674
  0.0630768882803636  0.8842717543362335  0.2497240812865494
  0.0617699285773320  0.9081631653677739  0.7513524877667664
  0.3946286508082016  0.4101629562079825  0.2501037480328032
  0.3945346416261939  0.4097405842902052  0.7496182223336234
  0.3957594214003590  0.9097539351602991  0.2508153881296006
  0.3946422323216405  0.9087022916178353  0.7496871163415322
  0.7278425494927371  0.4102476777266529  0.2493648636966567
  0.7276944830609159  0.4097521115113946  0.7501635537098645
  0.7232555421606777  0.8996239364007141  0.2497733621494056
  0.7279133233139141  0.9086548240907216  0.7507598606571334
  0.2280141986644699  0.0914403856927834 -0.0018455932285456
  0.2287987128232596  0.0913216128678669  0.4988839683715320
  0.2281759897257677  0.5911392173309590 -0.0006102862985057
  0.2280809979440832  0.5890012182638444  0.4999137843453380
  0.5602066401311714  0.0907979981643913 -0.0004975803039332
  0.5617982759855438  0.0903531186353279  0.5008441558747310
  0.5608565681681593  0.5903732649862615 -0.0004952571319318
  0.5613461658179763  0.5901683467407033  0.5003377371193871
  0.8954154930463721  0.0929762433868864  0.0007667155732379
  0.8963334592205123  0.0919888581662455  0.5011790073221014
  0.8939424196829955  0.5901787161786586 -0.0010002302917967
  0.8938875900870135  0.5905219584077172  0.5009575187011791
  0.2003943561678118  0.3461058198642481  0.1434597107995717
  0.2022296617963400  0.3428164887236035  0.6457472642545855
  0.2074627196808899  0.8398939780413626  0.1448695097788220
  0.2023978021208589  0.8421157161937728  0.6462143868514283
  0.5351890900983137  0.3435130723620398  0.1457281808259043
  0.5357562760496750  0.3429259956482247  0.6461452034398736
  0.5351460319430614  0.8425688809020299  0.1456932212877610
  0.5359747062929777  0.8426903515272891  0.6461156798271058
  0.8690182597985029  0.3435893955433340  0.1459162891252498
  0.8688880322285201  0.3434058048463202  0.6463398190713873
  0.8662207978936006  0.8438330084061084  0.1454509468534502
  0.8696865495954103  0.8438099921482755  0.6474869878837352
  0.0342608817097569  0.1536241353485214  0.6131881021483071
  0.0350068818791275  0.6564536187602509  0.1023075872864180
  0.0350975084503548  0.6568247057628823  0.6051305862243859
  0.3678187168630746  0.1581840868137306  0.1034541293717013
  0.3690169335212101  0.1565812654394003  0.6050912199650549
  0.3697028805008488  0.6563767746953011  0.1036224115941290
  0.3688563945534727  0.6566924378343737  0.6039435632574877
  0.7013029123848982  0.1579285085044063  0.1027816480053592
  0.7027184287356363  0.1565181765555052  0.6052559200882456
  0.7020003395105924  0.6557030327085098  0.1033868151539349
  0.7023761984089916  0.6565220724259008  0.6043030219947085
  0.0334369884629809  0.4471203564114879 -0.0010214405370727
  0.0337558998751067  0.4479229826221878  0.5007801965383131
  0.0356594545263893  0.9468337765280413 -0.0002041006697452
  0.0356129373403743  0.9497736967327468  0.5012778627748635
  0.3674008155987808  0.4477416899829979 -0.0006206324890538
  0.3680283786152146  0.4472064032380973  0.5002679394161049
  0.3677273206001938  0.9484618459577783 -0.0004584525112786
  0.3682072318412704  0.9480480393996559  0.5002637726345008
  0.7001826460934897  0.4470417823944540 -0.0009095804731459
  0.7007267118487874  0.4467942229903976  0.5007061271215654
  0.6998457571295702  0.9481710529278126 -0.0004259623194941
  0.7014708044556484  0.9477615885019641  0.5008305214268791
  0.2035034272745889  0.3451481786026787  0.3515027754105269
  0.2024787169740641  0.3434795933287750  0.8533013583749635
  0.2049110235710825  0.8371374783933303  0.3550425074340392
  0.2031230982108851  0.8426252440278602  0.8542004686570741
  0.5361572246533970  0.3434662263632551  0.3533498923006477
  0.5353705886982787  0.3433503091696453  0.8536757820124085
  0.5362071041381051  0.8424312846668304  0.3540708018486177
  0.5355631949068308  0.8428800698027743  0.8537880702740873
  0.8687603794904062  0.3441512528551092  0.3536934254953387
  0.8687380303952500  0.3432343137772352  0.8537599839990117
  0.8667928592445114  0.8447552199619260  0.3531972333925394
  0.8691598998630282  0.8436603148294887  0.8553865638623459
 
  0.00000000E+00  0.00000000E+00  0.00000000E+00
  0.00000000E+00  0.00000000E+00  0.00000000E+00
  0.00000000E+00  0.00000000E+00  0.00000000E+00
  0.00000000E+00  0.00000000E+00  0.00000000E+00
  0.00000000E+00  0.00000000E+00  0.00000000E+00
  0.00000000E+00  0.00000000E+00  0.00000000E+00
  0.00000000E+00  0.00000000E+00  0.00000000E+00
  0.00000000E+00  0.00000000E+00  0.00000000E+00
  0.00000000E+00  0.00000000E+00  0.00000000E+00
  0.00000000E+00  0.00000000E+00  0.00000000E+00
  0.00000000E+00  0.00000000E+00  0.00000000E+00
  0.00000000E+00  0.00000000E+00  0.00000000E+00
  0.00000000E+00  0.00000000E+00  0.00000000E+00
  0.00000000E+00  0.00000000E+00  0.00000000E+00
  0.00000000E+00  0.00000000E+00  0.00000000E+00
  0.00000000E+00  0.00000000E+00  0.00000000E+00
  0.00000000E+00  0.00000000E+00  0.00000000E+00
  0.00000000E+00  0.00000000E+00  0.00000000E+00
  0.00000000E+00  0.00000000E+00  0.00000000E+00
  0.00000000E+00  0.00000000E+00  0.00000000E+00
  0.00000000E+00  0.00000000E+00  0.00000000E+00
  0.00000000E+00  0.00000000E+00  0.00000000E+00
  0.00000000E+00  0.00000000E+00  0.00000000E+00
  0.00000000E+00  0.00000000E+00  0.00000000E+00
  0.00000000E+00  0.00000000E+00  0.00000000E+00
  0.00000000E+00  0.00000000E+00  0.00000000E+00
  0.00000000E+00  0.00000000E+00  0.00000000E+00
  0.00000000E+00  0.00000000E+00  0.00000000E+00
  0.00000000E+00  0.00000000E+00  0.00000000E+00
  0.00000000E+00  0.00000000E+00  0.00000000E+00
  0.00000000E+00  0.00000000E+00  0.00000000E+00
  0.00000000E+00  0.00000000E+00  0.00000000E+00
  0.00000000E+00  0.00000000E+00  0.00000000E+00
  0.00000000E+00  0.00000000E+00  0.00000000E+00
  0.00000000E+00  0.00000000E+00  0.00000000E+00
  0.00000000E+00  0.00000000E+00  0.00000000E+00
  0.00000000E+00  0.00000000E+00  0.00000000E+00
  0.00000000E+00  0.00000000E+00  0.00000000E+00
  0.00000000E+00  0.00000000E+00  0.00000000E+00
  0.00000000E+00  0.00000000E+00  0.00000000E+00
  0.00000000E+00  0.00000000E+00  0.00000000E+00
  0.00000000E+00  0.00000000E+00  0.00000000E+00
  0.00000000E+00  0.00000000E+00  0.00000000E+00
  0.00000000E+00  0.00000000E+00  0.00000000E+00
  0.00000000E+00  0.00000000E+00  0.00000000E+00
  0.00000000E+00  0.00000000E+00  0.00000000E+00
  0.00000000E+00  0.00000000E+00  0.00000000E+00
  0.00000000E+00  0.00000000E+00  0.00000000E+00
  0.00000000E+00  0.00000000E+00  0.00000000E+00
  0.00000000E+00  0.00000000E+00  0.00000000E+00
  0.00000000E+00  0.00000000E+00  0.00000000E+00
  0.00000000E+00  0.00000000E+00  0.00000000E+00
  0.00000000E+00  0.00000000E+00  0.00000000E+00
  0.00000000E+00  0.00000000E+00  0.00000000E+00
  0.00000000E+00  0.00000000E+00  0.00000000E+00
  0.00000000E+00  0.00000000E+00  0.00000000E+00
  0.00000000E+00  0.00000000E+00  0.00000000E+00
  0.00000000E+00  0.00000000E+00  0.00000000E+00
  0.00000000E+00  0.00000000E+00  0.00000000E+00
  0.00000000E+00  0.00000000E+00  0.00000000E+00
  0.00000000E+00  0.00000000E+00  0.00000000E+00
  0.00000000E+00  0.00000000E+00  0.00000000E+00
  0.00000000E+00  0.00000000E+00  0.00000000E+00
  0.00000000E+00  0.00000000E+00  0.00000000E+00
  0.00000000E+00  0.00000000E+00  0.00000000E+00
  0.00000000E+00  0.00000000E+00  0.00000000E+00
  0.00000000E+00  0.00000000E+00  0.00000000E+00
  0.00000000E+00  0.00000000E+00  0.00000000E+00
  0.00000000E+00  0.00000000E+00  0.00000000E+00
  0.00000000E+00  0.00000000E+00  0.00000000E+00
  0.00000000E+00  0.00000000E+00  0.00000000E+00
  0.00000000E+00  0.00000000E+00  0.00000000E+00
  0.00000000E+00  0.00000000E+00  0.00000000E+00
  0.00000000E+00  0.00000000E+00  0.00000000E+00
  0.00000000E+00  0.00000000E+00  0.00000000E+00
  0.00000000E+00  0.00000000E+00  0.00000000E+00
  0.00000000E+00  0.00000000E+00  0.00000000E+00
  0.00000000E+00  0.00000000E+00  0.00000000E+00
  0.00000000E+00  0.00000000E+00  0.00000000E+00
  0.00000000E+00  0.00000000E+00  0.00000000E+00
  0.00000000E+00  0.00000000E+00  0.00000000E+00
  0.00000000E+00  0.00000000E+00  0.00000000E+00
  0.00000000E+00  0.00000000E+00  0.00000000E+00
  0.00000000E+00  0.00000000E+00  0.00000000E+00
  0.00000000E+00  0.00000000E+00  0.00000000E+00
  0.00000000E+00  0.00000000E+00  0.00000000E+00
  0.00000000E+00  0.00000000E+00  0.00000000E+00
  0.00000000E+00  0.00000000E+00  0.00000000E+00
  0.00000000E+00  0.00000000E+00  0.00000000E+00
  0.00000000E+00  0.00000000E+00  0.00000000E+00
  0.00000000E+00  0.00000000E+00  0.00000000E+00
  0.00000000E+00  0.00000000E+00  0.00000000E+00
  0.00000000E+00  0.00000000E+00  0.00000000E+00
  0.00000000E+00  0.00000000E+00  0.00000000E+00
  0.00000000E+00  0.00000000E+00  0.00000000E+00
  0.00000000E+00  0.00000000E+00  0.00000000E+00
  0.00000000E+00  0.00000000E+00  0.00000000E+00
  0.00000000E+00  0.00000000E+00  0.00000000E+00
  0.00000000E+00  0.00000000E+00  0.00000000E+00
  0.00000000E+00  0.00000000E+00  0.00000000E+00
  0.00000000E+00  0.00000000E+00  0.00000000E+00
  0.00000000E+00  0.00000000E+00  0.00000000E+00
  0.00000000E+00  0.00000000E+00  0.00000000E+00
  0.00000000E+00  0.00000000E+00  0.00000000E+00
  0.00000000E+00  0.00000000E+00  0.00000000E+00
  0.00000000E+00  0.00000000E+00  0.00000000E+00
  0.00000000E+00  0.00000000E+00  0.00000000E+00
  0.00000000E+00  0.00000000E+00  0.00000000E+00
  0.00000000E+00  0.00000000E+00  0.00000000E+00
  0.00000000E+00  0.00000000E+00  0.00000000E+00
  0.00000000E+00  0.00000000E+00  0.00000000E+00
  0.00000000E+00  0.00000000E+00  0.00000000E+00
  0.00000000E+00  0.00000000E+00  0.00000000E+00
  0.00000000E+00  0.00000000E+00  0.00000000E+00
  0.00000000E+00  0.00000000E+00  0.00000000E+00
  0.00000000E+00  0.00000000E+00  0.00000000E+00
  0.00000000E+00  0.00000000E+00  0.00000000E+00
  0.00000000E+00  0.00000000E+00  0.00000000E+00
  0.00000000E+00  0.00000000E+00  0.00000000E+00
  0.00000000E+00  0.00000000E+00  0.00000000E+00
  0.00000000E+00  0.00000000E+00  0.00000000E+00
  0.00000000E+00  0.00000000E+00  0.00000000E+00
  0.00000000E+00  0.00000000E+00  0.00000000E+00
  0.00000000E+00  0.00000000E+00  0.00000000E+00
  0.00000000E+00  0.00000000E+00  0.00000000E+00
  0.00000000E+00  0.00000000E+00  0.00000000E+00
  0.00000000E+00  0.00000000E+00  0.00000000E+00
  0.00000000E+00  0.00000000E+00  0.00000000E+00
  0.00000000E+00  0.00000000E+00  0.00000000E+00
  0.00000000E+00  0.00000000E+00  0.00000000E+00
  0.00000000E+00  0.00000000E+00  0.00000000E+00
  0.00000000E+00  0.00000000E+00  0.00000000E+00
  0.00000000E+00  0.00000000E+00  0.00000000E+00
  0.00000000E+00  0.00000000E+00  0.00000000E+00
  0.00000000E+00  0.00000000E+00  0.00000000E+00
  0.00000000E+00  0.00000000E+00  0.00000000E+00
  0.00000000E+00  0.00000000E+00  0.00000000E+00
  0.00000000E+00  0.00000000E+00  0.00000000E+00
  0.00000000E+00  0.00000000E+00  0.00000000E+00
  0.00000000E+00  0.00000000E+00  0.00000000E+00
  0.00000000E+00  0.00000000E+00  0.00000000E+00
  0.00000000E+00  0.00000000E+00  0.00000000E+00
  0.00000000E+00  0.00000000E+00  0.00000000E+00
  0.00000000E+00  0.00000000E+00  0.00000000E+00
  0.00000000E+00  0.00000000E+00  0.00000000E+00
  0.00000000E+00  0.00000000E+00  0.00000000E+00
  0.00000000E+00  0.00000000E+00  0.00000000E+00
  0.00000000E+00  0.00000000E+00  0.00000000E+00
  0.00000000E+00  0.00000000E+00  0.00000000E+00
  0.00000000E+00  0.00000000E+00  0.00000000E+00
  0.00000000E+00  0.00000000E+00  0.00000000E+00
  0.00000000E+00  0.00000000E+00  0.00000000E+00
  0.00000000E+00  0.00000000E+00  0.00000000E+00
  0.00000000E+00  0.00000000E+00  0.00000000E+00
  0.00000000E+00  0.00000000E+00  0.00000000E+00
  0.00000000E+00  0.00000000E+00  0.00000000E+00
  0.00000000E+00  0.00000000E+00  0.00000000E+00
  0.00000000E+00  0.00000000E+00  0.00000000E+00
  0.00000000E+00  0.00000000E+00  0.00000000E+00
  0.00000000E+00  0.00000000E+00  0.00000000E+00
  0.00000000E+00  0.00000000E+00  0.00000000E+00
  0.00000000E+00  0.00000000E+00  0.00000000E+00
  0.00000000E+00  0.00000000E+00  0.00000000E+00
  0.00000000E+00  0.00000000E+00  0.00000000E+00
  0.00000000E+00  0.00000000E+00  0.00000000E+00
  0.00000000E+00  0.00000000E+00  0.00000000E+00
  0.00000000E+00  0.00000000E+00  0.00000000E+00
  0.00000000E+00  0.00000000E+00  0.00000000E+00
  0.00000000E+00  0.00000000E+00  0.00000000E+00
  0.00000000E+00  0.00000000E+00  0.00000000E+00
  0.00000000E+00  0.00000000E+00  0.00000000E+00
  0.00000000E+00  0.00000000E+00  0.00000000E+00
  0.00000000E+00  0.00000000E+00  0.00000000E+00
  0.00000000E+00  0.00000000E+00  0.00000000E+00
  0.00000000E+00  0.00000000E+00  0.00000000E+00
  0.00000000E+00  0.00000000E+00  0.00000000E+00
  0.00000000E+00  0.00000000E+00  0.00000000E+00
  0.00000000E+00  0.00000000E+00  0.00000000E+00
  0.00000000E+00  0.00000000E+00  0.00000000E+00
  0.00000000E+00  0.00000000E+00  0.00000000E+00
  0.00000000E+00  0.00000000E+00  0.00000000E+00
  0.00000000E+00  0.00000000E+00  0.00000000E+00
  0.00000000E+00  0.00000000E+00  0.00000000E+00
  0.00000000E+00  0.00000000E+00  0.00000000E+00
  0.00000000E+00  0.00000000E+00  0.00000000E+00
  0.00000000E+00  0.00000000E+00  0.00000000E+00
  0.00000000E+00  0.00000000E+00  0.00000000E+00
  0.00000000E+00  0.00000000E+00  0.00000000E+00
  0.00000000E+00  0.00000000E+00  0.00000000E+00
  0.00000000E+00  0.00000000E+00  0.00000000E+00
