(2, -1, 2)                              
   1.0000000000000000     
     6.2531352205569730    0.0000056826699697    0.0000034176587272
     0.0000055620317855    3.9869224399413232    3.7644050586717097
     0.0000193394732464    1.2052669666409384   35.8349287798273437
   Li   N 
    24     8
Selective dynamics
Direct
  0.5000000291479405  0.5009807718467879  0.0727684551748723   T   T   T
  0.0000000000000000  0.5000006428991171  0.0253514625826270   F   F   F
  0.3333322790115076  0.0000000000000000  0.0760561111111144   F   F   F
  0.7857139688998396  0.0707238496643185  0.0151049871261966   T   T   T
  0.2142946304931306  0.0707252875430288  0.0151044983364415   T   T   T
  0.6666677209884924  0.0000000000000000  0.0760561111111144   F   F   F
  0.5000000000000000  0.5000006428991171  0.1774636848048488   F   F   F
  0.0000000000000000  0.5000006428991171  0.1267603514715177   F   F   F
  0.3333322790115076  0.0000000000000000  0.1774636111111079   F   F   F
  0.8333322790115076  0.0000000000000000  0.1267605555555562   F   F   F
  0.1666677209884924  0.0000000000000000  0.1267605555555562   F   F   F
  0.6666677209884924  0.0000000000000000  0.1774636111111079   F   F   F
  0.5000000000000000  0.5000006428991171  0.2788725736937394   F   F   F
  0.0000000000000000  0.5000006428991171  0.2281681292492976   F   F   F
  0.3333322790115076  0.0000000000000000  0.2788724999999985   F   F   F
  0.8333322790115076  0.0000000000000000  0.2281680555555567   F   F   F
  0.1666677209884924  0.0000000000000000  0.2281680555555567   F   F   F
  0.6666677209884924  0.0000000000000000  0.2788724999999985   F   F   F
  0.5000000000000000  0.5000006428991171  0.3802800736937400   F   F   F
 -0.0000006384330847  0.4987016062918332  0.3328816571478121   T   T   T
  0.2858084912275984 -0.0708825116223709  0.3905064354323431   T   T   T
  0.8333322790115076  0.0000000000000000  0.3295758333333367   F   F   F
  0.1666677209884924  0.0000000000000000  0.3295758333333367   F   F   F
  0.7141963585203551 -0.0708879628415829  0.3905080044051065   T   T   T
  0.4999926246461784 -0.0285790899158358  0.0332901779059886   T   T   T
  0.0000000000000000  0.0000000000000000  0.0760561111111144   F   F   F
  0.5000000000000000  0.0000000000000000  0.1267605555555562   F   F   F
  0.0000000000000000  0.0000000000000000  0.1774636111111079   F   F   F
  0.5000000000000000  0.0000000000000000  0.2281680555555567   F   F   F
  0.0000000000000000  0.0000000000000000  0.2788724999999985   F   F   F
  0.5000000000000000  0.0000000000000000  0.3295758333333367   F   F   F
  0.0000012935508820  0.0282030174616119  0.3723852400209068   T   T   T

  0.00000000E+00  0.00000000E+00  0.00000000E+00
  0.00000000E+00  0.00000000E+00  0.00000000E+00
  0.00000000E+00  0.00000000E+00  0.00000000E+00
  0.00000000E+00  0.00000000E+00  0.00000000E+00
  0.00000000E+00  0.00000000E+00  0.00000000E+00
  0.00000000E+00  0.00000000E+00  0.00000000E+00
  0.00000000E+00  0.00000000E+00  0.00000000E+00
  0.00000000E+00  0.00000000E+00  0.00000000E+00
  0.00000000E+00  0.00000000E+00  0.00000000E+00
  0.00000000E+00  0.00000000E+00  0.00000000E+00
  0.00000000E+00  0.00000000E+00  0.00000000E+00
  0.00000000E+00  0.00000000E+00  0.00000000E+00
  0.00000000E+00  0.00000000E+00  0.00000000E+00
  0.00000000E+00  0.00000000E+00  0.00000000E+00
  0.00000000E+00  0.00000000E+00  0.00000000E+00
  0.00000000E+00  0.00000000E+00  0.00000000E+00
  0.00000000E+00  0.00000000E+00  0.00000000E+00
  0.00000000E+00  0.00000000E+00  0.00000000E+00
  0.00000000E+00  0.00000000E+00  0.00000000E+00
  0.00000000E+00  0.00000000E+00  0.00000000E+00
  0.00000000E+00  0.00000000E+00  0.00000000E+00
  0.00000000E+00  0.00000000E+00  0.00000000E+00
  0.00000000E+00  0.00000000E+00  0.00000000E+00
  0.00000000E+00  0.00000000E+00  0.00000000E+00
  0.00000000E+00  0.00000000E+00  0.00000000E+00
  0.00000000E+00  0.00000000E+00  0.00000000E+00
  0.00000000E+00  0.00000000E+00  0.00000000E+00
  0.00000000E+00  0.00000000E+00  0.00000000E+00
  0.00000000E+00  0.00000000E+00  0.00000000E+00
  0.00000000E+00  0.00000000E+00  0.00000000E+00
  0.00000000E+00  0.00000000E+00  0.00000000E+00
  0.00000000E+00  0.00000000E+00  0.00000000E+00
