(2, -1, 2)
1.0
6.323180 0.000000 -0.000000
0.000000 3.888635 3.650690
0.000000 0.000000 36.000000
Li N
24 8
Selective dynamics
Cartesian
3.16159 1.94432 4.56336 T T T Li+ 
0.00000 1.94432 2.73800 F F F Li+ 
2.10772 0.00000 2.73802 F F F Li+ 
5.26931 0.00000 0.91266 T T T Li+ 
1.05387 0.00000 0.91266 T T T Li+ 
4.21546 0.00000 2.73802 F F F Li+ 
3.16159 1.94432 8.21404 F F F Li+ 
0.00000 1.94432 6.38872 F F F Li+ 
2.10772 0.00000 6.38869 F F F Li+ 
5.26931 0.00000 4.56338 F F F Li+ 
1.05387 0.00000 4.56338 F F F Li+ 
4.21546 0.00000 6.38869 F F F Li+ 
3.16159 1.94432 11.86476 F F F Li+ 
0.00000 1.94432 10.03940 F F F Li+ 
2.10772 0.00000 10.03941 F F F Li+ 
5.26931 0.00000 8.21405 F F F Li+ 
1.05387 0.00000 8.21405 F F F Li+ 
4.21546 0.00000 10.03941 F F F Li+ 
3.16159 1.94432 15.51543 F F F Li+ 
0.00000 1.94432 13.69007 T T T Li+ 
2.10772 0.00000 13.69009 T T T Li+ 
5.26931 0.00000 11.86473 F F F Li+ 
1.05387 0.00000 11.86473 F F F Li+ 
4.21546 0.00000 13.69009 T T T Li+ 
3.16159 0.00000 0.91266 T T T N3- 
0.00000 0.00000 2.73802 F F F N3- 
3.16159 0.00000 4.56338 F F F N3- 
0.00000 0.00000 6.38869 F F F N3- 
3.16159 0.00000 8.21405 F F F N3- 
0.00000 0.00000 10.03941 F F F N3- 
3.16159 0.00000 11.86473 F F F N3- 
0.00000 0.00000 13.69009 T T T N3- 
