Li71 P24 N1 O94                         
   1.00000000000000     
    14.6941764077311223   -0.0040471447461701   -0.0073609302659598
    -0.0029197739301726   10.5799230267566635    0.0000121447461072
    -0.0061563179238606    0.0000204248453706   12.3102153991450525
   Li   P    N    O 
    71    24     1    94
Direct
  0.1704970390408324  0.4201572839005340 -0.0022175561227093
  0.1700578386967065  0.4226986384887481  0.5028327910468818
  0.1703352559582574  0.9289909643598262  0.0051100706230197
  0.1714946184626552  0.9224957234611102  0.4996035848862553
  0.5026288564046705  0.4216669627116255 -0.0002584661918818
  0.5030535699550878  0.4220122000224696  0.5005776044944714
  0.5035971359001805  0.9236395474979924 -0.0000741682375525
  0.5024405152517191  0.9232293219183386  0.4998119774448567
  0.8354924718683802  0.4235447943216500 -0.0016415663941087
  0.8345794380104008  0.4221815783825021  0.5013806883375984
  0.8360418567678104  0.9198362255588216 -0.0004143532834011
  0.8362611785580026  0.9227406741667117  0.5002097018027812
  0.0079163782010470  0.0725589007779150  0.2520626150888585
  0.0042410951265964  0.0750489988679075  0.7499226047619983
 -0.0061432958002439  0.6151214026728490  0.2495588424999690
  0.0035977663898275  0.5775736034279216  0.7505536756773282
  0.3313745879991029  0.0774547481858689  0.2443771028368625
  0.3365845307203824  0.0772588247518302  0.7512463912465958
  0.3400583421326065  0.5811946620384357  0.2499078280368304
  0.3366447669188659  0.5775384102829788  0.7507711478329496
  0.6706668636008307  0.0764259399755343  0.2494219449962743
  0.6697959432094769  0.0768902478628349  0.7499584467224771
  0.6682321873011406  0.5782027405557302  0.2499546160649420
  0.6693363665236712  0.5777597561594521  0.7502231638565642
  0.1700149196671181  0.1627144927418177  0.6269171768878216
  0.1703112864618892  0.6661455233923610  0.1245425888288320
  0.1704403638234284  0.6634755152570252  0.6271007376667310
  0.5020732956339004  0.1622389208589755  0.1258922891638000
  0.5025835432903195  0.1631989774134996  0.6265880759761175
  0.5025804028918762  0.6639277303969530  0.1256637847377968
  0.5028250231315808  0.6635608707316603  0.6266937753616747
  0.8405673482604935  0.1622040348697660  0.1268579929820078
  0.8363256321179797  0.1630133583804530  0.6265343667624770
  0.8342820708558534  0.6643642439909992  0.1247356125129398
  0.8357741796191085  0.6632602556494851  0.6268685468768229
  0.0001230872362861  0.3380403810881478  0.1125554401905566
  0.0031220485120801  0.3356898185252001  0.6261838355360646
  0.0046514757152351  0.8427506992311206  0.1215402191316448
  0.0030342698853562  0.8354810766025519  0.6238726000005813
  0.3359424203536671  0.3315692761596915  0.1208242487401539
  0.3363516629748291  0.3360326236883581  0.6243892603424489
  0.3365331820123162  0.8381960010691973  0.1224361247130046
  0.3364782793482713  0.8370196659572882  0.6234034872707015
  0.6699863899919051  0.3362187283134461  0.1240982017414207
  0.6691138944142188  0.3365470441931792  0.6241426514726208
  0.6690874742710666  0.8368689051108099  0.1236377848870487
  0.6692316250883066  0.8369842163369809  0.6231359103335178
 -0.0011518874686679  0.3280483026592517  0.3889889298102519
  0.0039502841544119  0.3343542698864506  0.8763509008696101
  0.0033527670976293  0.8385383190621614  0.3794174611283828
  0.0039224443054295  0.8369391781281038  0.8747479632068086
  0.3393632725992757  0.3356091318494370  0.3774319205919541
  0.3369096850374747  0.3342361489470769  0.8762910446780068
  0.3357048271251646  0.8371773810907798  0.3760511686109024
  0.3363176440487070  0.8377552792800255  0.8771828920997818
  0.6685130165866668  0.3367193808560939  0.3760429522455009
  0.6695102334893706  0.3365536164120536  0.8762876714268959
  0.6687911801915220  0.8370041757945633  0.3764869055718047
  0.6695607272041728  0.8369386187195221  0.8762669137215991
  0.1700793664654863  0.1597297204539209  0.3689158013916227
  0.1695720285835560  0.1617500975905929  0.8760394434633180
  0.1685527566096339  0.6642373625865046  0.3785841599848169
  0.1703801090831000  0.6644120981670011  0.8737895586355680
  0.5021345901340101  0.1623063532874930  0.3726893420025318
  0.5037618390331637  0.1629026608359671  0.8739313174081181
  0.5027774010470708  0.6639301116861621  0.3741011864637958
  0.5025500478484434  0.6636234522329700  0.8736138900308645
  0.8361928260482830  0.1620961171741566  0.3730041520823087
  0.8360985107684058  0.1633798986962099  0.8715298440557818
  0.8337168815288390  0.6639280447936454  0.3759637471612400
  0.8361442572438410  0.6636011423661237  0.8727968189078201
  0.1718083272111009  0.4166309571286141  0.2485206239978700
  0.1672314025649926  0.4122742610412797  0.7500578489144848
  0.1683044277806602  0.9083247515322339  0.2532226316595320
  0.1676784446891796  0.9112681531992733  0.7493752540223757
  0.4994363741202733  0.4120701095240021  0.2496628178873262
  0.5005368658715234  0.4123933523814627  0.7501105644432747
  0.5005401946184906  0.9121720622381670  0.2499860408900567
  0.5007990630016160  0.9119833146325478  0.7497174989128369
  0.8351418869631408  0.4146888411527966  0.2499177346517612
  0.8340323407577016  0.4125713170916266  0.7499855574367624
  0.8340997685972377  0.9106848389750506  0.2508121204940689
  0.8337784427459848  0.9114788437756017  0.7491981537621312
 -0.0005613118957862  0.0860307690590208 -0.0022736332762212
  0.0007172438352031  0.0871849924875804  0.5013957161195285
  0.0002478350898060  0.5895211069560989 -0.0004347805853237
 -0.0006446969470717  0.5863746871884432  0.4999571021136960
  0.3343428267674394  0.0867358751724211 -0.0019663084659226
  0.3333727046709937  0.0885805077286091  0.4996992746703005
  0.3337456299167346  0.5872033194259541 -0.0001847976934283
  0.3339786775246824  0.5871059154390623  0.5005918677264952
  0.6685955087047901  0.0881867149911158  0.0001879733688253
  0.6671979197522208  0.0884904045582009  0.4998239350791837
  0.6667726897783198  0.5876091422474693  0.0000356890666941
  0.6664526448859844  0.5875411146709197  0.5001253399389002
  0.0214492945074970  0.1601743813660380  0.1100157790064624
  0.0364303979192103  0.1565261324458146  0.3977076053205409
  0.0351197337071169  0.1542777931704187  0.8929353431827081
  0.0341266861110470  0.6556281144518268  0.3957782311275556
  0.0357365866921488  0.6579004656524903  0.8959496603592877
  0.3686667934836604  0.1578533256063658  0.3958551590454120
  0.3722309983442157  0.1565737461442454  0.8947698241297409
  0.3691696990938695  0.6561671254965263  0.3966908152879486
  0.3691266593435407  0.6566038210516290  0.8961469979814159
  0.7027342816551888  0.1578452054700468  0.3959741401079518
  0.7032258551052124  0.1569726850567113  0.8957091212422498
  0.7014513150792141  0.6566036223120413  0.3960045867390154
  0.7025086659429186  0.6568147719969548  0.8964245013705374
  0.2024320581417488  0.0451369671668590  0.2581019272484658
  0.2007303711206861  0.0512514089507361  0.7487657116998893
  0.1983342203704338  0.5588130991506582  0.2539603759731245
  0.2008991159372000  0.5521214505770761  0.7501318854481628
  0.5353220005239224  0.0515953644600850  0.2499345808134412
  0.5349742576352517  0.0516638493760701  0.7496261129271429
  0.5328540772921272  0.5521933495847121  0.2499885668864033
  0.5343392734053829  0.5523010474676048  0.7499314230240000
  0.8673132980400207  0.0503536892139059  0.2519508788478770
  0.8676712299504251  0.0511661262943810  0.7488111407811627
  0.8690146537838267  0.5547842333979187  0.2508463187368203
  0.8679252011695098  0.5523500395928845  0.7498156348186388
  0.0610820540731326  0.4100755516566164  0.7503272504948456
  0.0617905607008640  0.9023274862591726  0.2522801429173320
  0.0615370054709684  0.9074781645021354  0.7485172422614834
  0.3932308512013265  0.4090816584141165  0.2491151399709610
  0.3946083666332555  0.4096249632347668  0.7501287076230665
  0.3947720175652328  0.9094628948151919  0.2497936981987434
  0.3949128608717893  0.9090449630398569  0.7497020032730508
  0.7294067615677025  0.4111937144662796  0.2509917267268219
  0.7280880477786058  0.4098991544377249  0.7500119616016375
  0.7281177737643226  0.9071624135099713  0.2502846137081209
  0.7277943420650814  0.9087999546671107  0.7494560357224734
  0.2301682210239197  0.0867533724375626 -0.0061860048423810
  0.2274499755073604  0.0919545254307321  0.5000741280199296
  0.2277442555840987  0.5902278959155153 -0.0002475476852546
  0.2279344646533598  0.5888675771270921  0.5011963657016154
  0.5627606260004374  0.0914059132733573  0.0006980625261617
  0.5612795964349661  0.0913071315139134  0.4997199563790024
  0.5609196032959646  0.5901849837229989 -0.0001492648668141
  0.5606136098160578  0.5901518812659204  0.5002825524659454
  0.8925679486535443  0.0864630769609439 -0.0041150550862044
  0.8946964054848953  0.0908123908123909  0.5000360199826399
  0.8943148358408642  0.5915042810832913 -0.0001884294174702
  0.8935538638486309  0.5887378936723425  0.5004708277129687
  0.2022135925400835  0.3537602868189207  0.1429996824052135
  0.2018278707206314  0.3434920744271023  0.6456475469985479
  0.2034014772421957  0.8406936969463917  0.1481617019919773
  0.2028824073247185  0.8422152897042301  0.6451302634000075
  0.5356783106011603  0.3431510704215174  0.1463172807771410
  0.5357512895696254  0.3432388222314722  0.6461354951064535
  0.5362169626219060  0.8425893864743544  0.1464064402765059
  0.5358403947224354  0.8429929406359914  0.6454783058403887
  0.8704273669125463  0.3476893095556658  0.1453777921818926
  0.8691714354348102  0.3433327208430010  0.6459724335882318
  0.8700037106680475  0.8416901774079941  0.1470131294716748
  0.8688618323551933  0.8422641151411167  0.6451282970092796
  0.0354503122481338  0.1569073965866614  0.6051130602433876
  0.0353844677131840  0.6581854978090601  0.1041790476618996
  0.0356757763457107  0.6548529166198287  0.6032725590564791
  0.3703959338400732  0.1560487372415724  0.1020108259350947
  0.3690797276162283  0.1572365210611913  0.6038425997976566
  0.3690269022077045  0.6562433383403361  0.1039612253510305
  0.3692572285270174  0.6562747220160728  0.6043538207318164
  0.7049269683846350  0.1572497725616594  0.1038486809353050
  0.7026678473866749  0.1573891238480304  0.6038551128634392
  0.7019443158278298  0.6566265623887553  0.1042486488042438
  0.7022786784573207  0.6566992177212814  0.6037441842762363
  0.0346604954250248  0.4500976080299248  0.0002880126625879
  0.0337688556699999  0.4465179377407191  0.4982698722367855
  0.0346025411294280  0.9463394820751551 -0.0038638134773785
  0.0342957365052083  0.9476262549204422  0.5014036743102495
  0.3674526100377682  0.4474048407377147 -0.0003866519156033
  0.3675805112482777  0.4471264702419820  0.5002209108406966
  0.3707705098592350  0.9472691157536642 -0.0006064932818703
  0.3670968286802370  0.9486767277782057  0.4996027587732575
  0.7008392600984766  0.4478989722795356  0.0002990822205179
  0.7003565848891747  0.4476915928338450  0.4998312426109031
  0.7016730153621265  0.9478990726419254  0.0001174190413577
  0.7010847122110029  0.9486987464803653  0.4996205185413620
  0.1991194002558166  0.3447703163825981  0.3540185318155689
  0.2025604607242353  0.3425945516654818  0.8533005288878598
  0.2021283158936779  0.8357202680159006  0.3570040072783874
  0.2028639649854635  0.8420810066564158  0.8529985982421227
  0.5345885057947229  0.3433147986163683  0.3539109183992682
  0.5362998173416875  0.3435291807664910  0.8538728688958863
  0.5356421043550874  0.8430521422540381  0.3542985109324328
  0.5365008715582004  0.8427085741721348  0.8534012248318023
  0.8720154263671598  0.3444880451664816  0.3527795372917361
  0.8695251639882261  0.3435645467036196  0.8538491460483181
  0.8693785311701948  0.8408747344714778  0.3547554927793833
  0.8691869924647623  0.8419919336779528  0.8528229010066664
 
  0.00000000E+00  0.00000000E+00  0.00000000E+00
  0.00000000E+00  0.00000000E+00  0.00000000E+00
  0.00000000E+00  0.00000000E+00  0.00000000E+00
  0.00000000E+00  0.00000000E+00  0.00000000E+00
  0.00000000E+00  0.00000000E+00  0.00000000E+00
  0.00000000E+00  0.00000000E+00  0.00000000E+00
  0.00000000E+00  0.00000000E+00  0.00000000E+00
  0.00000000E+00  0.00000000E+00  0.00000000E+00
  0.00000000E+00  0.00000000E+00  0.00000000E+00
  0.00000000E+00  0.00000000E+00  0.00000000E+00
  0.00000000E+00  0.00000000E+00  0.00000000E+00
  0.00000000E+00  0.00000000E+00  0.00000000E+00
  0.00000000E+00  0.00000000E+00  0.00000000E+00
  0.00000000E+00  0.00000000E+00  0.00000000E+00
  0.00000000E+00  0.00000000E+00  0.00000000E+00
  0.00000000E+00  0.00000000E+00  0.00000000E+00
  0.00000000E+00  0.00000000E+00  0.00000000E+00
  0.00000000E+00  0.00000000E+00  0.00000000E+00
  0.00000000E+00  0.00000000E+00  0.00000000E+00
  0.00000000E+00  0.00000000E+00  0.00000000E+00
  0.00000000E+00  0.00000000E+00  0.00000000E+00
  0.00000000E+00  0.00000000E+00  0.00000000E+00
  0.00000000E+00  0.00000000E+00  0.00000000E+00
  0.00000000E+00  0.00000000E+00  0.00000000E+00
  0.00000000E+00  0.00000000E+00  0.00000000E+00
  0.00000000E+00  0.00000000E+00  0.00000000E+00
  0.00000000E+00  0.00000000E+00  0.00000000E+00
  0.00000000E+00  0.00000000E+00  0.00000000E+00
  0.00000000E+00  0.00000000E+00  0.00000000E+00
  0.00000000E+00  0.00000000E+00  0.00000000E+00
  0.00000000E+00  0.00000000E+00  0.00000000E+00
  0.00000000E+00  0.00000000E+00  0.00000000E+00
  0.00000000E+00  0.00000000E+00  0.00000000E+00
  0.00000000E+00  0.00000000E+00  0.00000000E+00
  0.00000000E+00  0.00000000E+00  0.00000000E+00
  0.00000000E+00  0.00000000E+00  0.00000000E+00
  0.00000000E+00  0.00000000E+00  0.00000000E+00
  0.00000000E+00  0.00000000E+00  0.00000000E+00
  0.00000000E+00  0.00000000E+00  0.00000000E+00
  0.00000000E+00  0.00000000E+00  0.00000000E+00
  0.00000000E+00  0.00000000E+00  0.00000000E+00
  0.00000000E+00  0.00000000E+00  0.00000000E+00
  0.00000000E+00  0.00000000E+00  0.00000000E+00
  0.00000000E+00  0.00000000E+00  0.00000000E+00
  0.00000000E+00  0.00000000E+00  0.00000000E+00
  0.00000000E+00  0.00000000E+00  0.00000000E+00
  0.00000000E+00  0.00000000E+00  0.00000000E+00
  0.00000000E+00  0.00000000E+00  0.00000000E+00
  0.00000000E+00  0.00000000E+00  0.00000000E+00
  0.00000000E+00  0.00000000E+00  0.00000000E+00
  0.00000000E+00  0.00000000E+00  0.00000000E+00
  0.00000000E+00  0.00000000E+00  0.00000000E+00
  0.00000000E+00  0.00000000E+00  0.00000000E+00
  0.00000000E+00  0.00000000E+00  0.00000000E+00
  0.00000000E+00  0.00000000E+00  0.00000000E+00
  0.00000000E+00  0.00000000E+00  0.00000000E+00
  0.00000000E+00  0.00000000E+00  0.00000000E+00
  0.00000000E+00  0.00000000E+00  0.00000000E+00
  0.00000000E+00  0.00000000E+00  0.00000000E+00
  0.00000000E+00  0.00000000E+00  0.00000000E+00
  0.00000000E+00  0.00000000E+00  0.00000000E+00
  0.00000000E+00  0.00000000E+00  0.00000000E+00
  0.00000000E+00  0.00000000E+00  0.00000000E+00
  0.00000000E+00  0.00000000E+00  0.00000000E+00
  0.00000000E+00  0.00000000E+00  0.00000000E+00
  0.00000000E+00  0.00000000E+00  0.00000000E+00
  0.00000000E+00  0.00000000E+00  0.00000000E+00
  0.00000000E+00  0.00000000E+00  0.00000000E+00
  0.00000000E+00  0.00000000E+00  0.00000000E+00
  0.00000000E+00  0.00000000E+00  0.00000000E+00
  0.00000000E+00  0.00000000E+00  0.00000000E+00
  0.00000000E+00  0.00000000E+00  0.00000000E+00
  0.00000000E+00  0.00000000E+00  0.00000000E+00
  0.00000000E+00  0.00000000E+00  0.00000000E+00
  0.00000000E+00  0.00000000E+00  0.00000000E+00
  0.00000000E+00  0.00000000E+00  0.00000000E+00
  0.00000000E+00  0.00000000E+00  0.00000000E+00
  0.00000000E+00  0.00000000E+00  0.00000000E+00
  0.00000000E+00  0.00000000E+00  0.00000000E+00
  0.00000000E+00  0.00000000E+00  0.00000000E+00
  0.00000000E+00  0.00000000E+00  0.00000000E+00
  0.00000000E+00  0.00000000E+00  0.00000000E+00
  0.00000000E+00  0.00000000E+00  0.00000000E+00
  0.00000000E+00  0.00000000E+00  0.00000000E+00
  0.00000000E+00  0.00000000E+00  0.00000000E+00
  0.00000000E+00  0.00000000E+00  0.00000000E+00
  0.00000000E+00  0.00000000E+00  0.00000000E+00
  0.00000000E+00  0.00000000E+00  0.00000000E+00
  0.00000000E+00  0.00000000E+00  0.00000000E+00
  0.00000000E+00  0.00000000E+00  0.00000000E+00
  0.00000000E+00  0.00000000E+00  0.00000000E+00
  0.00000000E+00  0.00000000E+00  0.00000000E+00
  0.00000000E+00  0.00000000E+00  0.00000000E+00
  0.00000000E+00  0.00000000E+00  0.00000000E+00
  0.00000000E+00  0.00000000E+00  0.00000000E+00
  0.00000000E+00  0.00000000E+00  0.00000000E+00
  0.00000000E+00  0.00000000E+00  0.00000000E+00
  0.00000000E+00  0.00000000E+00  0.00000000E+00
  0.00000000E+00  0.00000000E+00  0.00000000E+00
  0.00000000E+00  0.00000000E+00  0.00000000E+00
  0.00000000E+00  0.00000000E+00  0.00000000E+00
  0.00000000E+00  0.00000000E+00  0.00000000E+00
  0.00000000E+00  0.00000000E+00  0.00000000E+00
  0.00000000E+00  0.00000000E+00  0.00000000E+00
  0.00000000E+00  0.00000000E+00  0.00000000E+00
  0.00000000E+00  0.00000000E+00  0.00000000E+00
  0.00000000E+00  0.00000000E+00  0.00000000E+00
  0.00000000E+00  0.00000000E+00  0.00000000E+00
  0.00000000E+00  0.00000000E+00  0.00000000E+00
  0.00000000E+00  0.00000000E+00  0.00000000E+00
  0.00000000E+00  0.00000000E+00  0.00000000E+00
  0.00000000E+00  0.00000000E+00  0.00000000E+00
  0.00000000E+00  0.00000000E+00  0.00000000E+00
  0.00000000E+00  0.00000000E+00  0.00000000E+00
  0.00000000E+00  0.00000000E+00  0.00000000E+00
  0.00000000E+00  0.00000000E+00  0.00000000E+00
  0.00000000E+00  0.00000000E+00  0.00000000E+00
  0.00000000E+00  0.00000000E+00  0.00000000E+00
  0.00000000E+00  0.00000000E+00  0.00000000E+00
  0.00000000E+00  0.00000000E+00  0.00000000E+00
  0.00000000E+00  0.00000000E+00  0.00000000E+00
  0.00000000E+00  0.00000000E+00  0.00000000E+00
  0.00000000E+00  0.00000000E+00  0.00000000E+00
  0.00000000E+00  0.00000000E+00  0.00000000E+00
  0.00000000E+00  0.00000000E+00  0.00000000E+00
  0.00000000E+00  0.00000000E+00  0.00000000E+00
  0.00000000E+00  0.00000000E+00  0.00000000E+00
  0.00000000E+00  0.00000000E+00  0.00000000E+00
  0.00000000E+00  0.00000000E+00  0.00000000E+00
  0.00000000E+00  0.00000000E+00  0.00000000E+00
  0.00000000E+00  0.00000000E+00  0.00000000E+00
  0.00000000E+00  0.00000000E+00  0.00000000E+00
  0.00000000E+00  0.00000000E+00  0.00000000E+00
  0.00000000E+00  0.00000000E+00  0.00000000E+00
  0.00000000E+00  0.00000000E+00  0.00000000E+00
  0.00000000E+00  0.00000000E+00  0.00000000E+00
  0.00000000E+00  0.00000000E+00  0.00000000E+00
  0.00000000E+00  0.00000000E+00  0.00000000E+00
  0.00000000E+00  0.00000000E+00  0.00000000E+00
  0.00000000E+00  0.00000000E+00  0.00000000E+00
  0.00000000E+00  0.00000000E+00  0.00000000E+00
  0.00000000E+00  0.00000000E+00  0.00000000E+00
  0.00000000E+00  0.00000000E+00  0.00000000E+00
  0.00000000E+00  0.00000000E+00  0.00000000E+00
  0.00000000E+00  0.00000000E+00  0.00000000E+00
  0.00000000E+00  0.00000000E+00  0.00000000E+00
  0.00000000E+00  0.00000000E+00  0.00000000E+00
  0.00000000E+00  0.00000000E+00  0.00000000E+00
  0.00000000E+00  0.00000000E+00  0.00000000E+00
  0.00000000E+00  0.00000000E+00  0.00000000E+00
  0.00000000E+00  0.00000000E+00  0.00000000E+00
  0.00000000E+00  0.00000000E+00  0.00000000E+00
  0.00000000E+00  0.00000000E+00  0.00000000E+00
  0.00000000E+00  0.00000000E+00  0.00000000E+00
  0.00000000E+00  0.00000000E+00  0.00000000E+00
  0.00000000E+00  0.00000000E+00  0.00000000E+00
  0.00000000E+00  0.00000000E+00  0.00000000E+00
  0.00000000E+00  0.00000000E+00  0.00000000E+00
  0.00000000E+00  0.00000000E+00  0.00000000E+00
  0.00000000E+00  0.00000000E+00  0.00000000E+00
  0.00000000E+00  0.00000000E+00  0.00000000E+00
  0.00000000E+00  0.00000000E+00  0.00000000E+00
  0.00000000E+00  0.00000000E+00  0.00000000E+00
  0.00000000E+00  0.00000000E+00  0.00000000E+00
  0.00000000E+00  0.00000000E+00  0.00000000E+00
  0.00000000E+00  0.00000000E+00  0.00000000E+00
  0.00000000E+00  0.00000000E+00  0.00000000E+00
  0.00000000E+00  0.00000000E+00  0.00000000E+00
  0.00000000E+00  0.00000000E+00  0.00000000E+00
  0.00000000E+00  0.00000000E+00  0.00000000E+00
  0.00000000E+00  0.00000000E+00  0.00000000E+00
  0.00000000E+00  0.00000000E+00  0.00000000E+00
  0.00000000E+00  0.00000000E+00  0.00000000E+00
  0.00000000E+00  0.00000000E+00  0.00000000E+00
  0.00000000E+00  0.00000000E+00  0.00000000E+00
  0.00000000E+00  0.00000000E+00  0.00000000E+00
  0.00000000E+00  0.00000000E+00  0.00000000E+00
  0.00000000E+00  0.00000000E+00  0.00000000E+00
  0.00000000E+00  0.00000000E+00  0.00000000E+00
  0.00000000E+00  0.00000000E+00  0.00000000E+00
  0.00000000E+00  0.00000000E+00  0.00000000E+00
  0.00000000E+00  0.00000000E+00  0.00000000E+00
  0.00000000E+00  0.00000000E+00  0.00000000E+00
  0.00000000E+00  0.00000000E+00  0.00000000E+00
  0.00000000E+00  0.00000000E+00  0.00000000E+00
  0.00000000E+00  0.00000000E+00  0.00000000E+00
  0.00000000E+00  0.00000000E+00  0.00000000E+00
  0.00000000E+00  0.00000000E+00  0.00000000E+00
  0.00000000E+00  0.00000000E+00  0.00000000E+00
  0.00000000E+00  0.00000000E+00  0.00000000E+00
