Li140 P140 O420
1.0
13.312980 0.000000 -5.521558
2.677750 16.540545 0.000000
0.000000 0.000000 60.737138
Li P O
140 140 420
Selective dynamics
direct
0.944698 0.181780 0.069022 F F F Li
0.444698 0.681780 0.022587 T T T Li
0.822834 0.065996 0.058869 F F F Li
0.322834 0.565996 0.010582 T T T Li
0.702414 0.950543 0.045980 F F F Li
0.202414 0.450543 0.001577 T T T Li
0.582845 0.835452 0.034979 T T T Li
0.082845 0.335452 0.081747 F F F Li
0.512460 0.758434 0.075348 F F F Li
0.012460 0.258434 0.028581 T T T Li
0.942549 0.681714 0.066409 F F F Li
0.442549 0.181714 0.024808 T T T Li
0.821455 0.566270 0.059481 F F F Li
0.321455 0.066270 0.009720 T T T Li
0.702271 0.449547 0.043470 F F F Li
0.202271 0.949547 0.004061 T T T Li
0.582496 0.332984 0.037628 T T T Li
0.082496 0.832984 0.079035 F F F Li
0.510463 0.256366 0.078066 F F F Li
0.010463 0.756366 0.025500 T T T Li
0.944698 0.181780 0.159931 F F F Li
0.444698 0.681780 0.113496 F F F Li
0.822834 0.065996 0.149778 F F F Li
0.322834 0.565996 0.101491 F F F Li
0.702414 0.950543 0.136889 F F F Li
0.202414 0.450543 0.092486 F F F Li
0.582845 0.835452 0.125888 F F F Li
0.082845 0.335452 0.172656 F F F Li
0.512460 0.758434 0.166257 F F F Li
0.012460 0.258434 0.119490 F F F Li
0.942549 0.681714 0.157318 F F F Li
0.442549 0.181714 0.115717 F F F Li
0.821455 0.566270 0.150390 F F F Li
0.321455 0.066270 0.100629 F F F Li
0.702271 0.449547 0.134379 F F F Li
0.202271 0.949547 0.094970 F F F Li
0.582496 0.332984 0.128537 F F F Li
0.082496 0.832984 0.169944 F F F Li
0.510463 0.256366 0.168975 F F F Li
0.010463 0.756366 0.116409 F F F Li
0.944698 0.181780 0.250840 F F F Li
0.444698 0.681780 0.204405 F F F Li
0.822834 0.065996 0.240687 F F F Li
0.322834 0.565996 0.192400 F F F Li
0.702414 0.950543 0.227798 F F F Li
0.202414 0.450543 0.183395 F F F Li
0.582845 0.835452 0.216797 F F F Li
0.082845 0.335452 0.263565 F F F Li
0.512460 0.758434 0.257166 F F F Li
0.012460 0.258434 0.210399 F F F Li
0.942549 0.681714 0.248227 F F F Li
0.442549 0.181714 0.206626 F F F Li
0.821455 0.566270 0.241299 F F F Li
0.321455 0.066270 0.191538 F F F Li
0.702271 0.449547 0.225288 F F F Li
0.202271 0.949547 0.185879 F F F Li
0.582496 0.332984 0.219446 F F F Li
0.082496 0.832984 0.260853 F F F Li
0.510463 0.256366 0.259884 F F F Li
0.010463 0.756366 0.207318 F F F Li
0.944698 0.181780 0.341749 F F F Li
0.444698 0.681780 0.295314 F F F Li
0.822834 0.065996 0.331597 F F F Li
0.322834 0.565996 0.283309 F F F Li
0.702414 0.950543 0.318707 F F F Li
0.202414 0.450543 0.274304 F F F Li
0.582845 0.835452 0.307706 F F F Li
0.082845 0.335452 0.354474 F F F Li
0.512460 0.758434 0.348075 F F F Li
0.012460 0.258434 0.301308 F F F Li
0.942549 0.681714 0.339137 F F F Li
0.442549 0.181714 0.297535 F F F Li
0.821455 0.566270 0.332208 F F F Li
0.321455 0.066270 0.282447 F F F Li
0.702271 0.449547 0.316197 F F F Li
0.202271 0.949547 0.276788 F F F Li
0.582496 0.332984 0.310355 F F F Li
0.082496 0.832984 0.351762 F F F Li
0.510463 0.256366 0.350793 F F F Li
0.010463 0.756366 0.298227 F F F Li
0.944698 0.181780 0.432658 F F F Li
0.444698 0.681780 0.386223 F F F Li
0.822834 0.065996 0.422506 F F F Li
0.322834 0.565996 0.374218 F F F Li
0.702414 0.950543 0.409616 F F F Li
0.202414 0.450543 0.365213 F F F Li
0.582845 0.835452 0.398615 F F F Li
0.082845 0.335452 0.445383 F F F Li
0.512460 0.758434 0.438984 F F F Li
0.012460 0.258434 0.392217 F F F Li
0.942549 0.681714 0.430046 F F F Li
0.442549 0.181714 0.388445 F F F Li
0.821455 0.566270 0.423117 F F F Li
0.321455 0.066270 0.373356 F F F Li
0.702271 0.449547 0.407106 F F F Li
0.202271 0.949547 0.367697 F F F Li
0.582496 0.332984 0.401264 F F F Li
0.082496 0.832984 0.442671 F F F Li
0.510463 0.256366 0.441702 F F F Li
0.010463 0.756366 0.389136 F F F Li
0.944698 0.181780 0.523567 F F F Li
0.444698 0.681780 0.477132 F F F Li
0.822834 0.065996 0.513415 F F F Li
0.322834 0.565996 0.465127 F F F Li
0.702414 0.950543 0.500525 F F F Li
0.202414 0.450543 0.456122 F F F Li
0.582845 0.835452 0.489524 F F F Li
0.082845 0.335452 0.536292 F F F Li
0.512460 0.758434 0.529893 F F F Li
0.012460 0.258434 0.483126 F F F Li
0.942549 0.681714 0.520955 F F F Li
0.442549 0.181714 0.479354 F F F Li
0.821455 0.566270 0.514026 F F F Li
0.321455 0.066270 0.464265 F F F Li
0.702271 0.449547 0.498015 F F F Li
0.202271 0.949547 0.458606 F F F Li
0.582496 0.332984 0.492173 F F F Li
0.082496 0.832984 0.533580 F F F Li
0.510463 0.256366 0.532611 F F F Li
0.010463 0.756366 0.480045 F F F Li
0.944698 0.181780 0.614476 T T T Li
0.444698 0.681780 0.568041 F F F Li
0.822834 0.065996 0.604324 F F F Li
0.322834 0.565996 0.556036 F F F Li
0.702414 0.950543 0.591434 T T T Li
0.202414 0.450543 0.547031 F F F Li
0.582845 0.835452 0.580433 F F F Li
0.082845 0.335452 0.627201 T T T Li
0.512460 0.758434 0.620802 T T T Li
0.012460 0.258434 0.574035 F F F Li
0.942549 0.681714 0.611864 T T T Li
0.442549 0.181714 0.570263 F F F Li
0.821455 0.566270 0.604935 T T T Li
0.321455 0.066270 0.555174 F F F Li
0.702271 0.449547 0.588924 F F F Li
0.202271 0.949547 0.549515 F F F Li
0.582496 0.332984 0.583082 F F F Li
0.082496 0.832984 0.624489 T T T Li
0.510463 0.256366 0.623520 T T T Li
0.010463 0.756366 0.570954 F F F Li
0.001192 0.999587 0.011360 T T T P
0.501192 0.499587 0.090520 F F F P
0.887667 0.906720 0.032136 F F F P
0.387667 0.406720 0.049103 T T T P
0.795924 0.802939 0.083330 F F F P
0.295924 0.302939 0.072138 F F F P
0.716706 0.691689 0.017898 T T T P
0.216706 0.191689 0.032257 T T T P
0.616650 0.591751 0.069642 F F F P
0.116650 0.091751 0.053231 F F F P
0.909487 0.425433 0.034064 F F F P
0.409487 0.925433 0.051142 F F F P
0.808986 0.325562 0.085801 F F F P
0.308986 0.825562 0.072041 F F F P
0.730132 0.213545 0.020636 T T T P
0.230132 0.713545 0.031960 T T T P
0.637722 0.110144 0.072270 F F F P
0.137722 0.610144 0.054434 F F F P
0.524425 0.017155 0.002155 T T T P
0.024425 0.517155 0.013040 T T T P
0.001192 0.999587 0.102269 F F F P
0.501192 0.499587 0.181429 F F F P
0.887667 0.906720 0.123045 F F F P
0.387667 0.406720 0.140012 F F F P
0.795924 0.802939 0.174239 F F F P
0.295924 0.302939 0.163047 F F F P
0.716706 0.691689 0.108807 F F F P
0.216706 0.191689 0.123166 F F F P
0.616650 0.591751 0.160551 F F F P
0.116650 0.091751 0.144140 F F F P
0.909487 0.425433 0.124973 F F F P
0.409487 0.925433 0.142051 F F F P
0.808986 0.325562 0.176710 F F F P
0.308986 0.825562 0.162950 F F F P
0.730132 0.213545 0.111546 F F F P
0.230132 0.713545 0.122869 F F F P
0.637722 0.110144 0.163179 F F F P
0.137722 0.610144 0.145343 F F F P
0.524425 0.017155 0.093064 F F F P
0.024425 0.517155 0.103949 F F F P
0.001192 0.999587 0.193178 F F F P
0.501192 0.499587 0.272338 F F F P
0.887667 0.906720 0.213954 F F F P
0.387667 0.406720 0.230921 F F F P
0.795924 0.802939 0.265148 F F F P
0.295924 0.302939 0.253956 F F F P
0.716706 0.691689 0.199716 F F F P
0.216706 0.191689 0.214075 F F F P
0.616650 0.591751 0.251460 F F F P
0.116650 0.091751 0.235049 F F F P
0.909487 0.425433 0.215882 F F F P
0.409487 0.925433 0.232960 F F F P
0.808986 0.325562 0.267619 F F F P
0.308986 0.825562 0.253860 F F F P
0.730132 0.213545 0.202455 F F F P
0.230132 0.713545 0.213778 F F F P
0.637722 0.110144 0.254088 F F F P
0.137722 0.610144 0.236252 F F F P
0.524425 0.017155 0.183973 F F F P
0.024425 0.517155 0.194858 F F F P
0.001192 0.999587 0.284087 F F F P
0.501192 0.499587 0.363247 F F F P
0.887667 0.906720 0.304863 F F F P
0.387667 0.406720 0.321830 F F F P
0.795924 0.802939 0.356057 F F F P
0.295924 0.302939 0.344865 F F F P
0.716706 0.691689 0.290625 F F F P
0.216706 0.191689 0.304985 F F F P
0.616650 0.591751 0.342369 F F F P
0.116650 0.091751 0.325958 F F F P
0.909487 0.425433 0.306791 F F F P
0.409487 0.925433 0.323869 F F F P
0.808986 0.325562 0.358528 F F F P
0.308986 0.825562 0.344769 F F F P
0.730132 0.213545 0.293364 F F F P
0.230132 0.713545 0.304687 F F F P
0.637722 0.110144 0.344997 F F F P
0.137722 0.610144 0.327161 F F F P
0.524425 0.017155 0.274882 F F F P
0.024425 0.517155 0.285767 F F F P
0.001192 0.999587 0.374997 F F F P
0.501192 0.499587 0.454156 F F F P
0.887667 0.906720 0.395772 F F F P
0.387667 0.406720 0.412739 F F F P
0.795924 0.802939 0.446966 F F F P
0.295924 0.302939 0.435774 F F F P
0.716706 0.691689 0.381534 F F F P
0.216706 0.191689 0.395894 F F F P
0.616650 0.591751 0.433278 F F F P
0.116650 0.091751 0.416867 F F F P
0.909487 0.425433 0.397700 F F F P
0.409487 0.925433 0.414779 F F F P
0.808986 0.325562 0.449437 F F F P
0.308986 0.825562 0.435678 F F F P
0.730132 0.213545 0.384273 F F F P
0.230132 0.713545 0.395596 F F F P
0.637722 0.110144 0.435906 F F F P
0.137722 0.610144 0.418070 F F F P
0.524425 0.017155 0.365791 F F F P
0.024425 0.517155 0.376676 F F F P
0.001192 0.999587 0.465906 F F F P
0.501192 0.499587 0.545065 F F F P
0.887667 0.906720 0.486682 F F F P
0.387667 0.406720 0.503648 F F F P
0.795924 0.802939 0.537875 F F F P
0.295924 0.302939 0.526683 F F F P
0.716706 0.691689 0.472443 F F F P
0.216706 0.191689 0.486803 F F F P
0.616650 0.591751 0.524187 F F F P
0.116650 0.091751 0.507776 F F F P
0.909487 0.425433 0.488609 F F F P
0.409487 0.925433 0.505688 F F F P
0.808986 0.325562 0.540346 F F F P
0.308986 0.825562 0.526587 F F F P
0.730132 0.213545 0.475182 F F F P
0.230132 0.713545 0.486505 F F F P
0.637722 0.110144 0.526815 F F F P
0.137722 0.610144 0.508979 F F F P
0.524425 0.017155 0.456700 F F F P
0.024425 0.517155 0.467585 F F F P
0.001192 0.999587 0.556815 F F F P
0.501192 0.499587 0.635974 T T T P
0.887667 0.906720 0.577591 T T T P
0.387667 0.406720 0.594557 F F F P
0.795924 0.802939 0.628784 T T T P
0.295924 0.302939 0.617592 T T T P
0.716706 0.691689 0.563352 F F F P
0.216706 0.191689 0.577712 F F F P
0.616650 0.591751 0.615096 T T T P
0.116650 0.091751 0.598685 F F F P
0.909487 0.425433 0.579519 F F F P
0.409487 0.925433 0.596597 F F F P
0.808986 0.325562 0.631256 T T T P
0.308986 0.825562 0.617496 T T T P
0.730132 0.213545 0.566091 F F F P
0.230132 0.713545 0.577414 F F F P
0.637722 0.110144 0.617724 T T T P
0.137722 0.610144 0.599888 T T T P
0.524425 0.017155 0.547610 F F F P
0.024425 0.517155 0.558494 F F F P
0.905428 0.964587 0.013234 T T T O
0.405428 0.464587 0.071234 F F F O
0.800449 0.859372 0.014410 F F F O
0.300449 0.359372 0.050971 F F F O
0.757206 0.724144 0.089667 F F F O
0.257206 0.224144 0.058761 F F F O
0.685355 0.607741 0.006166 T T T O
0.185355 0.107741 0.038289 F F F O
0.058300 0.021852 0.038675 F F F O
0.558300 0.521852 0.073588 F F F O
0.840686 0.409378 0.006641 F F F O
0.340686 0.909378 0.066056 F F F O
0.772630 0.290596 0.014540 T T T O
0.272630 0.790596 0.045783 F F F O
0.726756 0.156445 0.089694 F F F O
0.226756 0.656445 0.053197 F F F O
0.618048 0.056520 0.000764 T T T O
0.118048 0.556520 0.031453 F F F O
0.967956 0.495673 0.030219 F F F O
0.467956 0.995673 0.065618 F F F O
0.955284 0.073889 0.085603 F F F O
0.455284 0.573889 0.007930 F F F O
0.071165 0.933926 0.006036 T T T O
0.571165 0.433926 0.017657 F F F O
0.836724 0.958651 0.045663 F F F O
0.336724 0.458651 0.026313 F F F O
0.982201 0.846743 0.045095 F F F O
0.482201 0.346743 0.053332 T T T O
0.714989 0.845353 0.061106 F F F O
0.214989 0.345353 0.079646 F F F O
0.902007 0.775410 0.084488 F F F O
0.402007 0.275410 0.090267 F F F O
0.622035 0.747295 0.016331 T T T O
0.122035 0.247295 0.016612 F F F O
0.803128 0.669352 0.041453 T T T O
0.303128 0.169352 0.024415 T T T O
0.542257 0.667159 0.057844 F F F O
0.042257 0.167159 0.051502 F F F O
0.685603 0.553292 0.058088 F F F O
0.185603 0.053292 0.077321 F F F O
0.839056 0.463335 0.045301 F F F O
0.339056 0.963335 0.027099 F F F O
0.984307 0.350606 0.046133 F F F O
0.484307 0.850606 0.052677 F F F O
0.720379 0.348215 0.062612 F F F O
0.220379 0.848215 0.079120 F F F O
0.903854 0.271458 0.086814 F F F O
0.403854 0.771458 0.088277 F F F O
0.623095 0.241625 0.018773 T T T O
0.123095 0.741625 0.014361 F F F O
0.808921 0.171199 0.043193 T T T O
0.308921 0.671199 0.023729 T T T O
0.543593 0.170027 0.058861 F F F O
0.043593 0.670027 0.050728 F F F O
0.687356 0.055640 0.059019 F F F O
0.187356 0.555640 0.076709 F F F O
0.452378 0.080441 0.007641 T T T O
0.952378 0.580441 0.085363 F F F O
0.572944 0.942366 0.018471 T T T O
0.072944 0.442366 0.005546 T T T O
0.905428 0.964587 0.104143 F F F O
0.405428 0.464587 0.162143 F F F O
0.800449 0.859372 0.105319 F F F O
0.300449 0.359372 0.141880 F F F O
0.757206 0.724144 0.180576 F F F O
0.257206 0.224144 0.149670 F F F O
0.685355 0.607741 0.097075 F F F O
0.185355 0.107741 0.129198 F F F O
0.058300 0.021852 0.129584 F F F O
0.558300 0.521852 0.164497 F F F O
0.840686 0.409378 0.097550 F F F O
0.340686 0.909378 0.156965 F F F O
0.772630 0.290596 0.105449 F F F O
0.272630 0.790596 0.136693 F F F O
0.726756 0.156445 0.180603 F F F O
0.226756 0.656445 0.144106 F F F O
0.618048 0.056520 0.091673 F F F O
0.118048 0.556520 0.122362 F F F O
0.967956 0.495673 0.121128 F F F O
0.467956 0.995673 0.156527 F F F O
0.955284 0.073889 0.176512 F F F O
0.455284 0.573889 0.098839 F F F O
0.071165 0.933926 0.096945 F F F O
0.571165 0.433926 0.108566 F F F O
0.836724 0.958651 0.136572 F F F O
0.336724 0.458651 0.117222 F F F O
0.982201 0.846743 0.136004 F F F O
0.482201 0.346743 0.144241 F F F O
0.714989 0.845353 0.152015 F F F O
0.214989 0.345353 0.170555 F F F O
0.902007 0.775410 0.175398 F F F O
0.402007 0.275410 0.181176 F F F O
0.622035 0.747295 0.107240 F F F O
0.122035 0.247295 0.107521 F F F O
0.803128 0.669352 0.132362 F F F O
0.303128 0.169352 0.115324 F F F O
0.542257 0.667159 0.148753 F F F O
0.042257 0.167159 0.142411 F F F O
0.685603 0.553292 0.148998 F F F O
0.185603 0.053292 0.168230 F F F O
0.839056 0.463335 0.136210 F F F O
0.339056 0.963335 0.118008 F F F O
0.984307 0.350606 0.137042 F F F O
0.484307 0.850606 0.143586 F F F O
0.720379 0.348215 0.153521 F F F O
0.220379 0.848215 0.170029 F F F O
0.903854 0.271458 0.177723 F F F O
0.403854 0.771458 0.179186 F F F O
0.623095 0.241625 0.109683 F F F O
0.123095 0.741625 0.105271 F F F O
0.808921 0.171199 0.134102 F F F O
0.308921 0.671199 0.114638 F F F O
0.543593 0.170027 0.149770 F F F O
0.043593 0.670027 0.141637 F F F O
0.687356 0.055640 0.149928 F F F O
0.187356 0.555640 0.167618 F F F O
0.452378 0.080441 0.098550 F F F O
0.952378 0.580441 0.176272 F F F O
0.572944 0.942366 0.109380 F F F O
0.072944 0.442366 0.096455 F F F O
0.905428 0.964587 0.195052 F F F O
0.405428 0.464587 0.253052 F F F O
0.800449 0.859372 0.196228 F F F O
0.300449 0.359372 0.232789 F F F O
0.757206 0.724144 0.271485 F F F O
0.257206 0.224144 0.240579 F F F O
0.685355 0.607741 0.187984 F F F O
0.185355 0.107741 0.220108 F F F O
0.058300 0.021852 0.220493 F F F O
0.558300 0.521852 0.255406 F F F O
0.840686 0.409378 0.188459 F F F O
0.340686 0.909378 0.247874 F F F O
0.772630 0.290596 0.196358 F F F O
0.272630 0.790596 0.227602 F F F O
0.726756 0.156445 0.271513 F F F O
0.226756 0.656445 0.235015 F F F O
0.618048 0.056520 0.182583 F F F O
0.118048 0.556520 0.213271 F F F O
0.967956 0.495673 0.212037 F F F O
0.467956 0.995673 0.247436 F F F O
0.955284 0.073889 0.267421 F F F O
0.455284 0.573889 0.189748 F F F O
0.071165 0.933926 0.187854 F F F O
0.571165 0.433926 0.199475 F F F O
0.836724 0.958651 0.227481 F F F O
0.336724 0.458651 0.208132 F F F O
0.982201 0.846743 0.226913 F F F O
0.482201 0.346743 0.235150 F F F O
0.714989 0.845353 0.242924 F F F O
0.214989 0.345353 0.261465 F F F O
0.902007 0.775410 0.266307 F F F O
0.402007 0.275410 0.272085 F F F O
0.622035 0.747295 0.198149 F F F O
0.122035 0.247295 0.198430 F F F O
0.803128 0.669352 0.223271 F F F O
0.303128 0.169352 0.206233 F F F O
0.542257 0.667159 0.239662 F F F O
0.042257 0.167159 0.233320 F F F O
0.685603 0.553292 0.239907 F F F O
0.185603 0.053292 0.259139 F F F O
0.839056 0.463335 0.227119 F F F O
0.339056 0.963335 0.208918 F F F O
0.984307 0.350606 0.227951 F F F O
0.484307 0.850606 0.234495 F F F O
0.720379 0.348215 0.244430 F F F O
0.220379 0.848215 0.260938 F F F O
0.903854 0.271458 0.268632 F F F O
0.403854 0.771458 0.270095 F F F O
0.623095 0.241625 0.200592 F F F O
0.123095 0.741625 0.196180 F F F O
0.808921 0.171199 0.225011 F F F O
0.308921 0.671199 0.205547 F F F O
0.543593 0.170027 0.240679 F F F O
0.043593 0.670027 0.232547 F F F O
0.687356 0.055640 0.240837 F F F O
0.187356 0.555640 0.258527 F F F O
0.452378 0.080441 0.189460 F F F O
0.952378 0.580441 0.267181 F F F O
0.572944 0.942366 0.200289 F F F O
0.072944 0.442366 0.187364 F F F O
0.905428 0.964587 0.285961 F F F O
0.405428 0.464587 0.343961 F F F O
0.800449 0.859372 0.287137 F F F O
0.300449 0.359372 0.323698 F F F O
0.757206 0.724144 0.362394 F F F O
0.257206 0.224144 0.331488 F F F O
0.685355 0.607741 0.278893 F F F O
0.185355 0.107741 0.311017 F F F O
0.058300 0.021852 0.311402 F F F O
0.558300 0.521852 0.346315 F F F O
0.840686 0.409378 0.279368 F F F O
0.340686 0.909378 0.338783 F F F O
0.772630 0.290596 0.287267 F F F O
0.272630 0.790596 0.318511 F F F O
0.726756 0.156445 0.362422 F F F O
0.226756 0.656445 0.325924 F F F O
0.618048 0.056520 0.273492 F F F O
0.118048 0.556520 0.304180 F F F O
0.967956 0.495673 0.302947 F F F O
0.467956 0.995673 0.338345 F F F O
0.955284 0.073889 0.358331 F F F O
0.455284 0.573889 0.280657 F F F O
0.071165 0.933926 0.278763 F F F O
0.571165 0.433926 0.290385 F F F O
0.836724 0.958651 0.318390 F F F O
0.336724 0.458651 0.299041 F F F O
0.982201 0.846743 0.317822 F F F O
0.482201 0.346743 0.326059 F F F O
0.714989 0.845353 0.333833 F F F O
0.214989 0.345353 0.352374 F F F O
0.902007 0.775410 0.357216 F F F O
0.402007 0.275410 0.362994 F F F O
0.622035 0.747295 0.289058 F F F O
0.122035 0.247295 0.289339 F F F O
0.803128 0.669352 0.314180 F F F O
0.303128 0.169352 0.297142 F F F O
0.542257 0.667159 0.330571 F F F O
0.042257 0.167159 0.324230 F F F O
0.685603 0.553292 0.330816 F F F O
0.185603 0.053292 0.350048 F F F O
0.839056 0.463335 0.318028 F F F O
0.339056 0.963335 0.299827 F F F O
0.984307 0.350606 0.318860 F F F O
0.484307 0.850606 0.325405 F F F O
0.720379 0.348215 0.335339 F F F O
0.220379 0.848215 0.351847 F F F O
0.903854 0.271458 0.359542 F F F O
0.403854 0.771458 0.361004 F F F O
0.623095 0.241625 0.291501 F F F O
0.123095 0.741625 0.287089 F F F O
0.808921 0.171199 0.315920 F F F O
0.308921 0.671199 0.296456 F F F O
0.543593 0.170027 0.331588 F F F O
0.043593 0.670027 0.323456 F F F O
0.687356 0.055640 0.331746 F F F O
0.187356 0.555640 0.349436 F F F O
0.452378 0.080441 0.280369 F F F O
0.952378 0.580441 0.358090 F F F O
0.572944 0.942366 0.291198 F F F O
0.072944 0.442366 0.278273 F F F O
0.905428 0.964587 0.376870 F F F O
0.405428 0.464587 0.434870 F F F O
0.800449 0.859372 0.378046 F F F O
0.300449 0.359372 0.414608 F F F O
0.757206 0.724144 0.453303 F F F O
0.257206 0.224144 0.422397 F F F O
0.685355 0.607741 0.369802 F F F O
0.185355 0.107741 0.401926 F F F O
0.058300 0.021852 0.402311 F F F O
0.558300 0.521852 0.437224 F F F O
0.840686 0.409378 0.370277 F F F O
0.340686 0.909378 0.429692 F F F O
0.772630 0.290596 0.378176 F F F O
0.272630 0.790596 0.409420 F F F O
0.726756 0.156445 0.453331 F F F O
0.226756 0.656445 0.416833 F F F O
0.618048 0.056520 0.364401 F F F O
0.118048 0.556520 0.395089 F F F O
0.967956 0.495673 0.393856 F F F O
0.467956 0.995673 0.429254 F F F O
0.955284 0.073889 0.449240 F F F O
0.455284 0.573889 0.371566 F F F O
0.071165 0.933926 0.369672 F F F O
0.571165 0.433926 0.381294 F F F O
0.836724 0.958651 0.409300 F F F O
0.336724 0.458651 0.389950 F F F O
0.982201 0.846743 0.408731 F F F O
0.482201 0.346743 0.416968 F F F O
0.714989 0.845353 0.424742 F F F O
0.214989 0.345353 0.443283 F F F O
0.902007 0.775410 0.448125 F F F O
0.402007 0.275410 0.453903 F F F O
0.622035 0.747295 0.379967 F F F O
0.122035 0.247295 0.380248 F F F O
0.803128 0.669352 0.405090 F F F O
0.303128 0.169352 0.388051 F F F O
0.542257 0.667159 0.421480 F F F O
0.042257 0.167159 0.415139 F F F O
0.685603 0.553292 0.421725 F F F O
0.185603 0.053292 0.440957 F F F O
0.839056 0.463335 0.408938 F F F O
0.339056 0.963335 0.390736 F F F O
0.984307 0.350606 0.409769 F F F O
0.484307 0.850606 0.416314 F F F O
0.720379 0.348215 0.426248 F F F O
0.220379 0.848215 0.442756 F F F O
0.903854 0.271458 0.450451 F F F O
0.403854 0.771458 0.451913 F F F O
0.623095 0.241625 0.382410 F F F O
0.123095 0.741625 0.377998 F F F O
0.808921 0.171199 0.406829 F F F O
0.308921 0.671199 0.387365 F F F O
0.543593 0.170027 0.422497 F F F O
0.043593 0.670027 0.414365 F F F O
0.687356 0.055640 0.422655 F F F O
0.187356 0.555640 0.440345 F F F O
0.452378 0.080441 0.371278 F F F O
0.952378 0.580441 0.449000 F F F O
0.572944 0.942366 0.382107 F F F O
0.072944 0.442366 0.369182 F F F O
0.905428 0.964587 0.467780 F F F O
0.405428 0.464587 0.525780 F F F O
0.800449 0.859372 0.468955 F F F O
0.300449 0.359372 0.505517 F F F O
0.757206 0.724144 0.544212 F F F O
0.257206 0.224144 0.513306 F F F O
0.685355 0.607741 0.460711 F F F O
0.185355 0.107741 0.492835 F F F O
0.058300 0.021852 0.493220 F F F O
0.558300 0.521852 0.528134 F F F O
0.840686 0.409378 0.461187 F F F O
0.340686 0.909378 0.520601 F F F O
0.772630 0.290596 0.469085 F F F O
0.272630 0.790596 0.500329 F F F O
0.726756 0.156445 0.544240 F F F O
0.226756 0.656445 0.507743 F F F O
0.618048 0.056520 0.455310 F F F O
0.118048 0.556520 0.485998 F F F O
0.967956 0.495673 0.484765 F F F O
0.467956 0.995673 0.520163 F F F O
0.955284 0.073889 0.540149 F F F O
0.455284 0.573889 0.462475 F F F O
0.071165 0.933926 0.460581 F F F O
0.571165 0.433926 0.472203 F F F O
0.836724 0.958651 0.500209 F F F O
0.336724 0.458651 0.480859 F F F O
0.982201 0.846743 0.499640 F F F O
0.482201 0.346743 0.507878 F F F O
0.714989 0.845353 0.515651 F F F O
0.214989 0.345353 0.534192 F F F O
0.902007 0.775410 0.539034 F F F O
0.402007 0.275410 0.544812 F F F O
0.622035 0.747295 0.470876 F F F O
0.122035 0.247295 0.471157 F F F O
0.803128 0.669352 0.495999 F F F O
0.303128 0.169352 0.478960 F F F O
0.542257 0.667159 0.512389 F F F O
0.042257 0.167159 0.506048 F F F O
0.685603 0.553292 0.512634 F F F O
0.185603 0.053292 0.531866 F F F O
0.839056 0.463335 0.499847 F F F O
0.339056 0.963335 0.481645 F F F O
0.984307 0.350606 0.500678 F F F O
0.484307 0.850606 0.507223 F F F O
0.720379 0.348215 0.517158 F F F O
0.220379 0.848215 0.533665 F F F O
0.903854 0.271458 0.541360 F F F O
0.403854 0.771458 0.542822 F F F O
0.623095 0.241625 0.473319 F F F O
0.123095 0.741625 0.468907 F F F O
0.808921 0.171199 0.497738 F F F O
0.308921 0.671199 0.478274 F F F O
0.543593 0.170027 0.513406 F F F O
0.043593 0.670027 0.505274 F F F O
0.687356 0.055640 0.513564 F F F O
0.187356 0.555640 0.531254 F F F O
0.452378 0.080441 0.462187 F F F O
0.952378 0.580441 0.539909 F F F O
0.572944 0.942366 0.473016 F F F O
0.072944 0.442366 0.460091 F F F O
0.905428 0.964587 0.558689 F F F O
0.405428 0.464587 0.616689 T T T O
0.800449 0.859372 0.559864 F F F O
0.300449 0.359372 0.596426 F F F O
0.757206 0.724144 0.635121 T T T O
0.257206 0.224144 0.604216 F F F O
0.685355 0.607741 0.551620 F F F O
0.185355 0.107741 0.583744 F F F O
0.058300 0.021852 0.584130 F F F O
0.558300 0.521852 0.619043 T T T O
0.840686 0.409378 0.552096 F F F O
0.340686 0.909378 0.611510 F F F O
0.772630 0.290596 0.559994 F F F O
0.272630 0.790596 0.591238 F F F O
0.726756 0.156445 0.635149 T T T O
0.226756 0.656445 0.598652 F F F O
0.618048 0.056520 0.546219 F F F O
0.118048 0.556520 0.576907 F F F O
0.967956 0.495673 0.575674 F F F O
0.467956 0.995673 0.611072 F F F O
0.955284 0.073889 0.631058 F F F O
0.455284 0.573889 0.553384 F F F O
0.071165 0.933926 0.551490 F F F O
0.571165 0.433926 0.563112 F F F O
0.836724 0.958651 0.591118 F F F O
0.336724 0.458651 0.571768 F F F O
0.982201 0.846743 0.590549 T T T O
0.482201 0.346743 0.598787 F F F O
0.714989 0.845353 0.606560 T T T O
0.214989 0.345353 0.625101 T T T O
0.902007 0.775410 0.629943 T T T O
0.402007 0.275410 0.635721 T T T O
0.622035 0.747295 0.561785 F F F O
0.122035 0.247295 0.562066 F F F O
0.803128 0.669352 0.586908 F F F O
0.303128 0.169352 0.569870 F F F O
0.542257 0.667159 0.603298 T T T O
0.042257 0.167159 0.596957 F F F O
0.685603 0.553292 0.603543 T T T O
0.185603 0.053292 0.622775 F F F O
0.839056 0.463335 0.590756 F F F O
0.339056 0.963335 0.572554 F F F O
0.984307 0.350606 0.591587 F F F O
0.484307 0.850606 0.598132 F F F O
0.720379 0.348215 0.608067 T T T O
0.220379 0.848215 0.624574 T T T O
0.903854 0.271458 0.632269 T T T O
0.403854 0.771458 0.633731 T T T O
0.623095 0.241625 0.564228 F F F O
0.123095 0.741625 0.559816 F F F O
0.808921 0.171199 0.588647 F F F O
0.308921 0.671199 0.569183 F F F O
0.543593 0.170027 0.604315 T T T O
0.043593 0.670027 0.596183 T T T O
0.687356 0.055640 0.604473 T T T O
0.187356 0.555640 0.622163 F F F O
0.452378 0.080441 0.553096 F F F O
0.952378 0.580441 0.630818 F F F O
0.572944 0.942366 0.563925 F F F O
0.072944 0.442366 0.551000 F F F O
