P4 O10                                  
   1.00000000000000     
     0.0000000000000000    3.9862500000000001    8.0963989999999999
     2.7090459999999998    0.0000000000000000    8.0963989999999999
     2.7090459999999998    3.9862500000000001    0.0000000000000000
   P    O 
     4    10
Direct
  0.6014539999999968  0.5506859999999989  0.2448339999999973
  0.6030259999999998  0.2448339999999973  0.5506859999999989
  0.0051660000000027  0.6469740000000002  0.6485460000000032
  0.6993140000000011  0.6485460000000032  0.6469740000000002
  0.2731240000000028  0.8436220000000034  0.3936729999999997
  0.4895810000000012  0.3936729999999997  0.8436220000000034
  0.8563270000000003  0.7604189999999988  0.9768759999999972
  0.4063779999999966  0.9768759999999972  0.7604189999999988
  0.9907630000000012  0.5092369999999988  0.5092369999999988
  0.7407630000000012  0.2592369999999988  0.2592369999999988
  0.7877610000000033  0.4812610000000035  0.3706869999999967
  0.3602899999999991  0.3706869999999967  0.4812610000000035
  0.8793130000000033  0.8897100000000009  0.4622389999999967
  0.7687389999999965  0.4622389999999967  0.8897100000000009
 
  0.00000000E+00  0.00000000E+00  0.00000000E+00
  0.00000000E+00  0.00000000E+00  0.00000000E+00
  0.00000000E+00  0.00000000E+00  0.00000000E+00
  0.00000000E+00  0.00000000E+00  0.00000000E+00
  0.00000000E+00  0.00000000E+00  0.00000000E+00
  0.00000000E+00  0.00000000E+00  0.00000000E+00
  0.00000000E+00  0.00000000E+00  0.00000000E+00
  0.00000000E+00  0.00000000E+00  0.00000000E+00
  0.00000000E+00  0.00000000E+00  0.00000000E+00
  0.00000000E+00  0.00000000E+00  0.00000000E+00
  0.00000000E+00  0.00000000E+00  0.00000000E+00
  0.00000000E+00  0.00000000E+00  0.00000000E+00
  0.00000000E+00  0.00000000E+00  0.00000000E+00
  0.00000000E+00  0.00000000E+00  0.00000000E+00
