(1, 1, 0)                               
   1.00000000000000     
     2.9802897025762376   -0.0039620859932700   -0.0000180394030788
    -0.9971653605975197    2.8085315340683286    0.0001093705887548
    -0.0002304979735480    0.0014378276452042   38.2204008141247940
   Li
     7
Selective dynamics
Direct
  0.2500021353752098  0.7500032220584918  0.0318675836560935   T   T   T
  0.7500004009183292  0.2499993990144838  0.0930438233479110   T   T   T
  0.2500000000000000  0.7500000000000000  0.1562500000000000   F   F   F
  0.7500000000000000  0.2500000000000000  0.2187500000000000   F   F   F
  0.2500000000000000  0.7500000000000000  0.2812500000000000   F   F   F
  0.7500002765950268  0.2500017423425325  0.3444553741861759   T   T   T
  0.2499951356078413  0.7499913207640654  0.4056355893182645   T   T   T
 
  0.00000000E+00  0.00000000E+00  0.00000000E+00
  0.00000000E+00  0.00000000E+00  0.00000000E+00
  0.00000000E+00  0.00000000E+00  0.00000000E+00
  0.00000000E+00  0.00000000E+00  0.00000000E+00
  0.00000000E+00  0.00000000E+00  0.00000000E+00
  0.00000000E+00  0.00000000E+00  0.00000000E+00
  0.00000000E+00  0.00000000E+00  0.00000000E+00
