(1, 1, 0)
1.0
2.967711 0.000000 0.000000
-0.989237 2.797985 0.000000
0.000000 0.000000 38.770020
Li
7
Selective dynamics
direct
0.250000 0.750000 0.031250 T T T Li
0.750000 0.250000 0.093750 T T T Li
0.250000 0.750000 0.156250 F F F Li
0.750000 0.250000 0.218750 F F F Li
0.250000 0.750000 0.281250 F F F Li
0.750000 0.250000 0.343750 T T T Li
0.250000 0.750000 0.406250 T T T Li
