Li6 P2 O8
1.0
4.929752 -0.000000 0.000000
-0.499175 5.280720 0.000000
0.000000 0.000000 6.185300
Li P O
6 2 8
direct
0.509417 0.844520 0.000000 Li
0.009417 0.155480 0.500000 Li
0.508363 0.326434 0.252873 Li
0.008363 0.673566 0.247127 Li
0.008363 0.673566 0.752873 Li
0.508363 0.326434 0.747127 Li
0.501420 0.824261 0.500000 P
0.001420 0.175739 0.000000 P
0.107010 0.313509 0.792862 O
0.602126 0.103508 0.500000 O
0.185191 0.818396 0.500000 O
0.685191 0.181604 0.000000 O
0.607010 0.686491 0.292862 O
0.107010 0.313509 0.207138 O
0.102126 0.896492 0.000000 O
0.607010 0.686491 0.707138 O
