Li56 P28 O98
1.0
4.907295 0.000000 -1.895193
-0.730671 8.419349 -9.115751
0.000000 0.000000 86.585765
Li P O
56 28 98
direct
0.744463 0.987971 0.028583 Li+
0.255537 0.012029 0.054751 Li+
0.395677 0.751653 0.055244 Li+
0.604323 0.248347 0.028090 Li+
0.027769 0.791276 0.080295 Li+
0.972231 0.208724 0.003039 Li+
0.056952 0.450796 0.059076 Li+
0.943048 0.549204 0.024258 Li+
0.744463 0.987971 0.111916 Li+
0.255537 0.012029 0.138084 Li+
0.395677 0.751653 0.138577 Li+
0.604323 0.248347 0.111423 Li+
0.027769 0.791276 0.163628 Li+
0.972231 0.208724 0.086372 Li+
0.056952 0.450796 0.142409 Li+
0.943048 0.549204 0.107591 Li+
0.744463 0.987971 0.195249 Li+
0.255537 0.012029 0.221417 Li+
0.395677 0.751653 0.221910 Li+
0.604323 0.248347 0.194756 Li+
0.027769 0.791276 0.246962 Li+
0.972231 0.208724 0.169705 Li+
0.056952 0.450796 0.225742 Li+
0.943048 0.549204 0.190924 Li+
0.744463 0.987971 0.278583 Li+
0.255537 0.012029 0.304750 Li+
0.395677 0.751653 0.305244 Li+
0.604323 0.248347 0.278089 Li+
0.027769 0.791276 0.330295 Li+
0.972231 0.208724 0.253038 Li+
0.056952 0.450796 0.309076 Li+
0.943048 0.549204 0.274257 Li+
0.744463 0.987971 0.361916 Li+
0.255537 0.012029 0.388084 Li+
0.395677 0.751653 0.388577 Li+
0.604323 0.248347 0.361423 Li+
0.027769 0.791276 0.413628 Li+
0.972231 0.208724 0.336372 Li+
0.056952 0.450796 0.392409 Li+
0.943048 0.549204 0.357591 Li+
0.744463 0.987971 0.445250 Li+
0.255537 0.012029 0.471417 Li+
0.395677 0.751653 0.471911 Li+
0.604323 0.248347 0.444756 Li+
0.027769 0.791276 0.496962 Li+
0.972231 0.208724 0.419705 Li+
0.056952 0.450796 0.475743 Li+
0.943048 0.549204 0.440924 Li+
0.744463 0.987971 0.528583 Li+
0.255537 0.012029 0.554751 Li+
0.395677 0.751653 0.555244 Li+
0.604323 0.248347 0.528089 Li+
0.027769 0.791276 0.580295 Li+
0.972231 0.208724 0.503039 Li+
0.056952 0.450796 0.559076 Li+
0.943048 0.549204 0.524258 Li+
0.573990 0.631956 0.076555 P5+
0.426010 0.368044 0.006778 P5+
0.784272 0.845502 0.047188 P5+
0.215728 0.154498 0.036145 P5+
0.573990 0.631956 0.159888 P5+
0.426010 0.368044 0.090112 P5+
0.784272 0.845502 0.130522 P5+
0.215728 0.154498 0.119478 P5+
0.573990 0.631956 0.243221 P5+
0.426010 0.368044 0.173445 P5+
0.784272 0.845502 0.213855 P5+
0.215728 0.154498 0.202812 P5+
0.573990 0.631956 0.326555 P5+
0.426010 0.368044 0.256778 P5+
0.784272 0.845502 0.297188 P5+
0.215728 0.154498 0.286145 P5+
0.573990 0.631956 0.409888 P5+
0.426010 0.368044 0.340112 P5+
0.784272 0.845502 0.380522 P5+
0.215728 0.154498 0.369478 P5+
0.573990 0.631956 0.493222 P5+
0.426010 0.368044 0.423445 P5+
0.784272 0.845502 0.463855 P5+
0.215728 0.154498 0.452812 P5+
0.573990 0.631956 0.576555 P5+
0.426010 0.368044 0.506779 P5+
0.784272 0.845502 0.547188 P5+
0.215728 0.154498 0.536145 P5+
0.519912 0.874340 0.052715 O2-
0.006130 0.790684 0.057080 O2-
0.993870 0.209316 0.026253 O2-
0.882911 0.981976 0.052782 O2-
0.732561 0.376455 0.011092 O2-
0.267439 0.623545 0.072241 O2-
0.314844 0.526190 0.024500 O2-
0.685156 0.473810 0.058833 O2-
0.338222 0.236504 0.002842 O2-
0.661778 0.763496 0.080492 O2-
0.733069 0.683894 0.018459 O2-
0.266931 0.316106 0.064874 O2-
0.117089 0.018024 0.030551 O2-
0.480088 0.125660 0.030618 O2-
0.519912 0.874340 0.136048 O2-
0.006130 0.790684 0.140414 O2-
0.993870 0.209316 0.109586 O2-
0.882911 0.981976 0.136115 O2-
0.732561 0.376455 0.094425 O2-
0.267439 0.623545 0.155575 O2-
0.314844 0.526190 0.107833 O2-
0.685156 0.473810 0.142167 O2-
0.338222 0.236504 0.086175 O2-
0.661778 0.763496 0.163825 O2-
0.733069 0.683894 0.101792 O2-
0.266931 0.316106 0.148207 O2-
0.117089 0.018024 0.113885 O2-
0.480088 0.125660 0.113952 O2-
0.519912 0.874340 0.219382 O2-
0.006130 0.790684 0.223747 O2-
0.993870 0.209316 0.192920 O2-
0.882911 0.981976 0.219449 O2-
0.732561 0.376455 0.177759 O2-
0.267439 0.623545 0.238908 O2-
0.314844 0.526190 0.191167 O2-
0.685156 0.473810 0.225500 O2-
0.338222 0.236504 0.169508 O2-
0.661778 0.763496 0.247158 O2-
0.733069 0.683894 0.185126 O2-
0.266931 0.316106 0.231541 O2-
0.117089 0.018024 0.197218 O2-
0.480088 0.125660 0.197285 O2-
0.519912 0.874340 0.302715 O2-
0.006130 0.790684 0.307080 O2-
0.993870 0.209316 0.276253 O2-
0.882911 0.981976 0.302782 O2-
0.732561 0.376455 0.261092 O2-
0.267439 0.623545 0.322241 O2-
0.314844 0.526190 0.274500 O2-
0.685156 0.473810 0.308833 O2-
0.338222 0.236504 0.252842 O2-
0.661778 0.763496 0.330492 O2-
0.733069 0.683894 0.268459 O2-
0.266931 0.316106 0.314874 O2-
0.117089 0.018024 0.280551 O2-
0.480088 0.125660 0.280618 O2-
0.519912 0.874340 0.386048 O2-
0.006130 0.790684 0.390414 O2-
0.993870 0.209316 0.359586 O2-
0.882911 0.981976 0.386115 O2-
0.732561 0.376455 0.344425 O2-
0.267439 0.623545 0.405575 O2-
0.314844 0.526190 0.357833 O2-
0.685156 0.473810 0.392167 O2-
0.338222 0.236504 0.336175 O2-
0.661778 0.763496 0.413825 O2-
0.733069 0.683894 0.351792 O2-
0.266931 0.316106 0.398207 O2-
0.117089 0.018024 0.363885 O2-
0.480088 0.125660 0.363952 O2-
0.519912 0.874340 0.469382 O2-
0.006130 0.790684 0.473747 O2-
0.993870 0.209316 0.442920 O2-
0.882911 0.981976 0.469449 O2-
0.732561 0.376455 0.427759 O2-
0.267439 0.623545 0.488908 O2-
0.314844 0.526190 0.441167 O2-
0.685156 0.473810 0.475500 O2-
0.338222 0.236504 0.419508 O2-
0.661778 0.763496 0.497158 O2-
0.733069 0.683894 0.435126 O2-
0.266931 0.316106 0.481541 O2-
0.117089 0.018024 0.447218 O2-
0.480088 0.125660 0.447285 O2-
0.519912 0.874340 0.552715 O2-
0.006130 0.790684 0.557080 O2-
0.993870 0.209316 0.526253 O2-
0.882911 0.981976 0.552782 O2-
0.732561 0.376455 0.511092 O2-
0.267439 0.623545 0.572241 O2-
0.314844 0.526190 0.524500 O2-
0.685156 0.473810 0.558833 O2-
0.338222 0.236504 0.502842 O2-
0.661778 0.763496 0.580492 O2-
0.733069 0.683894 0.518459 O2-
0.266931 0.316106 0.564874 O2-
0.117089 0.018024 0.530551 O2-
0.480088 0.125660 0.530618 O2-
