Li56 P28 O98
1.0
4.907295 0.000000 -1.895193
-0.730671 8.419349 5.315209
0.000000 0.000000 79.370284
Li P O
56 28 98
direct
0.744463 0.987971 0.070600 Li+
0.255537 0.012029 0.003864 Li+
0.395677 0.751653 0.051743 Li+
0.604323 0.248347 0.022721 Li+
0.027769 0.791276 0.071867 Li+
0.972231 0.208724 0.002597 Li+
0.056952 0.450796 0.019715 Li+
0.943048 0.549204 0.054748 Li+
0.744463 0.987971 0.161509 Li+
0.255537 0.012029 0.094773 Li+
0.395677 0.751653 0.142652 Li+
0.604323 0.248347 0.113630 Li+
0.027769 0.791276 0.162776 Li+
0.972231 0.208724 0.093506 Li+
0.056952 0.450796 0.110624 Li+
0.943048 0.549204 0.145658 Li+
0.744463 0.987971 0.252418 Li+
0.255537 0.012029 0.185682 Li+
0.395677 0.751653 0.233561 Li+
0.604323 0.248347 0.204539 Li+
0.027769 0.791276 0.253685 Li+
0.972231 0.208724 0.184415 Li+
0.056952 0.450796 0.201534 Li+
0.943048 0.549204 0.236567 Li+
0.744463 0.987971 0.343328 Li+
0.255537 0.012029 0.276591 Li+
0.395677 0.751653 0.324470 Li+
0.604323 0.248347 0.295448 Li+
0.027769 0.791276 0.344594 Li+
0.972231 0.208724 0.275324 Li+
0.056952 0.450796 0.292443 Li+
0.943048 0.549204 0.327476 Li+
0.744463 0.987971 0.434237 Li+
0.255537 0.012029 0.367500 Li+
0.395677 0.751653 0.415379 Li+
0.604323 0.248347 0.386357 Li+
0.027769 0.791276 0.435503 Li+
0.972231 0.208724 0.366233 Li+
0.056952 0.450796 0.383352 Li+
0.943048 0.549204 0.418385 Li+
0.744463 0.987971 0.525146 Li+
0.255537 0.012029 0.458409 Li+
0.395677 0.751653 0.506288 Li+
0.604323 0.248347 0.477266 Li+
0.027769 0.791276 0.526412 Li+
0.972231 0.208724 0.457142 Li+
0.056952 0.450796 0.474261 Li+
0.943048 0.549204 0.509294 Li+
0.744463 0.987971 0.616055 Li+
0.255537 0.012029 0.549318 Li+
0.395677 0.751653 0.597197 Li+
0.604323 0.248347 0.568176 Li+
0.027769 0.791276 0.617322 Li+
0.972231 0.208724 0.548051 Li+
0.056952 0.450796 0.565170 Li+
0.943048 0.549204 0.600203 Li+
0.573990 0.631956 0.005845 P5+
0.426010 0.368044 0.068619 P5+
0.784272 0.845502 0.025892 P5+
0.215728 0.154498 0.048572 P5+
0.573990 0.631956 0.096754 P5+
0.426010 0.368044 0.159528 P5+
0.784272 0.845502 0.116801 P5+
0.215728 0.154498 0.139481 P5+
0.573990 0.631956 0.187663 P5+
0.426010 0.368044 0.250437 P5+
0.784272 0.845502 0.207710 P5+
0.215728 0.154498 0.230390 P5+
0.573990 0.631956 0.278572 P5+
0.426010 0.368044 0.341346 P5+
0.784272 0.845502 0.298619 P5+
0.215728 0.154498 0.321299 P5+
0.573990 0.631956 0.369482 P5+
0.426010 0.368044 0.432255 P5+
0.784272 0.845502 0.389528 P5+
0.215728 0.154498 0.412209 P5+
0.573990 0.631956 0.460391 P5+
0.426010 0.368044 0.523164 P5+
0.784272 0.845502 0.480437 P5+
0.215728 0.154498 0.503118 P5+
0.573990 0.631956 0.551300 P5+
0.426010 0.368044 0.614073 P5+
0.784272 0.845502 0.571346 P5+
0.215728 0.154498 0.594027 P5+
0.519912 0.874340 0.026677 O2-
0.006130 0.790684 0.046650 O2-
0.993870 0.209316 0.027814 O2-
0.882911 0.981976 0.007180 O2-
0.732561 0.376455 0.071795 O2-
0.267439 0.623545 0.002669 O2-
0.314844 0.526190 0.059197 O2-
0.685156 0.473810 0.015266 O2-
0.338222 0.236504 0.088240 O2-
0.661778 0.763496 0.077133 O2-
0.733069 0.683894 0.023934 O2-
0.266931 0.316106 0.050530 O2-
0.117089 0.018024 0.067283 O2-
0.480088 0.125660 0.047786 O2-
0.519912 0.874340 0.117587 O2-
0.006130 0.790684 0.137559 O2-
0.993870 0.209316 0.118723 O2-
0.882911 0.981976 0.098089 O2-
0.732561 0.376455 0.162704 O2-
0.267439 0.623545 0.093578 O2-
0.314844 0.526190 0.150107 O2-
0.685156 0.473810 0.106175 O2-
0.338222 0.236504 0.179149 O2-
0.661778 0.763496 0.168042 O2-
0.733069 0.683894 0.114843 O2-
0.266931 0.316106 0.141439 O2-
0.117089 0.018024 0.158193 O2-
0.480088 0.125660 0.138695 O2-
0.519912 0.874340 0.208496 O2-
0.006130 0.790684 0.228468 O2-
0.993870 0.209316 0.209632 O2-
0.882911 0.981976 0.188999 O2-
0.732561 0.376455 0.253613 O2-
0.267439 0.623545 0.184487 O2-
0.314844 0.526190 0.241016 O2-
0.685156 0.473810 0.197085 O2-
0.338222 0.236504 0.270059 O2-
0.661778 0.763496 0.258951 O2-
0.733069 0.683894 0.205752 O2-
0.266931 0.316106 0.232348 O2-
0.117089 0.018024 0.249102 O2-
0.480088 0.125660 0.229605 O2-
0.519912 0.874340 0.299405 O2-
0.006130 0.790684 0.319377 O2-
0.993870 0.209316 0.300541 O2-
0.882911 0.981976 0.279908 O2-
0.732561 0.376455 0.344522 O2-
0.267439 0.623545 0.275396 O2-
0.314844 0.526190 0.331925 O2-
0.685156 0.473810 0.287994 O2-
0.338222 0.236504 0.360968 O2-
0.661778 0.763496 0.349860 O2-
0.733069 0.683894 0.296661 O2-
0.266931 0.316106 0.323257 O2-
0.117089 0.018024 0.340011 O2-
0.480088 0.125660 0.320514 O2-
0.519912 0.874340 0.390314 O2-
0.006130 0.790684 0.410286 O2-
0.993870 0.209316 0.391450 O2-
0.882911 0.981976 0.370817 O2-
0.732561 0.376455 0.435431 O2-
0.267439 0.623545 0.366305 O2-
0.314844 0.526190 0.422834 O2-
0.685156 0.473810 0.378903 O2-
0.338222 0.236504 0.451877 O2-
0.661778 0.763496 0.440769 O2-
0.733069 0.683894 0.387570 O2-
0.266931 0.316106 0.414166 O2-
0.117089 0.018024 0.430920 O2-
0.480088 0.125660 0.411423 O2-
0.519912 0.874340 0.481223 O2-
0.006130 0.790684 0.501195 O2-
0.993870 0.209316 0.482360 O2-
0.882911 0.981976 0.461726 O2-
0.732561 0.376455 0.526341 O2-
0.267439 0.623545 0.457214 O2-
0.314844 0.526190 0.513743 O2-
0.685156 0.473810 0.469812 O2-
0.338222 0.236504 0.542786 O2-
0.661778 0.763496 0.531678 O2-
0.733069 0.683894 0.478479 O2-
0.266931 0.316106 0.505075 O2-
0.117089 0.018024 0.521829 O2-
0.480088 0.125660 0.502332 O2-
0.519912 0.874340 0.572132 O2-
0.006130 0.790684 0.592104 O2-
0.993870 0.209316 0.573269 O2-
0.882911 0.981976 0.552635 O2-
0.732561 0.376455 0.617250 O2-
0.267439 0.623545 0.548123 O2-
0.314844 0.526190 0.604652 O2-
0.685156 0.473810 0.560721 O2-
0.338222 0.236504 0.633695 O2-
0.661778 0.763496 0.622587 O2-
0.733069 0.683894 0.569388 O2-
0.266931 0.316106 0.595984 O2-
0.117089 0.018024 0.612738 O2-
0.480088 0.125660 0.593241 O2-
