(2, 0, 1)                               
   1.00000000000000     
     3.6502272412575500   -0.0000362776106771   -2.1074631801630797
     0.0069536110655378   15.1598509085113360   -4.2026474444825279
     0.0967304809026265    0.0805492155785094   42.3168736301579997
   Li   P 
    48    16
Selective dynamics
Direct
  0.0000000000000000  0.3750000000000000  0.0874999999999986   F   F   F
 -0.0106356301986439  0.8778070672070869  0.0356753411683056   T   T   T
  0.0000000000000000  0.1250000000000000  0.0625000000000000   F   F   F
 -0.0026165621937471  0.6369146949684007  0.0131207258020135   T   T   T
  0.3137754035522451  0.0281985911888382  0.0156890560362836   T   T   T
  0.3333330000000032  0.5420599999999993  0.0708729999999989   F   F   F
  0.6956131911662363  0.2944546211849227  0.0186064754215828   T   T   T
  0.6454989199235915  0.7846521831339915  0.0575965382214506   T   T   T
  0.6819081478972324  0.4654622162751408  0.0329656112724168   T   T   T
  0.6666669999999968  0.9579400000000007  0.0791269999999997   F   F   F
  0.3683095262045651  0.2150629850789563  0.0452392465652736   T   T   T
  0.3333330000000032  0.7079409999999982  0.0874609999999976   F   F   F
  0.0000000000000000  0.3750000000000000  0.1875000000000000   F   F   F
  0.0000000000000000  0.8750000000000000  0.1375000000000028   F   F   F
  0.0000000000000000  0.1250000000000000  0.1625000000000014   F   F   F
  0.0000000000000000  0.6250000000000000  0.1124999999999972   F   F   F
  0.3333330000000032  0.0420599999999993  0.1208730000000031   F   F   F
  0.3333330000000032  0.5420599999999993  0.1708730000000003   F   F   F
  0.6666669999999968  0.2920599999999993  0.1125389999999982   F   F   F
  0.6666669999999968  0.7920599999999993  0.1625390000000024   F   F   F
  0.6666669999999968  0.4579400000000007  0.1291269999999969   F   F   F
  0.6666669999999968  0.9579400000000007  0.1791270000000011   F   F   F
  0.3333330000000032  0.2079400000000007  0.1374610000000018   F   F   F
  0.3333330000000032  0.7079409999999982  0.1874609999999990   F   F   F
  0.0000000000000000  0.3750000000000000  0.2875000000000014   F   F   F
  0.0000000000000000  0.8750000000000000  0.2374999999999972   F   F   F
  0.0000000000000000  0.1250000000000000  0.2625000000000028   F   F   F
  0.0000000000000000  0.6250000000000000  0.2124999999999986   F   F   F
  0.3333330000000032  0.0420599999999993  0.2208729999999974   F   F   F
  0.3333330000000032  0.5420599999999993  0.2708730000000017   F   F   F
  0.6666669999999968  0.2920599999999993  0.2125389999999996   F   F   F
  0.6666669999999968  0.7920599999999993  0.2625389999999967   F   F   F
  0.6666669999999968  0.4579400000000007  0.2291269999999983   F   F   F
  0.6666669999999968  0.9579400000000007  0.2791270000000026   F   F   F
  0.3333330000000032  0.2079400000000007  0.2374610000000033   F   F   F
  0.3333330000000032  0.7079409999999982  0.2874610000000004   F   F   F
  0.0026899383035130  0.3629813698853164  0.3868725957627415   T   T   T
  0.0000000000000000  0.8750000000000000  0.3374999999999986   F   F   F
  0.0104118055117402  0.1220684727811265  0.3642781001559296   T   T   T
  0.0000000000000000  0.6250000000000000  0.3125000000000000   F   F   F
  0.3333330000000032  0.0420599999999993  0.3208729999999989   F   F   F
  0.3181087019071062  0.5345450487145047  0.3670350211131910   T   T   T
  0.6666669999999968  0.2920599999999993  0.3125390000000010   F   F   F
  0.6317575630580722  0.7848979560452869  0.3547763953914268   T   T   T
  0.6666669999999968  0.4579400000000007  0.3291269999999997   F   F   F
  0.6860138720185571  0.9717483554490469  0.3842657416214700   T   T   T
  0.3543413835843651  0.2154608371238989  0.3423795243626055   T   T   T
  0.3043972167241409  0.7054965125386492  0.3813895373121737   T   T   T
  0.3333330000000032  0.3750000000000000  0.0541669999999996   F   F   F
  0.3635921448239382  0.8759856716911821  0.0103477860127121   T   T   T
  0.6666669999999968  0.1250000000000000  0.0958329999999989   F   F   F
  0.6746218866738779  0.6220852565990829  0.0471035238775511   T   T   T
  0.3333330000000032  0.3750000000000000  0.1541670000000011   F   F   F
  0.3333330000000032  0.8750000000000000  0.1041669999999968   F   F   F
  0.6666669999999968  0.1250000000000000  0.1958330000000004   F   F   F
  0.6666669999999968  0.6250000000000000  0.1458330000000032   F   F   F
  0.3333330000000032  0.3750000000000000  0.2541670000000025   F   F   F
  0.3333330000000032  0.8750000000000000  0.2041669999999982   F   F   F
  0.6666669999999968  0.1250000000000000  0.2958330000000018   F   F   F
  0.6666669999999968  0.6250000000000000  0.2458329999999975   F   F   F
  0.3253219865916914  0.3779818381037811  0.3528892448996372   T   T   T
  0.3333330000000032  0.8750000000000000  0.3041669999999996   F   F   F
  0.6366496906438905  0.1240591792922691  0.3897160200301485   T   T   T
  0.6666669999999968  0.6250000000000000  0.3458329999999989   F   F   F
 
  0.00000000E+00  0.00000000E+00  0.00000000E+00
  0.00000000E+00  0.00000000E+00  0.00000000E+00
  0.00000000E+00  0.00000000E+00  0.00000000E+00
  0.00000000E+00  0.00000000E+00  0.00000000E+00
  0.00000000E+00  0.00000000E+00  0.00000000E+00
  0.00000000E+00  0.00000000E+00  0.00000000E+00
  0.00000000E+00  0.00000000E+00  0.00000000E+00
  0.00000000E+00  0.00000000E+00  0.00000000E+00
  0.00000000E+00  0.00000000E+00  0.00000000E+00
  0.00000000E+00  0.00000000E+00  0.00000000E+00
  0.00000000E+00  0.00000000E+00  0.00000000E+00
  0.00000000E+00  0.00000000E+00  0.00000000E+00
  0.00000000E+00  0.00000000E+00  0.00000000E+00
  0.00000000E+00  0.00000000E+00  0.00000000E+00
  0.00000000E+00  0.00000000E+00  0.00000000E+00
  0.00000000E+00  0.00000000E+00  0.00000000E+00
  0.00000000E+00  0.00000000E+00  0.00000000E+00
  0.00000000E+00  0.00000000E+00  0.00000000E+00
  0.00000000E+00  0.00000000E+00  0.00000000E+00
  0.00000000E+00  0.00000000E+00  0.00000000E+00
  0.00000000E+00  0.00000000E+00  0.00000000E+00
  0.00000000E+00  0.00000000E+00  0.00000000E+00
  0.00000000E+00  0.00000000E+00  0.00000000E+00
  0.00000000E+00  0.00000000E+00  0.00000000E+00
  0.00000000E+00  0.00000000E+00  0.00000000E+00
  0.00000000E+00  0.00000000E+00  0.00000000E+00
  0.00000000E+00  0.00000000E+00  0.00000000E+00
  0.00000000E+00  0.00000000E+00  0.00000000E+00
  0.00000000E+00  0.00000000E+00  0.00000000E+00
  0.00000000E+00  0.00000000E+00  0.00000000E+00
  0.00000000E+00  0.00000000E+00  0.00000000E+00
  0.00000000E+00  0.00000000E+00  0.00000000E+00
  0.00000000E+00  0.00000000E+00  0.00000000E+00
  0.00000000E+00  0.00000000E+00  0.00000000E+00
  0.00000000E+00  0.00000000E+00  0.00000000E+00
  0.00000000E+00  0.00000000E+00  0.00000000E+00
  0.00000000E+00  0.00000000E+00  0.00000000E+00
  0.00000000E+00  0.00000000E+00  0.00000000E+00
  0.00000000E+00  0.00000000E+00  0.00000000E+00
  0.00000000E+00  0.00000000E+00  0.00000000E+00
  0.00000000E+00  0.00000000E+00  0.00000000E+00
  0.00000000E+00  0.00000000E+00  0.00000000E+00
  0.00000000E+00  0.00000000E+00  0.00000000E+00
  0.00000000E+00  0.00000000E+00  0.00000000E+00
  0.00000000E+00  0.00000000E+00  0.00000000E+00
  0.00000000E+00  0.00000000E+00  0.00000000E+00
  0.00000000E+00  0.00000000E+00  0.00000000E+00
  0.00000000E+00  0.00000000E+00  0.00000000E+00
  0.00000000E+00  0.00000000E+00  0.00000000E+00
  0.00000000E+00  0.00000000E+00  0.00000000E+00
  0.00000000E+00  0.00000000E+00  0.00000000E+00
  0.00000000E+00  0.00000000E+00  0.00000000E+00
  0.00000000E+00  0.00000000E+00  0.00000000E+00
  0.00000000E+00  0.00000000E+00  0.00000000E+00
  0.00000000E+00  0.00000000E+00  0.00000000E+00
  0.00000000E+00  0.00000000E+00  0.00000000E+00
  0.00000000E+00  0.00000000E+00  0.00000000E+00
  0.00000000E+00  0.00000000E+00  0.00000000E+00
  0.00000000E+00  0.00000000E+00  0.00000000E+00
  0.00000000E+00  0.00000000E+00  0.00000000E+00
  0.00000000E+00  0.00000000E+00  0.00000000E+00
  0.00000000E+00  0.00000000E+00  0.00000000E+00
  0.00000000E+00  0.00000000E+00  0.00000000E+00
  0.00000000E+00  0.00000000E+00  0.00000000E+00
