(2, 0, 1)
1.0
3.668361 0.000000 -2.117929
-0.000000 15.141436 -4.235858
0.000000 0.000000 42.358582
Li P
48 16
Selective dynamics
direct
0.000000 0.375000 0.087500 F F F Li+
0.000000 0.875000 0.037500 T T T Li+
0.000000 0.125000 0.062500 F F F Li+
0.000000 0.625000 0.012500 T T T Li+
0.333333 0.042060 0.020873 T T T Li+
0.333333 0.542060 0.070873 F F F Li+
0.666667 0.292060 0.012539 T T T Li+
0.666667 0.792060 0.062539 T T T Li+
0.666667 0.457940 0.029127 T T T Li+
0.666667 0.957940 0.079127 F F F Li+
0.333333 0.207940 0.037461 T T T Li+
0.333333 0.707941 0.087461 F F F Li+
0.000000 0.375000 0.187500 F F F Li+
0.000000 0.875000 0.137500 F F F Li+
0.000000 0.125000 0.162500 F F F Li+
0.000000 0.625000 0.112500 F F F Li+
0.333333 0.042060 0.120873 F F F Li+
0.333333 0.542060 0.170873 F F F Li+
0.666667 0.292060 0.112539 F F F Li+
0.666667 0.792060 0.162539 F F F Li+
0.666667 0.457940 0.129127 F F F Li+
0.666667 0.957940 0.179127 F F F Li+
0.333333 0.207940 0.137461 F F F Li+
0.333333 0.707941 0.187461 F F F Li+
0.000000 0.375000 0.287500 F F F Li+
0.000000 0.875000 0.237500 F F F Li+
0.000000 0.125000 0.262500 F F F Li+
0.000000 0.625000 0.212500 F F F Li+
0.333333 0.042060 0.220873 F F F Li+
0.333333 0.542060 0.270873 F F F Li+
0.666667 0.292060 0.212539 F F F Li+
0.666667 0.792060 0.262539 F F F Li+
0.666667 0.457940 0.229127 F F F Li+
0.666667 0.957940 0.279127 F F F Li+
0.333333 0.207940 0.237461 F F F Li+
0.333333 0.707941 0.287461 F F F Li+
0.000000 0.375000 0.387500 T T T Li+
0.000000 0.875000 0.337500 F F F Li+
0.000000 0.125000 0.362500 T T T Li+
0.000000 0.625000 0.312500 F F F Li+
0.333333 0.042060 0.320873 F F F Li+
0.333333 0.542060 0.370873 T T T Li+
0.666667 0.292060 0.312539 F F F Li+
0.666667 0.792060 0.362539 T T T Li+
0.666667 0.457940 0.329127 F F F Li+
0.666667 0.957940 0.379127 T T T Li+
0.333333 0.207940 0.337461 T T T Li+
0.333333 0.707941 0.387461 T T T Li+
0.333333 0.375000 0.054167 F F F P3+
0.333333 0.875000 0.004167 T T T P3+
0.666667 0.125000 0.095833 F F F P3+
0.666667 0.625000 0.045833 T T T P3+
0.333333 0.375000 0.154167 F F F P3+
0.333333 0.875000 0.104167 F F F P3+
0.666667 0.125000 0.195833 F F F P3+
0.666667 0.625000 0.145833 F F F P3+
0.333333 0.375000 0.254167 F F F P3+
0.333333 0.875000 0.204167 F F F P3+
0.666667 0.125000 0.295833 F F F P3+
0.666667 0.625000 0.245833 F F F P3+
0.333333 0.375000 0.354167 T T T P3+
0.333333 0.875000 0.304167 F F F P3+
0.666667 0.125000 0.395833 T T T P3+
0.666667 0.625000 0.345833 F F F P3+
