Li42 P14 O56
1.0
5.296402 0.000000 -4.922448
0.000000 6.176136 -4.922448
0.000000 0.000000 68.914272
Li P O
42 14 56
direct
0.844520 0.000000 0.057783 Li+
0.155480 0.500000 0.008566 Li+
0.326434 0.747127 0.002639 Li+
0.673566 0.752873 0.063559 Li+
0.673566 0.247127 0.027434 Li+
0.326434 0.252873 0.038764 Li+
0.844520 0.000000 0.129212 Li+
0.155480 0.500000 0.079994 Li+
0.326434 0.747127 0.074068 Li+
0.673566 0.752873 0.134988 Li+
0.673566 0.247127 0.098863 Li+
0.326434 0.252873 0.110192 Li+
0.844520 0.000000 0.200640 Li+
0.155480 0.500000 0.151423 Li+
0.326434 0.747127 0.145496 Li+
0.673566 0.752873 0.206416 Li+
0.673566 0.247127 0.170291 Li+
0.326434 0.252873 0.181621 Li+
0.844520 0.000000 0.272069 Li+
0.155480 0.500000 0.222852 Li+
0.326434 0.747127 0.216925 Li+
0.673566 0.752873 0.277845 Li+
0.673566 0.247127 0.241720 Li+
0.326434 0.252873 0.253050 Li+
0.844520 0.000000 0.343497 Li+
0.155480 0.500000 0.294280 Li+
0.326434 0.747127 0.288353 Li+
0.673566 0.752873 0.349273 Li+
0.673566 0.247127 0.313149 Li+
0.326434 0.252873 0.324478 Li+
0.844520 0.000000 0.414926 Li+
0.155480 0.500000 0.365709 Li+
0.326434 0.747127 0.359782 Li+
0.673566 0.752873 0.420702 Li+
0.673566 0.247127 0.384577 Li+
0.326434 0.252873 0.395907 Li+
0.844520 0.000000 0.486354 Li+
0.155480 0.500000 0.437137 Li+
0.326434 0.747127 0.431211 Li+
0.673566 0.752873 0.492130 Li+
0.673566 0.247127 0.456006 Li+
0.326434 0.252873 0.467335 Li+
0.824261 0.500000 0.020050 P5+
0.175739 0.000000 0.045156 P5+
0.824261 0.500000 0.091479 P5+
0.175739 0.000000 0.116585 P5+
0.824261 0.500000 0.162908 P5+
0.175739 0.000000 0.188013 P5+
0.824261 0.500000 0.234336 P5+
0.175739 0.000000 0.259442 P5+
0.824261 0.500000 0.305765 P5+
0.175739 0.000000 0.330870 P5+
0.824261 0.500000 0.377193 P5+
0.175739 0.000000 0.402299 P5+
0.824261 0.500000 0.448622 P5+
0.175739 0.000000 0.473727 P5+
0.313509 0.207138 0.005906 O2-
0.103508 0.500000 0.047190 O2-
0.818396 0.500000 0.068472 O2-
0.181604 0.000000 0.022987 O2-
0.686491 0.707138 0.032547 O2-
0.313509 0.792862 0.047743 O2-
0.896492 0.000000 0.032403 O2-
0.686491 0.292862 0.002956 O2-
0.313509 0.207138 0.077334 O2-
0.103508 0.500000 0.118618 O2-
0.818396 0.500000 0.139901 O2-
0.181604 0.000000 0.094416 O2-
0.686491 0.707138 0.103976 O2-
0.313509 0.792862 0.119172 O2-
0.896492 0.000000 0.103832 O2-
0.686491 0.292862 0.074385 O2-
0.313509 0.207138 0.148763 O2-
0.103508 0.500000 0.190047 O2-
0.818396 0.500000 0.211329 O2-
0.181604 0.000000 0.165844 O2-
0.686491 0.707138 0.175405 O2-
0.313509 0.792862 0.190600 O2-
0.896492 0.000000 0.175260 O2-
0.686491 0.292862 0.145813 O2-
0.313509 0.207138 0.220192 O2-
0.103508 0.500000 0.261476 O2-
0.818396 0.500000 0.282758 O2-
0.181604 0.000000 0.237273 O2-
0.686491 0.707138 0.246833 O2-
0.313509 0.792862 0.262029 O2-
0.896492 0.000000 0.246689 O2-
0.686491 0.292862 0.217242 O2-
0.313509 0.207138 0.291620 O2-
0.103508 0.500000 0.332904 O2-
0.818396 0.500000 0.354187 O2-
0.181604 0.000000 0.308701 O2-
0.686491 0.707138 0.318262 O2-
0.313509 0.792862 0.333458 O2-
0.896492 0.000000 0.318117 O2-
0.686491 0.292862 0.288671 O2-
0.313509 0.207138 0.363049 O2-
0.103508 0.500000 0.404333 O2-
0.818396 0.500000 0.425615 O2-
0.181604 0.000000 0.380130 O2-
0.686491 0.707138 0.389690 O2-
0.313509 0.792862 0.404886 O2-
0.896492 0.000000 0.389546 O2-
0.686491 0.292862 0.360099 O2-
0.313509 0.207138 0.434477 O2-
0.103508 0.500000 0.475761 O2-
0.818396 0.500000 0.497044 O2-
0.181604 0.000000 0.451559 O2-
0.686491 0.707138 0.461119 O2-
0.313509 0.792862 0.476315 O2-
0.896492 0.000000 0.460974 O2-
0.686491 0.292862 0.431528 O2-
