Li56 P56
1.0
10.250751 0.000000 0.000000
2.639560 4.931949 4.970385
0.000000 0.000000 64.615005
Li P
56 56
direct
0.670700 0.217008 0.030365 Li+
0.829300 0.782992 0.025289 Li+
0.329300 0.782992 0.046558 Li+
0.170700 0.217008 0.051634 Li+
0.970214 0.225768 0.008917 Li+
0.529786 0.774232 0.005189 Li+
0.029786 0.774232 0.068006 Li+
0.470214 0.225768 0.071734 Li+
0.670700 0.217008 0.107288 Li+
0.829300 0.782992 0.102212 Li+
0.329300 0.782992 0.123481 Li+
0.170700 0.217008 0.128557 Li+
0.970214 0.225768 0.085840 Li+
0.529786 0.774232 0.082112 Li+
0.029786 0.774232 0.144930 Li+
0.470214 0.225768 0.148658 Li+
0.670700 0.217008 0.184211 Li+
0.829300 0.782992 0.179135 Li+
0.329300 0.782992 0.200404 Li+
0.170700 0.217008 0.205480 Li+
0.970214 0.225768 0.162763 Li+
0.529786 0.774232 0.159035 Li+
0.029786 0.774232 0.221853 Li+
0.470214 0.225768 0.225581 Li+
0.670700 0.217008 0.261134 Li+
0.829300 0.782992 0.256059 Li+
0.329300 0.782992 0.277327 Li+
0.170700 0.217008 0.282403 Li+
0.970214 0.225768 0.239686 Li+
0.529786 0.774232 0.235958 Li+
0.029786 0.774232 0.298776 Li+
0.470214 0.225768 0.302504 Li+
0.670700 0.217008 0.338057 Li+
0.829300 0.782992 0.332982 Li+
0.329300 0.782992 0.354250 Li+
0.170700 0.217008 0.359326 Li+
0.970214 0.225768 0.316609 Li+
0.529786 0.774232 0.312881 Li+
0.029786 0.774232 0.375699 Li+
0.470214 0.225768 0.379427 Li+
0.670700 0.217008 0.414980 Li+
0.829300 0.782992 0.409905 Li+
0.329300 0.782992 0.431173 Li+
0.170700 0.217008 0.436249 Li+
0.970214 0.225768 0.393532 Li+
0.529786 0.774232 0.389804 Li+
0.029786 0.774232 0.452622 Li+
0.470214 0.225768 0.456350 Li+
0.670700 0.217008 0.491903 Li+
0.829300 0.782992 0.486828 Li+
0.329300 0.782992 0.508097 Li+
0.170700 0.217008 0.513172 Li+
0.970214 0.225768 0.470455 Li+
0.529786 0.774232 0.466727 Li+
0.029786 0.774232 0.529545 Li+
0.470214 0.225768 0.533273 Li+
0.707084 0.316645 0.060650 P-
0.792916 0.683355 0.070903 P-
0.292916 0.683355 0.016273 P-
0.207084 0.316645 0.006020 P-
0.888258 0.303182 0.041599 P-
0.611742 0.696818 0.049781 P-
0.111742 0.696818 0.035324 P-
0.388258 0.303182 0.027142 P-
0.707084 0.316645 0.137573 P-
0.792916 0.683355 0.147826 P-
0.292916 0.683355 0.093196 P-
0.207084 0.316645 0.082943 P-
0.888258 0.303182 0.118522 P-
0.611742 0.696818 0.126704 P-
0.111742 0.696818 0.112247 P-
0.388258 0.303182 0.104065 P-
0.707084 0.316645 0.214496 P-
0.792916 0.683355 0.224749 P-
0.292916 0.683355 0.170119 P-
0.207084 0.316645 0.159866 P-
0.888258 0.303182 0.195445 P-
0.611742 0.696818 0.203627 P-
0.111742 0.696818 0.189170 P-
0.388258 0.303182 0.180988 P-
0.707084 0.316645 0.291419 P-
0.792916 0.683355 0.301672 P-
0.292916 0.683355 0.247042 P-
0.207084 0.316645 0.236789 P-
0.888258 0.303182 0.272369 P-
0.611742 0.696818 0.280550 P-
0.111742 0.696818 0.266093 P-
0.388258 0.303182 0.257911 P-
0.707084 0.316645 0.368342 P-
0.792916 0.683355 0.378595 P-
0.292916 0.683355 0.323965 P-
0.207084 0.316645 0.313712 P-
0.888258 0.303182 0.349292 P-
0.611742 0.696818 0.357473 P-
0.111742 0.696818 0.343016 P-
0.388258 0.303182 0.334834 P-
0.707084 0.316645 0.445265 P-
0.792916 0.683355 0.455519 P-
0.292916 0.683355 0.400888 P-
0.207084 0.316645 0.390635 P-
0.888258 0.303182 0.426215 P-
0.611742 0.696818 0.434397 P-
0.111742 0.696818 0.419939 P-
0.388258 0.303182 0.411757 P-
0.707084 0.316645 0.522189 P-
0.792916 0.683355 0.532442 P-
0.292916 0.683355 0.477811 P-
0.207084 0.316645 0.467558 P-
0.888258 0.303182 0.503138 P-
0.611742 0.696818 0.511320 P-
0.111742 0.696818 0.496862 P-
0.388258 0.303182 0.488680 P-
