Li71 P24 N1 O94                         
   1.00000000000000     
    14.7337734396461357    0.0049464443822106    0.0035771382789687
     0.0035223176468618   10.5847857370682110    0.0093427153608557
     0.0029616232247362    0.0109587346404450   12.2944867698996685
   Li   P    N    O 
    71    24     1    94
Direct
  0.2036546202384599  0.4124633572018785  0.0012281767155919
  0.1704945343169189  0.4244110665794505  0.4999313038886697
  0.1689957256105646  0.9302875166478493  0.0052787157804714
  0.1704233374411419  0.9264439284273883  0.4976820810552038
  0.5005893475725279  0.4215297196863715  0.0007721935143341
  0.5024176573530865  0.4221408020261654  0.4995177488478947
  0.5035994847161239  0.9231961492508076  0.0006412832881556
  0.5025704445432541  0.9236083880370473  0.4993226899281932
  0.8320113280729965  0.4197036006978320  0.0005649766466734
  0.8361479784136926  0.4218480681671644  0.4998071553805521
  0.8348022426231265  0.9208759684550141 -0.0009571602522482
  0.8366377760968086  0.9235177514191129  0.4994072047821915
  0.0133337125060228  0.0740280693440071  0.2499750427255888
  0.0036363021329965  0.0740719265108337  0.7486676723007043
  0.0029604145472955  0.5790873017579237  0.2534155733323933
  0.0020487197028525  0.5772596187213225  0.7469746781702176
  0.3378293126259598  0.0795139255651072  0.2462413626912540
  0.3362144013891890  0.0769436849875001  0.7509105653017031
  0.3350962996933776  0.5783749283687506  0.2508792800075698
  0.3370464841863428  0.5778999796286873  0.7495995226324041
  0.6704701560531454  0.0771654323141591  0.2497819461157042
  0.6690241018461676  0.0763894130316014  0.7492159434933661
  0.6684675393741918  0.5773782870745305  0.2504490466698334
  0.6681449263002707  0.5773865783749040  0.7492404330171616
  0.1696509943221520  0.1634901222604751  0.6263348634293709
  0.1712278081474133  0.6633029316968301  0.1269242707585519
  0.1697669188527017  0.6650497375498909  0.6264972217025541
  0.5030451051395163  0.1628490706713916  0.1259359814563427
  0.5024162396965736  0.1629818451727547  0.6262222136341640
  0.5025268448398775  0.6642110438637112  0.1267528986074734
  0.5026667951087808  0.6636504007290999  0.6256631919470771
  0.8388543724197295  0.1607770586540270  0.1251532244184058
  0.8360346066111898  0.1629082749843795  0.6259096624651215
  0.8327908840302535  0.6644516281114663  0.1293487193688913
  0.8351546594103773  0.6636562195110016  0.6256350152901121
  0.0013461029066438  0.3180426638914625  0.1445496722939482
  0.0040042004064934  0.3368418419068016  0.6226700636143299
  0.0013367046196569  0.8413276339783075  0.1243712671222919
  0.0032098826267028  0.8374728786601094  0.6223162987926795
  0.3347779294221175  0.3296387047101335  0.1285855996950671
  0.3359867387293903  0.3361444127873248  0.6231797097701797
  0.3354812355235026  0.8395694020765364  0.1237974853569252
  0.3362549018672824  0.8376501293240781  0.6228759390123375
  0.6685767436411061  0.3356809694262199  0.1240377050139484
  0.6689452218808889  0.3361371124547679  0.6233432172156501
  0.6696547817695619  0.8372657939341809  0.1238010437595455
  0.6690350347663758  0.8366538450857719  0.6229551510909677
  0.0044614647918795  0.3392760801818152  0.3775775249417612
 -0.0029619672068676  0.3189123279490405  0.8587636365389664
  0.0024532926699260  0.8368544001752556  0.3770778437201507
  0.0022549178468909  0.8427254364248555  0.8744613844765962
  0.3353503848138261  0.3371856139345092  0.3762529493958053
  0.3398832796280709  0.3319292695735244  0.8735978635601239
  0.3356396048571203  0.8383655968218948  0.3752961446377461
  0.3364267014697117  0.8386846933958333  0.8774791400718033
  0.6696397655715395  0.3365317456266940  0.3762644743084567
  0.6676914012227964  0.3360599449164431  0.8761111366524418
  0.6698457672420853  0.8369559661739614  0.3766576320172668
  0.6685469949392850  0.8371732401351245  0.8760838179886866
  0.1690586573023233  0.1717512277356932  0.3715500667671556
  0.1691102792739713  0.1616034330552483  0.8789200165168746
  0.1683637083884282  0.6632044471059916  0.3769421623787054
  0.1718260961805754  0.6657454435991095  0.8729079959226873
  0.5034848413794164  0.1634449479981880  0.3733276928482457
  0.5033782171747102  0.1620499054436429  0.8734845929510352
  0.5024918421383489  0.6637929602208363  0.3738707133255605
  0.5027361055326632  0.6638012065219180  0.8732365330296743
  0.8377612404775615  0.1628096861474176  0.3723767115683230
  0.8333294756338916  0.1609582704279040  0.8715100017987414
  0.8359024451873849  0.6633932177545852  0.3746999599096009
  0.8322020631001265  0.6643620308851089  0.8699906438917016
  0.1679611053841238  0.4183829110211909  0.2495629564312968
  0.1673335367660497  0.4126566485211912  0.7512528854222040
  0.1670977706072744  0.9075254467740789  0.2505782169691625
  0.1671663819947924  0.9127225129092391  0.7494734666128086
  0.5004757552392554  0.4126529458634901  0.2502347986710539
  0.5001990176426584  0.4123620858686590  0.7495696325527775
  0.5018499132968557  0.9116927204525526  0.2501958993158840
  0.5004681785388040  0.9117645519689420  0.7495009019294202
  0.8340045256477401  0.4134239472746767  0.2495872549571369
  0.8331046874323842  0.4126202973788076  0.7501515181369985
  0.8340335461471549  0.9117551597470989  0.2502977559435944
  0.8336119220430883  0.9112442067808134  0.7488130589297324
 -0.0037104708974160  0.0862228702194710  0.0004298616849886
  0.0000841712105902  0.0895404823835142  0.5001562675071216
 -0.0027512250599873  0.5958786191674681 -0.0012061856900072
 -0.0003347761726496  0.5878410641462335  0.5012266202103259
  0.3351752656833330  0.0866653041412648 -0.0013541170827897
  0.3342631560787804  0.0897868741274673  0.4998330200365668
  0.3333263409073811  0.5890286661119323 -0.0004609016154470
  0.3338973712783191  0.5883328529887888  0.5007309777038490
  0.6676498361790656  0.0879290622708887 -0.0004137661618843
  0.6677408509414404  0.0881835876236557  0.4998733134468148
  0.6657196996280051  0.5872869903767612 -0.0001668806021329
  0.6670016064959778  0.5872613039591863  0.4998925147046630
  0.2060674472538228  0.0494184921317660  0.2616920809186173
  0.0346515921154396  0.1606272769006260  0.3971366212034892
  0.0337640484540653  0.1556029514115536  0.8966627566565589
  0.0343202626145724  0.6572321414175831  0.3974082867196812
  0.0350862506413964  0.6575135404072977  0.8935320770765789
  0.3714761238262786  0.1596319826538330  0.3974006459398939
  0.3721371314930634  0.1555706352252581  0.8940473748177318
  0.3691392306675671  0.6573939824580983  0.3967246402284996
  0.3694234050271560  0.6565931421772258  0.8953678099919762
  0.7033540254335422  0.1573718597320949  0.3959068536569482
  0.7018156736258525  0.1569819331320623  0.8946821714722208
  0.7024695922077285  0.6564411542538565  0.3959315625599587
  0.7009648390501783  0.6564670206575584  0.8955960528939142
  0.1996014374257934  0.0527876701015444  0.7496688297957300
  0.1984812379003620  0.5599714847904006  0.2535563134777544
  0.2002355560585004  0.5524548093538442  0.7509297969317063
  0.5356562331017645  0.0515161255825404  0.2500450424048257
  0.5346809276898750  0.0512598658759109  0.7493181194676840
  0.5342138497929996  0.5524674644065793  0.2500649814597517
  0.5339950069037680  0.5520493804288519  0.7495461875194483
  0.8686507387835720  0.0506036430181995  0.2499554025741454
  0.8676633824438637  0.0507367143681684  0.7488644441476086
  0.8672776427759198  0.5533862312099833  0.2497885197486280
  0.8669606140363982  0.5522025714258805  0.7502796727583989
  0.0613832843118449  0.4138147434032620  0.2492049911408643
  0.0610429154783039  0.4100010493230253  0.7531932626896851
  0.0606518189426861  0.9006690427502604  0.2493620098254963
  0.0611657869036527  0.9086910453450487  0.7489046335400994
  0.3949017765277408  0.4100910464854588  0.2506303079963808
  0.3944956768364924  0.4100220696643556  0.7489276718394099
  0.3965042423951302  0.9082359169941883  0.2498412793597856
  0.3948354583346854  0.9089625078500445  0.7495949130673342
  0.7284870223425879  0.4095975804428735  0.2492398306584823
  0.7276887876150178  0.4092859065206060  0.7502079854647046
  0.7282886833018285  0.9093507092874987  0.2500210464511319
  0.7279832632378185  0.9085654645295619  0.7494702896236506
  0.2311221508374647  0.0870827511372944 -0.0043055542668206
  0.2285434693207858  0.0944305795269534  0.4996629667733505
  0.2274064776220571  0.5934310851583977 -0.0010848087317476
  0.2281866147187033  0.5911463711312875  0.5019481419742551
  0.5621841050911622  0.0909413395896939  0.0003078177448376
  0.5620968065009473  0.0910712313714760  0.4999691243341854
  0.5601666484125291  0.5897126701533912  0.0000386992463426
  0.5613703445963156  0.5896105949831507  0.4998489845554989
  0.8903387982631400  0.0862683081255703 -0.0056781780936307
  0.8942798095975789  0.0912738141892765  0.5003347157445306
  0.8920414975659379  0.5910581616803326 -0.0010919872699872
  0.8939503331673158  0.5893309686821956  0.5012486590229850
  0.2051765246468598  0.3568088030085854  0.1457188742724068
  0.2010542728357850  0.3439010662680707  0.6468232726170761
  0.2009910315964045  0.8389760416491577  0.1450890156670051
  0.2023336123926875  0.8442977296698397  0.6451154328160528
  0.5356777094056236  0.3437196556791643  0.1460709234971641
  0.5359408140155366  0.3429579923442384  0.6460877011193449
  0.5377364148069862  0.8424788761222546  0.1464551438770739
  0.5357257549469350  0.8427939290381183  0.6453604017181558
  0.8701789946691761  0.3454588627064725  0.1449181618755034
  0.8697016009299029  0.3429611701999319  0.6473595749178173
  0.8684714387509219  0.8414646091974544  0.1460669894146047
  0.8689119475512723  0.8423324856637392  0.6448633895318531
  0.0245670625802581  0.1541998685378502  0.1054897973287476
  0.0349742914231368  0.1575401019010916  0.6050754252172263
  0.0349136059427611  0.6565954610203718  0.1039257020517456
  0.0348899327482912  0.6569887324111741  0.6051064723670956
  0.3724111820441892  0.1566769949189173  0.1012906419727342
  0.3691428767609959  0.1570738140293454  0.6051516016278831
  0.3691899563597673  0.6563090470565603  0.1035058356786644
  0.3693467218520710  0.6572747260950090  0.6046731719296028
  0.7038615876327695  0.1571327766942883  0.1030017278503383
  0.7028637639521649  0.1572020536985831  0.6040500135885991
  0.7014796037806577  0.6562759751553399  0.1035312007944133
  0.7019972363106245  0.6564356538504115  0.6039969220565404
  0.0341883636305206  0.4484811634211368  0.5014893789314848
  0.0315900207101976  0.9469103505280614 -0.0005141798290073
  0.0341860360656679  0.9499751205126344  0.4994561398664180
  0.3625326954738223  0.4466601384833505 -0.0006514700592714
  0.3674399250418469  0.4484101650224735  0.5006126229859327
  0.3711242646546480  0.9470312207125616 -0.0001007665450409
  0.3671243063192859  0.9494119589314906  0.4995355020614199
  0.6998953509035887  0.4476160141950853 -0.0002748412913840
  0.7013102022564506  0.4476487289290229  0.5001225194000941
  0.7010170505074866  0.9478937658724919 -0.0006896654716573
  0.7016045764339506  0.9484591415017597  0.5001413770700344
  0.2018552637049802  0.3499462796315606  0.3547540792958077
  0.2030637196664659  0.3427999609146268  0.8546551810728876
  0.2017052621243180  0.8381996359768630  0.3558671454581230
  0.2020708448976659  0.8432563649528003  0.8533899565181452
  0.5365225991658024  0.3435478348361382  0.3539777667065280
  0.5347153408568337  0.3435574349159956  0.8542260119207252
  0.5370747346638827  0.8428761518715328  0.3546779931087013
  0.5360280721396160  0.8425253544798158  0.8534663492350576
  0.8700331631881094  0.3439855070228162  0.3529747640294191
  0.8685952579468553  0.3438065692506955  0.8550898073695888
  0.8687318553518992  0.8420153186733177  0.3544374237384073
  0.8689488343917491  0.8410979730038125  0.8526759024455669
 
  0.00000000E+00  0.00000000E+00  0.00000000E+00
  0.00000000E+00  0.00000000E+00  0.00000000E+00
  0.00000000E+00  0.00000000E+00  0.00000000E+00
  0.00000000E+00  0.00000000E+00  0.00000000E+00
  0.00000000E+00  0.00000000E+00  0.00000000E+00
  0.00000000E+00  0.00000000E+00  0.00000000E+00
  0.00000000E+00  0.00000000E+00  0.00000000E+00
  0.00000000E+00  0.00000000E+00  0.00000000E+00
  0.00000000E+00  0.00000000E+00  0.00000000E+00
  0.00000000E+00  0.00000000E+00  0.00000000E+00
  0.00000000E+00  0.00000000E+00  0.00000000E+00
  0.00000000E+00  0.00000000E+00  0.00000000E+00
  0.00000000E+00  0.00000000E+00  0.00000000E+00
  0.00000000E+00  0.00000000E+00  0.00000000E+00
  0.00000000E+00  0.00000000E+00  0.00000000E+00
  0.00000000E+00  0.00000000E+00  0.00000000E+00
  0.00000000E+00  0.00000000E+00  0.00000000E+00
  0.00000000E+00  0.00000000E+00  0.00000000E+00
  0.00000000E+00  0.00000000E+00  0.00000000E+00
  0.00000000E+00  0.00000000E+00  0.00000000E+00
  0.00000000E+00  0.00000000E+00  0.00000000E+00
  0.00000000E+00  0.00000000E+00  0.00000000E+00
  0.00000000E+00  0.00000000E+00  0.00000000E+00
  0.00000000E+00  0.00000000E+00  0.00000000E+00
  0.00000000E+00  0.00000000E+00  0.00000000E+00
  0.00000000E+00  0.00000000E+00  0.00000000E+00
  0.00000000E+00  0.00000000E+00  0.00000000E+00
  0.00000000E+00  0.00000000E+00  0.00000000E+00
  0.00000000E+00  0.00000000E+00  0.00000000E+00
  0.00000000E+00  0.00000000E+00  0.00000000E+00
  0.00000000E+00  0.00000000E+00  0.00000000E+00
  0.00000000E+00  0.00000000E+00  0.00000000E+00
  0.00000000E+00  0.00000000E+00  0.00000000E+00
  0.00000000E+00  0.00000000E+00  0.00000000E+00
  0.00000000E+00  0.00000000E+00  0.00000000E+00
  0.00000000E+00  0.00000000E+00  0.00000000E+00
  0.00000000E+00  0.00000000E+00  0.00000000E+00
  0.00000000E+00  0.00000000E+00  0.00000000E+00
  0.00000000E+00  0.00000000E+00  0.00000000E+00
  0.00000000E+00  0.00000000E+00  0.00000000E+00
  0.00000000E+00  0.00000000E+00  0.00000000E+00
  0.00000000E+00  0.00000000E+00  0.00000000E+00
  0.00000000E+00  0.00000000E+00  0.00000000E+00
  0.00000000E+00  0.00000000E+00  0.00000000E+00
  0.00000000E+00  0.00000000E+00  0.00000000E+00
  0.00000000E+00  0.00000000E+00  0.00000000E+00
  0.00000000E+00  0.00000000E+00  0.00000000E+00
  0.00000000E+00  0.00000000E+00  0.00000000E+00
  0.00000000E+00  0.00000000E+00  0.00000000E+00
  0.00000000E+00  0.00000000E+00  0.00000000E+00
  0.00000000E+00  0.00000000E+00  0.00000000E+00
  0.00000000E+00  0.00000000E+00  0.00000000E+00
  0.00000000E+00  0.00000000E+00  0.00000000E+00
  0.00000000E+00  0.00000000E+00  0.00000000E+00
  0.00000000E+00  0.00000000E+00  0.00000000E+00
  0.00000000E+00  0.00000000E+00  0.00000000E+00
  0.00000000E+00  0.00000000E+00  0.00000000E+00
  0.00000000E+00  0.00000000E+00  0.00000000E+00
  0.00000000E+00  0.00000000E+00  0.00000000E+00
  0.00000000E+00  0.00000000E+00  0.00000000E+00
  0.00000000E+00  0.00000000E+00  0.00000000E+00
  0.00000000E+00  0.00000000E+00  0.00000000E+00
  0.00000000E+00  0.00000000E+00  0.00000000E+00
  0.00000000E+00  0.00000000E+00  0.00000000E+00
  0.00000000E+00  0.00000000E+00  0.00000000E+00
  0.00000000E+00  0.00000000E+00  0.00000000E+00
  0.00000000E+00  0.00000000E+00  0.00000000E+00
  0.00000000E+00  0.00000000E+00  0.00000000E+00
  0.00000000E+00  0.00000000E+00  0.00000000E+00
  0.00000000E+00  0.00000000E+00  0.00000000E+00
  0.00000000E+00  0.00000000E+00  0.00000000E+00
  0.00000000E+00  0.00000000E+00  0.00000000E+00
  0.00000000E+00  0.00000000E+00  0.00000000E+00
  0.00000000E+00  0.00000000E+00  0.00000000E+00
  0.00000000E+00  0.00000000E+00  0.00000000E+00
  0.00000000E+00  0.00000000E+00  0.00000000E+00
  0.00000000E+00  0.00000000E+00  0.00000000E+00
  0.00000000E+00  0.00000000E+00  0.00000000E+00
  0.00000000E+00  0.00000000E+00  0.00000000E+00
  0.00000000E+00  0.00000000E+00  0.00000000E+00
  0.00000000E+00  0.00000000E+00  0.00000000E+00
  0.00000000E+00  0.00000000E+00  0.00000000E+00
  0.00000000E+00  0.00000000E+00  0.00000000E+00
  0.00000000E+00  0.00000000E+00  0.00000000E+00
  0.00000000E+00  0.00000000E+00  0.00000000E+00
  0.00000000E+00  0.00000000E+00  0.00000000E+00
  0.00000000E+00  0.00000000E+00  0.00000000E+00
  0.00000000E+00  0.00000000E+00  0.00000000E+00
  0.00000000E+00  0.00000000E+00  0.00000000E+00
  0.00000000E+00  0.00000000E+00  0.00000000E+00
  0.00000000E+00  0.00000000E+00  0.00000000E+00
  0.00000000E+00  0.00000000E+00  0.00000000E+00
  0.00000000E+00  0.00000000E+00  0.00000000E+00
  0.00000000E+00  0.00000000E+00  0.00000000E+00
  0.00000000E+00  0.00000000E+00  0.00000000E+00
  0.00000000E+00  0.00000000E+00  0.00000000E+00
  0.00000000E+00  0.00000000E+00  0.00000000E+00
  0.00000000E+00  0.00000000E+00  0.00000000E+00
  0.00000000E+00  0.00000000E+00  0.00000000E+00
  0.00000000E+00  0.00000000E+00  0.00000000E+00
  0.00000000E+00  0.00000000E+00  0.00000000E+00
  0.00000000E+00  0.00000000E+00  0.00000000E+00
  0.00000000E+00  0.00000000E+00  0.00000000E+00
  0.00000000E+00  0.00000000E+00  0.00000000E+00
  0.00000000E+00  0.00000000E+00  0.00000000E+00
  0.00000000E+00  0.00000000E+00  0.00000000E+00
  0.00000000E+00  0.00000000E+00  0.00000000E+00
  0.00000000E+00  0.00000000E+00  0.00000000E+00
  0.00000000E+00  0.00000000E+00  0.00000000E+00
  0.00000000E+00  0.00000000E+00  0.00000000E+00
  0.00000000E+00  0.00000000E+00  0.00000000E+00
  0.00000000E+00  0.00000000E+00  0.00000000E+00
  0.00000000E+00  0.00000000E+00  0.00000000E+00
  0.00000000E+00  0.00000000E+00  0.00000000E+00
  0.00000000E+00  0.00000000E+00  0.00000000E+00
  0.00000000E+00  0.00000000E+00  0.00000000E+00
  0.00000000E+00  0.00000000E+00  0.00000000E+00
  0.00000000E+00  0.00000000E+00  0.00000000E+00
  0.00000000E+00  0.00000000E+00  0.00000000E+00
  0.00000000E+00  0.00000000E+00  0.00000000E+00
  0.00000000E+00  0.00000000E+00  0.00000000E+00
  0.00000000E+00  0.00000000E+00  0.00000000E+00
  0.00000000E+00  0.00000000E+00  0.00000000E+00
  0.00000000E+00  0.00000000E+00  0.00000000E+00
  0.00000000E+00  0.00000000E+00  0.00000000E+00
  0.00000000E+00  0.00000000E+00  0.00000000E+00
  0.00000000E+00  0.00000000E+00  0.00000000E+00
  0.00000000E+00  0.00000000E+00  0.00000000E+00
  0.00000000E+00  0.00000000E+00  0.00000000E+00
  0.00000000E+00  0.00000000E+00  0.00000000E+00
  0.00000000E+00  0.00000000E+00  0.00000000E+00
  0.00000000E+00  0.00000000E+00  0.00000000E+00
  0.00000000E+00  0.00000000E+00  0.00000000E+00
  0.00000000E+00  0.00000000E+00  0.00000000E+00
  0.00000000E+00  0.00000000E+00  0.00000000E+00
  0.00000000E+00  0.00000000E+00  0.00000000E+00
  0.00000000E+00  0.00000000E+00  0.00000000E+00
  0.00000000E+00  0.00000000E+00  0.00000000E+00
  0.00000000E+00  0.00000000E+00  0.00000000E+00
  0.00000000E+00  0.00000000E+00  0.00000000E+00
  0.00000000E+00  0.00000000E+00  0.00000000E+00
  0.00000000E+00  0.00000000E+00  0.00000000E+00
  0.00000000E+00  0.00000000E+00  0.00000000E+00
  0.00000000E+00  0.00000000E+00  0.00000000E+00
  0.00000000E+00  0.00000000E+00  0.00000000E+00
  0.00000000E+00  0.00000000E+00  0.00000000E+00
  0.00000000E+00  0.00000000E+00  0.00000000E+00
  0.00000000E+00  0.00000000E+00  0.00000000E+00
  0.00000000E+00  0.00000000E+00  0.00000000E+00
  0.00000000E+00  0.00000000E+00  0.00000000E+00
  0.00000000E+00  0.00000000E+00  0.00000000E+00
  0.00000000E+00  0.00000000E+00  0.00000000E+00
  0.00000000E+00  0.00000000E+00  0.00000000E+00
  0.00000000E+00  0.00000000E+00  0.00000000E+00
  0.00000000E+00  0.00000000E+00  0.00000000E+00
  0.00000000E+00  0.00000000E+00  0.00000000E+00
  0.00000000E+00  0.00000000E+00  0.00000000E+00
  0.00000000E+00  0.00000000E+00  0.00000000E+00
  0.00000000E+00  0.00000000E+00  0.00000000E+00
  0.00000000E+00  0.00000000E+00  0.00000000E+00
  0.00000000E+00  0.00000000E+00  0.00000000E+00
  0.00000000E+00  0.00000000E+00  0.00000000E+00
  0.00000000E+00  0.00000000E+00  0.00000000E+00
  0.00000000E+00  0.00000000E+00  0.00000000E+00
  0.00000000E+00  0.00000000E+00  0.00000000E+00
  0.00000000E+00  0.00000000E+00  0.00000000E+00
  0.00000000E+00  0.00000000E+00  0.00000000E+00
  0.00000000E+00  0.00000000E+00  0.00000000E+00
  0.00000000E+00  0.00000000E+00  0.00000000E+00
  0.00000000E+00  0.00000000E+00  0.00000000E+00
  0.00000000E+00  0.00000000E+00  0.00000000E+00
  0.00000000E+00  0.00000000E+00  0.00000000E+00
  0.00000000E+00  0.00000000E+00  0.00000000E+00
  0.00000000E+00  0.00000000E+00  0.00000000E+00
  0.00000000E+00  0.00000000E+00  0.00000000E+00
  0.00000000E+00  0.00000000E+00  0.00000000E+00
  0.00000000E+00  0.00000000E+00  0.00000000E+00
  0.00000000E+00  0.00000000E+00  0.00000000E+00
  0.00000000E+00  0.00000000E+00  0.00000000E+00
  0.00000000E+00  0.00000000E+00  0.00000000E+00
  0.00000000E+00  0.00000000E+00  0.00000000E+00
  0.00000000E+00  0.00000000E+00  0.00000000E+00
  0.00000000E+00  0.00000000E+00  0.00000000E+00
  0.00000000E+00  0.00000000E+00  0.00000000E+00
  0.00000000E+00  0.00000000E+00  0.00000000E+00
  0.00000000E+00  0.00000000E+00  0.00000000E+00
  0.00000000E+00  0.00000000E+00  0.00000000E+00
  0.00000000E+00  0.00000000E+00  0.00000000E+00
  0.00000000E+00  0.00000000E+00  0.00000000E+00
  0.00000000E+00  0.00000000E+00  0.00000000E+00
