Li7 P2 N1 O7                            
   1.00000000000000     
     4.9177273217363595    0.0000000000000000    0.0273312616692015
     0.0000000000000000    6.2036540536234694    0.0000000000000000
     0.0298874210997202    0.0000000000000000    5.3574675250632016
   Li   P    N    O 
     7     2     1     7
Direct
  0.0242068485514973  0.5000000000000000  0.1561925657686906
  0.5274844753491749  0.7320172765466275  0.3063904491431843
  0.5274844753491749  0.2679827234533721  0.3063904491431843
 -0.0153068595379278  0.7449872645367536  0.6835714163610982
 -0.0153068595379278  0.2550127354632466  0.6835714163610982
  0.5469558013099705  0.0000000000000000  0.8973406981282144
  0.3041794484341390  0.0000000000000000  0.5588692356899777
  0.4890221141456026  0.5000000000000000  0.8108292353431816
  0.0193748206201139  0.0000000000000000  0.1643860613079361
  0.1082816241013438  0.0000000000000000  0.8825173055507766
  0.1269024469445382  0.2029300838889306  0.3247243945739370
  0.1269024469445382  0.7970699161110694  0.3247243945739370
  0.6072463335928230  0.5000000000000000  0.0812456027391552
  0.1744830271658606  0.5000000000000000  0.8204404364527792
  0.6979963560108096  0.0000000000000000  0.2133453415767689
  0.5916117502781479  0.7069446018567850  0.6711904986430400
  0.5916117502781479  0.2930553981432149  0.6711904986430400
 
  0.00000000E+00  0.00000000E+00  0.00000000E+00
  0.00000000E+00  0.00000000E+00  0.00000000E+00
  0.00000000E+00  0.00000000E+00  0.00000000E+00
  0.00000000E+00  0.00000000E+00  0.00000000E+00
  0.00000000E+00  0.00000000E+00  0.00000000E+00
  0.00000000E+00  0.00000000E+00  0.00000000E+00
  0.00000000E+00  0.00000000E+00  0.00000000E+00
  0.00000000E+00  0.00000000E+00  0.00000000E+00
  0.00000000E+00  0.00000000E+00  0.00000000E+00
  0.00000000E+00  0.00000000E+00  0.00000000E+00
  0.00000000E+00  0.00000000E+00  0.00000000E+00
  0.00000000E+00  0.00000000E+00  0.00000000E+00
  0.00000000E+00  0.00000000E+00  0.00000000E+00
  0.00000000E+00  0.00000000E+00  0.00000000E+00
  0.00000000E+00  0.00000000E+00  0.00000000E+00
  0.00000000E+00  0.00000000E+00  0.00000000E+00
  0.00000000E+00  0.00000000E+00  0.00000000E+00
