Li7 P2 N1 O7                            
   1.00000000000000     
     4.9622549682161736    0.0008812764857091   -0.0742836085010496
     0.0005370746948405    5.4485913828849908   -0.0753483865225421
    -0.1003583964622001   -0.0882579746523208    6.2726194176191417
   Li   P    N    O 
     7     2     1     7
Direct
  0.1668081898031968  0.6614918862952829  0.2104970433295320
 -0.0069003390520348  0.6796790740205408  0.7325624131710288
  0.5229182641315397  0.3193216517355330  0.7566917133281650
  0.5057176968808431  0.8371834248877879 -0.0294758455060513
  0.0428480882539986  0.1808444199568033  0.5279853875075936
  0.5256378232888501  0.3431731345327088  0.2752887522041883
  0.8015443383890025  0.9506797977595886  0.2732978543211479
  0.4745636258190519  0.8152426878437692  0.5137427809524653
  0.0139998459706805  0.1816663057034361  0.0066919769915757
  0.5841443971784764  0.6649701781989282  0.7046872185310141
  0.1058048695725131  0.3179873362522018  0.8094989365780791
  0.5957786688070562  0.0903032744682834  0.5006499426993724
  0.1527132912750533  0.8426091093686757  0.4863508794201888
  0.6989267333935058  0.1717107041693875  0.0240810823998191
  0.5460473941832444  0.7003002905718215  0.2783329171531574
  0.1218169553650518  0.3110169950136450  0.2185320970089802
  0.1076601567400026  0.9078997292216102 -0.0003051500902553
 
  0.00000000E+00  0.00000000E+00  0.00000000E+00
  0.00000000E+00  0.00000000E+00  0.00000000E+00
  0.00000000E+00  0.00000000E+00  0.00000000E+00
  0.00000000E+00  0.00000000E+00  0.00000000E+00
  0.00000000E+00  0.00000000E+00  0.00000000E+00
  0.00000000E+00  0.00000000E+00  0.00000000E+00
  0.00000000E+00  0.00000000E+00  0.00000000E+00
  0.00000000E+00  0.00000000E+00  0.00000000E+00
  0.00000000E+00  0.00000000E+00  0.00000000E+00
  0.00000000E+00  0.00000000E+00  0.00000000E+00
  0.00000000E+00  0.00000000E+00  0.00000000E+00
  0.00000000E+00  0.00000000E+00  0.00000000E+00
  0.00000000E+00  0.00000000E+00  0.00000000E+00
  0.00000000E+00  0.00000000E+00  0.00000000E+00
  0.00000000E+00  0.00000000E+00  0.00000000E+00
  0.00000000E+00  0.00000000E+00  0.00000000E+00
  0.00000000E+00  0.00000000E+00  0.00000000E+00
