P56 O140
1.0
8.166914 0.000000 -0.000000
0.000000 8.741067 -0.283502
0.000000 0.000000 57.922765
P O
56 140
direct
0.923152 0.912417 0.967723 P5+
0.076848 0.189028 0.981554 P5+
0.826848 0.412417 0.967723 P5+
0.173152 0.779937 0.936099 P5+
0.423152 0.003326 0.922269 P5+
0.576848 0.279937 0.936099 P5+
0.326848 0.503326 0.922269 P5+
0.673152 0.689028 0.981554 P5+
0.923152 0.094236 0.876814 P5+
0.076848 0.370846 0.890645 P5+
0.826848 0.594236 0.876814 P5+
0.173152 0.961756 0.845190 P5+
0.423152 0.185145 0.831360 P5+
0.576848 0.461756 0.845190 P5+
0.326848 0.685145 0.831360 P5+
0.673152 0.870846 0.890645 P5+
0.923152 0.276054 0.785905 P5+
0.076848 0.552665 0.799736 P5+
0.826848 0.776054 0.785905 P5+
0.173152 0.143574 0.754281 P5+
0.423152 0.366963 0.740451 P5+
0.576848 0.643574 0.754281 P5+
0.326848 0.866963 0.740451 P5+
0.673152 0.052665 0.799736 P5+
0.923152 0.457872 0.694996 P5+
0.076848 0.734483 0.708827 P5+
0.826848 0.957872 0.694996 P5+
0.173152 0.325392 0.663372 P5+
0.423152 0.548781 0.649541 P5+
0.576848 0.825392 0.663372 P5+
0.326848 0.048781 0.649541 P5+
0.673152 0.234483 0.708827 P5+
0.923152 0.639690 0.604087 P5+
0.076848 0.916301 0.617917 P5+
0.826848 0.139690 0.604087 P5+
0.173152 0.507210 0.572463 P5+
0.423152 0.730599 0.558632 P5+
0.576848 0.007210 0.572463 P5+
0.326848 0.230599 0.558632 P5+
0.673152 0.416301 0.617917 P5+
0.923152 0.821508 0.513178 P5+
0.076848 0.098119 0.527008 P5+
0.826848 0.321508 0.513178 P5+
0.173152 0.689028 0.481554 P5+
0.423152 0.912417 0.467723 P5+
0.576848 0.189028 0.481554 P5+
0.326848 0.412417 0.467723 P5+
0.673152 0.598119 0.527008 P5+
0.923152 0.003326 0.422269 P5+
0.076848 0.279937 0.436099 P5+
0.826848 0.503326 0.422269 P5+
0.173152 0.870846 0.390645 P5+
0.423152 0.094236 0.376814 P5+
0.576848 0.370846 0.390645 P5+
0.326848 0.594236 0.376814 P5+
0.673152 0.779937 0.436099 P5+
0.833418 0.984755 0.949249 O2-
0.166582 0.197021 0.959863 O2-
0.416582 0.393846 0.994704 O2-
0.083418 0.787930 0.914408 O2-
0.250000 0.616453 0.941773 O2-
0.000000 0.025544 0.987228 O2-
0.079208 0.811292 0.959842 O2-
0.920791 0.300428 0.984298 O2-
0.170792 0.402201 0.914387 O2-
0.329208 0.891337 0.938844 O2-
0.333418 0.893846 0.994704 O2-
0.666582 0.287930 0.914408 O2-
0.916582 0.484755 0.949249 O2-
0.583418 0.697021 0.959863 O2-
0.750000 0.525544 0.987228 O2-
0.500000 0.116453 0.941773 O2-
0.579208 0.902201 0.914387 O2-
0.420792 0.391337 0.938844 O2-
0.670792 0.311292 0.959842 O2-
0.829208 0.800428 0.984298 O2-
0.833418 0.166574 0.858340 O2-
0.166582 0.378839 0.868953 O2-
0.416582 0.575664 0.903795 O2-
0.083418 0.969748 0.823499 O2-
0.250000 0.798272 0.850864 O2-
0.000000 0.207363 0.896319 O2-
0.079208 0.993110 0.868932 O2-
0.920791 0.482246 0.893389 O2-
0.170792 0.584019 0.823478 O2-
0.329208 0.073155 0.847935 O2-
0.333418 0.075664 0.903795 O2-
0.666582 0.469748 0.823499 O2-
0.916582 0.666574 0.858340 O2-
0.583418 0.878839 0.868953 O2-
0.750000 0.707363 0.896319 O2-
0.500000 0.298272 0.850864 O2-
0.579208 0.084019 0.823478 O2-
0.420792 0.573155 0.847935 O2-
0.670792 0.493110 0.868932 O2-
0.829208 0.982246 0.893389 O2-
0.833418 0.348392 0.767431 O2-
0.166582 0.560657 0.778044 O2-
0.416582 0.757483 0.812886 O2-
0.083418 0.151566 0.732590 O2-
0.250000 0.980090 0.759955 O2-
0.000000 0.389181 0.805410 O2-
0.079208 0.174928 0.778023 O2-
0.920791 0.664065 0.802480 O2-
0.170792 0.765837 0.732569 O2-
0.329208 0.254974 0.757026 O2-
0.333418 0.257483 0.812886 O2-
0.666582 0.651566 0.732590 O2-
0.916582 0.848392 0.767431 O2-
0.583418 0.060657 0.778044 O2-
0.750000 0.889181 0.805410 O2-
0.500000 0.480090 0.759955 O2-
0.579208 0.265837 0.732569 O2-
0.420792 0.754974 0.757026 O2-
0.670792 0.674928 0.778023 O2-
0.829208 0.164065 0.802480 O2-
0.833418 0.530210 0.676522 O2-
0.166582 0.742475 0.687135 O2-
0.416582 0.939301 0.721977 O2-
0.083418 0.333384 0.641681 O2-
0.250000 0.161908 0.669046 O2-
0.000000 0.570999 0.714501 O2-
0.079208 0.356746 0.687114 O2-
0.920791 0.845883 0.711571 O2-
0.170792 0.947655 0.641660 O2-
0.329208 0.436792 0.666117 O2-
0.333418 0.439301 0.721977 O2-
0.666582 0.833384 0.641681 O2-
0.916582 0.030210 0.676522 O2-
0.583418 0.242475 0.687135 O2-
0.750000 0.070999 0.714501 O2-
0.500000 0.661908 0.669046 O2-
0.579208 0.447655 0.641660 O2-
0.420792 0.936792 0.666117 O2-
0.670792 0.856746 0.687114 O2-
0.829208 0.345883 0.711571 O2-
0.833418 0.712028 0.585613 O2-
0.166582 0.924294 0.596226 O2-
0.416582 0.121119 0.631068 O2-
0.083418 0.515203 0.550772 O2-
0.250000 0.343726 0.578137 O2-
0.000000 0.752817 0.623591 O2-
0.079208 0.538565 0.596205 O2-
0.920791 0.027701 0.620662 O2-
0.170792 0.129474 0.550751 O2-
0.329208 0.618610 0.575207 O2-
0.333418 0.621119 0.631068 O2-
0.666582 0.015203 0.550772 O2-
0.916582 0.212028 0.585613 O2-
0.583418 0.424294 0.596226 O2-
0.750000 0.252817 0.623591 O2-
0.500000 0.843726 0.578137 O2-
0.579208 0.629474 0.550751 O2-
0.420792 0.118610 0.575207 O2-
0.670792 0.038565 0.596205 O2-
0.829208 0.527701 0.620662 O2-
0.833418 0.893846 0.494704 O2-
0.166582 0.106112 0.505317 O2-
0.416582 0.302937 0.540158 O2-
0.083418 0.697021 0.459863 O2-
0.250000 0.525544 0.487228 O2-
0.000000 0.934635 0.532682 O2-
0.079208 0.720383 0.505296 O2-
0.920791 0.209519 0.529753 O2-
0.170792 0.311292 0.459842 O2-
0.329208 0.800428 0.484298 O2-
0.333418 0.802937 0.540158 O2-
0.666582 0.197021 0.459863 O2-
0.916582 0.393846 0.494704 O2-
0.583418 0.606112 0.505317 O2-
0.750000 0.434635 0.532682 O2-
0.500000 0.025544 0.487228 O2-
0.579208 0.811292 0.459842 O2-
0.420792 0.300428 0.484298 O2-
0.670792 0.220383 0.505296 O2-
0.829208 0.709519 0.529753 O2-
0.833418 0.075664 0.403795 O2-
0.166582 0.287930 0.414408 O2-
0.416582 0.484755 0.449249 O2-
0.083418 0.878839 0.368953 O2-
0.250000 0.707363 0.396319 O2-
0.000000 0.116453 0.441773 O2-
0.079208 0.902201 0.414387 O2-
0.920791 0.391337 0.438844 O2-
0.170792 0.493110 0.368933 O2-
0.329208 0.982246 0.393389 O2-
0.333418 0.984755 0.449249 O2-
0.666582 0.378839 0.368953 O2-
0.916582 0.575664 0.403795 O2-
0.583418 0.787930 0.414408 O2-
0.750000 0.616453 0.441773 O2-
0.500000 0.207363 0.396319 O2-
0.579208 0.993110 0.368933 O2-
0.420792 0.482246 0.393389 O2-
0.670792 0.402201 0.414387 O2-
0.829208 0.891337 0.438844 O2-
