Li71 P24 N1 O94                         
   1.00000000000000     
    14.7180208610083660    0.0018269664706047   -0.0025753154478665
     0.0012705135477523   10.5958628414620151    0.0009473251005781
    -0.0021523725497949    0.0010738604323916   12.3033427907492747
   Li   P    N    O 
    71    24     1    94
Direct
  0.2024737294497672  0.4131652524781413  0.0004530564069581
  0.1702021988422424  0.4226131782622220  0.4987243216097181
  0.1695006107521328  0.9318057865141541  0.0082359289270801
  0.1708418193509184  0.9231621607900974  0.4994504132258224
  0.5007530127119034  0.4215859317101802  0.0004693975003115
  0.5026656922778318  0.4221219709118982  0.4995374621551540
  0.5034069273812442  0.9235133726865191  0.0002475230112920
  0.5021736003788477  0.9238586812809322  0.4993398128935709
  0.8324692946259563  0.4202085776337543  0.0005912819966687
  0.8365482113449250  0.4223719976240082  0.4997100215805362
  0.8347919887351015  0.9209758105184287 -0.0007117952001736
  0.8358388525876970  0.9208851400464856  0.4991435809352693
  0.0126548754973071  0.0741667787938160  0.2461318283364010
  0.0036495795710179  0.0718999885270594  0.7508323221007499
  0.0028644569170412  0.5815805675414708  0.2531806907030403
  0.0023142976938381  0.5768009618803379  0.7471735225655438
  0.3330820510878740  0.0770189295992801  0.2442503822402386
  0.3363981455089129  0.0770041062597397  0.7509468180920673
  0.3359954017330530  0.5785263764650056  0.2509218861350272
  0.3369542953298122  0.5776588778516863  0.7496368562405099
  0.6704313030997889  0.0770362674128061  0.2497309467525081
  0.6689265075746783  0.0762568906700600  0.7493558443187989
  0.6686507686266892  0.5774382589923407  0.2505216826554684
  0.6683054141083498  0.5771729475643362  0.7494358960949596
  0.1698183225740378  0.1621032555542567  0.6269851158373512
  0.1732246474336995  0.6654364972699561  0.1283922146674629
  0.1698767016212466  0.6640243089470388  0.6265095539329947
  0.5022088119911010  0.1626406686412836  0.1261808319730008
  0.5019532184079853  0.1630294277177129  0.6258188828851245
  0.5028660527863887  0.6638758975539149  0.1268599981514330
  0.5026096893417253  0.6635421647904379  0.6257617434491277
  0.8389645162011421  0.1613557500311857  0.1246194345861389
  0.8354299153389323  0.1634630869991481  0.6269428061861069
  0.8329808706293009  0.6651342079478908  0.1294633990355369
  0.8351268737105316  0.6631259358980515  0.6260581590089428
  0.0011850844574571  0.3184160165519445  0.1462934876931029
  0.0046764008016464  0.3349985852387802  0.6209071714111037
  0.0028547496613199  0.8433465354054958  0.1259816948071196
  0.0030363286828498  0.8360066773342879  0.6252886148450880
  0.3348499822675064  0.3304488253719535  0.1272965401423820
  0.3356815087786091  0.3363288604555137  0.6229729853977763
  0.3372059849212537  0.8385279669382342  0.1228198634691061
  0.3361906676155493  0.8371902629750806  0.6230820886025229
  0.6685477512852751  0.3356969437230444  0.1237917596433376
  0.6689836629350334  0.3361423768669038  0.6231467233050324
  0.6689965617207287  0.8373835385334568  0.1238632760312263
  0.6688060310994436  0.8365293980884111  0.6229804648572306
  0.0052702826036198  0.3455669238461966  0.3767693672422376
 -0.0029063274976232  0.3182212725628736  0.8575870584047999
  0.0041848672318102  0.8395904185807913  0.3779922277599481
  0.0025275090673093  0.8424778094727438  0.8760604788597467
  0.3358084433257252  0.3380682251452478  0.3759143658732608
  0.3396098766969337  0.3320709198122130  0.8735596482042717
  0.3354754036752440  0.8368866688550701  0.3760472201860216
  0.3365519320108525  0.8387462066868789  0.8775331723986998
  0.6695491948082787  0.3364561576444143  0.3761292413449960
  0.6679460345632406  0.3361419120758234  0.8761716971050887
  0.6692532473315740  0.8369321136204773  0.3763962761183035
  0.6684706758371700  0.8370682393287410  0.8763222221256290
  0.1767949184995564  0.1671502880772784  0.3623310775102588
  0.1687826904017932  0.1612619928401431  0.8778930749909010
  0.1689519429609496  0.6634263850125883  0.3767374671374110
  0.1722340187744925  0.6657664272079818  0.8730776621095179
  0.5019578891068960  0.1631514128566482  0.3728107314707655
  0.5038033951360474  0.1624428175321523  0.8734600970032610
  0.5025679403405392  0.6636738703147885  0.3739026144899971
  0.5027409306854749  0.6639240879398386  0.8731289503161550
  0.8383267192298369  0.1633996993622341  0.3719345501846540
  0.8331331728086115  0.1609844568648395  0.8713958554488548
  0.8363233835507022  0.6641245551582596  0.3747026612507187
  0.8327013181936788  0.6643165243885798  0.8704135012105277
  0.1684226256083486  0.4192715404346944  0.2481763477038461
  0.1671406329871483  0.4123411916101390  0.7508497816864730
  0.1695429652487007  0.9089904817782367  0.2528907828742897
  0.1677313081485508  0.9115359472263557  0.7506856269446409
  0.5004444835405542  0.4124020766552879  0.2500267337257196
  0.5002384442209861  0.4123480003191349  0.7495318143949314
  0.5008788791622443  0.9122518713018831  0.2502505257234898
  0.5003704805234107  0.9119724090329033  0.7493710249606957
  0.8336459595229648  0.4142183419648707  0.2494217362379412
  0.8332603783655945  0.4125647054086832  0.7501371586051351
  0.8340436152740199  0.9119969528489649  0.2501371667902395
  0.8331095057341651  0.9108819179155968  0.7491794202233391
 -0.0038396074641600  0.0868302127746090 -0.0001608075402431
  0.0002189181817317  0.0865636251748129  0.5035468772495115
 -0.0018376401806381  0.5970490040015416 -0.0001909658584178
 -0.0001052578943571  0.5892658554116684  0.5016598525486795
  0.3350143726577171  0.0869807281170516 -0.0018753915679618
  0.3325413958816807  0.0893196105047581  0.4990024853400180
  0.3335655873965183  0.5890674779564478 -0.0005217292508934
  0.3339668029145267  0.5876789427901554  0.5007621903238304
  0.6674108064152462  0.0879714212931425 -0.0001633456769338
  0.6673898769883784  0.0881756583036722  0.4996622779189938
  0.6658673217082758  0.5874219171227362 -0.0000759223752335
  0.6670148478144730  0.5873603429935512  0.4999863454077800
  0.0297850691742432  0.1624710036100902  0.3941904885010689
  0.0334135527056109  0.1548984758868678  0.8956032669546417
  0.0343687510154830  0.6587821978024957  0.3979909131693765
  0.0355313027549582  0.6576359445447616  0.8940771042526493
  0.3681848553931118  0.1586168046076634  0.3954035025523353
  0.3728315804952481  0.1563031513656340  0.8944175416083546
  0.3694912277444677  0.6568067125269791  0.3971374047498343
  0.3695550741983777  0.6566483729494439  0.8954617131292457
  0.7034104857852500  0.1572232783061884  0.3960422440688500
  0.7015207873500307  0.1568307528408018  0.8949964928855386
  0.7024599806995631  0.6567880144296376  0.3962961195342750
  0.7012214846881129  0.6564461105275254  0.8958746445705025
  0.2043898872131590  0.0452296335130752  0.2566277222128604
  0.2003057940871985  0.0514548253264428  0.7499726124092394
  0.2006544937461058  0.5597798682247191  0.2535619478118971
  0.2002700574370047  0.5519373800921487  0.7508929758673804
  0.5353399831232392  0.0515731035235004  0.2501258548965756
  0.5345148215860903  0.0514252201406371  0.7490836283774378
  0.5343690426621565  0.5520342120569025  0.2501496394215843
  0.5340094961627277  0.5519476478068462  0.7495195028676918
  0.8677847506486792  0.0511397364157857  0.2491957995508226
  0.8670964616902265  0.0503082577559900  0.7489199402515674
  0.8669122783603296  0.5541179336751586  0.2496474181444905
  0.8670245407479769  0.5520669982281319  0.7505657387788958
  0.0618669207188408  0.4178878312282535  0.2477249794922954
  0.0607890820669168  0.4098236416259884  0.7524874526414318
  0.0632325471063057  0.9047517529735366  0.2508720830003961
  0.0616696349045059  0.9073319045379983  0.7509321846080986
  0.3947749164997351  0.4100585156712428  0.2501878868163053
  0.3944347670672429  0.4097856028590973  0.7489050366356175
  0.3952921521893458  0.9094534391732226  0.2500559348114844
  0.3946670431999837  0.9092153569733006  0.7494758493758319
  0.7280007181852269  0.4102773426925059  0.2490022348659104
  0.7276994585809154  0.4091587471433252  0.7501232446389935
  0.7281513084785967  0.9085080404845097  0.2499180796992492
  0.7273628557212609  0.9082783221679380  0.7498892171647862
  0.2310580575020652  0.0874740562971276 -0.0061167208997500
  0.2266148124120676  0.0933034749843909  0.4988283406307667
  0.2275662474803751  0.5939062037181952 -0.0006389388290530
  0.2281893048716018  0.5898370306232229  0.5017545708329137
  0.5618289096697756  0.0910686275557695  0.0005697955292848
  0.5615792086671163  0.0913629476266495  0.4994630980757138
  0.5602100969116596  0.5898193692180460 -0.0000458115510168
  0.5612714139027913  0.5896658701377375  0.4998436275519744
  0.8900679468478688  0.0861439338740985 -0.0061999457972638
  0.8939610515214989  0.0890118655096445  0.5011756415779530
  0.8928276255908979  0.5913900002098739 -0.0002348964465306
  0.8939983731168769  0.5900683105410209  0.5014108444642676
  0.2049063154809341  0.3570771017739235  0.1442959253698380
  0.2008261801256121  0.3433439944661575  0.6465275860667541
  0.2045494792863587  0.8407105382669111  0.1479553164503294
  0.2026893321545897  0.8426513113835917  0.6464230612780907
  0.5355323335985973  0.3435006872420925  0.1458547809749860
  0.5358648777610816  0.3428650720396407  0.6460242677670598
  0.5364513703745091  0.8427324670910412  0.1465278775347420
  0.5354400360876137  0.8429732822764568  0.6451744666970142
  0.8698464265838594  0.3459749491576086  0.1450305737293820
  0.8698139099285348  0.3429007002533903  0.6473300401360719
  0.8690729623335565  0.8418588500942179  0.1461926765263674
  0.8681623601015215  0.8417950381689668  0.6452785901032057
  0.0242118971925513  0.1562939202084259  0.1040477705073489
  0.0348445203301148  0.1536441190219026  0.6093506463130038
  0.0358111219152338  0.6593348604508128  0.1043575644722316
  0.0348307118456737  0.6578524349087851  0.6059233895525096
  0.3711498222755255  0.1562724468928205  0.1019201497757533
  0.3680076705402798  0.1575403968667231  0.6035583432842316
  0.3698394980768029  0.6561292045674466  0.1034002193556202
  0.3692857010739864  0.6567031551893935  0.6047830568541176
  0.7037559999717856  0.1572494106942980  0.1031720174463200
  0.7025126040291274  0.1570110948628085  0.6039991372942757
  0.7014500065288760  0.6566570404388671  0.1036604819317732
  0.7019504059168241  0.6563669640234393  0.6042245999904695
  0.0347508257354582  0.4503834261086836  0.5019031890821970
  0.0318926942325454  0.9478240212219926  0.0004197935747608
  0.0342647336352509  0.9468290136126842  0.5049220013639082
  0.3627667053351259  0.4468750339144538 -0.0010721413339943
  0.3676700895411419  0.4479223459962365  0.5005203637785205
  0.3712340347225803  0.9475981484571464 -0.0004568093307925
  0.3661988518642847  0.9495464107065407  0.4993567827443967
  0.7001020702325396  0.4479250016787492 -0.0001564641854760
  0.7012763893473226  0.4478594452927298  0.4999915931160721
  0.7006842277093696  0.9480168663392988 -0.0003445249626985
  0.7009568099943680  0.9484100962305266  0.4999514409939897
  0.2020834232929989  0.3481381496286783  0.3523142828801568
  0.2027253544700528  0.3426244584013716  0.8542663495976679
  0.2023309599334268  0.8364978005840397  0.3569278824685538
  0.2029789004327606  0.8426879707938560  0.8544570611317334
  0.5361142441191016  0.3430391534854861  0.3537403127303807
  0.5349737364846717  0.3437796269469566  0.8540275413847196
  0.5360128868455111  0.8431265090415996  0.3544907824879112
  0.5359948248229126  0.8428311241229771  0.8531923332797451
  0.8695785676405686  0.3452133989904005  0.3528971105527416
  0.8686227113249795  0.3437667816649521  0.8549735872214124
  0.8693056034389697  0.8430848418715386  0.3542613959529806
  0.8687560670993145  0.8411548916088458  0.8529348942711437
 
  0.00000000E+00  0.00000000E+00  0.00000000E+00
  0.00000000E+00  0.00000000E+00  0.00000000E+00
  0.00000000E+00  0.00000000E+00  0.00000000E+00
  0.00000000E+00  0.00000000E+00  0.00000000E+00
  0.00000000E+00  0.00000000E+00  0.00000000E+00
  0.00000000E+00  0.00000000E+00  0.00000000E+00
  0.00000000E+00  0.00000000E+00  0.00000000E+00
  0.00000000E+00  0.00000000E+00  0.00000000E+00
  0.00000000E+00  0.00000000E+00  0.00000000E+00
  0.00000000E+00  0.00000000E+00  0.00000000E+00
  0.00000000E+00  0.00000000E+00  0.00000000E+00
  0.00000000E+00  0.00000000E+00  0.00000000E+00
  0.00000000E+00  0.00000000E+00  0.00000000E+00
  0.00000000E+00  0.00000000E+00  0.00000000E+00
  0.00000000E+00  0.00000000E+00  0.00000000E+00
  0.00000000E+00  0.00000000E+00  0.00000000E+00
  0.00000000E+00  0.00000000E+00  0.00000000E+00
  0.00000000E+00  0.00000000E+00  0.00000000E+00
  0.00000000E+00  0.00000000E+00  0.00000000E+00
  0.00000000E+00  0.00000000E+00  0.00000000E+00
  0.00000000E+00  0.00000000E+00  0.00000000E+00
  0.00000000E+00  0.00000000E+00  0.00000000E+00
  0.00000000E+00  0.00000000E+00  0.00000000E+00
  0.00000000E+00  0.00000000E+00  0.00000000E+00
  0.00000000E+00  0.00000000E+00  0.00000000E+00
  0.00000000E+00  0.00000000E+00  0.00000000E+00
  0.00000000E+00  0.00000000E+00  0.00000000E+00
  0.00000000E+00  0.00000000E+00  0.00000000E+00
  0.00000000E+00  0.00000000E+00  0.00000000E+00
  0.00000000E+00  0.00000000E+00  0.00000000E+00
  0.00000000E+00  0.00000000E+00  0.00000000E+00
  0.00000000E+00  0.00000000E+00  0.00000000E+00
  0.00000000E+00  0.00000000E+00  0.00000000E+00
  0.00000000E+00  0.00000000E+00  0.00000000E+00
  0.00000000E+00  0.00000000E+00  0.00000000E+00
  0.00000000E+00  0.00000000E+00  0.00000000E+00
  0.00000000E+00  0.00000000E+00  0.00000000E+00
  0.00000000E+00  0.00000000E+00  0.00000000E+00
  0.00000000E+00  0.00000000E+00  0.00000000E+00
  0.00000000E+00  0.00000000E+00  0.00000000E+00
  0.00000000E+00  0.00000000E+00  0.00000000E+00
  0.00000000E+00  0.00000000E+00  0.00000000E+00
  0.00000000E+00  0.00000000E+00  0.00000000E+00
  0.00000000E+00  0.00000000E+00  0.00000000E+00
  0.00000000E+00  0.00000000E+00  0.00000000E+00
  0.00000000E+00  0.00000000E+00  0.00000000E+00
  0.00000000E+00  0.00000000E+00  0.00000000E+00
  0.00000000E+00  0.00000000E+00  0.00000000E+00
  0.00000000E+00  0.00000000E+00  0.00000000E+00
  0.00000000E+00  0.00000000E+00  0.00000000E+00
  0.00000000E+00  0.00000000E+00  0.00000000E+00
  0.00000000E+00  0.00000000E+00  0.00000000E+00
  0.00000000E+00  0.00000000E+00  0.00000000E+00
  0.00000000E+00  0.00000000E+00  0.00000000E+00
  0.00000000E+00  0.00000000E+00  0.00000000E+00
  0.00000000E+00  0.00000000E+00  0.00000000E+00
  0.00000000E+00  0.00000000E+00  0.00000000E+00
  0.00000000E+00  0.00000000E+00  0.00000000E+00
  0.00000000E+00  0.00000000E+00  0.00000000E+00
  0.00000000E+00  0.00000000E+00  0.00000000E+00
  0.00000000E+00  0.00000000E+00  0.00000000E+00
  0.00000000E+00  0.00000000E+00  0.00000000E+00
  0.00000000E+00  0.00000000E+00  0.00000000E+00
  0.00000000E+00  0.00000000E+00  0.00000000E+00
  0.00000000E+00  0.00000000E+00  0.00000000E+00
  0.00000000E+00  0.00000000E+00  0.00000000E+00
  0.00000000E+00  0.00000000E+00  0.00000000E+00
  0.00000000E+00  0.00000000E+00  0.00000000E+00
  0.00000000E+00  0.00000000E+00  0.00000000E+00
  0.00000000E+00  0.00000000E+00  0.00000000E+00
  0.00000000E+00  0.00000000E+00  0.00000000E+00
  0.00000000E+00  0.00000000E+00  0.00000000E+00
  0.00000000E+00  0.00000000E+00  0.00000000E+00
  0.00000000E+00  0.00000000E+00  0.00000000E+00
  0.00000000E+00  0.00000000E+00  0.00000000E+00
  0.00000000E+00  0.00000000E+00  0.00000000E+00
  0.00000000E+00  0.00000000E+00  0.00000000E+00
  0.00000000E+00  0.00000000E+00  0.00000000E+00
  0.00000000E+00  0.00000000E+00  0.00000000E+00
  0.00000000E+00  0.00000000E+00  0.00000000E+00
  0.00000000E+00  0.00000000E+00  0.00000000E+00
  0.00000000E+00  0.00000000E+00  0.00000000E+00
  0.00000000E+00  0.00000000E+00  0.00000000E+00
  0.00000000E+00  0.00000000E+00  0.00000000E+00
  0.00000000E+00  0.00000000E+00  0.00000000E+00
  0.00000000E+00  0.00000000E+00  0.00000000E+00
  0.00000000E+00  0.00000000E+00  0.00000000E+00
  0.00000000E+00  0.00000000E+00  0.00000000E+00
  0.00000000E+00  0.00000000E+00  0.00000000E+00
  0.00000000E+00  0.00000000E+00  0.00000000E+00
  0.00000000E+00  0.00000000E+00  0.00000000E+00
  0.00000000E+00  0.00000000E+00  0.00000000E+00
  0.00000000E+00  0.00000000E+00  0.00000000E+00
  0.00000000E+00  0.00000000E+00  0.00000000E+00
  0.00000000E+00  0.00000000E+00  0.00000000E+00
  0.00000000E+00  0.00000000E+00  0.00000000E+00
  0.00000000E+00  0.00000000E+00  0.00000000E+00
  0.00000000E+00  0.00000000E+00  0.00000000E+00
  0.00000000E+00  0.00000000E+00  0.00000000E+00
  0.00000000E+00  0.00000000E+00  0.00000000E+00
  0.00000000E+00  0.00000000E+00  0.00000000E+00
  0.00000000E+00  0.00000000E+00  0.00000000E+00
  0.00000000E+00  0.00000000E+00  0.00000000E+00
  0.00000000E+00  0.00000000E+00  0.00000000E+00
  0.00000000E+00  0.00000000E+00  0.00000000E+00
  0.00000000E+00  0.00000000E+00  0.00000000E+00
  0.00000000E+00  0.00000000E+00  0.00000000E+00
  0.00000000E+00  0.00000000E+00  0.00000000E+00
  0.00000000E+00  0.00000000E+00  0.00000000E+00
  0.00000000E+00  0.00000000E+00  0.00000000E+00
  0.00000000E+00  0.00000000E+00  0.00000000E+00
  0.00000000E+00  0.00000000E+00  0.00000000E+00
  0.00000000E+00  0.00000000E+00  0.00000000E+00
  0.00000000E+00  0.00000000E+00  0.00000000E+00
  0.00000000E+00  0.00000000E+00  0.00000000E+00
  0.00000000E+00  0.00000000E+00  0.00000000E+00
  0.00000000E+00  0.00000000E+00  0.00000000E+00
  0.00000000E+00  0.00000000E+00  0.00000000E+00
  0.00000000E+00  0.00000000E+00  0.00000000E+00
  0.00000000E+00  0.00000000E+00  0.00000000E+00
  0.00000000E+00  0.00000000E+00  0.00000000E+00
  0.00000000E+00  0.00000000E+00  0.00000000E+00
  0.00000000E+00  0.00000000E+00  0.00000000E+00
  0.00000000E+00  0.00000000E+00  0.00000000E+00
  0.00000000E+00  0.00000000E+00  0.00000000E+00
  0.00000000E+00  0.00000000E+00  0.00000000E+00
  0.00000000E+00  0.00000000E+00  0.00000000E+00
  0.00000000E+00  0.00000000E+00  0.00000000E+00
  0.00000000E+00  0.00000000E+00  0.00000000E+00
  0.00000000E+00  0.00000000E+00  0.00000000E+00
  0.00000000E+00  0.00000000E+00  0.00000000E+00
  0.00000000E+00  0.00000000E+00  0.00000000E+00
  0.00000000E+00  0.00000000E+00  0.00000000E+00
  0.00000000E+00  0.00000000E+00  0.00000000E+00
  0.00000000E+00  0.00000000E+00  0.00000000E+00
  0.00000000E+00  0.00000000E+00  0.00000000E+00
  0.00000000E+00  0.00000000E+00  0.00000000E+00
  0.00000000E+00  0.00000000E+00  0.00000000E+00
  0.00000000E+00  0.00000000E+00  0.00000000E+00
  0.00000000E+00  0.00000000E+00  0.00000000E+00
  0.00000000E+00  0.00000000E+00  0.00000000E+00
  0.00000000E+00  0.00000000E+00  0.00000000E+00
  0.00000000E+00  0.00000000E+00  0.00000000E+00
  0.00000000E+00  0.00000000E+00  0.00000000E+00
  0.00000000E+00  0.00000000E+00  0.00000000E+00
  0.00000000E+00  0.00000000E+00  0.00000000E+00
  0.00000000E+00  0.00000000E+00  0.00000000E+00
  0.00000000E+00  0.00000000E+00  0.00000000E+00
  0.00000000E+00  0.00000000E+00  0.00000000E+00
  0.00000000E+00  0.00000000E+00  0.00000000E+00
  0.00000000E+00  0.00000000E+00  0.00000000E+00
  0.00000000E+00  0.00000000E+00  0.00000000E+00
  0.00000000E+00  0.00000000E+00  0.00000000E+00
  0.00000000E+00  0.00000000E+00  0.00000000E+00
  0.00000000E+00  0.00000000E+00  0.00000000E+00
  0.00000000E+00  0.00000000E+00  0.00000000E+00
  0.00000000E+00  0.00000000E+00  0.00000000E+00
  0.00000000E+00  0.00000000E+00  0.00000000E+00
  0.00000000E+00  0.00000000E+00  0.00000000E+00
  0.00000000E+00  0.00000000E+00  0.00000000E+00
  0.00000000E+00  0.00000000E+00  0.00000000E+00
  0.00000000E+00  0.00000000E+00  0.00000000E+00
  0.00000000E+00  0.00000000E+00  0.00000000E+00
  0.00000000E+00  0.00000000E+00  0.00000000E+00
  0.00000000E+00  0.00000000E+00  0.00000000E+00
  0.00000000E+00  0.00000000E+00  0.00000000E+00
  0.00000000E+00  0.00000000E+00  0.00000000E+00
  0.00000000E+00  0.00000000E+00  0.00000000E+00
  0.00000000E+00  0.00000000E+00  0.00000000E+00
  0.00000000E+00  0.00000000E+00  0.00000000E+00
  0.00000000E+00  0.00000000E+00  0.00000000E+00
  0.00000000E+00  0.00000000E+00  0.00000000E+00
  0.00000000E+00  0.00000000E+00  0.00000000E+00
  0.00000000E+00  0.00000000E+00  0.00000000E+00
  0.00000000E+00  0.00000000E+00  0.00000000E+00
  0.00000000E+00  0.00000000E+00  0.00000000E+00
  0.00000000E+00  0.00000000E+00  0.00000000E+00
  0.00000000E+00  0.00000000E+00  0.00000000E+00
  0.00000000E+00  0.00000000E+00  0.00000000E+00
  0.00000000E+00  0.00000000E+00  0.00000000E+00
  0.00000000E+00  0.00000000E+00  0.00000000E+00
  0.00000000E+00  0.00000000E+00  0.00000000E+00
  0.00000000E+00  0.00000000E+00  0.00000000E+00
  0.00000000E+00  0.00000000E+00  0.00000000E+00
  0.00000000E+00  0.00000000E+00  0.00000000E+00
  0.00000000E+00  0.00000000E+00  0.00000000E+00
  0.00000000E+00  0.00000000E+00  0.00000000E+00
  0.00000000E+00  0.00000000E+00  0.00000000E+00
  0.00000000E+00  0.00000000E+00  0.00000000E+00
  0.00000000E+00  0.00000000E+00  0.00000000E+00
