Li71 P24 N1 O94                         
   1.00000000000000     
    14.7344068379170263    0.0061025822194019   -0.0013702154585827
     0.0043771610077061   10.5728243206101205    0.0008819159817407
    -0.0011748989676727    0.0010089939451604   12.3261125849064328
   Li   P    N    O 
    71    24     1    94
Direct
  0.1738993636037163  0.4242706337779910 -0.0015513112839547
  0.1681621712072404  0.4245222233930588  0.5017635030828911
  0.1682770908650907  0.9217766864814460 -0.0018411370802036
  0.1684172283954455  0.9226386075683456  0.5016738151991605
  0.5039943792484189  0.4222290700844340 -0.0007676443099187
  0.5035852766432874  0.4223167638478717  0.5007318310459992
  0.5042824143726300  0.9222766407967420 -0.0010124030270312
  0.5041876129673863  0.9228047976318121  0.5010358162689754
  0.8400632728512119  0.4252859801270203 -0.0001385900196634
  0.8366739059138764  0.4230786728851882  0.4999405218314824
  0.8356128722500187  0.9240545951874375  0.0004620844322691
  0.8357877063241249  0.9253696320557789  0.4995557032176566
  0.0005111894069032  0.0726068060117563  0.7496540736106015
  0.0013348543753122  0.5802592175138930  0.2502101839879974
  0.0017828984963070  0.5770413948193793  0.7500098285580645
  0.3709464411979231  0.0837306198758102  0.2499315079471350
  0.3367605491038752  0.0766185743870102  0.7499631065243539
  0.3375209837595738  0.5777373724672353  0.2496523697574485
  0.3369617130138666  0.5771260316604629  0.7502331708068075
  0.6783678220580117  0.0758865801983614  0.2502687040821229
  0.6697968486517349  0.0770585028130363  0.7497554328144388
  0.6701579086788507  0.5788806884181440  0.2500972719793551
  0.6697306573343430  0.5773392336644707  0.7498595495374885
  0.1636848006742326  0.1784597309825655  0.1094588951642394
  0.1681145148675947  0.1613061445588334  0.6285921912526373
  0.1674454394323527  0.6587337168346410  0.1232044944825516
  0.1692356738497083  0.6624568817342292  0.6269817545785741
  0.5081209468366711  0.1650680445944701  0.1238351432000999
  0.5028932680590069  0.1635470841876403  0.6269136343983726
  0.5047362373299155  0.6619110269789004  0.1258037367906565
  0.5031375649097419  0.6629970300851902  0.6265936542129519
  0.8387682468868198  0.1622611506229770  0.1273820180294430
  0.8360263474323756  0.1642647652023418  0.6265931706123162
  0.8344007485771791  0.6666305132973127  0.1269510656556434
  0.8356187228525733  0.6638209989799230  0.6263016393093808
 -0.0004859147161633  0.3265156132230539  0.1271221964241015
  0.0027517849550887  0.3352791184071338  0.6250212703193766
 -0.0039486415944663  0.8449943020472074  0.1242595626213649
  0.0021852016993399  0.8369422359241819  0.6232230187843470
  0.3383402158867069  0.3373764070907319  0.1235577234103398
  0.3354233027578117  0.3367642061336877  0.6240828976277872
  0.3396470041447459  0.8348928395640869  0.1225265391141745
  0.3368102817931798  0.8361241831819599  0.6237934667869945
  0.6714721954243218  0.3373941566389690  0.1230430437783175
  0.6696470060445133  0.3364770489803892  0.6240787753508722
  0.6688118485367384  0.8346784153419450  0.1217274494549075
  0.6692963771867964  0.8361270941183764  0.6235521581928273
  0.0011734466771778  0.3359786367520571  0.3745800037818259
  0.0008100108071920  0.3279322025911387  0.8752379817573587
 -0.0029167154455976  0.8428936990307688  0.3775606600924797
  0.0010788567147419  0.8385597090191679  0.8750888734357887
  0.3368757443382300  0.3379344037837952  0.3765467390130585
  0.3370576626801451  0.3361520056188031  0.8758239023118342
  0.3396176992036429  0.8351476848061340  0.3776196175576329
  0.3369898487102921  0.8359238590330941  0.8760132192612208
  0.6708353892521532  0.3371660761701040  0.3765454346775473
  0.6703067955102990  0.3366861699030108  0.8758866451079387
  0.6686153864566059  0.8343415640969414  0.3787434587376754
  0.6694188679308704  0.8365607241100312  0.8759227320691900
  0.1629853039803528  0.1783709560492162  0.3892804409620776
  0.1685461399096913  0.1609011263815876  0.8714670772350053
  0.1680618329248076  0.6594308615083290  0.3756238505684995
  0.1691076057683640  0.6620891420633479  0.8738092524396024
  0.5077695483252564  0.1652788767508968  0.3763581630158158
  0.5033635837592974  0.1633439398447648  0.8727583896784993
  0.5036526494129497  0.6619157987918503  0.3743192958724816
  0.5042481794259004  0.6629837595549276  0.8730984186300186
  0.8396724292894425  0.1633345597057572  0.3726371098762872
  0.8356057413438500  0.1631894705637651  0.8734934966967551
  0.8352950064487935  0.6650804780411205  0.3738909927613437
  0.8347056822368750  0.6651531434217255  0.8729610433336464
  0.1674944671933034  0.4134548082082029  0.2493444612139343
  0.1670939802409061  0.4110219299336049  0.7507083844914052
  0.1651121902522407  0.8982538952081124  0.2501715931157797
  0.1678288079542917  0.9100936344736370  0.7497751676144758
  0.5012631525511783  0.4124830391979526  0.2501366829407471
  0.5005261326529041  0.4119794428006834  0.7498213699864050
  0.5006962265199376  0.9099802348310874  0.2501284133517773
  0.5003922172445833  0.9120762104309907  0.7498496797862262
  0.8329340746849934  0.4138619031534285  0.2501276552824879
  0.8331948729340671  0.4127570686635445  0.7497675471813333
  0.8270246836931490  0.9130298564608392  0.2505737589012377
  0.8321882095954519  0.9122395627029799  0.7494473025320901
  0.0009274271948938  0.0872634607481234 -0.0041801108128880
  0.0008187614686691  0.0904999703757532  0.5046390526511969
 -0.0011345303667688  0.5933494546294014 -0.0000216802066379
 -0.0001839127773541  0.5885764552188076  0.5005567275921768
  0.3349494305478378  0.0869302284306938  0.0006656085882789
  0.3344803480739614  0.0875980118566556  0.4991145299142147
  0.3357775017523633  0.5879373766300762 -0.0005458338459056
  0.3341978919283840  0.5870511465563782  0.5004591400111498
  0.6666897932816910  0.0877706792485171 -0.0011558004540632
  0.6667660490531087  0.0880864951746710  0.5011249639878524
  0.6671151498410878  0.5869295681776572 -0.0008745839876880
  0.6667787105475934  0.5868398860639168  0.5007845685600703
  0.0384859272086878  0.4495322177366627 -0.0008639007085810
  0.0392953385323887  0.1675059648927472  0.4089562007567619
  0.0342736779770862  0.1498175978319805  0.8876082615601665
  0.0352004904807184  0.6584051285805846  0.3971350838664585
  0.0342553453914256  0.6596296020392103  0.8945331618203273
  0.3702140629180590  0.1568160463749486  0.3952025836944322
  0.3692016613975507  0.1565351823246061  0.8969651176642244
  0.3697152585730773  0.6554777324804233  0.3964990216954922
  0.3711737898798362  0.6567282918981129  0.8957311216564862
  0.7009859018208082  0.1577385816383471  0.3975317357556181
  0.7017028819149874  0.1564751374275000  0.8948671308638786
  0.7017264340849617  0.6556580692146096  0.3969797516025094
  0.7014065418402646  0.6568726776533238  0.8953102382257095
  0.2022432973631728  0.0497332916779365  0.7498019733891628
  0.2012559099113791  0.5533254649320194  0.2493091458027290
  0.2013624033622416  0.5507015471057614  0.7505137878322208
  0.5291025643764129  0.0526712988834377  0.2502148866311529
  0.5336741405873116  0.0520935571684643  0.7497142015928666
  0.5343275936468321  0.5525066792888421  0.2502283054300858
  0.5340995593281332  0.5518168860900077  0.7496993444150813
  0.8490052377664415  0.0550713800999475  0.2505067669785154
  0.8649078895239187  0.0522509140356696  0.7495740978370904
  0.8664776875172066  0.5539435792987950  0.2498057881388410
  0.8667354290060461  0.5527458902946963  0.7502622165026447
  0.0619939486854312  0.4107282293952579  0.2476078686360232
  0.0613710968874453  0.4092571793152255  0.7524289242627867
  0.0617982441081282  0.8895626882493204  0.2506514296477705
  0.0623184094958147  0.9064438842442412  0.7494812884937520
  0.3954096694353690  0.4089428766360080  0.2501757976027122
  0.3947348083234010  0.4089995392131378  0.7497859800275302
  0.3946330669326695  0.9055111011093545  0.2500215806412379
  0.3946293877755933  0.9092583854712885  0.7499009229794764
  0.7271767082587292  0.4109871282841315  0.2501184865407903
  0.7274571440798676  0.4098946383756544  0.7495859831421018
  0.7212957473333694  0.8985055976508088  0.2505481526335920
  0.7264750297941913  0.9082262313584021  0.7494376220800441
  0.2290149092178304  0.0895465020839664  0.0020367023553833
  0.2285434761744958  0.0902467492063499  0.4975057710373310
  0.2301943201147463  0.5922629077884995 -0.0006066572525097
  0.2284047680715274  0.5901516787499479  0.5005125793005505
  0.5607635987161798  0.0899807584178607 -0.0016910936067244
  0.5608043954569411  0.0903088769746486  0.5016975746189990
  0.5612654916516522  0.5890790369785170 -0.0008193080225243
  0.5609474224381056  0.5898433697974054  0.5007198967178765
  0.8951090346975729  0.0908207474562523 -0.0012791964510427
  0.8950100896855167  0.0920600585871882  0.5015300127693442
  0.8929162068073688  0.5990085453146665  0.0000590538933919
  0.8941360560831980  0.5917278612645367  0.5002931373452264
  0.2052932594297790  0.3432480097584115  0.1472744254757268
  0.2009948914910668  0.3421938374145003  0.6458236588716056
  0.2068890547044993  0.8411185145138694  0.1446557112507153
  0.2034243141004523  0.8415375444267260  0.6457624759225989
  0.5364769447562097  0.3437336848815662  0.1461733457955532
  0.5356482308155306  0.3427537294390687  0.6460710330968030
  0.5358649277561800  0.8427278455102498  0.1459611842027586
  0.5354072138674212  0.8428385050282127  0.6460358317813140
  0.8678859306962952  0.3446213277200376  0.1463780717464373
  0.8687181209604232  0.3443125935812892  0.6458549502664205
  0.8649570052413552  0.8461081472372632  0.1467012669812201
  0.8680698171408731  0.8434455628377195  0.6457682745155285
  0.0400162075091522  0.1615500475453046  0.0925965508187635
  0.0337481279619010  0.1531361422773566  0.6130823267596328
  0.0336299029473935  0.6622201778703091  0.1043622186989264
  0.0352965805310787  0.6569802067947383  0.6046925839187751
  0.3707237503518797  0.1561530024331319  0.1045372980273540
  0.3685464513249572  0.1573017455162375  0.6028758211589353
  0.3715024669267261  0.6558452919086336  0.1035101399868512
  0.3694095752021488  0.6563996250126464  0.6040345010157263
  0.7008939723670720  0.1574106142758465  0.1024654394463565
  0.7018561285496624  0.1567974721563556  0.6050610933739577
  0.7013918210965050  0.6560920491285483  0.1030951137219938
  0.7017640678177909  0.6563556918177043  0.6044440489916811
  0.0336652448931236  0.4486726969103121  0.5002931808725823
  0.0337995402961991  0.9464438595290461 -0.0012912737264382
  0.0345498631010351  0.9499672264629263  0.5009409020107231
  0.3682494956214357  0.4473128400082004 -0.0006015540574050
  0.3676488351042890  0.4469930599705517  0.5006015166368499
  0.3686601133379715  0.9472978624361259  0.0002395754142935
  0.3683949658001101  0.9480324426650840  0.4997147030520761
  0.7016619785914177  0.4475730791368139 -0.0010947180553206
  0.7004707449549048  0.4470458597406211  0.5009258642221721
  0.7000480488083428  0.9477471680521662 -0.0007761422325335
  0.7000443458397009  0.9480199222545659  0.5007522245329110
  0.2025637681277444  0.3452101601278151  0.3540070448503924
  0.2038863658213990  0.3406311616620029  0.8531465031267644
  0.2071198312692099  0.8412726488181952  0.3556851541924033
  0.2033705271822230  0.8413894169850280  0.8537639934161213
  0.5364202203791087  0.3436535796561812  0.3540864229119862
  0.5357387709767071  0.3428729212816713  0.8536640553880768
  0.5355637898499485  0.8425517117045904  0.3544352085011672
  0.5356708062862070  0.8430905338790561  0.8536473368284431
  0.8681783402083784  0.3455635706241625  0.3541785683542387
  0.8681417134268230  0.3431223192116009  0.8533666834271858
  0.8653422842580804  0.8455470599360313  0.3541606758317680
  0.8677649214155710  0.8438310378247714  0.8533698904938913
 
  0.00000000E+00  0.00000000E+00  0.00000000E+00
  0.00000000E+00  0.00000000E+00  0.00000000E+00
  0.00000000E+00  0.00000000E+00  0.00000000E+00
  0.00000000E+00  0.00000000E+00  0.00000000E+00
  0.00000000E+00  0.00000000E+00  0.00000000E+00
  0.00000000E+00  0.00000000E+00  0.00000000E+00
  0.00000000E+00  0.00000000E+00  0.00000000E+00
  0.00000000E+00  0.00000000E+00  0.00000000E+00
  0.00000000E+00  0.00000000E+00  0.00000000E+00
  0.00000000E+00  0.00000000E+00  0.00000000E+00
  0.00000000E+00  0.00000000E+00  0.00000000E+00
  0.00000000E+00  0.00000000E+00  0.00000000E+00
  0.00000000E+00  0.00000000E+00  0.00000000E+00
  0.00000000E+00  0.00000000E+00  0.00000000E+00
  0.00000000E+00  0.00000000E+00  0.00000000E+00
  0.00000000E+00  0.00000000E+00  0.00000000E+00
  0.00000000E+00  0.00000000E+00  0.00000000E+00
  0.00000000E+00  0.00000000E+00  0.00000000E+00
  0.00000000E+00  0.00000000E+00  0.00000000E+00
  0.00000000E+00  0.00000000E+00  0.00000000E+00
  0.00000000E+00  0.00000000E+00  0.00000000E+00
  0.00000000E+00  0.00000000E+00  0.00000000E+00
  0.00000000E+00  0.00000000E+00  0.00000000E+00
  0.00000000E+00  0.00000000E+00  0.00000000E+00
  0.00000000E+00  0.00000000E+00  0.00000000E+00
  0.00000000E+00  0.00000000E+00  0.00000000E+00
  0.00000000E+00  0.00000000E+00  0.00000000E+00
  0.00000000E+00  0.00000000E+00  0.00000000E+00
  0.00000000E+00  0.00000000E+00  0.00000000E+00
  0.00000000E+00  0.00000000E+00  0.00000000E+00
  0.00000000E+00  0.00000000E+00  0.00000000E+00
  0.00000000E+00  0.00000000E+00  0.00000000E+00
  0.00000000E+00  0.00000000E+00  0.00000000E+00
  0.00000000E+00  0.00000000E+00  0.00000000E+00
  0.00000000E+00  0.00000000E+00  0.00000000E+00
  0.00000000E+00  0.00000000E+00  0.00000000E+00
  0.00000000E+00  0.00000000E+00  0.00000000E+00
  0.00000000E+00  0.00000000E+00  0.00000000E+00
  0.00000000E+00  0.00000000E+00  0.00000000E+00
  0.00000000E+00  0.00000000E+00  0.00000000E+00
  0.00000000E+00  0.00000000E+00  0.00000000E+00
  0.00000000E+00  0.00000000E+00  0.00000000E+00
  0.00000000E+00  0.00000000E+00  0.00000000E+00
  0.00000000E+00  0.00000000E+00  0.00000000E+00
  0.00000000E+00  0.00000000E+00  0.00000000E+00
  0.00000000E+00  0.00000000E+00  0.00000000E+00
  0.00000000E+00  0.00000000E+00  0.00000000E+00
  0.00000000E+00  0.00000000E+00  0.00000000E+00
  0.00000000E+00  0.00000000E+00  0.00000000E+00
  0.00000000E+00  0.00000000E+00  0.00000000E+00
  0.00000000E+00  0.00000000E+00  0.00000000E+00
  0.00000000E+00  0.00000000E+00  0.00000000E+00
  0.00000000E+00  0.00000000E+00  0.00000000E+00
  0.00000000E+00  0.00000000E+00  0.00000000E+00
  0.00000000E+00  0.00000000E+00  0.00000000E+00
  0.00000000E+00  0.00000000E+00  0.00000000E+00
  0.00000000E+00  0.00000000E+00  0.00000000E+00
  0.00000000E+00  0.00000000E+00  0.00000000E+00
  0.00000000E+00  0.00000000E+00  0.00000000E+00
  0.00000000E+00  0.00000000E+00  0.00000000E+00
  0.00000000E+00  0.00000000E+00  0.00000000E+00
  0.00000000E+00  0.00000000E+00  0.00000000E+00
  0.00000000E+00  0.00000000E+00  0.00000000E+00
  0.00000000E+00  0.00000000E+00  0.00000000E+00
  0.00000000E+00  0.00000000E+00  0.00000000E+00
  0.00000000E+00  0.00000000E+00  0.00000000E+00
  0.00000000E+00  0.00000000E+00  0.00000000E+00
  0.00000000E+00  0.00000000E+00  0.00000000E+00
  0.00000000E+00  0.00000000E+00  0.00000000E+00
  0.00000000E+00  0.00000000E+00  0.00000000E+00
  0.00000000E+00  0.00000000E+00  0.00000000E+00
  0.00000000E+00  0.00000000E+00  0.00000000E+00
  0.00000000E+00  0.00000000E+00  0.00000000E+00
  0.00000000E+00  0.00000000E+00  0.00000000E+00
  0.00000000E+00  0.00000000E+00  0.00000000E+00
  0.00000000E+00  0.00000000E+00  0.00000000E+00
  0.00000000E+00  0.00000000E+00  0.00000000E+00
  0.00000000E+00  0.00000000E+00  0.00000000E+00
  0.00000000E+00  0.00000000E+00  0.00000000E+00
  0.00000000E+00  0.00000000E+00  0.00000000E+00
  0.00000000E+00  0.00000000E+00  0.00000000E+00
  0.00000000E+00  0.00000000E+00  0.00000000E+00
  0.00000000E+00  0.00000000E+00  0.00000000E+00
  0.00000000E+00  0.00000000E+00  0.00000000E+00
  0.00000000E+00  0.00000000E+00  0.00000000E+00
  0.00000000E+00  0.00000000E+00  0.00000000E+00
  0.00000000E+00  0.00000000E+00  0.00000000E+00
  0.00000000E+00  0.00000000E+00  0.00000000E+00
  0.00000000E+00  0.00000000E+00  0.00000000E+00
  0.00000000E+00  0.00000000E+00  0.00000000E+00
  0.00000000E+00  0.00000000E+00  0.00000000E+00
  0.00000000E+00  0.00000000E+00  0.00000000E+00
  0.00000000E+00  0.00000000E+00  0.00000000E+00
  0.00000000E+00  0.00000000E+00  0.00000000E+00
  0.00000000E+00  0.00000000E+00  0.00000000E+00
  0.00000000E+00  0.00000000E+00  0.00000000E+00
  0.00000000E+00  0.00000000E+00  0.00000000E+00
  0.00000000E+00  0.00000000E+00  0.00000000E+00
  0.00000000E+00  0.00000000E+00  0.00000000E+00
  0.00000000E+00  0.00000000E+00  0.00000000E+00
  0.00000000E+00  0.00000000E+00  0.00000000E+00
  0.00000000E+00  0.00000000E+00  0.00000000E+00
  0.00000000E+00  0.00000000E+00  0.00000000E+00
  0.00000000E+00  0.00000000E+00  0.00000000E+00
  0.00000000E+00  0.00000000E+00  0.00000000E+00
  0.00000000E+00  0.00000000E+00  0.00000000E+00
  0.00000000E+00  0.00000000E+00  0.00000000E+00
  0.00000000E+00  0.00000000E+00  0.00000000E+00
  0.00000000E+00  0.00000000E+00  0.00000000E+00
  0.00000000E+00  0.00000000E+00  0.00000000E+00
  0.00000000E+00  0.00000000E+00  0.00000000E+00
  0.00000000E+00  0.00000000E+00  0.00000000E+00
  0.00000000E+00  0.00000000E+00  0.00000000E+00
  0.00000000E+00  0.00000000E+00  0.00000000E+00
  0.00000000E+00  0.00000000E+00  0.00000000E+00
  0.00000000E+00  0.00000000E+00  0.00000000E+00
  0.00000000E+00  0.00000000E+00  0.00000000E+00
  0.00000000E+00  0.00000000E+00  0.00000000E+00
  0.00000000E+00  0.00000000E+00  0.00000000E+00
  0.00000000E+00  0.00000000E+00  0.00000000E+00
  0.00000000E+00  0.00000000E+00  0.00000000E+00
  0.00000000E+00  0.00000000E+00  0.00000000E+00
  0.00000000E+00  0.00000000E+00  0.00000000E+00
  0.00000000E+00  0.00000000E+00  0.00000000E+00
  0.00000000E+00  0.00000000E+00  0.00000000E+00
  0.00000000E+00  0.00000000E+00  0.00000000E+00
  0.00000000E+00  0.00000000E+00  0.00000000E+00
  0.00000000E+00  0.00000000E+00  0.00000000E+00
  0.00000000E+00  0.00000000E+00  0.00000000E+00
  0.00000000E+00  0.00000000E+00  0.00000000E+00
  0.00000000E+00  0.00000000E+00  0.00000000E+00
  0.00000000E+00  0.00000000E+00  0.00000000E+00
  0.00000000E+00  0.00000000E+00  0.00000000E+00
  0.00000000E+00  0.00000000E+00  0.00000000E+00
  0.00000000E+00  0.00000000E+00  0.00000000E+00
  0.00000000E+00  0.00000000E+00  0.00000000E+00
  0.00000000E+00  0.00000000E+00  0.00000000E+00
  0.00000000E+00  0.00000000E+00  0.00000000E+00
  0.00000000E+00  0.00000000E+00  0.00000000E+00
  0.00000000E+00  0.00000000E+00  0.00000000E+00
  0.00000000E+00  0.00000000E+00  0.00000000E+00
  0.00000000E+00  0.00000000E+00  0.00000000E+00
  0.00000000E+00  0.00000000E+00  0.00000000E+00
  0.00000000E+00  0.00000000E+00  0.00000000E+00
  0.00000000E+00  0.00000000E+00  0.00000000E+00
  0.00000000E+00  0.00000000E+00  0.00000000E+00
  0.00000000E+00  0.00000000E+00  0.00000000E+00
  0.00000000E+00  0.00000000E+00  0.00000000E+00
  0.00000000E+00  0.00000000E+00  0.00000000E+00
  0.00000000E+00  0.00000000E+00  0.00000000E+00
  0.00000000E+00  0.00000000E+00  0.00000000E+00
  0.00000000E+00  0.00000000E+00  0.00000000E+00
  0.00000000E+00  0.00000000E+00  0.00000000E+00
  0.00000000E+00  0.00000000E+00  0.00000000E+00
  0.00000000E+00  0.00000000E+00  0.00000000E+00
  0.00000000E+00  0.00000000E+00  0.00000000E+00
  0.00000000E+00  0.00000000E+00  0.00000000E+00
  0.00000000E+00  0.00000000E+00  0.00000000E+00
  0.00000000E+00  0.00000000E+00  0.00000000E+00
  0.00000000E+00  0.00000000E+00  0.00000000E+00
  0.00000000E+00  0.00000000E+00  0.00000000E+00
  0.00000000E+00  0.00000000E+00  0.00000000E+00
  0.00000000E+00  0.00000000E+00  0.00000000E+00
  0.00000000E+00  0.00000000E+00  0.00000000E+00
  0.00000000E+00  0.00000000E+00  0.00000000E+00
  0.00000000E+00  0.00000000E+00  0.00000000E+00
  0.00000000E+00  0.00000000E+00  0.00000000E+00
  0.00000000E+00  0.00000000E+00  0.00000000E+00
  0.00000000E+00  0.00000000E+00  0.00000000E+00
  0.00000000E+00  0.00000000E+00  0.00000000E+00
  0.00000000E+00  0.00000000E+00  0.00000000E+00
  0.00000000E+00  0.00000000E+00  0.00000000E+00
  0.00000000E+00  0.00000000E+00  0.00000000E+00
  0.00000000E+00  0.00000000E+00  0.00000000E+00
  0.00000000E+00  0.00000000E+00  0.00000000E+00
  0.00000000E+00  0.00000000E+00  0.00000000E+00
  0.00000000E+00  0.00000000E+00  0.00000000E+00
  0.00000000E+00  0.00000000E+00  0.00000000E+00
  0.00000000E+00  0.00000000E+00  0.00000000E+00
  0.00000000E+00  0.00000000E+00  0.00000000E+00
  0.00000000E+00  0.00000000E+00  0.00000000E+00
  0.00000000E+00  0.00000000E+00  0.00000000E+00
  0.00000000E+00  0.00000000E+00  0.00000000E+00
  0.00000000E+00  0.00000000E+00  0.00000000E+00
  0.00000000E+00  0.00000000E+00  0.00000000E+00
  0.00000000E+00  0.00000000E+00  0.00000000E+00
  0.00000000E+00  0.00000000E+00  0.00000000E+00
  0.00000000E+00  0.00000000E+00  0.00000000E+00
  0.00000000E+00  0.00000000E+00  0.00000000E+00
  0.00000000E+00  0.00000000E+00  0.00000000E+00
