Li56 P28 O98
1.0
6.730959 0.000000 -2.599490
-2.035903 8.419349 -5.257546
0.000000 0.000000 63.126504
Li P O
56 28 98
direct
0.144977 0.012029 0.039075 Li+
0.855023 0.987971 0.077814 Li+
0.588727 0.248347 0.004501 Li+
0.411273 0.751653 0.029056 Li+
0.327738 0.208724 0.031858 Li+
0.672262 0.791276 0.001699 Li+
0.241886 0.549204 0.057799 Li+
0.758114 0.450796 0.059091 Li+
0.144977 0.012029 0.122409 Li+
0.855023 0.987971 0.161148 Li+
0.588727 0.248347 0.087834 Li+
0.411273 0.751653 0.112389 Li+
0.327738 0.208724 0.115191 Li+
0.672262 0.791276 0.085032 Li+
0.241886 0.549204 0.141133 Li+
0.758114 0.450796 0.142424 Li+
0.144977 0.012029 0.205742 Li+
0.855023 0.987971 0.244481 Li+
0.588727 0.248347 0.171167 Li+
0.411273 0.751653 0.195722 Li+
0.327738 0.208724 0.198525 Li+
0.672262 0.791276 0.168365 Li+
0.241886 0.549204 0.224466 Li+
0.758114 0.450796 0.225757 Li+
0.144977 0.012029 0.289075 Li+
0.855023 0.987971 0.327814 Li+
0.588727 0.248347 0.254501 Li+
0.411273 0.751653 0.279056 Li+
0.327738 0.208724 0.281858 Li+
0.672262 0.791276 0.251699 Li+
0.241886 0.549204 0.307799 Li+
0.758114 0.450796 0.309091 Li+
0.144977 0.012029 0.372409 Li+
0.855023 0.987971 0.411148 Li+
0.588727 0.248347 0.337834 Li+
0.411273 0.751653 0.362389 Li+
0.327738 0.208724 0.365191 Li+
0.672262 0.791276 0.335032 Li+
0.241886 0.549204 0.391133 Li+
0.758114 0.450796 0.392424 Li+
0.144977 0.012029 0.455742 Li+
0.855023 0.987971 0.494481 Li+
0.588727 0.248347 0.421167 Li+
0.411273 0.751653 0.445722 Li+
0.327738 0.208724 0.448525 Li+
0.672262 0.791276 0.418365 Li+
0.241886 0.549204 0.474466 Li+
0.758114 0.450796 0.475757 Li+
0.144977 0.012029 0.539075 Li+
0.855023 0.987971 0.577814 Li+
0.588727 0.248347 0.504501 Li+
0.411273 0.751653 0.529056 Li+
0.327738 0.208724 0.531858 Li+
0.672262 0.791276 0.501699 Li+
0.241886 0.549204 0.557799 Li+
0.758114 0.450796 0.559091 Li+
0.213298 0.368044 0.082949 P5+
0.786702 0.631956 0.033940 P5+
0.779241 0.154498 0.047630 P5+
0.220759 0.845502 0.069259 P5+
0.213298 0.368044 0.166283 P5+
0.786702 0.631956 0.117274 P5+
0.779241 0.154498 0.130964 P5+
0.220759 0.845502 0.152593 P5+
0.213298 0.368044 0.249616 P5+
0.786702 0.631956 0.200607 P5+
0.779241 0.154498 0.214297 P5+
0.220759 0.845502 0.235926 P5+
0.213298 0.368044 0.332949 P5+
0.786702 0.631956 0.283940 P5+
0.779241 0.154498 0.297630 P5+
0.220759 0.845502 0.319259 P5+
0.213298 0.368044 0.416283 P5+
0.786702 0.631956 0.367274 P5+
0.779241 0.154498 0.380964 P5+
0.220759 0.845502 0.402593 P5+
0.213298 0.368044 0.499616 P5+
0.786702 0.631956 0.450607 P5+
0.779241 0.154498 0.464297 P5+
0.220759 0.845502 0.485926 P5+
0.213298 0.368044 0.582949 P5+
0.786702 0.631956 0.533940 P5+
0.779241 0.154498 0.547630 P5+
0.220759 0.845502 0.569259 P5+
0.741759 0.125660 0.067257 O2-
0.605720 0.209316 0.033710 O2-
0.394280 0.790684 0.083179 O2-
0.848591 0.018024 0.028038 O2-
0.743350 0.623545 0.007694 O2-
0.256650 0.376455 0.025863 O2-
0.732189 0.473810 0.030025 O2-
0.267811 0.526190 0.003531 O2-
0.702403 0.763496 0.052218 O2-
0.297597 0.236504 0.064672 O2-
0.962384 0.316106 0.065365 O2-
0.037616 0.683894 0.051525 O2-
0.151409 0.981976 0.005519 O2-
0.258241 0.874340 0.049633 O2-
0.741759 0.125660 0.150591 O2-
0.605720 0.209316 0.117044 O2-
0.394280 0.790684 0.166513 O2-
0.848591 0.018024 0.111371 O2-
0.743350 0.623545 0.091027 O2-
0.256650 0.376455 0.109196 O2-
0.732189 0.473810 0.113359 O2-
0.267811 0.526190 0.086864 O2-
0.702403 0.763496 0.135551 O2-
0.297597 0.236504 0.148005 O2-
0.962384 0.316106 0.148698 O2-
0.037616 0.683894 0.134859 O2-
0.151409 0.981976 0.088852 O2-
0.258241 0.874340 0.132966 O2-
0.741759 0.125660 0.233924 O2-
0.605720 0.209316 0.200377 O2-
0.394280 0.790684 0.249846 O2-
0.848591 0.018024 0.194704 O2-
0.743350 0.623545 0.174360 O2-
0.256650 0.376455 0.192530 O2-
0.732189 0.473810 0.196692 O2-
0.267811 0.526190 0.170198 O2-
0.702403 0.763496 0.218884 O2-
0.297597 0.236504 0.231339 O2-
0.962384 0.316106 0.232031 O2-
0.037616 0.683894 0.218192 O2-
0.151409 0.981976 0.172186 O2-
0.258241 0.874340 0.216299 O2-
0.741759 0.125660 0.317257 O2-
0.605720 0.209316 0.283710 O2-
0.394280 0.790684 0.333179 O2-
0.848591 0.018024 0.278038 O2-
0.743350 0.623545 0.257694 O2-
0.256650 0.376455 0.275863 O2-
0.732189 0.473810 0.280025 O2-
0.267811 0.526190 0.253531 O2-
0.702403 0.763496 0.302218 O2-
0.297597 0.236504 0.314672 O2-
0.962384 0.316106 0.315365 O2-
0.037616 0.683894 0.301525 O2-
0.151409 0.981976 0.255519 O2-
0.258241 0.874340 0.299633 O2-
0.741759 0.125660 0.400591 O2-
0.605720 0.209316 0.367044 O2-
0.394280 0.790684 0.416513 O2-
0.848591 0.018024 0.361371 O2-
0.743350 0.623545 0.341027 O2-
0.256650 0.376455 0.359196 O2-
0.732189 0.473810 0.363359 O2-
0.267811 0.526190 0.336864 O2-
0.702403 0.763496 0.385551 O2-
0.297597 0.236504 0.398005 O2-
0.962384 0.316106 0.398698 O2-
0.037616 0.683894 0.384859 O2-
0.151409 0.981976 0.338852 O2-
0.258241 0.874340 0.382966 O2-
0.741759 0.125660 0.483924 O2-
0.605720 0.209316 0.450377 O2-
0.394280 0.790684 0.499846 O2-
0.848591 0.018024 0.444704 O2-
0.743350 0.623545 0.424360 O2-
0.256650 0.376455 0.442530 O2-
0.732189 0.473810 0.446692 O2-
0.267811 0.526190 0.420198 O2-
0.702403 0.763496 0.468884 O2-
0.297597 0.236504 0.481339 O2-
0.962384 0.316106 0.482031 O2-
0.037616 0.683894 0.468192 O2-
0.151409 0.981976 0.422186 O2-
0.258241 0.874340 0.466299 O2-
0.741759 0.125660 0.567257 O2-
0.605720 0.209316 0.533710 O2-
0.394280 0.790684 0.583179 O2-
0.848591 0.018024 0.528038 O2-
0.743350 0.623545 0.507694 O2-
0.256650 0.376455 0.525863 O2-
0.732189 0.473810 0.530025 O2-
0.267811 0.526190 0.503531 O2-
0.702403 0.763496 0.552218 O2-
0.297597 0.236504 0.564672 O2-
0.962384 0.316106 0.565365 O2-
0.037616 0.683894 0.551525 O2-
0.151409 0.981976 0.505519 O2-
0.258241 0.874340 0.549633 O2-
