Li112 P784
1.0
13.629780 0.000000 0.000000
0.000000 13.629780 0.000000
0.000000 0.000000 133.491132
Li P
112 784
Selective dynamics
direct
0.368757 0.368757 0.082043 F F F Li
0.131243 0.368757 0.054265 F F F Li
0.368757 0.131243 0.109821 F F F Li
0.131243 0.131243 0.026488 T T T Li
0.131243 0.631243 0.109821 F F F Li
0.868757 0.131243 0.082043 F F F Li
0.131243 0.868757 0.082043 F F F Li
0.368757 0.868757 0.054265 F F F Li
0.868757 0.868757 0.026488 T T T Li
0.631243 0.868757 0.109821 F F F Li
0.868757 0.631243 0.054265 F F F Li
0.631243 0.631243 0.082043 F F F Li
0.631243 0.131243 0.054265 F F F Li
0.368757 0.631243 0.026488 T T T Li
0.631243 0.368757 0.026488 T T T Li
0.868757 0.368757 0.109821 F F F Li
0.368757 0.368757 0.193154 F F F Li
0.131243 0.368757 0.165377 F F F Li
0.368757 0.131243 0.220932 F F F Li
0.131243 0.131243 0.137599 F F F Li
0.131243 0.631243 0.220932 F F F Li
0.868757 0.131243 0.193154 F F F Li
0.131243 0.868757 0.193154 F F F Li
0.368757 0.868757 0.165377 F F F Li
0.868757 0.868757 0.137599 F F F Li
0.631243 0.868757 0.220932 F F F Li
0.868757 0.631243 0.165377 F F F Li
0.631243 0.631243 0.193154 F F F Li
0.631243 0.131243 0.165377 F F F Li
0.368757 0.631243 0.137599 F F F Li
0.631243 0.368757 0.137599 F F F Li
0.868757 0.368757 0.220932 F F F Li
0.368757 0.368757 0.304265 F F F Li
0.131243 0.368757 0.276488 F F F Li
0.368757 0.131243 0.332043 F F F Li
0.131243 0.131243 0.248710 F F F Li
0.131243 0.631243 0.332043 F F F Li
0.868757 0.131243 0.304265 F F F Li
0.131243 0.868757 0.304265 F F F Li
0.368757 0.868757 0.276488 F F F Li
0.868757 0.868757 0.248710 F F F Li
0.631243 0.868757 0.332043 F F F Li
0.868757 0.631243 0.276488 F F F Li
0.631243 0.631243 0.304265 F F F Li
0.631243 0.131243 0.276488 F F F Li
0.368757 0.631243 0.248710 F F F Li
0.631243 0.368757 0.248710 F F F Li
0.868757 0.368757 0.332043 F F F Li
0.368757 0.368757 0.415377 F F F Li
0.131243 0.368757 0.387599 F F F Li
0.368757 0.131243 0.443154 F F F Li
0.131243 0.131243 0.359821 F F F Li
0.131243 0.631243 0.443154 F F F Li
0.868757 0.131243 0.415377 F F F Li
0.131243 0.868757 0.415377 F F F Li
0.368757 0.868757 0.387599 F F F Li
0.868757 0.868757 0.359821 F F F Li
0.631243 0.868757 0.443154 F F F Li
0.868757 0.631243 0.387599 F F F Li
0.631243 0.631243 0.415377 F F F Li
0.631243 0.131243 0.387599 F F F Li
0.368757 0.631243 0.359821 F F F Li
0.631243 0.368757 0.359821 F F F Li
0.868757 0.368757 0.443154 F F F Li
0.368757 0.368757 0.526488 F F F Li
0.131243 0.368757 0.498710 F F F Li
0.368757 0.131243 0.554265 F F F Li
0.131243 0.131243 0.470932 F F F Li
0.131243 0.631243 0.554265 F F F Li
0.868757 0.131243 0.526488 F F F Li
0.131243 0.868757 0.526488 F F F Li
0.368757 0.868757 0.498710 F F F Li
0.868757 0.868757 0.470932 F F F Li
0.631243 0.868757 0.554265 F F F Li
0.868757 0.631243 0.498710 F F F Li
0.631243 0.631243 0.526488 F F F Li
0.631243 0.131243 0.498710 F F F Li
0.368757 0.631243 0.470932 F F F Li
0.631243 0.368757 0.470932 F F F Li
0.868757 0.368757 0.554265 F F F Li
0.368757 0.368757 0.637599 F F F Li
0.131243 0.368757 0.609821 F F F Li
0.368757 0.131243 0.665377 F F F Li
0.131243 0.131243 0.582043 F F F Li
0.131243 0.631243 0.665377 F F F Li
0.868757 0.131243 0.637599 F F F Li
0.131243 0.868757 0.637599 F F F Li
0.368757 0.868757 0.609821 F F F Li
0.868757 0.868757 0.582043 F F F Li
0.631243 0.868757 0.665377 F F F Li
0.868757 0.631243 0.609821 F F F Li
0.631243 0.631243 0.637599 F F F Li
0.631243 0.131243 0.609821 F F F Li
0.368757 0.631243 0.582043 F F F Li
0.631243 0.368757 0.582043 F F F Li
0.868757 0.368757 0.665377 F F F Li
0.368757 0.368757 0.748710 T T T Li
0.131243 0.368757 0.720932 F F F Li
0.368757 0.131243 0.776488 T T T Li
0.131243 0.131243 0.693154 F F F Li
0.131243 0.631243 0.776488 T T T Li
0.868757 0.131243 0.748710 T T T Li
0.131243 0.868757 0.748710 T T T Li
0.368757 0.868757 0.720932 F F F Li
0.868757 0.868757 0.693154 F F F Li
0.631243 0.868757 0.776488 T T T Li
0.868757 0.631243 0.720932 F F F Li
0.631243 0.631243 0.748710 T T T Li
0.631243 0.131243 0.720932 F F F Li
0.368757 0.631243 0.693154 F F F Li
0.631243 0.368757 0.693154 F F F Li
0.868757 0.368757 0.776488 T T T Li
0.178297 0.204492 0.064203 F F F P
0.295508 0.178297 0.036425 F F F P
0.204492 0.321703 0.091981 F F F P
0.321703 0.204492 0.072106 F F F P
0.178297 0.295508 0.016550 T T T P
0.321703 0.295508 0.008647 T T T P
0.295508 0.321703 0.044328 F F F P
0.204492 0.178297 0.099884 F F F P
0.821703 0.295508 0.072106 F F F P
0.204492 0.821703 0.044328 F F F P
0.295508 0.678297 0.099884 F F F P
0.178297 0.795508 0.008647 T T T P
0.321703 0.704492 0.064203 F F F P
0.678297 0.204492 0.016550 T T T P
0.704492 0.178297 0.091981 F F F P
0.795508 0.321703 0.036425 F F F P
0.186709 0.059719 0.056846 F F F P
0.440281 0.186709 0.029068 F F F P
0.559719 0.813291 0.029068 F F F P
0.813291 0.559719 0.023907 T T T P
0.186709 0.440281 0.023907 T T T P
0.313291 0.440281 0.001290 T T T P
0.440281 0.313291 0.051685 F F F P
0.059719 0.186709 0.107241 F F F P
0.313291 0.940281 0.023907 T T T P
0.559719 0.313291 0.107241 F F F P
0.940281 0.186709 0.051685 F F F P
0.686709 0.440281 0.056846 F F F P
0.813291 0.059719 0.001290 T T T P
0.686709 0.059719 0.023907 T T T P
0.059719 0.686709 0.029068 F F F P
0.940281 0.313291 0.029068 F F F P
0.423646 0.170523 0.059484 F F F P
0.329477 0.423646 0.031706 F F F P
0.170523 0.076354 0.087262 F F F P
0.076354 0.170523 0.076825 F F F P
0.423646 0.329477 0.021269 F F F P
0.076354 0.329477 0.003929 T T T P
0.329477 0.076354 0.049047 F F F P
0.170523 0.423646 0.104602 F F F P
0.576354 0.329477 0.076825 F F F P
0.670523 0.076354 0.104602 F F F P
0.829477 0.423646 0.049047 F F F P
0.923646 0.329477 0.059484 F F F P
0.576354 0.170523 0.003929 T T T P
0.923646 0.170523 0.021269 F F F P
0.170523 0.923646 0.031706 F F F P
0.329477 0.576354 0.087262 F F F P
0.540130 0.250000 0.040377 F F F P
0.250000 0.540129 0.012599 T T T P
0.250000 0.959871 0.068154 F F F P
0.459871 0.750000 0.040377 F F F P
0.459871 0.250000 0.095932 F F F P
0.750000 0.959871 0.012599 T T T P
0.250000 0.040129 0.012599 T T T P
0.040129 0.250000 0.040377 F F F P
0.678297 0.704492 0.008647 T T T P
0.795508 0.678297 0.091981 F F F P
0.704492 0.821703 0.036425 F F F P
0.821703 0.704492 0.016550 T T T P
0.678297 0.795508 0.072106 F F F P
0.821703 0.795508 0.064203 F F F P
0.795508 0.821703 0.099884 F F F P
0.704492 0.678297 0.044328 F F F P
0.321703 0.795508 0.016550 T T T P
0.704492 0.321703 0.099884 F F F P
0.795508 0.178297 0.044328 F F F P
0.678297 0.295508 0.064203 F F F P
0.821703 0.204492 0.008647 T T T P
0.178297 0.704492 0.072106 F F F P
0.204492 0.678297 0.036425 F F F P
0.295508 0.821703 0.091981 F F F P
0.686709 0.559719 0.001290 T T T P
0.940281 0.686709 0.084623 F F F P
0.059719 0.313291 0.084623 F F F P
0.313291 0.059719 0.079463 F F F P
0.686709 0.940281 0.079463 F F F P
0.813291 0.940281 0.056846 F F F P
0.940281 0.813291 0.107241 F F F P
0.559719 0.686709 0.051685 F F F P
0.813291 0.440281 0.079463 F F F P
0.059719 0.813291 0.051685 F F F P
0.440281 0.686709 0.107241 F F F P
0.186709 0.940281 0.001290 T T T P
0.313291 0.559719 0.056846 F F F P
0.186709 0.559719 0.079463 F F F P
0.559719 0.186709 0.084623 F F F P
0.440281 0.813291 0.084623 F F F P
0.923646 0.670523 0.003929 T T T P
0.829477 0.923646 0.087262 F F F P
0.670523 0.576354 0.031706 F F F P
0.576354 0.670523 0.021269 F F F P
0.923646 0.829477 0.076825 F F F P
0.576354 0.829477 0.059484 F F F P
0.829477 0.576354 0.104602 F F F P
0.670523 0.923646 0.049047 F F F P
0.076354 0.829477 0.021269 F F F P
0.170523 0.576354 0.049047 F F F P
0.329477 0.923646 0.104602 F F F P
0.423646 0.829477 0.003929 T T T P
0.076354 0.670523 0.059484 F F F P
0.423646 0.670523 0.076825 F F F P
0.670523 0.423646 0.087262 F F F P
0.829477 0.076354 0.031706 F F F P
0.040129 0.750000 0.095932 F F F P
0.750000 0.040129 0.068154 F F F P
0.750000 0.459871 0.012599 T T T P
0.959871 0.250000 0.095932 F F F P
0.959871 0.750000 0.040377 F F F P
0.250000 0.459871 0.068154 F F F P
0.750000 0.540129 0.068154 F F F P
0.540129 0.750000 0.095932 F F F P
0.178297 0.204492 0.175314 F F F P
0.295508 0.178297 0.147536 F F F P
0.204492 0.321703 0.203092 F F F P
0.321703 0.204492 0.183217 F F F P
0.178297 0.295508 0.127661 F F F P
0.321703 0.295508 0.119758 F F F P
0.295508 0.321703 0.155439 F F F P
0.204492 0.178297 0.210995 F F F P
0.821703 0.295508 0.183217 F F F P
0.204492 0.821703 0.155439 F F F P
0.295508 0.678297 0.210995 F F F P
0.178297 0.795508 0.119758 F F F P
0.321703 0.704492 0.175314 F F F P
0.678297 0.204492 0.127661 F F F P
0.704492 0.178297 0.203092 F F F P
0.795508 0.321703 0.147536 F F F P
0.186709 0.059719 0.167957 F F F P
0.440281 0.186709 0.140179 F F F P
0.559719 0.813291 0.140179 F F F P
0.813291 0.559719 0.135019 F F F P
0.186709 0.440281 0.135019 F F F P
0.313291 0.440281 0.112401 F F F P
0.440281 0.313291 0.162796 F F F P
0.059719 0.186709 0.218352 F F F P
0.313291 0.940281 0.135019 F F F P
0.559719 0.313291 0.218352 F F F P
0.940281 0.186709 0.162796 F F F P
0.686709 0.440281 0.167957 F F F P
0.813291 0.059719 0.112401 F F F P
0.686709 0.059719 0.135019 F F F P
0.059719 0.686709 0.140179 F F F P
0.940281 0.313291 0.140179 F F F P
0.423646 0.170523 0.170595 F F F P
0.329477 0.423646 0.142817 F F F P
0.170523 0.076354 0.198373 F F F P
0.076354 0.170523 0.187936 F F F P
0.423646 0.329477 0.132380 F F F P
0.076354 0.329477 0.115040 F F F P
0.329477 0.076354 0.160158 F F F P
0.170523 0.423646 0.215713 F F F P
0.576354 0.329477 0.187936 F F F P
0.670523 0.076354 0.215713 F F F P
0.829477 0.423646 0.160158 F F F P
0.923646 0.329477 0.170595 F F F P
0.576354 0.170523 0.115040 F F F P
0.923646 0.170523 0.132380 F F F P
0.170523 0.923646 0.142817 F F F P
0.329477 0.576354 0.198373 F F F P
0.540130 0.250000 0.151488 F F F P
0.250000 0.540129 0.123710 F F F P
0.250000 0.959871 0.179265 F F F P
0.459871 0.750000 0.151488 F F F P
0.459871 0.250000 0.207043 F F F P
0.750000 0.959871 0.123710 F F F P
0.250000 0.040129 0.123710 F F F P
0.040129 0.250000 0.151488 F F F P
0.678297 0.704492 0.119758 F F F P
0.795508 0.678297 0.203092 F F F P
0.704492 0.821703 0.147536 F F F P
0.821703 0.704492 0.127661 F F F P
0.678297 0.795508 0.183217 F F F P
0.821703 0.795508 0.175314 F F F P
0.795508 0.821703 0.210995 F F F P
0.704492 0.678297 0.155439 F F F P
0.321703 0.795508 0.127661 F F F P
0.704492 0.321703 0.210995 F F F P
0.795508 0.178297 0.155439 F F F P
0.678297 0.295508 0.175314 F F F P
0.821703 0.204492 0.119758 F F F P
0.178297 0.704492 0.183217 F F F P
0.204492 0.678297 0.147536 F F F P
0.295508 0.821703 0.203092 F F F P
0.686709 0.559719 0.112401 F F F P
0.940281 0.686709 0.195735 F F F P
0.059719 0.313291 0.195735 F F F P
0.313291 0.059719 0.190574 F F F P
0.686709 0.940281 0.190574 F F F P
0.813291 0.940281 0.167957 F F F P
0.940281 0.813291 0.218352 F F F P
0.559719 0.686709 0.162796 F F F P
0.813291 0.440281 0.190574 F F F P
0.059719 0.813291 0.162796 F F F P
0.440281 0.686709 0.218352 F F F P
0.186709 0.940281 0.112401 F F F P
0.313291 0.559719 0.167957 F F F P
0.186709 0.559719 0.190574 F F F P
0.559719 0.186709 0.195735 F F F P
0.440281 0.813291 0.195735 F F F P
0.923646 0.670523 0.115040 F F F P
0.829477 0.923646 0.198373 F F F P
0.670523 0.576354 0.142817 F F F P
0.576354 0.670523 0.132380 F F F P
0.923646 0.829477 0.187936 F F F P
0.576354 0.829477 0.170595 F F F P
0.829477 0.576354 0.215713 F F F P
0.670523 0.923646 0.160158 F F F P
0.076354 0.829477 0.132380 F F F P
0.170523 0.576354 0.160158 F F F P
0.329477 0.923646 0.215713 F F F P
0.423646 0.829477 0.115040 F F F P
0.076354 0.670523 0.170595 F F F P
0.423646 0.670523 0.187936 F F F P
0.670523 0.423646 0.198373 F F F P
0.829477 0.076354 0.142817 F F F P
0.040129 0.750000 0.207043 F F F P
0.750000 0.040129 0.179265 F F F P
0.750000 0.459871 0.123710 F F F P
0.959871 0.250000 0.207043 F F F P
0.959871 0.750000 0.151488 F F F P
0.250000 0.459871 0.179265 F F F P
0.750000 0.540129 0.179265 F F F P
0.540129 0.750000 0.207043 F F F P
0.178297 0.204492 0.286425 F F F P
0.295508 0.178297 0.258647 F F F P
0.204492 0.321703 0.314203 F F F P
0.321703 0.204492 0.294328 F F F P
0.178297 0.295508 0.238772 F F F P
0.321703 0.295508 0.230870 F F F P
0.295508 0.321703 0.266550 F F F P
0.204492 0.178297 0.322106 F F F P
0.821703 0.295508 0.294328 F F F P
0.204492 0.821703 0.266550 F F F P
0.295508 0.678297 0.322106 F F F P
0.178297 0.795508 0.230870 F F F P
0.321703 0.704492 0.286425 F F F P
0.678297 0.204492 0.238772 F F F P
0.704492 0.178297 0.314203 F F F P
0.795508 0.321703 0.258647 F F F P
0.186709 0.059719 0.279068 F F F P
0.440281 0.186709 0.251290 F F F P
0.559719 0.813291 0.251290 F F F P
0.813291 0.559719 0.246130 F F F P
0.186709 0.440281 0.246130 F F F P
0.313291 0.440281 0.223512 F F F P
0.440281 0.313291 0.273907 F F F P
0.059719 0.186709 0.329463 F F F P
0.313291 0.940281 0.246130 F F F P
0.559719 0.313291 0.329463 F F F P
0.940281 0.186709 0.273907 F F F P
0.686709 0.440281 0.279068 F F F P
0.813291 0.059719 0.223512 F F F P
0.686709 0.059719 0.246130 F F F P
0.059719 0.686709 0.251290 F F F P
0.940281 0.313291 0.251290 F F F P
0.423646 0.170523 0.281706 F F F P
0.329477 0.423646 0.253929 F F F P
0.170523 0.076354 0.309484 F F F P
0.076354 0.170523 0.299047 F F F P
0.423646 0.329477 0.243491 F F F P
0.076354 0.329477 0.226151 F F F P
0.329477 0.076354 0.271269 F F F P
0.170523 0.423646 0.326825 F F F P
0.576354 0.329477 0.299047 F F F P
0.670523 0.076354 0.326825 F F F P
0.829477 0.423646 0.271269 F F F P
0.923646 0.329477 0.281706 F F F P
0.576354 0.170523 0.226151 F F F P
0.923646 0.170523 0.243491 F F F P
0.170523 0.923646 0.253929 F F F P
0.329477 0.576354 0.309484 F F F P
0.540130 0.250000 0.262599 F F F P
0.250000 0.540129 0.234821 F F F P
0.250000 0.959871 0.290377 F F F P
0.459871 0.750000 0.262599 F F F P
0.459871 0.250000 0.318154 F F F P
0.750000 0.959871 0.234821 F F F P
0.250000 0.040129 0.234821 F F F P
0.040129 0.250000 0.262599 F F F P
0.678297 0.704492 0.230870 F F F P
0.795508 0.678297 0.314203 F F F P
0.704492 0.821703 0.258647 F F F P
0.821703 0.704492 0.238772 F F F P
0.678297 0.795508 0.294328 F F F P
0.821703 0.795508 0.286425 F F F P
0.795508 0.821703 0.322106 F F F P
0.704492 0.678297 0.266550 F F F P
0.321703 0.795508 0.238772 F F F P
0.704492 0.321703 0.322106 F F F P
0.795508 0.178297 0.266550 F F F P
0.678297 0.295508 0.286425 F F F P
0.821703 0.204492 0.230870 F F F P
0.178297 0.704492 0.294328 F F F P
0.204492 0.678297 0.258647 F F F P
0.295508 0.821703 0.314203 F F F P
0.686709 0.559719 0.223512 F F F P
0.940281 0.686709 0.306846 F F F P
0.059719 0.313291 0.306846 F F F P
0.313291 0.059719 0.301685 F F F P
0.686709 0.940281 0.301685 F F F P
0.813291 0.940281 0.279068 F F F P
0.940281 0.813291 0.329463 F F F P
0.559719 0.686709 0.273907 F F F P
0.813291 0.440281 0.301685 F F F P
0.059719 0.813291 0.273907 F F F P
0.440281 0.686709 0.329463 F F F P
0.186709 0.940281 0.223512 F F F P
0.313291 0.559719 0.279068 F F F P
0.186709 0.559719 0.301685 F F F P
0.559719 0.186709 0.306846 F F F P
0.440281 0.813291 0.306846 F F F P
0.923646 0.670523 0.226151 F F F P
0.829477 0.923646 0.309484 F F F P
0.670523 0.576354 0.253929 F F F P
0.576354 0.670523 0.243491 F F F P
0.923646 0.829477 0.299047 F F F P
0.576354 0.829477 0.281706 F F F P
0.829477 0.576354 0.326825 F F F P
0.670523 0.923646 0.271269 F F F P
0.076354 0.829477 0.243491 F F F P
0.170523 0.576354 0.271269 F F F P
0.329477 0.923646 0.326825 F F F P
0.423646 0.829477 0.226151 F F F P
0.076354 0.670523 0.281706 F F F P
0.423646 0.670523 0.299047 F F F P
0.670523 0.423646 0.309484 F F F P
0.829477 0.076354 0.253929 F F F P
0.040129 0.750000 0.318154 F F F P
0.750000 0.040129 0.290377 F F F P
0.750000 0.459871 0.234821 F F F P
0.959871 0.250000 0.318154 F F F P
0.959871 0.750000 0.262599 F F F P
0.250000 0.459871 0.290377 F F F P
0.750000 0.540129 0.290377 F F F P
0.540129 0.750000 0.318154 F F F P
0.178297 0.204492 0.397536 F F F P
0.295508 0.178297 0.369758 F F F P
0.204492 0.321703 0.425314 F F F P
0.321703 0.204492 0.405439 F F F P
0.178297 0.295508 0.349884 F F F P
0.321703 0.295508 0.341981 F F F P
0.295508 0.321703 0.377661 F F F P
0.204492 0.178297 0.433217 F F F P
0.821703 0.295508 0.405439 F F F P
0.204492 0.821703 0.377661 F F F P
0.295508 0.678297 0.433217 F F F P
0.178297 0.795508 0.341981 F F F P
0.321703 0.704492 0.397536 F F F P
0.678297 0.204492 0.349884 F F F P
0.704492 0.178297 0.425314 F F F P
0.795508 0.321703 0.369758 F F F P
0.186709 0.059719 0.390179 F F F P
0.440281 0.186709 0.362401 F F F P
0.559719 0.813291 0.362401 F F F P
0.813291 0.559719 0.357241 F F F P
0.186709 0.440281 0.357241 F F F P
0.313291 0.440281 0.334623 F F F P
0.440281 0.313291 0.385019 F F F P
0.059719 0.186709 0.440574 F F F P
0.313291 0.940281 0.357241 F F F P
0.559719 0.313291 0.440574 F F F P
0.940281 0.186709 0.385019 F F F P
0.686709 0.440281 0.390179 F F F P
0.813291 0.059719 0.334623 F F F P
0.686709 0.059719 0.357241 F F F P
0.059719 0.686709 0.362401 F F F P
0.940281 0.313291 0.362401 F F F P
0.423646 0.170523 0.392817 F F F P
0.329477 0.423646 0.365040 F F F P
0.170523 0.076354 0.420595 F F F P
0.076354 0.170523 0.410158 F F F P
0.423646 0.329477 0.354602 F F F P
0.076354 0.329477 0.337262 F F F P
0.329477 0.076354 0.382380 F F F P
0.170523 0.423646 0.437936 F F F P
0.576354 0.329477 0.410158 F F F P
0.670523 0.076354 0.437936 F F F P
0.829477 0.423646 0.382380 F F F P
0.923646 0.329477 0.392817 F F F P
0.576354 0.170523 0.337262 F F F P
0.923646 0.170523 0.354602 F F F P
0.170523 0.923646 0.365040 F F F P
0.329477 0.576354 0.420595 F F F P
0.540130 0.250000 0.373710 F F F P
0.250000 0.540129 0.345932 F F F P
0.250000 0.959871 0.401488 F F F P
0.459871 0.750000 0.373710 F F F P
0.459871 0.250000 0.429265 F F F P
0.750000 0.959871 0.345932 F F F P
0.250000 0.040129 0.345932 F F F P
0.040129 0.250000 0.373710 F F F P
0.678297 0.704492 0.341981 F F F P
0.795508 0.678297 0.425314 F F F P
0.704492 0.821703 0.369758 F F F P
0.821703 0.704492 0.349884 F F F P
0.678297 0.795508 0.405439 F F F P
0.821703 0.795508 0.397536 F F F P
0.795508 0.821703 0.433217 F F F P
0.704492 0.678297 0.377661 F F F P
0.321703 0.795508 0.349884 F F F P
0.704492 0.321703 0.433217 F F F P
0.795508 0.178297 0.377661 F F F P
0.678297 0.295508 0.397536 F F F P
0.821703 0.204492 0.341981 F F F P
0.178297 0.704492 0.405439 F F F P
0.204492 0.678297 0.369758 F F F P
0.295508 0.821703 0.425314 F F F P
0.686709 0.559719 0.334623 F F F P
0.940281 0.686709 0.417957 F F F P
0.059719 0.313291 0.417957 F F F P
0.313291 0.059719 0.412796 F F F P
0.686709 0.940281 0.412796 F F F P
0.813291 0.940281 0.390179 F F F P
0.940281 0.813291 0.440574 F F F P
0.559719 0.686709 0.385019 F F F P
0.813291 0.440281 0.412796 F F F P
0.059719 0.813291 0.385019 F F F P
0.440281 0.686709 0.440574 F F F P
0.186709 0.940281 0.334623 F F F P
0.313291 0.559719 0.390179 F F F P
0.186709 0.559719 0.412796 F F F P
0.559719 0.186709 0.417957 F F F P
0.440281 0.813291 0.417957 F F F P
0.923646 0.670523 0.337262 F F F P
0.829477 0.923646 0.420595 F F F P
0.670523 0.576354 0.365040 F F F P
0.576354 0.670523 0.354602 F F F P
0.923646 0.829477 0.410158 F F F P
0.576354 0.829477 0.392817 F F F P
0.829477 0.576354 0.437936 F F F P
0.670523 0.923646 0.382380 F F F P
0.076354 0.829477 0.354602 F F F P
0.170523 0.576354 0.382380 F F F P
0.329477 0.923646 0.437936 F F F P
0.423646 0.829477 0.337262 F F F P
0.076354 0.670523 0.392817 F F F P
0.423646 0.670523 0.410158 F F F P
0.670523 0.423646 0.420595 F F F P
0.829477 0.076354 0.365040 F F F P
0.040129 0.750000 0.429265 F F F P
0.750000 0.040129 0.401488 F F F P
0.750000 0.459871 0.345932 F F F P
0.959871 0.250000 0.429265 F F F P
0.959871 0.750000 0.373710 F F F P
0.250000 0.459871 0.401488 F F F P
0.750000 0.540129 0.401488 F F F P
0.540129 0.750000 0.429265 F F F P
0.178297 0.204492 0.508647 F F F P
0.295508 0.178297 0.480870 F F F P
0.204492 0.321703 0.536425 F F F P
0.321703 0.204492 0.516550 F F F P
0.178297 0.295508 0.460995 F F F P
0.321703 0.295508 0.453092 F F F P
0.295508 0.321703 0.488772 F F F P
0.204492 0.178297 0.544328 F F F P
0.821703 0.295508 0.516550 F F F P
0.204492 0.821703 0.488772 F F F P
0.295508 0.678297 0.544328 F F F P
0.178297 0.795508 0.453092 F F F P
0.321703 0.704492 0.508647 F F F P
0.678297 0.204492 0.460995 F F F P
0.704492 0.178297 0.536425 F F F P
0.795508 0.321703 0.480870 F F F P
0.186709 0.059719 0.501290 F F F P
0.440281 0.186709 0.473512 F F F P
0.559719 0.813291 0.473512 F F F P
0.813291 0.559719 0.468352 F F F P
0.186709 0.440281 0.468352 F F F P
0.313291 0.440281 0.445735 F F F P
0.440281 0.313291 0.496130 F F F P
0.059719 0.186709 0.551685 F F F P
0.313291 0.940281 0.468352 F F F P
0.559719 0.313291 0.551685 F F F P
0.940281 0.186709 0.496130 F F F P
0.686709 0.440281 0.501290 F F F P
0.813291 0.059719 0.445735 F F F P
0.686709 0.059719 0.468352 F F F P
0.059719 0.686709 0.473512 F F F P
0.940281 0.313291 0.473512 F F F P
0.423646 0.170523 0.503929 F F F P
0.329477 0.423646 0.476151 F F F P
0.170523 0.076354 0.531706 F F F P
0.076354 0.170523 0.521269 F F F P
0.423646 0.329477 0.465713 F F F P
0.076354 0.329477 0.448373 F F F P
0.329477 0.076354 0.493491 F F F P
0.170523 0.423646 0.549047 F F F P
0.576354 0.329477 0.521269 F F F P
0.670523 0.076354 0.549047 F F F P
0.829477 0.423646 0.493491 F F F P
0.923646 0.329477 0.503929 F F F P
0.576354 0.170523 0.448373 F F F P
0.923646 0.170523 0.465713 F F F P
0.170523 0.923646 0.476151 F F F P
0.329477 0.576354 0.531706 F F F P
0.540130 0.250000 0.484821 F F F P
0.250000 0.540129 0.457043 F F F P
0.250000 0.959871 0.512599 F F F P
0.459871 0.750000 0.484821 F F F P
0.459871 0.250000 0.540377 F F F P
0.750000 0.959871 0.457043 F F F P
0.250000 0.040129 0.457043 F F F P
0.040129 0.250000 0.484821 F F F P
0.678297 0.704492 0.453092 F F F P
0.795508 0.678297 0.536425 F F F P
0.704492 0.821703 0.480869 F F F P
0.821703 0.704492 0.460995 F F F P
0.678297 0.795508 0.516550 F F F P
0.821703 0.795508 0.508647 F F F P
0.795508 0.821703 0.544328 F F F P
0.704492 0.678297 0.488772 F F F P
0.321703 0.795508 0.460995 F F F P
0.704492 0.321703 0.544328 F F F P
0.795508 0.178297 0.488772 F F F P
0.678297 0.295508 0.508647 F F F P
0.821703 0.204492 0.453092 F F F P
0.178297 0.704492 0.516550 F F F P
0.204492 0.678297 0.480870 F F F P
0.295508 0.821703 0.536425 F F F P
0.686709 0.559719 0.445735 F F F P
0.940281 0.686709 0.529068 F F F P
0.059719 0.313291 0.529068 F F F P
0.313291 0.059719 0.523907 F F F P
0.686709 0.940281 0.523907 F F F P
0.813291 0.940281 0.501290 F F F P
0.940281 0.813291 0.551685 F F F P
0.559719 0.686709 0.496130 F F F P
0.813291 0.440281 0.523907 F F F P
0.059719 0.813291 0.496130 F F F P
0.440281 0.686709 0.551685 F F F P
0.186709 0.940281 0.445735 F F F P
0.313291 0.559719 0.501290 F F F P
0.186709 0.559719 0.523907 F F F P
0.559719 0.186709 0.529068 F F F P
0.440281 0.813291 0.529068 F F F P
0.923646 0.670523 0.448373 F F F P
0.829477 0.923646 0.531706 F F F P
0.670523 0.576354 0.476151 F F F P
0.576354 0.670523 0.465713 F F F P
0.923646 0.829477 0.521269 F F F P
0.576354 0.829477 0.503929 F F F P
0.829477 0.576354 0.549047 F F F P
0.670523 0.923646 0.493491 F F F P
0.076354 0.829477 0.465713 F F F P
0.170523 0.576354 0.493491 F F F P
0.329477 0.923646 0.549047 F F F P
0.423646 0.829477 0.448373 F F F P
0.076354 0.670523 0.503929 F F F P
0.423646 0.670523 0.521269 F F F P
0.670523 0.423646 0.531706 F F F P
0.829477 0.076354 0.476151 F F F P
0.040129 0.750000 0.540377 F F F P
0.750000 0.040129 0.512599 F F F P
0.750000 0.459871 0.457043 F F F P
0.959871 0.250000 0.540377 F F F P
0.959871 0.750000 0.484821 F F F P
0.250000 0.459871 0.512599 F F F P
0.750000 0.540129 0.512599 F F F P
0.540129 0.750000 0.540377 F F F P
0.178297 0.204492 0.619758 F F F P
0.295508 0.178297 0.591981 F F F P
0.204492 0.321703 0.647536 F F F P
0.321703 0.204492 0.627661 F F F P
0.178297 0.295508 0.572106 F F F P
0.321703 0.295508 0.564203 F F F P
0.295508 0.321703 0.599884 F F F P
0.204492 0.178297 0.655439 F F F P
0.821703 0.295508 0.627661 F F F P
0.204492 0.821703 0.599884 F F F P
0.295508 0.678297 0.655439 F F F P
0.178297 0.795508 0.564203 F F F P
0.321703 0.704492 0.619758 F F F P
0.678297 0.204492 0.572106 F F F P
0.704492 0.178297 0.647536 F F F P
0.795508 0.321703 0.591981 F F F P
0.186709 0.059719 0.612401 F F F P
0.440281 0.186709 0.584623 F F F P
0.559719 0.813291 0.584623 F F F P
0.813291 0.559719 0.579463 F F F P
0.186709 0.440281 0.579463 F F F P
0.313291 0.440281 0.556846 F F F P
0.440281 0.313291 0.607241 F F F P
0.059719 0.186709 0.662796 F F F P
0.313291 0.940281 0.579463 F F F P
0.559719 0.313291 0.662796 F F F P
0.940281 0.186709 0.607241 F F F P
0.686709 0.440281 0.612401 F F F P
0.813291 0.059719 0.556846 F F F P
0.686709 0.059719 0.579463 F F F P
0.059719 0.686709 0.584623 F F F P
0.940281 0.313291 0.584623 F F F P
0.423646 0.170523 0.615040 F F F P
0.329477 0.423646 0.587262 F F F P
0.170523 0.076354 0.642817 F F F P
0.076354 0.170523 0.632380 F F F P
0.423646 0.329477 0.576825 F F F P
0.076354 0.329477 0.559484 F F F P
0.329477 0.076354 0.604602 F F F P
0.170523 0.423646 0.660158 F F F P
0.576354 0.329477 0.632380 F F F P
0.670523 0.076354 0.660158 F F F P
0.829477 0.423646 0.604602 F F F P
0.923646 0.329477 0.615040 F F F P
0.576354 0.170523 0.559484 F F F P
0.923646 0.170523 0.576825 F F F P
0.170523 0.923646 0.587262 F F F P
0.329477 0.576354 0.642817 F F F P
0.540130 0.250000 0.595932 F F F P
0.250000 0.540129 0.568154 F F F P
0.250000 0.959871 0.623710 F F F P
0.459871 0.750000 0.595932 F F F P
0.459871 0.250000 0.651488 F F F P
0.750000 0.959871 0.568154 F F F P
0.250000 0.040129 0.568154 F F F P
0.040129 0.250000 0.595932 F F F P
0.678297 0.704492 0.564203 F F F P
0.795508 0.678297 0.647536 F F F P
0.704492 0.821703 0.591981 F F F P
0.821703 0.704492 0.572106 F F F P
0.678297 0.795508 0.627661 F F F P
0.821703 0.795508 0.619758 F F F P
0.795508 0.821703 0.655439 F F F P
0.704492 0.678297 0.599884 F F F P
0.321703 0.795508 0.572106 F F F P
0.704492 0.321703 0.655439 F F F P
0.795508 0.178297 0.599884 F F F P
0.678297 0.295508 0.619758 F F F P
0.821703 0.204492 0.564203 F F F P
0.178297 0.704492 0.627661 F F F P
0.204492 0.678297 0.591981 F F F P
0.295508 0.821703 0.647536 F F F P
0.686709 0.559719 0.556846 F F F P
0.940281 0.686709 0.640179 F F F P
0.059719 0.313291 0.640179 F F F P
0.313291 0.059719 0.635019 F F F P
0.686709 0.940281 0.635019 F F F P
0.813291 0.940281 0.612401 F F F P
0.940281 0.813291 0.662796 F F F P
0.559719 0.686709 0.607241 F F F P
0.813291 0.440281 0.635019 F F F P
0.059719 0.813291 0.607241 F F F P
0.440281 0.686709 0.662796 F F F P
0.186709 0.940281 0.556846 F F F P
0.313291 0.559719 0.612401 F F F P
0.186709 0.559719 0.635019 F F F P
0.559719 0.186709 0.640179 F F F P
0.440281 0.813291 0.640179 F F F P
0.923646 0.670523 0.559484 F F F P
0.829477 0.923646 0.642817 F F F P
0.670523 0.576354 0.587262 F F F P
0.576354 0.670523 0.576825 F F F P
0.923646 0.829477 0.632380 F F F P
0.576354 0.829477 0.615040 F F F P
0.829477 0.576354 0.660158 F F F P
0.670523 0.923646 0.604602 F F F P
0.076354 0.829477 0.576825 F F F P
0.170523 0.576354 0.604602 F F F P
0.329477 0.923646 0.660158 F F F P
0.423646 0.829477 0.559484 F F F P
0.076354 0.670523 0.615040 F F F P
0.423646 0.670523 0.632380 F F F P
0.670523 0.423646 0.642817 F F F P
0.829477 0.076354 0.587262 F F F P
0.040129 0.750000 0.651488 F F F P
0.750000 0.040129 0.623710 F F F P
0.750000 0.459871 0.568154 F F F P
0.959871 0.250000 0.651488 F F F P
0.959871 0.750000 0.595932 F F F P
0.250000 0.459871 0.623710 F F F P
0.750000 0.540129 0.623710 F F F P
0.540129 0.750000 0.651488 F F F P
0.178297 0.204492 0.730869 F F F P
0.295508 0.178297 0.703092 F F F P
0.204492 0.321703 0.758647 T T T P
0.321703 0.204492 0.738772 F F F P
0.178297 0.295508 0.683217 F F F P
0.321703 0.295508 0.675314 F F F P
0.295508 0.321703 0.710995 F F F P
0.204492 0.178297 0.766550 T T T P
0.821703 0.295508 0.738772 F F F P
0.204492 0.821703 0.710995 F F F P
0.295508 0.678297 0.766550 T T T P
0.178297 0.795508 0.675314 F F F P
0.321703 0.704492 0.730869 F F F P
0.678297 0.204492 0.683217 F F F P
0.704492 0.178297 0.758647 T T T P
0.795508 0.321703 0.703092 F F F P
0.186709 0.059719 0.723512 F F F P
0.440281 0.186709 0.695735 F F F P
0.559719 0.813291 0.695735 F F F P
0.813291 0.559719 0.690574 F F F P
0.186709 0.440281 0.690574 F F F P
0.313291 0.440281 0.667957 F F F P
0.440281 0.313291 0.718352 F F F P
0.059719 0.186709 0.773907 T T T P
0.313291 0.940281 0.690574 F F F P
0.559719 0.313291 0.773907 T T T P
0.940281 0.186709 0.718352 F F F P
0.686709 0.440281 0.723512 F F F P
0.813291 0.059719 0.667957 F F F P
0.686709 0.059719 0.690574 F F F P
0.059719 0.686709 0.695735 F F F P
0.940281 0.313291 0.695735 F F F P
0.423646 0.170523 0.726151 F F F P
0.329477 0.423646 0.698373 F F F P
0.170523 0.076354 0.753929 F F F P
0.076354 0.170523 0.743491 F F F P
0.423646 0.329477 0.687936 F F F P
0.076354 0.329477 0.670595 F F F P
0.329477 0.076354 0.715713 F F F P
0.170523 0.423646 0.771269 T T T P
0.576354 0.329477 0.743491 F F F P
0.670523 0.076354 0.771269 T T T P
0.829477 0.423646 0.715713 F F F P
0.923646 0.329477 0.726151 F F F P
0.576354 0.170523 0.670595 F F F P
0.923646 0.170523 0.687936 F F F P
0.170523 0.923646 0.698373 F F F P
0.329477 0.576354 0.753929 F F F P
0.540130 0.250000 0.707043 F F F P
0.250000 0.540129 0.679265 F F F P
0.250000 0.959871 0.734821 F F F P
0.459871 0.750000 0.707043 F F F P
0.459871 0.250000 0.762599 T T T P
0.750000 0.959871 0.679265 F F F P
0.250000 0.040129 0.679265 F F F P
0.040129 0.250000 0.707043 F F F P
0.678297 0.704492 0.675314 F F F P
0.795508 0.678297 0.758647 T T T P
0.704492 0.821703 0.703092 F F F P
0.821703 0.704492 0.683217 F F F P
0.678297 0.795508 0.738772 F F F P
0.821703 0.795508 0.730869 F F F P
0.795508 0.821703 0.766550 T T T P
0.704492 0.678297 0.710995 F F F P
0.321703 0.795508 0.683217 F F F P