Li1
1.0
-1.654278 1.654278 1.654278
1.654278 -1.654278 1.654278
1.654278 1.654278 -1.654278
Li
1
direct
0.000000 0.000000 0.000000 Li
