Li5 P2 N1 O6                            
   1.00000000000000     
     0.0054504545097228   -0.0606719354086065    4.8583361882849188
     6.5946416524448201    0.1041847209814469    0.0699462564251431
     0.0805520840713485    5.2589027972208768   -0.0731043013428184
   Li   P    N    O 
     5     2     1     6
Direct
  0.5357860237897185  0.0344183126090556  0.8470532722927118
  0.5364598897834512  0.2703528157381783  0.3024490193713092
  0.5419914026921759  0.7632171926228679  0.3058893445643349
  0.0338587985719840  0.8097321368910642  0.6490733512215172
  0.0378780472921463  0.2309207246583327  0.6323653305497388
  0.6231286684848598  0.5090335357846101  0.8192287571489558
  0.0388540835469797  0.0153426609116778  0.1680234996372008
  0.6336826269532096  0.3097263889673698  0.6774196709231646
  0.1450030143332270  0.2096660133783388  0.2921617408506023
  0.6560385136844431  0.7196279918657709  0.6868954109233627
  0.1540511852063204  0.8249219433137469  0.3167542009567228
  0.5788641569388417  0.5260690573274616  0.1013329595219119
  0.1313088981782684  0.0114691232960169  0.8820497672058849
  0.7173406905444040  0.0126291026355005  0.1744736748325977
 
  0.00000000E+00  0.00000000E+00  0.00000000E+00
  0.00000000E+00  0.00000000E+00  0.00000000E+00
  0.00000000E+00  0.00000000E+00  0.00000000E+00
  0.00000000E+00  0.00000000E+00  0.00000000E+00
  0.00000000E+00  0.00000000E+00  0.00000000E+00
  0.00000000E+00  0.00000000E+00  0.00000000E+00
  0.00000000E+00  0.00000000E+00  0.00000000E+00
  0.00000000E+00  0.00000000E+00  0.00000000E+00
  0.00000000E+00  0.00000000E+00  0.00000000E+00
  0.00000000E+00  0.00000000E+00  0.00000000E+00
  0.00000000E+00  0.00000000E+00  0.00000000E+00
  0.00000000E+00  0.00000000E+00  0.00000000E+00
  0.00000000E+00  0.00000000E+00  0.00000000E+00
  0.00000000E+00  0.00000000E+00  0.00000000E+00
