Li7 P2 N1 O7                            
   1.00000000000000     
     4.9663861232660187    0.0022182673354210   -0.0902896317299015
    -0.0024541401445633    5.4297454783868098    0.0376587106083801
    -0.1051866261907830    0.0398944535657900    6.2647626341091716
   Li   P    N    O 
     7     2     1     7
Direct
 -0.1373961161002102  0.9053768589058371  0.2883483043381341
 -0.0000745323289852  0.6677581685027435  0.7367154917642724
  0.5337340668105047  0.3072370966846508  0.7355072016353278
  0.5210453046448034  0.8417785873279928 -0.0343517592487886
  0.0380601516051509  0.1644179416515796  0.5268037471150872
  0.5501045368510493  0.3053910614735950  0.2617163797771153
  0.1950983424743211  0.6254028127309190  0.2173175696771591
  0.4981019857635732  0.8203149321611249  0.5032698948924456
  0.0245419767177840  0.1652444735595804 -0.0044636013787986
  0.6325870259102618  0.0819324790512046  0.5000115354823252
  0.1233762792387033  0.3105855615584273  0.7994125151112780
  0.1752984433968867  0.8088182938927504  0.4886506930806458
  0.7109615466650629  0.1597510194443454  0.0039986966329499
  0.5756468983513104  0.6686618423701955  0.2904809685874446
  0.1352370082692600  0.2840549491542971  0.2056992411174012
  0.1169691398715369  0.8871602678396834 -0.0054348906296864
  0.5904079418590168  0.6576736536910733  0.7051380120456877
 
  0.00000000E+00  0.00000000E+00  0.00000000E+00
  0.00000000E+00  0.00000000E+00  0.00000000E+00
  0.00000000E+00  0.00000000E+00  0.00000000E+00
  0.00000000E+00  0.00000000E+00  0.00000000E+00
  0.00000000E+00  0.00000000E+00  0.00000000E+00
  0.00000000E+00  0.00000000E+00  0.00000000E+00
  0.00000000E+00  0.00000000E+00  0.00000000E+00
  0.00000000E+00  0.00000000E+00  0.00000000E+00
  0.00000000E+00  0.00000000E+00  0.00000000E+00
  0.00000000E+00  0.00000000E+00  0.00000000E+00
  0.00000000E+00  0.00000000E+00  0.00000000E+00
  0.00000000E+00  0.00000000E+00  0.00000000E+00
  0.00000000E+00  0.00000000E+00  0.00000000E+00
  0.00000000E+00  0.00000000E+00  0.00000000E+00
  0.00000000E+00  0.00000000E+00  0.00000000E+00
  0.00000000E+00  0.00000000E+00  0.00000000E+00
  0.00000000E+00  0.00000000E+00  0.00000000E+00
