Li7 P2 N1 O7
1.0
4.922448 0.000000 0.000000
0.000000 5.296402 0.000000
0.000000 0.000000 6.176136
Li P N O
7 2 1 7
direct
0.008363 0.673566 0.247127 Li+
0.008363 0.673566 0.752873 Li+
0.508363 0.326434 0.747127 Li+
0.509417 0.844520 0.000000 Li+
0.009417 0.155480 0.500000 Li+
0.508363 0.326434 0.252873 Li+
0.225900 0.661560 0.218820 Li+
0.501420 0.824261 0.500000 P5+
0.001420 0.175739 0.000000 P5+
0.602126 0.103508 0.500000 N3-
0.107010 0.313509 0.792862 O2-
0.185191 0.818396 0.500000 O2-
0.685191 0.181604 0.000000 O2-
0.607010 0.686491 0.292862 O2-
0.107010 0.313509 0.207138 O2-
0.102126 0.896492 0.000000 O2-
0.607010 0.686491 0.707138 O2-
