Li56 P28 N28 O56
1.0
9.155868 0.000000 0.000000
-0.000000 5.461026 4.748969
0.000000 0.000000 61.736597
Li P N O
56 28 28 56
Selective dynamics
direct
0.665671 0.340535 0.058581 T T T Li+
0.334329 0.340535 0.058581 T T T Li+
0.334329 0.659465 0.072509 T T T Li+
0.665671 0.659465 0.072509 T T T Li+
0.165671 0.840536 0.020119 T T T Li+
0.834329 0.840536 0.020119 T T T Li+
0.834329 0.159465 0.034048 T T T Li+
0.165671 0.159465 0.034048 T T T Li+
0.665671 0.340535 0.135504 F F F Li+
0.334329 0.340535 0.135504 F F F Li+
0.334329 0.659465 0.149433 F F F Li+
0.665671 0.659465 0.149433 F F F Li+
0.165671 0.840536 0.097042 T T T Li+
0.834329 0.840536 0.097042 T T T Li+
0.834329 0.159465 0.110971 F F F Li+
0.165671 0.159465 0.110971 F F F Li+
0.665671 0.340535 0.212427 F F F Li+
0.334329 0.340535 0.212427 F F F Li+
0.334329 0.659465 0.226356 F F F Li+
0.665671 0.659465 0.226356 F F F Li+
0.165671 0.840536 0.173966 F F F Li+
0.834329 0.840536 0.173966 F F F Li+
0.834329 0.159465 0.187894 F F F Li+
0.165671 0.159465 0.187894 F F F Li+
0.665671 0.340535 0.289350 F F F Li+
0.334329 0.340535 0.289350 F F F Li+
0.334329 0.659465 0.303279 F F F Li+
0.665671 0.659465 0.303279 F F F Li+
0.165671 0.840536 0.250889 F F F Li+
0.834329 0.840536 0.250889 F F F Li+
0.834329 0.159465 0.264817 F F F Li+
0.165671 0.159465 0.264817 F F F Li+
0.665671 0.340535 0.366273 F F F Li+
0.334329 0.340535 0.366273 F F F Li+
0.334329 0.659465 0.380202 F F F Li+
0.665671 0.659465 0.380202 F F F Li+
0.165671 0.840536 0.327812 F F F Li+
0.834329 0.840536 0.327812 F F F Li+
0.834329 0.159465 0.341740 F F F Li+
0.165671 0.159465 0.341740 F F F Li+
0.665671 0.340535 0.443196 T T T Li+
0.334329 0.340535 0.443196 T T T Li+
0.334329 0.659465 0.457125 F F F Li+
0.665671 0.659465 0.457125 F F F Li+
0.165671 0.840536 0.404735 F F F Li+
0.834329 0.840536 0.404735 F F F Li+
0.834329 0.159465 0.418663 T T T Li+
0.165671 0.159465 0.418663 T T T Li+
0.665671 0.340535 0.520119 T T T Li+
0.334329 0.340535 0.520119 T T T Li+
0.334329 0.659465 0.534048 T T T Li+
0.665671 0.659465 0.534048 T T T Li+
0.165671 0.840536 0.481658 T T T Li+
0.834329 0.840536 0.481658 T T T Li+
0.834329 0.159465 0.495586 T T T Li+
0.165671 0.159465 0.495586 T T T Li+
0.000000 0.346250 0.057907 T T T P5+
0.000000 0.653750 0.072715 T T T P5+
0.500000 0.846250 0.019446 T T T P5+
0.500000 0.153750 0.034253 T T T P5+
0.000000 0.346250 0.134830 F F F P5+
0.000000 0.653750 0.149638 F F F P5+
0.500000 0.846250 0.096369 T T T P5+
0.500000 0.153750 0.111176 F F F P5+
0.000000 0.346250 0.211753 F F F P5+
0.000000 0.653750 0.226561 F F F P5+
0.500000 0.846250 0.173292 F F F P5+
0.500000 0.153750 0.188099 F F F P5+
0.000000 0.346250 0.288676 F F F P5+
0.000000 0.653750 0.303484 F F F P5+
0.500000 0.846250 0.250215 F F F P5+
0.500000 0.153750 0.265023 F F F P5+
0.000000 0.346250 0.365599 F F F P5+
0.000000 0.653750 0.380407 F F F P5+
0.500000 0.846250 0.327138 F F F P5+
0.500000 0.153750 0.341946 F F F P5+
0.000000 0.346250 0.442523 T T T P5+
0.000000 0.653750 0.457330 T T T P5+
0.500000 0.846250 0.404061 F F F P5+
0.500000 0.153750 0.418869 T T T P5+
0.000000 0.346250 0.519446 T T T P5+
0.000000 0.653750 0.534253 T T T P5+
0.500000 0.846250 0.480984 T T T P5+
0.500000 0.153750 0.495792 T T T P5+
0.000000 0.613000 0.025285 T T T N3-
0.000000 0.387000 0.004208 T T T N3-
0.500000 0.113000 0.063747 T T T N3-
0.500000 0.887000 0.042670 T T T N3-
0.000000 0.613000 0.102208 T T T N3-
0.000000 0.387000 0.081131 F F F N3-
0.500000 0.113000 0.140670 F F F N3-
0.500000 0.887000 0.119593 F F F N3-
0.000000 0.613000 0.179131 F F F N3-
0.000000 0.387000 0.158054 F F F N3-
0.500000 0.113000 0.217593 F F F N3-
0.500000 0.887000 0.196516 F F F N3-
0.000000 0.613000 0.256054 F F F N3-
0.000000 0.387000 0.234978 F F F N3-
0.500000 0.113000 0.294516 F F F N3-
0.500000 0.887000 0.273439 F F F N3-
0.000000 0.613000 0.332978 F F F N3-
0.000000 0.387000 0.311901 F F F N3-
0.500000 0.113000 0.371439 F F F N3-
0.500000 0.887000 0.350362 F F F N3-
0.000000 0.613000 0.409901 F F F N3-
0.000000 0.387000 0.388824 F F F N3-
0.500000 0.113000 0.448362 T T T N3-
0.500000 0.887000 0.427285 T T T N3-
0.000000 0.613000 0.486824 T T T N3-
0.000000 0.387000 0.465747 F F F N3-
0.500000 0.113000 0.525285 T T T N3-
0.500000 0.887000 0.504208 T T T N3-
0.139047 0.194550 0.063468 T T T O2-
0.860953 0.194550 0.063468 T T T O2-
0.860953 0.805450 0.054937 T T T O2-
0.139047 0.805450 0.054937 T T T O2-
0.639047 0.694550 0.025006 T T T O2-
0.360953 0.694550 0.025006 T T T O2-
0.360953 0.305450 0.016476 T T T O2-
0.639047 0.305450 0.016476 T T T O2-
0.139047 0.194550 0.140391 F F F O2-
0.860953 0.194550 0.140391 F F F O2-
0.860953 0.805450 0.131860 F F F O2-
0.139047 0.805450 0.131860 F F F O2-
0.639047 0.694550 0.101929 T T T O2-
0.360953 0.694550 0.101929 T T T O2-
0.360953 0.305450 0.093399 F F F O2-
0.639047 0.305450 0.093399 F F F O2-
0.139047 0.194550 0.217314 F F F O2-
0.860953 0.194550 0.217314 F F F O2-
0.860953 0.805450 0.208783 F F F O2-
0.139047 0.805450 0.208783 F F F O2-
0.639047 0.694550 0.178853 F F F O2-
0.360953 0.694550 0.178853 F F F O2-
0.360953 0.305450 0.170322 F F F O2-
0.639047 0.305450 0.170322 F F F O2-
0.139047 0.194550 0.294237 F F F O2-
0.860953 0.194550 0.294237 F F F O2-
0.860953 0.805450 0.285706 F F F O2-
0.139047 0.805450 0.285706 F F F O2-
0.639047 0.694550 0.255776 F F F O2-
0.360953 0.694550 0.255776 F F F O2-
0.360953 0.305450 0.247245 F F F O2-
0.639047 0.305450 0.247245 F F F O2-
0.139047 0.194550 0.371160 F F F O2-
0.860953 0.194550 0.371160 F F F O2-
0.860953 0.805450 0.362629 F F F O2-
0.139047 0.805450 0.362629 F F F O2-
0.639047 0.694550 0.332699 F F F O2-
0.360953 0.694550 0.332699 F F F O2-
0.360953 0.305450 0.324168 F F F O2-
0.639047 0.305450 0.324168 F F F O2-
0.139047 0.194550 0.448083 T T T O2-
0.860953 0.194550 0.448083 T T T O2-
0.860953 0.805450 0.439553 T T T O2-
0.139047 0.805450 0.439553 T T T O2-
0.639047 0.694550 0.409622 F F F O2-
0.360953 0.694550 0.409622 F F F O2-
0.360953 0.305450 0.401091 T T T O2-
0.639047 0.305450 0.401091 T T T O2-
0.139047 0.194550 0.525006 T T T O2-
0.860953 0.194550 0.525006 T T T O2-
0.860953 0.805450 0.516476 T T T O2-
0.139047 0.805450 0.516476 T T T O2-
0.639047 0.694550 0.486545 T T T O2-
0.360953 0.694550 0.486545 T T T O2-
0.360953 0.305450 0.478014 T T T O2-
0.639047 0.305450 0.478014 T T T O2-
