Li61 P7 N32                             
   1.00000000000000     
     0.0181928682170478    9.6103652509676625   -0.0491097127027273
     0.0255602843383147   -0.0493135213619257    9.6293517180984960
     9.5925406399186013    0.0181347138623228    0.0252967339060413
   Li   P    N 
    61     7    32
Direct
  0.4962280039552786  0.9879835113193118  0.5015928146989395
  0.9941851961868006  0.5070861462400349  0.0163220221952260
  0.4992254201448127  0.0053592571709027  0.0014588979542173
 -0.0003676149349780  0.0015311596375392  0.5013325504770524
  0.4889026412221076  0.5024192919775275  0.0236064132219427
  0.9764194749464414  0.5002714959747304  0.5140305326533774
  0.7507435721929336  0.0085334804350036  0.4915183535390228
  0.2473998758498774  0.0003912849481589  0.5035182303419328
  0.7351574786524193  0.5385478309153714  0.4744132073663022
  0.2145584678334286  0.5031659977204117  0.4978735951975305
  0.2595522271493954  0.0004043810375713  0.0081113969003939
  0.7442460894363747  0.9939571459862312  0.9642052207230060
  0.5735246531246455  0.4312582788172868  0.5670384147674528
  0.4882679902399193  0.2510197762554655  0.9911168275381645
  0.4807092079869937  0.7572630342250841  0.9916543578443523
  0.0453116889581365  0.5233670066464630  0.2782394304360379
  0.0167043699111202  0.5228199201906132  0.7550938825099381
  0.1819537701453164  0.2570739351807815  0.2227971418073386
  0.2614046011349929  0.7324776101465215  0.7495687125420173
  0.2926124520732263  0.2176997709271686  0.7005809804454954
  0.2497006644612501  0.7471535214745347  0.2623719592837425
  0.6785042004050192  0.1845384296520641  0.3317843012514985
  0.7794948786409939  0.7021469141378127  0.7186775611934647
  0.7808674311272334  0.1806201084736218  0.7330740065633796
  0.7524964844049875  0.7677852098102659  0.2229590756358681
  0.9177014811096754  0.2947994754744256  0.2712351082353068
  0.0127795539396545  0.7807353992934187  0.7481231981873459
  0.2506535304398029  0.2512201186330010  0.4771287139114164
  0.2538730063142338  0.7536309615613584  0.4965188216975250
  0.7605725825856011  0.2892375048987477  0.5051530259287634
  0.7409472285033609  0.7642118088367267  0.4884303720276001
  0.7979152930218352  0.5270080515271197  0.2513482168829964
  0.7439753689589863  0.4838797461232964  0.7343406662253595
  0.2903804796033652  0.5216205334579322  0.2359549461905022
  0.2689274152269006  0.4592981279514583  0.7546116240481350
  0.4843716722650446  0.7587415696334717  0.2491395950218863
  0.5207757595047370  0.2577867418413272  0.7532351627630101
  0.2292876406097517  0.9938492866084290  0.2530076813078923
  0.2387982935485704  0.9884559423844018  0.7648183869956333
  0.2442983631772119  0.2371334504334145  0.9705977559813042
  0.2319863023027997  0.7565799570058808  0.0043793071229006
  0.7417611847078778  0.9382824093403498  0.7168283742263482
  0.7412060493178448  0.9992862169254848  0.2073910362781433
  0.7292936958890341  0.7554986102850759  0.9661570921217862
  0.7436603396760326  0.2248801703349642  0.0154431426884881
  0.0562208688379146  0.2570426704170689  0.7634160773607567
  0.0001400563796031  0.7744226365946396  0.2368517864909672
  0.4410674444079508  0.2573692567441991  0.2314764409307078
  0.5266778765679805  0.7535605040152856  0.7331411174837972
  0.0030088840600026  0.2601019793155350  0.0256536194520235
  0.9818904719312781  0.7434481040412870  0.9924998665523547
  0.4968299175880020  0.2208106338521221  0.5053183900779292
  0.5084014897119975  0.7534798292856072  0.4830244445417199
  0.5525665561180744  0.5464567430062260  0.2878572644933690
  0.5073245639574516  0.5116054937137819  0.7869300975153667
  0.9852279313100734  0.0260905206716991  0.2652005725307069
  0.9956488770424836  0.0169763896590520  0.7398811163560194
  0.4255130727203514  0.4262253795896780  0.4135356306763764
  0.4250911159125075  0.5767750165427589  0.5728376750728870
  0.8813229237916864  0.3517204296746806  0.8585318173679325
  0.6546330517915844  0.3511026453883343  0.1833017545225467
  0.9975142669636679  0.0051389901928445  0.0007334735832124
  0.7460138477292836  0.5015921976934137  0.9990398928450891
  0.2372407110157275  0.4965369740856924  0.0007052856527250
  0.9977589514608119  0.7564576163994076  0.4947716256811089
  0.9994516389260899  0.2468562567154077  0.5135743575544337
  0.4888715077467565  0.0069987208076688  0.2477245428153074
  0.4959410716010797  0.9966108930243558  0.7540593787404178
  0.6239315393850347  0.6206738117050078  0.6224974679097128
  0.6274061185833371  0.3764251105604278  0.3787940242721830
  0.8867268210636837  0.9029035845338981  0.0965534345994969
  0.9014421927154715  0.1155465627365410  0.8993254839338282
  0.0956260975566748  0.9018269897507437  0.8983419157205075
  0.1007358082518856  0.1003338098752720  0.1046747330559574
  0.3757306529232018  0.6275135931630540  0.3791223809219872
  0.3843856895388572  0.3737664227007423  0.6106400265765446
  0.0824660384154865  0.3542614538339469  0.4000087011339143
  0.0937586222477165  0.6571921895414329  0.6032119800701391
  0.1128674047738615  0.1449114897247057  0.6000180910501086
  0.1021631414702901  0.8592293834196184  0.3950845737624674
  0.8845141469777612  0.1511654831095172  0.4192808761378994
  0.8915636798558119  0.8542844513889610  0.5980532901386429
  0.8455735108451484  0.3950968835240927  0.0976040963580626
  0.8494839900984112  0.5931465038897453  0.8893206088132656
  0.1466132133850437  0.6016941545345441  0.1095739621803227
  0.1300274265966546  0.4007717243148506  0.8992770432631066
  0.3899755529852268  0.9027796249486830  0.1459513249589911
  0.3965101379067479  0.1049228367048321  0.8497874433143319
  0.3865174599559211  0.0977039235068086  0.3561703361274468
  0.3891214656032267  0.8929874266510925  0.6563181869965132
  0.3330012411470566  0.3815613700620423  0.0954039579033584
  0.3421796352492057  0.6006193263079781  0.9016556639800177
  0.6073608240718567  0.0878909702890513  0.6499206267347394
  0.6065613999664644  0.9091180538007614  0.3390615033027795
  0.6551256065369553  0.6071449454593905  0.1047878857247307
  0.6434470165604655  0.3912852764515393  0.9074991358024758
  0.9082245739968040  0.3410700539385642  0.6360879944415782
  0.8971196989098239  0.6579487718688367  0.3863353346793869
  0.5869794515213501  0.1223811252997287  0.1480832615918697
  0.5953802773811668  0.8943502291220636  0.8588923113158384
 
  0.00000000E+00  0.00000000E+00  0.00000000E+00
  0.00000000E+00  0.00000000E+00  0.00000000E+00
  0.00000000E+00  0.00000000E+00  0.00000000E+00
  0.00000000E+00  0.00000000E+00  0.00000000E+00
  0.00000000E+00  0.00000000E+00  0.00000000E+00
  0.00000000E+00  0.00000000E+00  0.00000000E+00
  0.00000000E+00  0.00000000E+00  0.00000000E+00
  0.00000000E+00  0.00000000E+00  0.00000000E+00
  0.00000000E+00  0.00000000E+00  0.00000000E+00
  0.00000000E+00  0.00000000E+00  0.00000000E+00
  0.00000000E+00  0.00000000E+00  0.00000000E+00
  0.00000000E+00  0.00000000E+00  0.00000000E+00
  0.00000000E+00  0.00000000E+00  0.00000000E+00
  0.00000000E+00  0.00000000E+00  0.00000000E+00
  0.00000000E+00  0.00000000E+00  0.00000000E+00
  0.00000000E+00  0.00000000E+00  0.00000000E+00
  0.00000000E+00  0.00000000E+00  0.00000000E+00
  0.00000000E+00  0.00000000E+00  0.00000000E+00
  0.00000000E+00  0.00000000E+00  0.00000000E+00
  0.00000000E+00  0.00000000E+00  0.00000000E+00
  0.00000000E+00  0.00000000E+00  0.00000000E+00
  0.00000000E+00  0.00000000E+00  0.00000000E+00
  0.00000000E+00  0.00000000E+00  0.00000000E+00
  0.00000000E+00  0.00000000E+00  0.00000000E+00
  0.00000000E+00  0.00000000E+00  0.00000000E+00
  0.00000000E+00  0.00000000E+00  0.00000000E+00
  0.00000000E+00  0.00000000E+00  0.00000000E+00
  0.00000000E+00  0.00000000E+00  0.00000000E+00
  0.00000000E+00  0.00000000E+00  0.00000000E+00
  0.00000000E+00  0.00000000E+00  0.00000000E+00
  0.00000000E+00  0.00000000E+00  0.00000000E+00
  0.00000000E+00  0.00000000E+00  0.00000000E+00
  0.00000000E+00  0.00000000E+00  0.00000000E+00
  0.00000000E+00  0.00000000E+00  0.00000000E+00
  0.00000000E+00  0.00000000E+00  0.00000000E+00
  0.00000000E+00  0.00000000E+00  0.00000000E+00
  0.00000000E+00  0.00000000E+00  0.00000000E+00
  0.00000000E+00  0.00000000E+00  0.00000000E+00
  0.00000000E+00  0.00000000E+00  0.00000000E+00
  0.00000000E+00  0.00000000E+00  0.00000000E+00
  0.00000000E+00  0.00000000E+00  0.00000000E+00
  0.00000000E+00  0.00000000E+00  0.00000000E+00
  0.00000000E+00  0.00000000E+00  0.00000000E+00
  0.00000000E+00  0.00000000E+00  0.00000000E+00
  0.00000000E+00  0.00000000E+00  0.00000000E+00
  0.00000000E+00  0.00000000E+00  0.00000000E+00
  0.00000000E+00  0.00000000E+00  0.00000000E+00
  0.00000000E+00  0.00000000E+00  0.00000000E+00
  0.00000000E+00  0.00000000E+00  0.00000000E+00
  0.00000000E+00  0.00000000E+00  0.00000000E+00
  0.00000000E+00  0.00000000E+00  0.00000000E+00
  0.00000000E+00  0.00000000E+00  0.00000000E+00
  0.00000000E+00  0.00000000E+00  0.00000000E+00
  0.00000000E+00  0.00000000E+00  0.00000000E+00
  0.00000000E+00  0.00000000E+00  0.00000000E+00
  0.00000000E+00  0.00000000E+00  0.00000000E+00
  0.00000000E+00  0.00000000E+00  0.00000000E+00
  0.00000000E+00  0.00000000E+00  0.00000000E+00
  0.00000000E+00  0.00000000E+00  0.00000000E+00
  0.00000000E+00  0.00000000E+00  0.00000000E+00
  0.00000000E+00  0.00000000E+00  0.00000000E+00
  0.00000000E+00  0.00000000E+00  0.00000000E+00
  0.00000000E+00  0.00000000E+00  0.00000000E+00
  0.00000000E+00  0.00000000E+00  0.00000000E+00
  0.00000000E+00  0.00000000E+00  0.00000000E+00
  0.00000000E+00  0.00000000E+00  0.00000000E+00
  0.00000000E+00  0.00000000E+00  0.00000000E+00
  0.00000000E+00  0.00000000E+00  0.00000000E+00
  0.00000000E+00  0.00000000E+00  0.00000000E+00
  0.00000000E+00  0.00000000E+00  0.00000000E+00
  0.00000000E+00  0.00000000E+00  0.00000000E+00
  0.00000000E+00  0.00000000E+00  0.00000000E+00
  0.00000000E+00  0.00000000E+00  0.00000000E+00
  0.00000000E+00  0.00000000E+00  0.00000000E+00
  0.00000000E+00  0.00000000E+00  0.00000000E+00
  0.00000000E+00  0.00000000E+00  0.00000000E+00
  0.00000000E+00  0.00000000E+00  0.00000000E+00
  0.00000000E+00  0.00000000E+00  0.00000000E+00
  0.00000000E+00  0.00000000E+00  0.00000000E+00
  0.00000000E+00  0.00000000E+00  0.00000000E+00
  0.00000000E+00  0.00000000E+00  0.00000000E+00
  0.00000000E+00  0.00000000E+00  0.00000000E+00
  0.00000000E+00  0.00000000E+00  0.00000000E+00
  0.00000000E+00  0.00000000E+00  0.00000000E+00
  0.00000000E+00  0.00000000E+00  0.00000000E+00
  0.00000000E+00  0.00000000E+00  0.00000000E+00
  0.00000000E+00  0.00000000E+00  0.00000000E+00
  0.00000000E+00  0.00000000E+00  0.00000000E+00
  0.00000000E+00  0.00000000E+00  0.00000000E+00
  0.00000000E+00  0.00000000E+00  0.00000000E+00
  0.00000000E+00  0.00000000E+00  0.00000000E+00
  0.00000000E+00  0.00000000E+00  0.00000000E+00
  0.00000000E+00  0.00000000E+00  0.00000000E+00
  0.00000000E+00  0.00000000E+00  0.00000000E+00
  0.00000000E+00  0.00000000E+00  0.00000000E+00
  0.00000000E+00  0.00000000E+00  0.00000000E+00
  0.00000000E+00  0.00000000E+00  0.00000000E+00
  0.00000000E+00  0.00000000E+00  0.00000000E+00
  0.00000000E+00  0.00000000E+00  0.00000000E+00
  0.00000000E+00  0.00000000E+00  0.00000000E+00
