Li5 P2 N1 O6                            
   1.00000000000000     
    -0.0001575445383245   -0.5900328263128474    5.0245527287291942
     6.3955551207104220   -0.0003423746296257   -0.0002437162792799
    -0.0002379219323235    4.9730309673288335   -0.6458006746346128
   Li   P    N    O 
     5     2     1     6
Direct
  0.6350850241209993 -0.0000565162172843  0.7811496654010661
  0.4529593493294794  0.7523424896544401  0.2602764944593305
  0.0669689742827642  0.7420218203970124  0.7424460475306420
  0.0669248124872724  0.2579774589709597  0.7424674373020773
  0.4529681303862759  0.2476637271224898  0.2602487953125392
  0.5531684799313027  0.4999626710085370  0.7808750972385692
 -0.0079686303716030  0.0000459794714926  0.2364361979235905
  0.3499955111171073  0.5000173617377881 -0.0358087346715552
  0.1208923875452678  0.1986901189997669  0.3891527912236719
  0.6643314563973244  0.6958999406985861  0.6723232970637595
  0.1209960641824647  0.8014840008495715  0.3892273849495820
  0.6642934924751320  0.3039584929522905  0.6724231902530579
  0.0495683677455915  0.0000057270801644  0.9420799282697747
  0.6730085803706463 -0.0000132727258138  0.1928264077438992
 
  0.00000000E+00  0.00000000E+00  0.00000000E+00
  0.00000000E+00  0.00000000E+00  0.00000000E+00
  0.00000000E+00  0.00000000E+00  0.00000000E+00
  0.00000000E+00  0.00000000E+00  0.00000000E+00
  0.00000000E+00  0.00000000E+00  0.00000000E+00
  0.00000000E+00  0.00000000E+00  0.00000000E+00
  0.00000000E+00  0.00000000E+00  0.00000000E+00
  0.00000000E+00  0.00000000E+00  0.00000000E+00
  0.00000000E+00  0.00000000E+00  0.00000000E+00
  0.00000000E+00  0.00000000E+00  0.00000000E+00
  0.00000000E+00  0.00000000E+00  0.00000000E+00
  0.00000000E+00  0.00000000E+00  0.00000000E+00
  0.00000000E+00  0.00000000E+00  0.00000000E+00
  0.00000000E+00  0.00000000E+00  0.00000000E+00
