Li61 P7 N32                             
   1.00000000000000     
     0.0114000937275792    9.5810633075505010    0.0190531339424393
    -0.0237379039429666    0.0190202194588869    9.5816706709128372
     9.5522397559981602    0.0114513484107953   -0.0237135158689293
   Li   P    N 
    61     7    32
Direct
  0.4923347079029020 -0.0051651327279962  0.5058001018092066
  0.0107533236488172  0.4974860775309621  0.0002316381969855
  0.5024519893077070 -0.0077746794883436  0.0051811205669609
 -0.0007091670013349 -0.0008192079749586  0.5006578011891849
  0.5115106834078611  0.4952133233709874  0.0090242416985203
  0.0024955796552426  0.4981807416700603  0.4921572162735123
  0.7526068614697189  0.0208668282172154  0.5158322305951071
  0.2451522670973325 -0.0091489460168487  0.5060139944672721
  0.7837389938731366  0.5428561202420318  0.5240962305082147
  0.2257255233173927  0.4918560947086322  0.5017252114721499
  0.2646973666275744 -0.0001242943647661  0.0050094076967371
  0.7409866817231587  0.0004737033812082  0.0186667774150854
  0.4238080198123270  0.5748735431189159  0.5871725544874304
  0.5230947065531234  0.2370427395208666 -0.0143532835678821
  0.5103091570983002  0.7478181197959911  0.0174648702468606
  0.0117290676227324  0.5006288723567580  0.2461979730522297
  0.0175799353347266  0.4881872151052619  0.7492767772930575
  0.2211861931694381  0.2322516466765692  0.2250869070802028
  0.2089508624340272  0.7875685536755663  0.7549004129688671
  0.2185600291818878  0.2957000452009154  0.7186015225871719
  0.2624186217576681  0.7308584872956073  0.2621097027980069
  0.7125586072937925  0.2712695258978035  0.2335806005281510
  0.7118337602140522  0.7826561153452448  0.6887925271164981
  0.7165233096867017  0.2321080503387917  0.7543501303314419
  0.7661198757119346  0.7676614964762173  0.2147500847005021
  0.9737105513999084  0.2527679917192430  0.2372429387314155
  0.9532397625025389  0.7234491255877350  0.7530485828187837
  0.2676620250857895  0.2350248768966782  0.4863454171416709
  0.2537908032755789  0.7405917711831840  0.4987722973269401
  0.7713767048487556  0.2914139161150613  0.4660745058991925
  0.7482334640875780  0.7807119773960085  0.4574541113502530
  0.7644419917255936  0.5070613815227861  0.2651467984227074
  0.7926602867869763  0.4578310396427386  0.7449267020358923
  0.2593137609961834  0.4958565468395221  0.2560765437122976
  0.2448531941926819  0.5302731246070028  0.7483979894178738
  0.4942828838591831  0.7509473370130009  0.2692902281031219
  0.4502934609988107  0.2191907722873868  0.7046889628374845
  0.2423139795500033  0.9805940750360055  0.2548498550769783
  0.2386417693483888  0.0316318937299319  0.7543062347008318
  0.2768833286489476  0.2413604869749163  0.9657357902022774
  0.2601691658884372  0.7594239874121335  0.0130257136643120
  0.7580086723501533  0.9940249779484441  0.7731143820355870
  0.7613012182805435  0.0259043498030088  0.2669070339803125
  0.7650076375507127  0.7624198994842127  0.9733585836222333
  0.7814765836134131  0.2429303757812894 -0.0034543256661555
 -0.0201069061219741  0.2189842841396908  0.7493053262112395
  0.0155306493027795  0.7544240873763889  0.2401732855265596
  0.4739977271506499  0.2559517328809608  0.2284246446099308
  0.4643851109040371  0.7375774160145193  0.7704867299082218
  0.0252470550453699  0.2586236725057699 -0.0062622743518764
  0.0129740781479067  0.7347468268097544 -0.0025289069105623
  0.5360476078804592  0.2114021299371494  0.4648154166370919
  0.5002918171723952  0.7724988346684067  0.5145616599533099
  0.5088332956164988  0.5014388261656666  0.2291259909654291
  0.4629042674490301  0.4463684596323295  0.7939947825674084
  0.0018971967692877  0.0019417718434360  0.2635754051292792
 -0.0009610018843747 -0.0221780514383478  0.7402286886057129
  0.4230884682752728  0.4150091617811953  0.4237433971273233
  0.5824828647447414  0.4183116194250384  0.5864670841480754
  0.5813011826494210  0.5771700247869227  0.4256909106310685
  0.6482822373963784  0.6042235326479860  0.8193101423440252
  0.0034368834893568 -0.0037608445708447  0.0024098408164688
  0.7652402975813368  0.4964904276717639  0.0054175375169554
  0.2573398107831715  0.4993051967628458  0.0027774923603886
  0.0003899479672887  0.7523533285708605  0.4986853630459837
  0.0076620233835973  0.2454055519639199  0.4972896567559036
  0.5011598690191834 -0.0002335315777576  0.2505316300296337
  0.4978131299295155 -0.0115136001484765  0.7593493413836567
  0.6192524409046279  0.6215727941949982  0.6216517354053928
  0.6185710964434353  0.3824358759246111  0.3747016081118457
  0.9015523050027838  0.8927254381120778  0.1035887524339364
  0.8985269648828831  0.0963206108736412  0.8990667122912351
  0.1072515203107892  0.8964308706073258  0.8994842472522530
  0.1034414875081381  0.0998684374262542  0.1046815620343719
  0.3829686286194328  0.6166834659646627  0.3852262805495156
  0.3726161877690416  0.3809872481856693  0.6197969858394798
  0.1039089928639684  0.3449140947940351  0.3875602764071659
  0.0953972855736710  0.6497880890025778  0.6097440794979594
  0.1084958601707194  0.1446689782572172  0.6015191372993813
  0.1088227857780906  0.8522746364252858  0.4010434479700832
  0.8976556005612396  0.1464147759319985  0.3999143925079174
  0.8905177704170754  0.8534618901396868  0.5972203198521500
  0.8633356246813121  0.3957332050177005  0.1092936216339391
  0.8621885306269192  0.5920877489683603  0.8925070148006273
  0.1557948845241914  0.6006142307024593  0.1080121112408022
  0.1578442119897751  0.4029712556769960  0.8926587372567369
  0.4019362726395503  0.8903255325134170  0.1515478996002703
  0.4032864712072145  0.0979966975663768  0.8617083841015015
  0.3914123018460176  0.0985845609536178  0.3507652905297303
  0.3840248584434609  0.8963409235998597  0.6584551268744837
  0.3568989022034799  0.3882669427380090  0.0991327519986602
  0.3626321945006368  0.6052823977709942  0.9063561339847974
  0.6043339736552322  0.0862818474015331  0.6567893607479319
  0.6103797997522155  0.9036073587021421  0.3535077601611166
  0.6636137368459857  0.6090814249620116  0.0961629143832561
  0.6625630723158468  0.3913215596532023  0.9011533293752474
  0.9079874170027157  0.3513071385324333  0.6068673932298813
  0.9037615110073008  0.6525450443532381  0.3868050555971330
  0.6013899596926563  0.1045347089005592  0.1488346496162148
  0.6011465357178627  0.8804754119648892  0.8563136854782721
 
  0.00000000E+00  0.00000000E+00  0.00000000E+00
  0.00000000E+00  0.00000000E+00  0.00000000E+00
  0.00000000E+00  0.00000000E+00  0.00000000E+00
  0.00000000E+00  0.00000000E+00  0.00000000E+00
  0.00000000E+00  0.00000000E+00  0.00000000E+00
  0.00000000E+00  0.00000000E+00  0.00000000E+00
  0.00000000E+00  0.00000000E+00  0.00000000E+00
  0.00000000E+00  0.00000000E+00  0.00000000E+00
  0.00000000E+00  0.00000000E+00  0.00000000E+00
  0.00000000E+00  0.00000000E+00  0.00000000E+00
  0.00000000E+00  0.00000000E+00  0.00000000E+00
  0.00000000E+00  0.00000000E+00  0.00000000E+00
  0.00000000E+00  0.00000000E+00  0.00000000E+00
  0.00000000E+00  0.00000000E+00  0.00000000E+00
  0.00000000E+00  0.00000000E+00  0.00000000E+00
  0.00000000E+00  0.00000000E+00  0.00000000E+00
  0.00000000E+00  0.00000000E+00  0.00000000E+00
  0.00000000E+00  0.00000000E+00  0.00000000E+00
  0.00000000E+00  0.00000000E+00  0.00000000E+00
  0.00000000E+00  0.00000000E+00  0.00000000E+00
  0.00000000E+00  0.00000000E+00  0.00000000E+00
  0.00000000E+00  0.00000000E+00  0.00000000E+00
  0.00000000E+00  0.00000000E+00  0.00000000E+00
  0.00000000E+00  0.00000000E+00  0.00000000E+00
  0.00000000E+00  0.00000000E+00  0.00000000E+00
  0.00000000E+00  0.00000000E+00  0.00000000E+00
  0.00000000E+00  0.00000000E+00  0.00000000E+00
  0.00000000E+00  0.00000000E+00  0.00000000E+00
  0.00000000E+00  0.00000000E+00  0.00000000E+00
  0.00000000E+00  0.00000000E+00  0.00000000E+00
  0.00000000E+00  0.00000000E+00  0.00000000E+00
  0.00000000E+00  0.00000000E+00  0.00000000E+00
  0.00000000E+00  0.00000000E+00  0.00000000E+00
  0.00000000E+00  0.00000000E+00  0.00000000E+00
  0.00000000E+00  0.00000000E+00  0.00000000E+00
  0.00000000E+00  0.00000000E+00  0.00000000E+00
  0.00000000E+00  0.00000000E+00  0.00000000E+00
  0.00000000E+00  0.00000000E+00  0.00000000E+00
  0.00000000E+00  0.00000000E+00  0.00000000E+00
  0.00000000E+00  0.00000000E+00  0.00000000E+00
  0.00000000E+00  0.00000000E+00  0.00000000E+00
  0.00000000E+00  0.00000000E+00  0.00000000E+00
  0.00000000E+00  0.00000000E+00  0.00000000E+00
  0.00000000E+00  0.00000000E+00  0.00000000E+00
  0.00000000E+00  0.00000000E+00  0.00000000E+00
  0.00000000E+00  0.00000000E+00  0.00000000E+00
  0.00000000E+00  0.00000000E+00  0.00000000E+00
  0.00000000E+00  0.00000000E+00  0.00000000E+00
  0.00000000E+00  0.00000000E+00  0.00000000E+00
  0.00000000E+00  0.00000000E+00  0.00000000E+00
  0.00000000E+00  0.00000000E+00  0.00000000E+00
  0.00000000E+00  0.00000000E+00  0.00000000E+00
  0.00000000E+00  0.00000000E+00  0.00000000E+00
  0.00000000E+00  0.00000000E+00  0.00000000E+00
  0.00000000E+00  0.00000000E+00  0.00000000E+00
  0.00000000E+00  0.00000000E+00  0.00000000E+00
  0.00000000E+00  0.00000000E+00  0.00000000E+00
  0.00000000E+00  0.00000000E+00  0.00000000E+00
  0.00000000E+00  0.00000000E+00  0.00000000E+00
  0.00000000E+00  0.00000000E+00  0.00000000E+00
  0.00000000E+00  0.00000000E+00  0.00000000E+00
  0.00000000E+00  0.00000000E+00  0.00000000E+00
  0.00000000E+00  0.00000000E+00  0.00000000E+00
  0.00000000E+00  0.00000000E+00  0.00000000E+00
  0.00000000E+00  0.00000000E+00  0.00000000E+00
  0.00000000E+00  0.00000000E+00  0.00000000E+00
  0.00000000E+00  0.00000000E+00  0.00000000E+00
  0.00000000E+00  0.00000000E+00  0.00000000E+00
  0.00000000E+00  0.00000000E+00  0.00000000E+00
  0.00000000E+00  0.00000000E+00  0.00000000E+00
  0.00000000E+00  0.00000000E+00  0.00000000E+00
  0.00000000E+00  0.00000000E+00  0.00000000E+00
  0.00000000E+00  0.00000000E+00  0.00000000E+00
  0.00000000E+00  0.00000000E+00  0.00000000E+00
  0.00000000E+00  0.00000000E+00  0.00000000E+00
  0.00000000E+00  0.00000000E+00  0.00000000E+00
  0.00000000E+00  0.00000000E+00  0.00000000E+00
  0.00000000E+00  0.00000000E+00  0.00000000E+00
  0.00000000E+00  0.00000000E+00  0.00000000E+00
  0.00000000E+00  0.00000000E+00  0.00000000E+00
  0.00000000E+00  0.00000000E+00  0.00000000E+00
  0.00000000E+00  0.00000000E+00  0.00000000E+00
  0.00000000E+00  0.00000000E+00  0.00000000E+00
  0.00000000E+00  0.00000000E+00  0.00000000E+00
  0.00000000E+00  0.00000000E+00  0.00000000E+00
  0.00000000E+00  0.00000000E+00  0.00000000E+00
  0.00000000E+00  0.00000000E+00  0.00000000E+00
  0.00000000E+00  0.00000000E+00  0.00000000E+00
  0.00000000E+00  0.00000000E+00  0.00000000E+00
  0.00000000E+00  0.00000000E+00  0.00000000E+00
  0.00000000E+00  0.00000000E+00  0.00000000E+00
  0.00000000E+00  0.00000000E+00  0.00000000E+00
  0.00000000E+00  0.00000000E+00  0.00000000E+00
  0.00000000E+00  0.00000000E+00  0.00000000E+00
  0.00000000E+00  0.00000000E+00  0.00000000E+00
  0.00000000E+00  0.00000000E+00  0.00000000E+00
  0.00000000E+00  0.00000000E+00  0.00000000E+00
  0.00000000E+00  0.00000000E+00  0.00000000E+00
  0.00000000E+00  0.00000000E+00  0.00000000E+00
  0.00000000E+00  0.00000000E+00  0.00000000E+00
