Li5 P2 N1 O6                            
   1.00000000000000     
     0.1065341906500156    0.1034715016511140    4.9418976284996088
     6.1105807639368788   -0.1643542329744341    0.1334162023360796
    -0.1479833421123538    5.7120179158202626    0.1019588011260826
   Li   P    N    O 
     5     2     1     6
Direct
  0.5740968694645480  0.0005636902950497  0.8326428717955173
 -0.0054556753315072  0.5048990683685158  0.1424778859288370
  0.5002215969912054  0.7283295879060092  0.3347381479562823
 -0.0048350910222414  0.7036577652385650  0.6571534972671021
  0.0127247988031406  0.2974032841921651  0.6283819953585869
  0.5127152263690481  0.4976865172155053  0.8299559678622559
 -0.0419141992151356  0.0007874811943865  0.2635780735395070
  0.0980573534309402  0.7941894877406210  0.3532556832505565
  0.0634444319484921  0.2298586269384914  0.3016694897167095
  0.6054788607310522  0.6970903211816295  0.6842786114821527
  0.6356056660211018  0.2786650376551763  0.7101985544946705
  0.6048803987034371  0.5264862521508020  0.0816957802403730
  0.1940811347674204  0.4959349002603777  0.8243918388548794
  0.6982096283385258 -0.0084250203372951  0.1326556022525679
 
  0.00000000E+00  0.00000000E+00  0.00000000E+00
  0.00000000E+00  0.00000000E+00  0.00000000E+00
  0.00000000E+00  0.00000000E+00  0.00000000E+00
  0.00000000E+00  0.00000000E+00  0.00000000E+00
  0.00000000E+00  0.00000000E+00  0.00000000E+00
  0.00000000E+00  0.00000000E+00  0.00000000E+00
  0.00000000E+00  0.00000000E+00  0.00000000E+00
  0.00000000E+00  0.00000000E+00  0.00000000E+00
  0.00000000E+00  0.00000000E+00  0.00000000E+00
  0.00000000E+00  0.00000000E+00  0.00000000E+00
  0.00000000E+00  0.00000000E+00  0.00000000E+00
  0.00000000E+00  0.00000000E+00  0.00000000E+00
  0.00000000E+00  0.00000000E+00  0.00000000E+00
  0.00000000E+00  0.00000000E+00  0.00000000E+00
