Li71 P24 N1 O94                         
   1.00000000000000     
    14.6973868307603901   -0.0009365250491284   -0.0038844481140185
    -0.0006446178738349   10.5941589548976065    0.0013741276758500
    -0.0032611547624792    0.0015654194646576   12.2975542237045250
   Li   P    N    O 
    71    24     1    94
Direct
  0.1764545940948500  0.4130774812053087 -0.0031654077261378
  0.1702068129887171  0.4235029805014079  0.5022979080783587
  0.1686799279052421  0.9316575308640291  0.0070297831910086
  0.1712531891777310  0.9229496295443982  0.4997159334615077
  0.5024039347105778  0.4216539427883464 -0.0003164379530188
  0.5032592486699183  0.4225335361638485  0.5004544640730372
  0.5038998710263134  0.9236996855314019 -0.0002239254437271
  0.5025103122123126  0.9233963110815984  0.4998098432594784
  0.8368742342321683  0.4216169151570244 -0.0004829317781289
  0.8343752881429822  0.4227067189173500  0.5014901155820152
  0.8356866444322474  0.9205596624671287 -0.0017000953549195
  0.8364639835663761  0.9229418946653856  0.4999543443131269
  0.0087503276544621  0.0744537336329864  0.2475449202509851
  0.0037758039262649  0.0766755787156765  0.7512245225390419
 -0.0042291304650370  0.6094230964411572  0.2479829135602099
  0.0040061826517882  0.5776289094380769  0.7517186106862505
  0.3321889489620928  0.0774895667241212  0.2445043913732412
  0.3363531944579722  0.0772491430090737  0.7515512554633225
  0.3397269423036439  0.5808076430314182  0.2499380529414611
  0.3365257489702661  0.5774531758278468  0.7504800768600385
  0.6702011728339837  0.0765951795229748  0.2494505178497445
  0.6697489000377872  0.0767842070609579  0.7497890246969474
  0.6681476364890431  0.5774758869908810  0.2500825871193276
  0.6693593397337643  0.5775364523886842  0.7501061565751110
  0.1700908707597663  0.1633370510424023  0.6268552149040203
  0.1704979524274444  0.6679647283515682  0.1243966590090027
  0.1703611559002209  0.6641418254108357  0.6270382833413145
  0.5024384651621809  0.1621357639686354  0.1258290365452306
  0.5026841204008102  0.1631426934107583  0.6266029955396210
  0.5023405598440583  0.6638232187223976  0.1255596306523596
  0.5028088230656325  0.6638162319589025  0.6265320022883433
  0.8394617241581135  0.1595284653137842  0.1248725868616546
  0.8363958900499147  0.1632368611448319  0.6259837719955772
  0.8333584401823562  0.6644649574182682  0.1266260568516870
  0.8360660871232630  0.6635412947519072  0.6265599570346616
  0.0012546491092084  0.3230373043307639  0.1185103814476465
  0.0030672954230620  0.3363250773413951  0.6255811904475362
  0.0034550532364317  0.8444653845108278  0.1233113198376861
  0.0031197538863671  0.8364784143691663  0.6239442661091150
  0.3371258296880474  0.3307117747167414  0.1215422247124356
  0.3367695529316210  0.3360708725977988  0.6238837312187454
  0.3366812394189830  0.8386060907218225  0.1222314550277723
  0.3361316496085025  0.8373031593508081  0.6235766086614073
  0.6700395064592395  0.3359641035500373  0.1240517591866998
  0.6693708764039175  0.3365881117054864  0.6241396500338861
  0.6691181780233099  0.8371368333430881  0.1237115863345942
  0.6692564602862340  0.8369910433558470  0.6230084535190962
 -0.0018408717825284  0.3282699300488918  0.3912586488404653
  0.0053400003996139  0.3334313126945911  0.8745267081015977
  0.0035477591748593  0.8390054931215882  0.3782115328548050
  0.0034111781739684  0.8400074756385157  0.8762176156164838
  0.3393868256647546  0.3355870712372926  0.3776090019518171
  0.3377502142420801  0.3333499418630940  0.8753090144372050
  0.3353416532025152  0.8373004602968710  0.3760315139407702
  0.3358736660836978  0.8380131218126113  0.8774673389367249
  0.6686191603775486  0.3365152346762702  0.3762417771776709
  0.6697469117722585  0.3366374471883773  0.8765220731304949
  0.6690232319627553  0.8370178138858675  0.3765388798686888
  0.6695146765315797  0.8370438603988819  0.8759663021734495
  0.1706542923157321  0.1600906653136965  0.3694195128354939
  0.1685155566457789  0.1612447134900270  0.8774500279754798
  0.1681797944069759  0.6645227744634280  0.3781178282351497
  0.1700588960016366  0.6650352487038909  0.8738923880483244
  0.5022260452394922  0.1623277911002723  0.3727406371605245
  0.5041197635893649  0.1628691187968421  0.8735742671695123
  0.5027328599232521  0.6641616293270037  0.3739709730405384
  0.5023489171288714  0.6635459132598882  0.8736618625947329
  0.8361723505335191  0.1616932190579821  0.3723077366068890
  0.8359365486938557  0.1625410816448092  0.8713407993422235
  0.8344811768240913  0.6635520309532951  0.3749970922964516
  0.8355983318590624  0.6640538241012123  0.8715686705916105
  0.1716784966797214  0.4158904619694795  0.2481188255131170
  0.1676587999515881  0.4122617775440631  0.7491049463974211
  0.1687244291369879  0.9095799671958241  0.2534776995182016
  0.1671927849488362  0.9121832057257602  0.7498565679093521
  0.4995367905260943  0.4120973751929796  0.2497624574992726
  0.5007047514176887  0.4125621356086682  0.7499155220836605
  0.5005792984981151  0.9120103845616802  0.2500396558089080
  0.5006698012651692  0.9118128951790373  0.7496330467783537
  0.8353440086536181  0.4127794723533250  0.2501170341015976
  0.8342800157063748  0.4126590655367436  0.7500553028008649
  0.8339571853018071  0.9109982544628278  0.2506286423115436
  0.8337785816474395  0.9116721305412165  0.7486204899595956
 -0.0030994340486036  0.0865121026881418  0.0002261347462234
  0.0007531973556376  0.0876271033014770  0.5003206329352646
  0.0000916016610513  0.5941572695876163  0.0013950777021592
 -0.0006175053913706  0.5870738043186168  0.4995648626547612
  0.3350515156043048  0.0866552492773075 -0.0020987980034194
  0.3334935137741573  0.0885993925563780  0.4998837299454909
  0.3329345040798644  0.5865092970400861 -0.0002462515501136
  0.3339078485108463  0.5874971084651461  0.5003651100939785
  0.6680747835772735  0.0880529044583355 -0.0000975835622953
  0.6672765546109780  0.0885166159935067  0.4997017719920921
  0.6669390256803434  0.5874593542482501  0.0002144301641600
  0.6666870367796360  0.5876876401438021  0.4999295348259547
  0.0293482910303207  0.4464161433315324  0.0070448803433842
  0.0362300544130072  0.1568644850726633  0.3960883241625582
  0.0340298671627244  0.1561217767387204  0.8970427355901162
  0.0338626550077161  0.6557985536549794  0.3948676124058496
  0.0353767770373663  0.6620407881808034  0.8968638909325496
  0.3688365275311563  0.1579891633394568  0.3960347155708873
  0.3729879904803444  0.1565026169554448  0.8945394423983198
  0.3690616285692454  0.6564443981472797  0.3962906587766146
  0.3682495121919414  0.6562087214360627  0.8961604161237963
  0.7027540487326560  0.1577674689390985  0.3956978554107178
  0.7026501294903585  0.1570077569889873  0.8953986294200330
  0.7018629987934815  0.6564595379864100  0.3956391437486036
  0.7024822827238235  0.6568395678160964  0.8964985719753479
  0.2036346908725013  0.0457223433494252  0.2590012889114306
  0.2002404645749757  0.0519873432764428  0.7491569004048964
  0.1970125288213103  0.5583385237344207  0.2531261261169416
  0.2009274521187482  0.5520922328278751  0.7500791687599198
  0.5351675434394849  0.0513042659518045  0.2499493963353648
  0.5349368941298125  0.0512078318256372  0.7494848022721836
  0.5328550774592744  0.5520483951462102  0.2499922768818443
  0.5343932088552275  0.5523286875272183  0.7497678868401469
  0.8680967722251867  0.0500651468532513  0.2509313005157433
  0.8677458242834529  0.0511015618975870  0.7479727283666059
  0.8696961491448241  0.5524792425846065  0.2497696424993474
  0.8682112851656851  0.5522539891057641  0.7498776870530854
  0.0616372458298589  0.4098733523125854  0.7490341090733061
  0.0621556840963830  0.9056499098786915  0.2518779321109993
  0.0610468784054453  0.9091225682094379  0.7491761308199727
  0.3933645995140691  0.4091461120491875  0.2494028783804591
  0.3947978851712775  0.4098692395925397  0.7497578837566448
  0.3948379076965672  0.9092124669853627  0.2499355044030197
  0.3947893771610977  0.9089336740126058  0.7497434019330539
  0.7296161285909932  0.4105419186618788  0.2510636527273956
  0.7283498873128232  0.4100617496913772  0.7500982829868660
  0.7279868348379814  0.9082978330274110  0.2505220298173264
  0.7278126501549774  0.9090947520796459  0.7490355324695702
  0.2309536924467831  0.0870166810534027 -0.0062642219563065
  0.2276065101679158  0.0920830606143570  0.5003448790154540
  0.2268137215935972  0.5886365815957816 -0.0002571732273130
  0.2279102771566643  0.5893984439727328  0.5008705558943870
  0.5622939972596802  0.0912771910452051  0.0004014493416758
  0.5613826362171670  0.0913020840413055  0.4996399562537032
  0.5610576160526244  0.5895764074201706 -0.0001660448372294
  0.5608458132072679  0.5904998302260795  0.5000260878131717
  0.8904919125065824  0.0854961860531920 -0.0056055669108204
  0.8947742209371939  0.0911022940569286  0.4992848898941546
  0.8938374439824921  0.5937063526956406  0.0002779824441742
  0.8936194160996929  0.5889374547034716  0.5001468792627497
  0.2036879546696077  0.3524378758078335  0.1433959812454506
  0.2025155474376966  0.3441063537080072  0.6445082502982689
  0.2039281066061348  0.8419092551314228  0.1484101730173190
  0.2023147678034775  0.8429947174894347  0.6455111495203205
  0.5355953038852480  0.3432337532225299  0.1462330553805611
  0.5359788303445613  0.3433487807266750  0.6459508198426269
  0.5361698149733326  0.8423825207302282  0.1463720789895581
  0.5357382877693703  0.8428671197455329  0.6452947780234781
  0.8704709247832627  0.3428977900225862  0.1468774476787799
  0.8693325377742833  0.3435502664496577  0.6458280053262105
  0.8691029404426284  0.8413758836346188  0.1467904572651471
  0.8688507444356669  0.8423722390046438  0.6445085902143618
  0.0240348561434903  0.1533641978934083  0.1066546812728735
  0.0355802696283244  0.1577964236612173  0.6038862803021179
  0.0354969578085616  0.6662903898365885  0.1042662065160980
  0.0356176793624730  0.6557596747240186  0.6028083011425316
  0.3710805011467632  0.1558955448360492  0.1020114732832281
  0.3692508963174265  0.1570946997808947  0.6040962644576423
  0.3681264487300974  0.6555935867954420  0.1039015668656492
  0.3690897931492456  0.6566738737717248  0.6041886382060102
  0.7040855412826472  0.1569984714476449  0.1037716338910136
  0.7027250585705448  0.1575637238150418  0.6036926845817486
  0.7016580456845785  0.6566473326503747  0.1045920232645254
  0.7024302785187791  0.6567587928786522  0.6036394842787073
  0.0340864823126672  0.4474608682758731  0.4981572759576554
  0.0326398123295161  0.9477019013139457 -0.0005791417544270
  0.0344318668677266  0.9483306525023680  0.5007246371893934
  0.3666638693778633  0.4468035137918310 -0.0006207968069206
  0.3676726353835666  0.4477615496406477  0.5000258703175243
  0.3713882508438148  0.9472912731909908 -0.0006786597293142
  0.3670730158950273  0.9487986275588919  0.4996035078782708
  0.7015747952249226  0.4481608166409581  0.0006064368787668
  0.7003845746024525  0.4479094886368963  0.4997904131411945
  0.7010298877755926  0.9479176360297014 -0.0001921681086930
  0.7011963242159756  0.9489289551336038  0.4995956445435569
  0.1993082032077521  0.3452400779052280  0.3542362367436336
  0.2032600829229385  0.3416031964441134  0.8518953056798652
  0.2016137995851186  0.8359095846171395  0.3572298297132115
  0.2023450608906240  0.8429839255188555  0.8535187143295536
  0.5347448104251112  0.3433105075889284  0.3540124628022088
  0.5362897701778938  0.3438297167463502  0.8538736107965366
  0.5357988069465950  0.8430208421240899  0.3544214531159974
  0.5363504296342386  0.8424005557722751  0.8533352954964090
  0.8717966967470877  0.3440203643549218  0.3540042732593954
  0.8697698023806226  0.3435166932664634  0.8538902592534037
  0.8692699933144812  0.8411915092410590  0.3546085704248064
  0.8689781838601180  0.8419705252092701  0.8522683599993898
 
  0.00000000E+00  0.00000000E+00  0.00000000E+00
  0.00000000E+00  0.00000000E+00  0.00000000E+00
  0.00000000E+00  0.00000000E+00  0.00000000E+00
  0.00000000E+00  0.00000000E+00  0.00000000E+00
  0.00000000E+00  0.00000000E+00  0.00000000E+00
  0.00000000E+00  0.00000000E+00  0.00000000E+00
  0.00000000E+00  0.00000000E+00  0.00000000E+00
  0.00000000E+00  0.00000000E+00  0.00000000E+00
  0.00000000E+00  0.00000000E+00  0.00000000E+00
  0.00000000E+00  0.00000000E+00  0.00000000E+00
  0.00000000E+00  0.00000000E+00  0.00000000E+00
  0.00000000E+00  0.00000000E+00  0.00000000E+00
  0.00000000E+00  0.00000000E+00  0.00000000E+00
  0.00000000E+00  0.00000000E+00  0.00000000E+00
  0.00000000E+00  0.00000000E+00  0.00000000E+00
  0.00000000E+00  0.00000000E+00  0.00000000E+00
  0.00000000E+00  0.00000000E+00  0.00000000E+00
  0.00000000E+00  0.00000000E+00  0.00000000E+00
  0.00000000E+00  0.00000000E+00  0.00000000E+00
  0.00000000E+00  0.00000000E+00  0.00000000E+00
  0.00000000E+00  0.00000000E+00  0.00000000E+00
  0.00000000E+00  0.00000000E+00  0.00000000E+00
  0.00000000E+00  0.00000000E+00  0.00000000E+00
  0.00000000E+00  0.00000000E+00  0.00000000E+00
  0.00000000E+00  0.00000000E+00  0.00000000E+00
  0.00000000E+00  0.00000000E+00  0.00000000E+00
  0.00000000E+00  0.00000000E+00  0.00000000E+00
  0.00000000E+00  0.00000000E+00  0.00000000E+00
  0.00000000E+00  0.00000000E+00  0.00000000E+00
  0.00000000E+00  0.00000000E+00  0.00000000E+00
  0.00000000E+00  0.00000000E+00  0.00000000E+00
  0.00000000E+00  0.00000000E+00  0.00000000E+00
  0.00000000E+00  0.00000000E+00  0.00000000E+00
  0.00000000E+00  0.00000000E+00  0.00000000E+00
  0.00000000E+00  0.00000000E+00  0.00000000E+00
  0.00000000E+00  0.00000000E+00  0.00000000E+00
  0.00000000E+00  0.00000000E+00  0.00000000E+00
  0.00000000E+00  0.00000000E+00  0.00000000E+00
  0.00000000E+00  0.00000000E+00  0.00000000E+00
  0.00000000E+00  0.00000000E+00  0.00000000E+00
  0.00000000E+00  0.00000000E+00  0.00000000E+00
  0.00000000E+00  0.00000000E+00  0.00000000E+00
  0.00000000E+00  0.00000000E+00  0.00000000E+00
  0.00000000E+00  0.00000000E+00  0.00000000E+00
  0.00000000E+00  0.00000000E+00  0.00000000E+00
  0.00000000E+00  0.00000000E+00  0.00000000E+00
  0.00000000E+00  0.00000000E+00  0.00000000E+00
  0.00000000E+00  0.00000000E+00  0.00000000E+00
  0.00000000E+00  0.00000000E+00  0.00000000E+00
  0.00000000E+00  0.00000000E+00  0.00000000E+00
  0.00000000E+00  0.00000000E+00  0.00000000E+00
  0.00000000E+00  0.00000000E+00  0.00000000E+00
  0.00000000E+00  0.00000000E+00  0.00000000E+00
  0.00000000E+00  0.00000000E+00  0.00000000E+00
  0.00000000E+00  0.00000000E+00  0.00000000E+00
  0.00000000E+00  0.00000000E+00  0.00000000E+00
  0.00000000E+00  0.00000000E+00  0.00000000E+00
  0.00000000E+00  0.00000000E+00  0.00000000E+00
  0.00000000E+00  0.00000000E+00  0.00000000E+00
  0.00000000E+00  0.00000000E+00  0.00000000E+00
  0.00000000E+00  0.00000000E+00  0.00000000E+00
  0.00000000E+00  0.00000000E+00  0.00000000E+00
  0.00000000E+00  0.00000000E+00  0.00000000E+00
  0.00000000E+00  0.00000000E+00  0.00000000E+00
  0.00000000E+00  0.00000000E+00  0.00000000E+00
  0.00000000E+00  0.00000000E+00  0.00000000E+00
  0.00000000E+00  0.00000000E+00  0.00000000E+00
  0.00000000E+00  0.00000000E+00  0.00000000E+00
  0.00000000E+00  0.00000000E+00  0.00000000E+00
  0.00000000E+00  0.00000000E+00  0.00000000E+00
  0.00000000E+00  0.00000000E+00  0.00000000E+00
  0.00000000E+00  0.00000000E+00  0.00000000E+00
  0.00000000E+00  0.00000000E+00  0.00000000E+00
  0.00000000E+00  0.00000000E+00  0.00000000E+00
  0.00000000E+00  0.00000000E+00  0.00000000E+00
  0.00000000E+00  0.00000000E+00  0.00000000E+00
  0.00000000E+00  0.00000000E+00  0.00000000E+00
  0.00000000E+00  0.00000000E+00  0.00000000E+00
  0.00000000E+00  0.00000000E+00  0.00000000E+00
  0.00000000E+00  0.00000000E+00  0.00000000E+00
  0.00000000E+00  0.00000000E+00  0.00000000E+00
  0.00000000E+00  0.00000000E+00  0.00000000E+00
  0.00000000E+00  0.00000000E+00  0.00000000E+00
  0.00000000E+00  0.00000000E+00  0.00000000E+00
  0.00000000E+00  0.00000000E+00  0.00000000E+00
  0.00000000E+00  0.00000000E+00  0.00000000E+00
  0.00000000E+00  0.00000000E+00  0.00000000E+00
  0.00000000E+00  0.00000000E+00  0.00000000E+00
  0.00000000E+00  0.00000000E+00  0.00000000E+00
  0.00000000E+00  0.00000000E+00  0.00000000E+00
  0.00000000E+00  0.00000000E+00  0.00000000E+00
  0.00000000E+00  0.00000000E+00  0.00000000E+00
  0.00000000E+00  0.00000000E+00  0.00000000E+00
  0.00000000E+00  0.00000000E+00  0.00000000E+00
  0.00000000E+00  0.00000000E+00  0.00000000E+00
  0.00000000E+00  0.00000000E+00  0.00000000E+00
  0.00000000E+00  0.00000000E+00  0.00000000E+00
  0.00000000E+00  0.00000000E+00  0.00000000E+00
  0.00000000E+00  0.00000000E+00  0.00000000E+00
  0.00000000E+00  0.00000000E+00  0.00000000E+00
  0.00000000E+00  0.00000000E+00  0.00000000E+00
  0.00000000E+00  0.00000000E+00  0.00000000E+00
  0.00000000E+00  0.00000000E+00  0.00000000E+00
  0.00000000E+00  0.00000000E+00  0.00000000E+00
  0.00000000E+00  0.00000000E+00  0.00000000E+00
  0.00000000E+00  0.00000000E+00  0.00000000E+00
  0.00000000E+00  0.00000000E+00  0.00000000E+00
  0.00000000E+00  0.00000000E+00  0.00000000E+00
  0.00000000E+00  0.00000000E+00  0.00000000E+00
  0.00000000E+00  0.00000000E+00  0.00000000E+00
  0.00000000E+00  0.00000000E+00  0.00000000E+00
  0.00000000E+00  0.00000000E+00  0.00000000E+00
  0.00000000E+00  0.00000000E+00  0.00000000E+00
  0.00000000E+00  0.00000000E+00  0.00000000E+00
  0.00000000E+00  0.00000000E+00  0.00000000E+00
  0.00000000E+00  0.00000000E+00  0.00000000E+00
  0.00000000E+00  0.00000000E+00  0.00000000E+00
  0.00000000E+00  0.00000000E+00  0.00000000E+00
  0.00000000E+00  0.00000000E+00  0.00000000E+00
  0.00000000E+00  0.00000000E+00  0.00000000E+00
  0.00000000E+00  0.00000000E+00  0.00000000E+00
  0.00000000E+00  0.00000000E+00  0.00000000E+00
  0.00000000E+00  0.00000000E+00  0.00000000E+00
  0.00000000E+00  0.00000000E+00  0.00000000E+00
  0.00000000E+00  0.00000000E+00  0.00000000E+00
  0.00000000E+00  0.00000000E+00  0.00000000E+00
  0.00000000E+00  0.00000000E+00  0.00000000E+00
  0.00000000E+00  0.00000000E+00  0.00000000E+00
  0.00000000E+00  0.00000000E+00  0.00000000E+00
  0.00000000E+00  0.00000000E+00  0.00000000E+00
  0.00000000E+00  0.00000000E+00  0.00000000E+00
  0.00000000E+00  0.00000000E+00  0.00000000E+00
  0.00000000E+00  0.00000000E+00  0.00000000E+00
  0.00000000E+00  0.00000000E+00  0.00000000E+00
  0.00000000E+00  0.00000000E+00  0.00000000E+00
  0.00000000E+00  0.00000000E+00  0.00000000E+00
  0.00000000E+00  0.00000000E+00  0.00000000E+00
  0.00000000E+00  0.00000000E+00  0.00000000E+00
  0.00000000E+00  0.00000000E+00  0.00000000E+00
  0.00000000E+00  0.00000000E+00  0.00000000E+00
  0.00000000E+00  0.00000000E+00  0.00000000E+00
  0.00000000E+00  0.00000000E+00  0.00000000E+00
  0.00000000E+00  0.00000000E+00  0.00000000E+00
  0.00000000E+00  0.00000000E+00  0.00000000E+00
  0.00000000E+00  0.00000000E+00  0.00000000E+00
  0.00000000E+00  0.00000000E+00  0.00000000E+00
  0.00000000E+00  0.00000000E+00  0.00000000E+00
  0.00000000E+00  0.00000000E+00  0.00000000E+00
  0.00000000E+00  0.00000000E+00  0.00000000E+00
  0.00000000E+00  0.00000000E+00  0.00000000E+00
  0.00000000E+00  0.00000000E+00  0.00000000E+00
  0.00000000E+00  0.00000000E+00  0.00000000E+00
  0.00000000E+00  0.00000000E+00  0.00000000E+00
  0.00000000E+00  0.00000000E+00  0.00000000E+00
  0.00000000E+00  0.00000000E+00  0.00000000E+00
  0.00000000E+00  0.00000000E+00  0.00000000E+00
  0.00000000E+00  0.00000000E+00  0.00000000E+00
  0.00000000E+00  0.00000000E+00  0.00000000E+00
  0.00000000E+00  0.00000000E+00  0.00000000E+00
  0.00000000E+00  0.00000000E+00  0.00000000E+00
  0.00000000E+00  0.00000000E+00  0.00000000E+00
  0.00000000E+00  0.00000000E+00  0.00000000E+00
  0.00000000E+00  0.00000000E+00  0.00000000E+00
  0.00000000E+00  0.00000000E+00  0.00000000E+00
  0.00000000E+00  0.00000000E+00  0.00000000E+00
  0.00000000E+00  0.00000000E+00  0.00000000E+00
  0.00000000E+00  0.00000000E+00  0.00000000E+00
  0.00000000E+00  0.00000000E+00  0.00000000E+00
  0.00000000E+00  0.00000000E+00  0.00000000E+00
  0.00000000E+00  0.00000000E+00  0.00000000E+00
  0.00000000E+00  0.00000000E+00  0.00000000E+00
  0.00000000E+00  0.00000000E+00  0.00000000E+00
  0.00000000E+00  0.00000000E+00  0.00000000E+00
  0.00000000E+00  0.00000000E+00  0.00000000E+00
  0.00000000E+00  0.00000000E+00  0.00000000E+00
  0.00000000E+00  0.00000000E+00  0.00000000E+00
  0.00000000E+00  0.00000000E+00  0.00000000E+00
  0.00000000E+00  0.00000000E+00  0.00000000E+00
  0.00000000E+00  0.00000000E+00  0.00000000E+00
  0.00000000E+00  0.00000000E+00  0.00000000E+00
  0.00000000E+00  0.00000000E+00  0.00000000E+00
  0.00000000E+00  0.00000000E+00  0.00000000E+00
  0.00000000E+00  0.00000000E+00  0.00000000E+00
  0.00000000E+00  0.00000000E+00  0.00000000E+00
  0.00000000E+00  0.00000000E+00  0.00000000E+00
  0.00000000E+00  0.00000000E+00  0.00000000E+00
  0.00000000E+00  0.00000000E+00  0.00000000E+00
  0.00000000E+00  0.00000000E+00  0.00000000E+00
  0.00000000E+00  0.00000000E+00  0.00000000E+00
  0.00000000E+00  0.00000000E+00  0.00000000E+00
