Li71 P24 N1 O94
1.0
14.767344 0.000000 0.000000
0.000000 10.592804 0.000000
0.000000 0.000000 12.352272
Li P N O
71 24 1 94
direct
0.169806 0.422260 0.000000 Li
0.169806 0.422260 0.500000 Li
0.169806 0.922260 0.000000 Li
0.169806 0.922260 0.500000 Li
0.503139 0.422260 0.000000 Li
0.503139 0.422260 0.500000 Li
0.503139 0.922260 0.000000 Li
0.503139 0.922260 0.500000 Li
0.836472 0.422260 0.000000 Li
0.836472 0.422260 0.500000 Li
0.836472 0.922260 0.000000 Li
0.836472 0.922260 0.500000 Li
0.003139 0.077740 0.250000 Li
0.003139 0.077740 0.750000 Li
0.003139 0.577740 0.250000 Li
0.003139 0.577740 0.750000 Li
0.336472 0.077740 0.250000 Li
0.336472 0.077740 0.750000 Li
0.336472 0.577740 0.250000 Li
0.336472 0.577740 0.750000 Li
0.669806 0.077740 0.250000 Li
0.669806 0.077740 0.750000 Li
0.669806 0.577740 0.250000 Li
0.669806 0.577740 0.750000 Li
0.169454 0.163217 0.626436 Li
0.169454 0.663217 0.126437 Li
0.169454 0.663217 0.626436 Li
0.502788 0.163217 0.126437 Li
0.502788 0.163217 0.626436 Li
0.502788 0.663217 0.126437 Li
0.502788 0.663217 0.626436 Li
0.836121 0.163217 0.126437 Li
0.836121 0.163217 0.626436 Li
0.836121 0.663217 0.126437 Li
0.836121 0.663217 0.626436 Li
0.002788 0.336783 0.123564 Li
0.002788 0.336783 0.623563 Li
0.002788 0.836783 0.123564 Li
0.002788 0.836783 0.623563 Li
0.336121 0.336783 0.123564 Li
0.336121 0.336783 0.623563 Li
0.336121 0.836783 0.123564 Li
0.336121 0.836783 0.623563 Li
0.669454 0.336783 0.123564 Li
0.669454 0.336783 0.623563 Li
0.669454 0.836783 0.123564 Li
0.669454 0.836783 0.623563 Li
0.002788 0.336783 0.376436 Li
0.002788 0.336783 0.876437 Li
0.002788 0.836783 0.376436 Li
0.002788 0.836783 0.876437 Li
0.336121 0.336783 0.376436 Li
0.336121 0.336783 0.876437 Li
0.336121 0.836783 0.376436 Li
0.336121 0.836783 0.876437 Li
0.669454 0.336783 0.376436 Li
0.669454 0.336783 0.876437 Li
0.669454 0.836783 0.376436 Li
0.669454 0.836783 0.876437 Li
0.169454 0.163217 0.373563 Li
0.169454 0.163217 0.873563 Li
0.169454 0.663217 0.373563 Li
0.169454 0.663217 0.873563 Li
0.502788 0.163217 0.373563 Li
0.502788 0.163217 0.873563 Li
0.502788 0.663217 0.373563 Li
0.502788 0.663217 0.873563 Li
0.836121 0.163217 0.373563 Li
0.836121 0.163217 0.873563 Li
0.836121 0.663217 0.373563 Li
0.836121 0.663217 0.873563 Li
0.167140 0.412130 0.250000 P
0.167140 0.412130 0.750000 P
0.167140 0.912130 0.250000 P
0.167140 0.912130 0.750000 P
0.500473 0.412130 0.250000 P
0.500473 0.412130 0.750000 P
0.500473 0.912130 0.250000 P
0.500473 0.912130 0.750000 P
0.833807 0.412130 0.250000 P
0.833807 0.412130 0.750000 P
0.833807 0.912130 0.250000 P
0.833807 0.912130 0.750000 P
0.000473 0.087869 0.000000 P
0.000473 0.087869 0.500000 P
0.000473 0.587870 0.000000 P
0.000473 0.587870 0.500000 P
0.333807 0.087869 0.000000 P
0.333807 0.087869 0.500000 P
0.333807 0.587870 0.000000 P
0.333807 0.587870 0.500000 P
0.667140 0.087869 0.000000 P
0.667140 0.087869 0.500000 P
0.667140 0.587870 0.000000 P
0.667140 0.587870 0.500000 P
0.034042 0.448246 0.000000 N
0.035670 0.156754 0.396431 O
0.035670 0.156754 0.896431 O
0.035670 0.656754 0.396431 O
0.035670 0.656754 0.896431 O
0.369003 0.156754 0.396431 O
0.369003 0.156754 0.896431 O
0.369003 0.656754 0.396431 O
0.369003 0.656754 0.896431 O
0.702337 0.156754 0.396431 O
0.702337 0.156754 0.896431 O
0.702337 0.656754 0.396431 O
0.702337 0.656754 0.896431 O
0.200709 0.051754 0.250000 O
0.200709 0.051754 0.750000 O
0.200709 0.551754 0.250000 O
0.200709 0.551754 0.750000 O
0.534042 0.051754 0.250000 O
0.534042 0.051754 0.750000 O
0.534042 0.551754 0.250000 O
0.534042 0.551754 0.750000 O
0.867375 0.051754 0.250000 O
0.867375 0.051754 0.750000 O
0.867375 0.551754 0.250000 O
0.867375 0.551754 0.750000 O
0.061730 0.409198 0.750000 O
0.061730 0.909198 0.250000 O
0.061730 0.909198 0.750000 O
0.395064 0.409198 0.250000 O
0.395064 0.409198 0.750000 O
0.395064 0.909198 0.250000 O
0.395064 0.909198 0.750000 O
0.728397 0.409198 0.250000 O
0.728397 0.409198 0.750000 O
0.728397 0.909198 0.250000 O
0.728397 0.909198 0.750000 O
0.228397 0.090802 0.000000 O
0.228397 0.090802 0.500000 O
0.228397 0.590802 0.000000 O
0.228397 0.590802 0.500000 O
0.561730 0.090802 0.000000 O
0.561730 0.090802 0.500000 O
0.561730 0.590802 0.000000 O
0.561730 0.590802 0.500000 O
0.895064 0.090802 0.000000 O
0.895064 0.090802 0.500000 O
0.895064 0.590802 0.000000 O
0.895064 0.590802 0.500000 O
0.202337 0.343245 0.146431 O
0.202337 0.343245 0.646431 O
0.202337 0.843245 0.146431 O
0.202337 0.843245 0.646431 O
0.535670 0.343245 0.146431 O
0.535670 0.343245 0.646431 O
0.535670 0.843245 0.146431 O
0.535670 0.843245 0.646431 O
0.869003 0.343245 0.146431 O
0.869003 0.343245 0.646431 O
0.869003 0.843245 0.146431 O
0.869003 0.843245 0.646431 O
0.035670 0.156754 0.103569 O
0.035670 0.156754 0.603569 O
0.035670 0.656754 0.103569 O
0.035670 0.656754 0.603569 O
0.369003 0.156754 0.103569 O
0.369003 0.156754 0.603569 O
0.369003 0.656754 0.103569 O
0.369003 0.656754 0.603569 O
0.702337 0.156754 0.103569 O
0.702337 0.156754 0.603569 O
0.702337 0.656754 0.103569 O
0.702337 0.656754 0.603569 O
0.034042 0.448246 0.500000 O
0.034042 0.948246 0.000000 O
0.034042 0.948246 0.500000 O
0.367375 0.448246 0.000000 O
0.367375 0.448246 0.500000 O
0.367375 0.948246 0.000000 O
0.367375 0.948246 0.500000 O
0.700709 0.448246 0.000000 O
0.700709 0.448246 0.500000 O
0.700709 0.948246 0.000000 O
0.700709 0.948246 0.500000 O
0.202337 0.343245 0.353569 O
0.202337 0.343245 0.853569 O
0.202337 0.843245 0.353569 O
0.202337 0.843245 0.853569 O
0.535670 0.343245 0.353569 O
0.535670 0.343245 0.853569 O
0.535670 0.843245 0.353569 O
0.535670 0.843245 0.853569 O
0.869003 0.343245 0.353569 O
0.869003 0.343245 0.853569 O
0.869003 0.843245 0.353569 O
0.869003 0.843245 0.853569 O
