Li5 P2 N1 O6                            
   1.00000000000000     
     0.0341144576959448    0.0684934092281863    5.2137190915579419
     6.1060328165674429   -0.0658335357867218    0.0422171020114109
    -0.0561682806870535    5.2668579517816587    0.0664579145482403
   Li   P    N    O 
     5     2     1     6
Direct
  0.4808272976700383 -0.0124025087779545  0.8688196395514736
 -0.0020618793618521  0.4998729666939024  0.1761027664246517
  0.4803939887514121  0.7625214212108041  0.3336229313089112
 -0.0007827672154798  0.7630271974579176  0.6682333597427608
  0.0752518944934619  0.2357025963042789  0.6673460809644751
  0.5022157412940366  0.5148390592082531  0.8374057458875854
 -0.0115062313543075 -0.0040831386673643  0.1724334628905710
  0.6842510574175882 -0.0290692482308509  0.1542175038952326
  0.0527227201594296  0.2132683892614657  0.3176935535396527
  0.6179924174181470  0.6881090902545784  0.6607306616717007
  0.1122859861627030  0.7953910718246605  0.3146733194889953
  0.6238381450488536  0.5239288943970274  0.0959453821776878
  0.1207507264312255 -0.0000323610836073  0.8950461608804997
  0.2062479030847663  0.5031915701468878  0.8248044315758084
 
  0.00000000E+00  0.00000000E+00  0.00000000E+00
  0.00000000E+00  0.00000000E+00  0.00000000E+00
  0.00000000E+00  0.00000000E+00  0.00000000E+00
  0.00000000E+00  0.00000000E+00  0.00000000E+00
  0.00000000E+00  0.00000000E+00  0.00000000E+00
  0.00000000E+00  0.00000000E+00  0.00000000E+00
  0.00000000E+00  0.00000000E+00  0.00000000E+00
  0.00000000E+00  0.00000000E+00  0.00000000E+00
  0.00000000E+00  0.00000000E+00  0.00000000E+00
  0.00000000E+00  0.00000000E+00  0.00000000E+00
  0.00000000E+00  0.00000000E+00  0.00000000E+00
  0.00000000E+00  0.00000000E+00  0.00000000E+00
  0.00000000E+00  0.00000000E+00  0.00000000E+00
  0.00000000E+00  0.00000000E+00  0.00000000E+00
