Li8 P4 O14
1.0
-5.260542 0.000000 0.000000
2.599490 6.730959 0.000000
-0.002996 -2.035903 -8.419349
Li P O
8 4 14
direct
0.255537 0.144977 0.012029 Li
0.744463 0.855023 0.987971 Li
0.604323 0.588727 0.248347 Li
0.395677 0.411273 0.751653 Li
0.972231 0.327738 0.208724 Li
0.027769 0.672262 0.791276 Li
0.943048 0.241886 0.549204 Li
0.056952 0.758114 0.450796 Li
0.426010 0.213298 0.368044 P
0.573990 0.786702 0.631956 P
0.215728 0.779241 0.154498 P
0.784272 0.220759 0.845502 P
0.480088 0.741759 0.125660 O
0.993870 0.605720 0.209316 O
0.006130 0.394280 0.790684 O
0.117089 0.848591 0.018024 O
0.267439 0.743350 0.623545 O
0.732561 0.256650 0.376455 O
0.685156 0.732189 0.473810 O
0.314844 0.267811 0.526190 O
0.661778 0.702403 0.763496 O
0.338222 0.297597 0.236504 O
0.266931 0.962384 0.316106 O
0.733069 0.037616 0.683894 O
0.882911 0.151409 0.981976 O
0.519912 0.258241 0.874340 O
