Li42 P14 O56
1.0
5.296402 0.000000 0.000000
-0.000000 6.176136 -4.922448
0.000000 0.000000 63.991824
Li P O
42 14 56
Selective dynamics
direct
0.844520 0.000000 0.042982 T T T Li+
0.155480 0.500000 0.042982 T T T Li+
0.326434 0.747127 0.023450 T T T Li+
0.673566 0.752873 0.062353 T T T Li+
0.673566 0.247127 0.023450 T T T Li+
0.326434 0.252873 0.062353 T T T Li+
0.844520 0.000000 0.119905 F F F Li+
0.155480 0.500000 0.119905 F F F Li+
0.326434 0.747127 0.100373 T T T Li+
0.673566 0.752873 0.139276 F F F Li+
0.673566 0.247127 0.100373 F F F Li+
0.326434 0.252873 0.139276 F F F Li+
0.844520 0.000000 0.196829 F F F Li+
0.155480 0.500000 0.196829 F F F Li+
0.326434 0.747127 0.177296 F F F Li+
0.673566 0.752873 0.216199 F F F Li+
0.673566 0.247127 0.177296 F F F Li+
0.326434 0.252873 0.216199 F F F Li+
0.844520 0.000000 0.273752 F F F Li+
0.155480 0.500000 0.273752 F F F Li+
0.326434 0.747127 0.254219 F F F Li+
0.673566 0.752873 0.293122 F F F Li+
0.673566 0.247127 0.254219 F F F Li+
0.326434 0.252873 0.293122 F F F Li+
0.844520 0.000000 0.350675 F F F Li+
0.155480 0.500000 0.350675 F F F Li+
0.326434 0.747127 0.331142 F F F Li+
0.673566 0.752873 0.370045 F F F Li+
0.673566 0.247127 0.331142 F F F Li+
0.326434 0.252873 0.370045 F F F Li+
0.844520 0.000000 0.427598 F F F Li+
0.155480 0.500000 0.427598 F F F Li+
0.326434 0.747127 0.408065 F F F Li+
0.673566 0.752873 0.446968 F F F Li+
0.673566 0.247127 0.408065 F F F Li+
0.326434 0.252873 0.446968 F F F Li+
0.844520 0.000000 0.504521 T T T Li+
0.155480 0.500000 0.504521 T T T Li+
0.326434 0.747127 0.484988 T T T Li+
0.673566 0.752873 0.523892 T T T Li+
0.673566 0.247127 0.484988 T T T Li+
0.326434 0.252873 0.523892 T T T Li+
0.824261 0.500000 0.003906 T T T P5+
0.175739 0.000000 0.003906 T T T P5+
0.824261 0.500000 0.080829 F F F P5+
0.175739 0.000000 0.080829 F F F P5+
0.824261 0.500000 0.157752 F F F P5+
0.175739 0.000000 0.157752 F F F P5+
0.824261 0.500000 0.234675 F F F P5+
0.175739 0.000000 0.234675 F F F P5+
0.824261 0.500000 0.311598 F F F P5+
0.175739 0.000000 0.311598 F F F P5+
0.824261 0.500000 0.388521 F F F P5+
0.175739 0.000000 0.388521 F F F P5+
0.824261 0.500000 0.465444 T T T P5+
0.175739 0.000000 0.465444 T T T P5+
0.313509 0.207138 0.027962 T T T O2-
0.103508 0.500000 0.011652 T T T O2-
0.818396 0.500000 0.056503 T T T O2-
0.181604 0.000000 0.056503 T T T O2-
0.686491 0.707138 0.027962 T T T O2-
0.313509 0.792862 0.073017 T T T O2-
0.896492 0.000000 0.011652 T T T O2-
0.686491 0.292862 0.073017 T T T O2-
0.313509 0.207138 0.104885 F F F O2-
0.103508 0.500000 0.088575 T T T O2-
0.818396 0.500000 0.133427 F F F O2-
0.181604 0.000000 0.133427 F F F O2-
0.686491 0.707138 0.104885 T T T O2-
0.313509 0.792862 0.149940 F F F O2-
0.896492 0.000000 0.088575 F F F O2-
0.686491 0.292862 0.149940 F F F O2-
0.313509 0.207138 0.181808 F F F O2-
0.103508 0.500000 0.165498 F F F O2-
0.818396 0.500000 0.210350 F F F O2-
0.181604 0.000000 0.210350 F F F O2-
0.686491 0.707138 0.181808 F F F O2-
0.313509 0.792862 0.226864 F F F O2-
0.896492 0.000000 0.165498 F F F O2-
0.686491 0.292862 0.226864 F F F O2-
0.313509 0.207138 0.258731 F F F O2-
0.103508 0.500000 0.242422 F F F O2-
0.818396 0.500000 0.287273 F F F O2-
0.181604 0.000000 0.287273 F F F O2-
0.686491 0.707138 0.258731 F F F O2-
0.313509 0.792862 0.303787 F F F O2-
0.896492 0.000000 0.242422 F F F O2-
0.686491 0.292862 0.303787 F F F O2-
0.313509 0.207138 0.335654 F F F O2-
0.103508 0.500000 0.319345 F F F O2-
0.818396 0.500000 0.364196 F F F O2-
0.181604 0.000000 0.364196 F F F O2-
0.686491 0.707138 0.335654 F F F O2-
0.313509 0.792862 0.380710 F F F O2-
0.896492 0.000000 0.319345 F F F O2-
0.686491 0.292862 0.380710 F F F O2-
0.313509 0.207138 0.412577 F F F O2-
0.103508 0.500000 0.396268 F F F O2-
0.818396 0.500000 0.441119 F F F O2-
0.181604 0.000000 0.441119 F F F O2-
0.686491 0.707138 0.412577 F F F O2-
0.313509 0.792862 0.457633 F F F O2-
0.896492 0.000000 0.396268 F F F O2-
0.686491 0.292862 0.457633 T T T O2-
0.313509 0.207138 0.489500 T T T O2-
0.103508 0.500000 0.473191 T T T O2-
0.818396 0.500000 0.518042 T T T O2-
0.181604 0.000000 0.518042 T T T O2-
0.686491 0.707138 0.489500 T T T O2-
0.313509 0.792862 0.534556 T T T O2-
0.896492 0.000000 0.473191 T T T O2-
0.686491 0.292862 0.534556 T T T O2-
