Li5 P2 N1 O6                            
   1.00000000000000     
    -0.0715717970753632   -0.0595810071318295    5.2703861178756597
     6.2021636928618564   -0.1623734336914679   -0.0947074702301455
    -0.1265443697862024    5.2304541869338195   -0.0764280663847837
   Li   P    N    O 
     5     2     1     6
Direct
  0.4448591447891265  0.1800963043698069  0.1855420209250095
 -0.0557780255327643  0.4630057222121625  0.2321412914770860
  0.4622644406168361  0.7082532278235018  0.2669241882501014
  0.1153819162653631  0.7519480586559231  0.6334279975635906
  0.0293210585883467  0.2131844319971849  0.6459808552499032
  0.6355691166112226  0.5240686609800673  0.7955462889741819
 -0.0419977634475213 -0.0343318404536449  0.1463596825201447
  0.5849536812860905  0.4472822318387724  0.0608395307355793
  0.0927510777156169  0.1720332435081144  0.2883537928672353
  0.4420346099191318  0.6282491797139137  0.6237036406461247
  0.0926257524098529  0.7618924319632114  0.2430327882669674
  0.8910462769305535  0.4936333349256627  0.6662774255263042
 -0.0029361209931837 -0.0192631616503285  0.8534357234118948
  0.6741508348413482 -0.0429248258843451  0.2136047735858777
 
  0.00000000E+00  0.00000000E+00  0.00000000E+00
  0.00000000E+00  0.00000000E+00  0.00000000E+00
  0.00000000E+00  0.00000000E+00  0.00000000E+00
  0.00000000E+00  0.00000000E+00  0.00000000E+00
  0.00000000E+00  0.00000000E+00  0.00000000E+00
  0.00000000E+00  0.00000000E+00  0.00000000E+00
  0.00000000E+00  0.00000000E+00  0.00000000E+00
  0.00000000E+00  0.00000000E+00  0.00000000E+00
  0.00000000E+00  0.00000000E+00  0.00000000E+00
  0.00000000E+00  0.00000000E+00  0.00000000E+00
  0.00000000E+00  0.00000000E+00  0.00000000E+00
  0.00000000E+00  0.00000000E+00  0.00000000E+00
  0.00000000E+00  0.00000000E+00  0.00000000E+00
  0.00000000E+00  0.00000000E+00  0.00000000E+00
