Li56 P56
1.0
4.970385 0.000000 0.000000
0.000000 9.037780 -10.430857
0.000000 0.000000 72.720336
Li P
56 56
direct
0.388247 0.329300 0.029350 Li+
0.888247 0.170700 0.060687 Li+
0.611753 0.670700 0.022225 Li+
0.111753 0.829300 0.067811 Li+
0.658316 0.029786 0.006984 Li+
0.158316 0.470214 0.006130 Li+
0.341684 0.970214 0.044591 Li+
0.841684 0.529786 0.045446 Li+
0.388247 0.329300 0.106273 Li+
0.888247 0.170700 0.137610 Li+
0.611753 0.670700 0.099149 Li+
0.111753 0.829300 0.144734 Li+
0.658316 0.029786 0.083907 Li+
0.158316 0.470214 0.083053 Li+
0.341684 0.970214 0.121514 Li+
0.841684 0.529786 0.122369 Li+
0.388247 0.329300 0.183196 Li+
0.888247 0.170700 0.214533 Li+
0.611753 0.670700 0.176072 Li+
0.111753 0.829300 0.221657 Li+
0.658316 0.029786 0.160830 Li+
0.158316 0.470214 0.159976 Li+
0.341684 0.970214 0.198437 Li+
0.841684 0.529786 0.199292 Li+
0.388247 0.329300 0.260119 Li+
0.888247 0.170700 0.291456 Li+
0.611753 0.670700 0.252995 Li+
0.111753 0.829300 0.298581 Li+
0.658316 0.029786 0.237753 Li+
0.158316 0.470214 0.236899 Li+
0.341684 0.970214 0.275360 Li+
0.841684 0.529786 0.276215 Li+
0.388247 0.329300 0.337042 Li+
0.888247 0.170700 0.368379 Li+
0.611753 0.670700 0.329918 Li+
0.111753 0.829300 0.375504 Li+
0.658316 0.029786 0.314676 Li+
0.158316 0.470214 0.313822 Li+
0.341684 0.970214 0.352283 Li+
0.841684 0.529786 0.353138 Li+
0.388247 0.329300 0.413965 Li+
0.888247 0.170700 0.445302 Li+
0.611753 0.670700 0.406841 Li+
0.111753 0.829300 0.452427 Li+
0.658316 0.029786 0.391599 Li+
0.158316 0.470214 0.390745 Li+
0.341684 0.970214 0.429207 Li+
0.841684 0.529786 0.430061 Li+
0.388247 0.329300 0.490888 Li+
0.888247 0.170700 0.522225 Li+
0.611753 0.670700 0.483764 Li+
0.111753 0.829300 0.529350 Li+
0.658316 0.029786 0.468523 Li+
0.158316 0.470214 0.467668 Li+
0.341684 0.970214 0.506130 Li+
0.841684 0.529786 0.506984 Li+
0.894904 0.292916 0.034215 P-
0.394904 0.207084 0.055821 P-
0.105096 0.707084 0.017360 P-
0.605096 0.792916 0.072677 P-
0.156027 0.111742 0.019243 P-
0.656027 0.388258 0.070793 P-
0.843973 0.888258 0.032332 P-
0.343973 0.611742 0.057705 P-
0.894904 0.292916 0.111138 P-
0.394904 0.207084 0.132744 P-
0.105096 0.707084 0.094283 P-
0.605096 0.792916 0.149600 P-
0.156027 0.111742 0.096166 P-
0.656027 0.388258 0.147717 P-
0.843973 0.888258 0.109255 P-
0.343973 0.611742 0.134628 P-
0.894904 0.292916 0.188062 P-
0.394904 0.207084 0.209668 P-
0.105096 0.707084 0.171206 P-
0.605096 0.792916 0.226523 P-
0.156027 0.111742 0.173089 P-
0.656027 0.388258 0.224640 P-
0.843973 0.888258 0.186178 P-
0.343973 0.611742 0.211551 P-
0.894904 0.292916 0.264985 P-
0.394904 0.207084 0.286591 P-
0.105096 0.707084 0.248129 P-
0.605096 0.792916 0.303446 P-
0.156027 0.111742 0.250013 P-
0.656027 0.388258 0.301563 P-
0.843973 0.888258 0.263101 P-
0.343973 0.611742 0.288474 P-
0.894904 0.292916 0.341908 P-
0.394904 0.207084 0.363514 P-
0.105096 0.707084 0.325052 P-
0.605096 0.792916 0.380369 P-
0.156027 0.111742 0.326936 P-
0.656027 0.388258 0.378486 P-
0.843973 0.888258 0.340024 P-
0.343973 0.611742 0.365397 P-
0.894904 0.292916 0.418831 P-
0.394904 0.207084 0.440437 P-
0.105096 0.707084 0.401975 P-
0.605096 0.792916 0.457292 P-
0.156027 0.111742 0.403859 P-
0.656027 0.388258 0.455409 P-
0.843973 0.888258 0.416947 P-
0.343973 0.611742 0.442320 P-
0.894904 0.292916 0.495754 P-
0.394904 0.207084 0.517360 P-
0.105096 0.707084 0.478898 P-
0.605096 0.792916 0.534215 P-
0.156027 0.111742 0.480782 P-
0.656027 0.388258 0.532332 P-
0.843973 0.888258 0.493870 P-
0.343973 0.611742 0.519243 P-
