Li5 P2 N1 O6                            
   1.00000000000000     
     0.0426646756724543    0.0030819943709213    5.1695324664057738
     5.9676460336720529   -0.1455320954070852    0.0569264513143867
    -0.1269772345316433    5.4200724274513306    0.0037983384321711
   Li   P    N    O 
     5     2     1     6
Direct
  0.4920952620361374 -0.0129479883544843  0.8873828692228330
  0.0972927929464899  0.4939790648039516  0.1613195381162943
  0.4728963402725901  0.8806930724238896  0.3985118366369052
 -0.0020513533948645  0.7472708537516850  0.6619576488708432
 -0.0110510843806662  0.2260967077853556  0.6688464169965594
  0.4805638920300699  0.4900233945351571  0.7277334094207480
 -0.0035079384840438 -0.0037144351337450  0.1710802230543751
  0.6134693934911185  0.7068021855228650  0.6678092400124738
  0.0769223312554915  0.2167387395022453  0.3143018482340918
  0.1239596361155524  0.7941803358631806  0.3083267277437426
  0.6103204799912911  0.2595696033418157  0.7301456282506277
  0.1024779953835497 -0.0071670594021009  0.9002708793290956
  0.1928865343964443  0.4833177168596275  0.8028677822003002
  0.7010367183408670 -0.0277151914994445  0.1695039519111136
 
  0.00000000E+00  0.00000000E+00  0.00000000E+00
  0.00000000E+00  0.00000000E+00  0.00000000E+00
  0.00000000E+00  0.00000000E+00  0.00000000E+00
  0.00000000E+00  0.00000000E+00  0.00000000E+00
  0.00000000E+00  0.00000000E+00  0.00000000E+00
  0.00000000E+00  0.00000000E+00  0.00000000E+00
  0.00000000E+00  0.00000000E+00  0.00000000E+00
  0.00000000E+00  0.00000000E+00  0.00000000E+00
  0.00000000E+00  0.00000000E+00  0.00000000E+00
  0.00000000E+00  0.00000000E+00  0.00000000E+00
  0.00000000E+00  0.00000000E+00  0.00000000E+00
  0.00000000E+00  0.00000000E+00  0.00000000E+00
  0.00000000E+00  0.00000000E+00  0.00000000E+00
  0.00000000E+00  0.00000000E+00  0.00000000E+00
