Li71 P24 N1 O94                         
   1.00000000000000     
    14.7041096810009577    0.0012573757013272   -0.0087149481058375
     0.0008865500841370   10.5782998651119140    0.0131576453493458
    -0.0072515138807859    0.0153409573833807   12.3286709751125496
   Li   P    N    O 
    71    24     1    94
Direct
  0.1690776846069429  0.4198002867336828 -0.0025225024031418
  0.1630492465472703  0.4350102154181369  0.5234889116113118
  0.1693987589469004  0.9292312660598114  0.0050525465395186
  0.1708811398554612  0.9212817790414448  0.5002302646031148
  0.5037182446387291  0.4221565502794727 -0.0007656352164553
  0.5063655906260264  0.4248729858088285  0.5040452316484483
  0.5043498752266173  0.9231740890880967 -0.0003013527046597
  0.5023676970819710  0.9226929710287924  0.4996975873625146
  0.8367479485505235  0.4232691757327408 -0.0000682964933261
  0.8346334922025379  0.4218060005475583  0.5005564747101747
  0.8359241236377866  0.9189891491408573 -0.0004590698529218
  0.8362927422513067  0.9232438063802171  0.4995206737038937
  0.0049144374254186  0.0744705192223580  0.2502385790629845
  0.0034773647002049  0.0751606487741217  0.7497281921340767
  0.0001843604773913  0.5846642199397614  0.2506372130186035
  0.0029632290569565  0.5771478306171764  0.7517000179704763
  0.3322955323779969  0.0773549738720258  0.2422137160175401
  0.3364910714091232  0.0774127590446099  0.7514959073547482
  0.3379519741455379  0.5806875896713415  0.2481917696185327
  0.3365903601217599  0.5773245358434874  0.7513989451403276
  0.6713450883163046  0.0765139179287447  0.2484441888021420
  0.6699148046723690  0.0765168377583027  0.7498578579853267
  0.6699226107623816  0.5792545211688815  0.2494355486252822
  0.6693535030833271  0.5778939245428812  0.7504555952721211
  0.1691251093803929  0.1624038507386440  0.6277213477827501
  0.1697873791597167  0.6679035042212840  0.1227735505006118
  0.1702282551360524  0.6662496095672811  0.6284815580814642
  0.5027009763895679  0.1622006843329377  0.1249765990984706
  0.5028172931912428  0.1631329982860684  0.6265813941315534
  0.5032901071441342  0.6641517044544377  0.1249134125875976
  0.5027703622846772  0.6642700804379433  0.6269343986647128
  0.8410593584689243  0.1626299971889005  0.1256560563825890
  0.8358226119819396  0.1629165838925751  0.6259364621510844
  0.8360263555133824  0.6641573354822118  0.1260457410347419
  0.8354659462052960  0.6632118669336914  0.6269494557899112
  0.0019938222433559  0.3407294233314399  0.1241592586408091
  0.0007301641560785  0.3352278329420864  0.6265794354783841
  0.0037873545350582  0.8401080264901626  0.1230981342957056
  0.0026496670797759  0.8367214583936577  0.6231165388230744
  0.3352278782204958  0.3326100146925798  0.1202996053851245
  0.3362515522030134  0.3358090071643250  0.6255766918269104
  0.3370083831919715  0.8379386038898443  0.1218387441351579
  0.3365273695705872  0.8375565811600529  0.6235422398013067
  0.6715739866160407  0.3359399024035589  0.1232985891746729
  0.6696078284567556  0.3365477326898627  0.6247418292641023
  0.6697345922079759  0.8367428982626923  0.1234029495969019
  0.6691715793197816  0.8368951630358330  0.6231728626580912
  0.0000695781809835  0.3367931048562687  0.3760432296445559
  0.0028178506286412  0.3333243225609467  0.8793782196641580
  0.0027946122033608  0.8371481211051488  0.3768421597146138
  0.0038839996809242  0.8364099544591868  0.8748862768710867
  0.3680257286432517  0.3359404599426699  0.3808181110625532
  0.3373849659972483  0.3341584318604108  0.8771869616113199
  0.3354173892847464  0.8373243379150448  0.3751229495789159
  0.3365966494490015  0.8379668930633597  0.8771964784094176
  0.6676117497035020  0.3370566665046856  0.3764270380950420
  0.6700070064428848  0.3364254963402959  0.8766738654843621
  0.6690147099341147  0.8371849422496043  0.3765911119339558
  0.6697733250207571  0.8367471133460253  0.8758324017654037
  0.1647010016184701  0.1437720347884675  0.3697614209492067
  0.1688701511903936  0.1609656583023595  0.8771680485288255
  0.1676824339556820  0.6637415986437250  0.3772201938861436
  0.1699681604527698  0.6644684593621241  0.8744834777077590
  0.5043190649983659  0.1589737191310706  0.3716688620332673
  0.5040881923682213  0.1626209019503701  0.8736054894108175
  0.5030138914560073  0.6642283231768934  0.3734852234207807
  0.5028067647633190  0.6636797146524916  0.8734638352572611
  0.8354619254187012  0.1636309524381621  0.3727867015155447
  0.8356714741133239  0.1629623247611652  0.8709921901679133
  0.8351571362373709  0.6639026456547381  0.3748627667100282
  0.8363522482590013  0.6631941520796429  0.8732514663106138
  0.1670275670631637  0.4209012497066298  0.2423378168076866
  0.1667256735185381  0.4115245104189685  0.7527827539900581
  0.1684259847654387  0.9084693637047657  0.2522441514650384
  0.1676691852126511  0.9116817849514197  0.7494619308334722
  0.5002431884921615  0.4135235643822235  0.2480639129665753
  0.5005622787790721  0.4123683974451259  0.7504159346779840
  0.5007267536953183  0.9119013780400284  0.2496310094242838
  0.5006836900945898  0.9122127601777986  0.7494275636789467
  0.8321053354273344  0.4139859553379577  0.2505190929015660
  0.8333621493920316  0.4123627883835782  0.7504487969389322
  0.8333827039791787  0.9114366663297329  0.2508906438769327
  0.8335783824867364  0.9113296660142324  0.7486869387356636
 -0.0013189480498386  0.0850973926202317 -0.0030822053082315
  0.0004515520880783  0.0890933800205788  0.5007766558164274
  0.0004583128031522  0.5888914980242683 -0.0000313128312368
 -0.0008738906961886  0.5873422352711760  0.5008980160160094
  0.3350202721845416  0.0864073126921814 -0.0024658757607925
  0.3330273168973041  0.0894276095462402  0.4988763916513900
  0.3343721371740637  0.5872794020093540 -0.0007536626699806
  0.3339409392102416  0.5870612606967083  0.5004165970471089
  0.6684617152616477  0.0875201604084960 -0.0004608963293878
  0.6665620382354213  0.0882653299037960  0.4997720294371466
  0.6673026445742960  0.5878349300467736 -0.0004019445099331
  0.6663955666554091  0.5883038125829213  0.5003142269929741
  0.0194656547920889  0.1602957914236248  0.1083211696064857
  0.0366527571096174  0.1597702968892762  0.3977366385584514
  0.0346769709259788  0.1525361132691330  0.8917790828593803
  0.0339818219517524  0.6563589322505844  0.3970999938596251
  0.0358486425161459  0.6573736414941967  0.8959558160433576
  0.3685544214260196  0.1582597160348900  0.3947308978783152
  0.3725205674862123  0.1563208285982419  0.8941606060792537
  0.3687616206249348  0.6557924308525495  0.3966089661679646
  0.3691037207136085  0.6569181206180529  0.8953030807573358
  0.7011246036238059  0.1578976145528632  0.3957548504332147
  0.7027702243439325  0.1563573456953643  0.8949646642348145
  0.7017167453908416  0.6572120860105460  0.3965664748663148
  0.7025237637481253  0.6569091405521693  0.8957074039132986
  0.2041161892652814  0.0448842988352036  0.2567051264471932
  0.2009485012224534  0.0515628422690369  0.7487758997210412
  0.2019021956175864  0.5592760858654809  0.2536964652110215
  0.2003136008513633  0.5514708078915657  0.7505905004961555
  0.5353403995274526  0.0514416782429884  0.2492725016426938
  0.5348470392764687  0.0518334429549634  0.7491960965895947
  0.5346352322968778  0.5526852888184998  0.2497915318730264
  0.5339922908092768  0.5523958456629644  0.7497581988488169
  0.8659603023769846  0.0514399257982195  0.2519256156134210
  0.8671353634516077  0.0511800115497204  0.7480767461569517
  0.8659648105429644  0.5539402264867958  0.2512188084040060
  0.8675612008183141  0.5519683704115994  0.7500059780775806
  0.0618202796875742  0.4148189171603555  0.2526446209779010
  0.0608468880504399  0.4086409598543445  0.7516427454897396
  0.0622464733121586  0.9054187460475039  0.2515746671884723
  0.0617049941966153  0.9077177450298765  0.7480780378399378
  0.3940878516585336  0.4118229585413890  0.2457809990098357
  0.3946490607589163  0.4093102455280688  0.7503108494533552
  0.3949694491587577  0.9093495940902447  0.2492805872463204
  0.3948168633984137  0.9094892407516065  0.7493632126812024
  0.7261490440022292  0.4109438739149961  0.2513498433876093
  0.7274400637582485  0.4101768606367505  0.7503379552822907
  0.7273917386089086  0.9074142810345344  0.2503538343122225
  0.7276235238045530  0.9085100767843058  0.7489414398670927
  0.2309333881908126  0.0857643603569082 -0.0063917537917320
  0.2269437961093972  0.0944602959466130  0.4987776150183668
  0.2283712984024446  0.5897094686652565 -0.0002759446157118
  0.2276960216845859  0.5875714645289286  0.5011699106548478
  0.5626289447612194  0.0909445033732793  0.0001453849922273
  0.5605614345168970  0.0906662609929559  0.4999852562879198
  0.5613647828681059  0.5904995999529826 -0.0004574766635754
  0.5604222653197304  0.5920158898187542  0.5003174166603148
  0.8918951860900038  0.0851272082621808 -0.0056153167445135
  0.8946060394804327  0.0918797995492375  0.4993917522876543
  0.8944758087396767  0.5918561447430427  0.0000204933706129
  0.8934336853689504  0.5892605671314181  0.5013324130943664
  0.2047383888591992  0.3544980011887321  0.1421532728121186
  0.2021318290692189  0.3423734738408249  0.6487499622706071
  0.2036544620009315  0.8407306207979335  0.1478018379088938
  0.2031823019830997  0.8431652916562058  0.6451265429251597
  0.5373887532010843  0.3430027109632025  0.1467675643952270
  0.5357497230530677  0.3432999350704929  0.6465649121061144
  0.5365899061827502  0.8423065539611071  0.1466007747398645
  0.5353766468568785  0.8433165232316622  0.6452113987119364
  0.8667798505638978  0.3465478436925342  0.1463141377362711
  0.8679546086573007  0.3429661933900636  0.6465153539866180
  0.8692247903908520  0.8429133621458527  0.1473002862472005
  0.8686394790587447  0.8425425980766068  0.6446542912427005
  0.0351687997581341  0.1574236331250292  0.6049489120030552
  0.0357743580113240  0.6576086775461544  0.1039850386022158
  0.0357574779569455  0.6555614321489073  0.6042624023793320
  0.3710426942251486  0.1562739065927112  0.1009936187794655
  0.3687746016088710  0.1578573356872384  0.6025571888484308
  0.3697863801748253  0.6567252301739670  0.1027819747515134
  0.3685766357038063  0.6561523419244738  0.6040610559037348
  0.7046922283655305  0.1563524855350051  0.1028854030816846
  0.7019702977256360  0.1572729542931771  0.6034210331891813
  0.7025188915535107  0.6570348207197546  0.1032654422398140
  0.7019560975400360  0.6566397564623638  0.6040749845227417
  0.0341637911889369  0.4492185786951504  0.0003627384587776
  0.0335519427913790  0.4470643188319465  0.5009215350474533
  0.0342391879020698  0.9453671435524813 -0.0036614637908642
  0.0345492424226572  0.9494645770890402  0.4997894454774410
  0.3687529845617722  0.4478097712693976 -0.0010978226390208
  0.3679787775248105  0.4469477283439218  0.5008693924199689
  0.3717184571189828  0.9470608836010701 -0.0008295648377736
  0.3659027551867702  0.9493130879489798  0.4988292035933671
  0.7011194023752280  0.4480275161729252 -0.0001534246648448
  0.6989210264801137  0.4477667866160185  0.5001821194941725
  0.7012991977860557  0.9471157813014612 -0.0005777703441649
  0.7006614637508145  0.9486323897035973  0.4996652731334927
  0.2025532795780457  0.3424372418100193  0.8556782680997024
  0.2018627740205196  0.8360425339143651  0.3564446602294668
  0.2029644636993367  0.8420585083238644  0.8527447230693771
  0.5302012525065433  0.3436167269369307  0.3548834781358408
  0.5364386238407491  0.3434655570367905  0.8539619730320733
  0.5354145929731565  0.8432291173915890  0.3543633829048150
  0.5364292644343300  0.8426464477412768  0.8528539187037157
  0.8678802558516525  0.3442752365654340  0.3540958499290589
  0.8687183108782338  0.3431399809964586  0.8541653493783899
  0.8687066324925515  0.8422571026821620  0.3550195877759602
  0.8691032228748635  0.8417072040316367  0.8521318350050733
 
  0.00000000E+00  0.00000000E+00  0.00000000E+00
  0.00000000E+00  0.00000000E+00  0.00000000E+00
  0.00000000E+00  0.00000000E+00  0.00000000E+00
  0.00000000E+00  0.00000000E+00  0.00000000E+00
  0.00000000E+00  0.00000000E+00  0.00000000E+00
  0.00000000E+00  0.00000000E+00  0.00000000E+00
  0.00000000E+00  0.00000000E+00  0.00000000E+00
  0.00000000E+00  0.00000000E+00  0.00000000E+00
  0.00000000E+00  0.00000000E+00  0.00000000E+00
  0.00000000E+00  0.00000000E+00  0.00000000E+00
  0.00000000E+00  0.00000000E+00  0.00000000E+00
  0.00000000E+00  0.00000000E+00  0.00000000E+00
  0.00000000E+00  0.00000000E+00  0.00000000E+00
  0.00000000E+00  0.00000000E+00  0.00000000E+00
  0.00000000E+00  0.00000000E+00  0.00000000E+00
  0.00000000E+00  0.00000000E+00  0.00000000E+00
  0.00000000E+00  0.00000000E+00  0.00000000E+00
  0.00000000E+00  0.00000000E+00  0.00000000E+00
  0.00000000E+00  0.00000000E+00  0.00000000E+00
  0.00000000E+00  0.00000000E+00  0.00000000E+00
  0.00000000E+00  0.00000000E+00  0.00000000E+00
  0.00000000E+00  0.00000000E+00  0.00000000E+00
  0.00000000E+00  0.00000000E+00  0.00000000E+00
  0.00000000E+00  0.00000000E+00  0.00000000E+00
  0.00000000E+00  0.00000000E+00  0.00000000E+00
  0.00000000E+00  0.00000000E+00  0.00000000E+00
  0.00000000E+00  0.00000000E+00  0.00000000E+00
  0.00000000E+00  0.00000000E+00  0.00000000E+00
  0.00000000E+00  0.00000000E+00  0.00000000E+00
  0.00000000E+00  0.00000000E+00  0.00000000E+00
  0.00000000E+00  0.00000000E+00  0.00000000E+00
  0.00000000E+00  0.00000000E+00  0.00000000E+00
  0.00000000E+00  0.00000000E+00  0.00000000E+00
  0.00000000E+00  0.00000000E+00  0.00000000E+00
  0.00000000E+00  0.00000000E+00  0.00000000E+00
  0.00000000E+00  0.00000000E+00  0.00000000E+00
  0.00000000E+00  0.00000000E+00  0.00000000E+00
  0.00000000E+00  0.00000000E+00  0.00000000E+00
  0.00000000E+00  0.00000000E+00  0.00000000E+00
  0.00000000E+00  0.00000000E+00  0.00000000E+00
  0.00000000E+00  0.00000000E+00  0.00000000E+00
  0.00000000E+00  0.00000000E+00  0.00000000E+00
  0.00000000E+00  0.00000000E+00  0.00000000E+00
  0.00000000E+00  0.00000000E+00  0.00000000E+00
  0.00000000E+00  0.00000000E+00  0.00000000E+00
  0.00000000E+00  0.00000000E+00  0.00000000E+00
  0.00000000E+00  0.00000000E+00  0.00000000E+00
  0.00000000E+00  0.00000000E+00  0.00000000E+00
  0.00000000E+00  0.00000000E+00  0.00000000E+00
  0.00000000E+00  0.00000000E+00  0.00000000E+00
  0.00000000E+00  0.00000000E+00  0.00000000E+00
  0.00000000E+00  0.00000000E+00  0.00000000E+00
  0.00000000E+00  0.00000000E+00  0.00000000E+00
  0.00000000E+00  0.00000000E+00  0.00000000E+00
  0.00000000E+00  0.00000000E+00  0.00000000E+00
  0.00000000E+00  0.00000000E+00  0.00000000E+00
  0.00000000E+00  0.00000000E+00  0.00000000E+00
  0.00000000E+00  0.00000000E+00  0.00000000E+00
  0.00000000E+00  0.00000000E+00  0.00000000E+00
  0.00000000E+00  0.00000000E+00  0.00000000E+00
  0.00000000E+00  0.00000000E+00  0.00000000E+00
  0.00000000E+00  0.00000000E+00  0.00000000E+00
  0.00000000E+00  0.00000000E+00  0.00000000E+00
  0.00000000E+00  0.00000000E+00  0.00000000E+00
  0.00000000E+00  0.00000000E+00  0.00000000E+00
  0.00000000E+00  0.00000000E+00  0.00000000E+00
  0.00000000E+00  0.00000000E+00  0.00000000E+00
  0.00000000E+00  0.00000000E+00  0.00000000E+00
  0.00000000E+00  0.00000000E+00  0.00000000E+00
  0.00000000E+00  0.00000000E+00  0.00000000E+00
  0.00000000E+00  0.00000000E+00  0.00000000E+00
  0.00000000E+00  0.00000000E+00  0.00000000E+00
  0.00000000E+00  0.00000000E+00  0.00000000E+00
  0.00000000E+00  0.00000000E+00  0.00000000E+00
  0.00000000E+00  0.00000000E+00  0.00000000E+00
  0.00000000E+00  0.00000000E+00  0.00000000E+00
  0.00000000E+00  0.00000000E+00  0.00000000E+00
  0.00000000E+00  0.00000000E+00  0.00000000E+00
  0.00000000E+00  0.00000000E+00  0.00000000E+00
  0.00000000E+00  0.00000000E+00  0.00000000E+00
  0.00000000E+00  0.00000000E+00  0.00000000E+00
  0.00000000E+00  0.00000000E+00  0.00000000E+00
  0.00000000E+00  0.00000000E+00  0.00000000E+00
  0.00000000E+00  0.00000000E+00  0.00000000E+00
  0.00000000E+00  0.00000000E+00  0.00000000E+00
  0.00000000E+00  0.00000000E+00  0.00000000E+00
  0.00000000E+00  0.00000000E+00  0.00000000E+00
  0.00000000E+00  0.00000000E+00  0.00000000E+00
  0.00000000E+00  0.00000000E+00  0.00000000E+00
  0.00000000E+00  0.00000000E+00  0.00000000E+00
  0.00000000E+00  0.00000000E+00  0.00000000E+00
  0.00000000E+00  0.00000000E+00  0.00000000E+00
  0.00000000E+00  0.00000000E+00  0.00000000E+00
  0.00000000E+00  0.00000000E+00  0.00000000E+00
  0.00000000E+00  0.00000000E+00  0.00000000E+00
  0.00000000E+00  0.00000000E+00  0.00000000E+00
  0.00000000E+00  0.00000000E+00  0.00000000E+00
  0.00000000E+00  0.00000000E+00  0.00000000E+00
  0.00000000E+00  0.00000000E+00  0.00000000E+00
  0.00000000E+00  0.00000000E+00  0.00000000E+00
  0.00000000E+00  0.00000000E+00  0.00000000E+00
  0.00000000E+00  0.00000000E+00  0.00000000E+00
  0.00000000E+00  0.00000000E+00  0.00000000E+00
  0.00000000E+00  0.00000000E+00  0.00000000E+00
  0.00000000E+00  0.00000000E+00  0.00000000E+00
  0.00000000E+00  0.00000000E+00  0.00000000E+00
  0.00000000E+00  0.00000000E+00  0.00000000E+00
  0.00000000E+00  0.00000000E+00  0.00000000E+00
  0.00000000E+00  0.00000000E+00  0.00000000E+00
  0.00000000E+00  0.00000000E+00  0.00000000E+00
  0.00000000E+00  0.00000000E+00  0.00000000E+00
  0.00000000E+00  0.00000000E+00  0.00000000E+00
  0.00000000E+00  0.00000000E+00  0.00000000E+00
  0.00000000E+00  0.00000000E+00  0.00000000E+00
  0.00000000E+00  0.00000000E+00  0.00000000E+00
  0.00000000E+00  0.00000000E+00  0.00000000E+00
  0.00000000E+00  0.00000000E+00  0.00000000E+00
  0.00000000E+00  0.00000000E+00  0.00000000E+00
  0.00000000E+00  0.00000000E+00  0.00000000E+00
  0.00000000E+00  0.00000000E+00  0.00000000E+00
  0.00000000E+00  0.00000000E+00  0.00000000E+00
  0.00000000E+00  0.00000000E+00  0.00000000E+00
  0.00000000E+00  0.00000000E+00  0.00000000E+00
  0.00000000E+00  0.00000000E+00  0.00000000E+00
  0.00000000E+00  0.00000000E+00  0.00000000E+00
  0.00000000E+00  0.00000000E+00  0.00000000E+00
  0.00000000E+00  0.00000000E+00  0.00000000E+00
  0.00000000E+00  0.00000000E+00  0.00000000E+00
  0.00000000E+00  0.00000000E+00  0.00000000E+00
  0.00000000E+00  0.00000000E+00  0.00000000E+00
  0.00000000E+00  0.00000000E+00  0.00000000E+00
  0.00000000E+00  0.00000000E+00  0.00000000E+00
  0.00000000E+00  0.00000000E+00  0.00000000E+00
  0.00000000E+00  0.00000000E+00  0.00000000E+00
  0.00000000E+00  0.00000000E+00  0.00000000E+00
  0.00000000E+00  0.00000000E+00  0.00000000E+00
  0.00000000E+00  0.00000000E+00  0.00000000E+00
  0.00000000E+00  0.00000000E+00  0.00000000E+00
  0.00000000E+00  0.00000000E+00  0.00000000E+00
  0.00000000E+00  0.00000000E+00  0.00000000E+00
  0.00000000E+00  0.00000000E+00  0.00000000E+00
  0.00000000E+00  0.00000000E+00  0.00000000E+00
  0.00000000E+00  0.00000000E+00  0.00000000E+00
  0.00000000E+00  0.00000000E+00  0.00000000E+00
  0.00000000E+00  0.00000000E+00  0.00000000E+00
  0.00000000E+00  0.00000000E+00  0.00000000E+00
  0.00000000E+00  0.00000000E+00  0.00000000E+00
  0.00000000E+00  0.00000000E+00  0.00000000E+00
  0.00000000E+00  0.00000000E+00  0.00000000E+00
  0.00000000E+00  0.00000000E+00  0.00000000E+00
  0.00000000E+00  0.00000000E+00  0.00000000E+00
  0.00000000E+00  0.00000000E+00  0.00000000E+00
  0.00000000E+00  0.00000000E+00  0.00000000E+00
  0.00000000E+00  0.00000000E+00  0.00000000E+00
  0.00000000E+00  0.00000000E+00  0.00000000E+00
  0.00000000E+00  0.00000000E+00  0.00000000E+00
  0.00000000E+00  0.00000000E+00  0.00000000E+00
  0.00000000E+00  0.00000000E+00  0.00000000E+00
  0.00000000E+00  0.00000000E+00  0.00000000E+00
  0.00000000E+00  0.00000000E+00  0.00000000E+00
  0.00000000E+00  0.00000000E+00  0.00000000E+00
  0.00000000E+00  0.00000000E+00  0.00000000E+00
  0.00000000E+00  0.00000000E+00  0.00000000E+00
  0.00000000E+00  0.00000000E+00  0.00000000E+00
  0.00000000E+00  0.00000000E+00  0.00000000E+00
  0.00000000E+00  0.00000000E+00  0.00000000E+00
  0.00000000E+00  0.00000000E+00  0.00000000E+00
  0.00000000E+00  0.00000000E+00  0.00000000E+00
  0.00000000E+00  0.00000000E+00  0.00000000E+00
  0.00000000E+00  0.00000000E+00  0.00000000E+00
  0.00000000E+00  0.00000000E+00  0.00000000E+00
  0.00000000E+00  0.00000000E+00  0.00000000E+00
  0.00000000E+00  0.00000000E+00  0.00000000E+00
  0.00000000E+00  0.00000000E+00  0.00000000E+00
  0.00000000E+00  0.00000000E+00  0.00000000E+00
  0.00000000E+00  0.00000000E+00  0.00000000E+00
  0.00000000E+00  0.00000000E+00  0.00000000E+00
  0.00000000E+00  0.00000000E+00  0.00000000E+00
  0.00000000E+00  0.00000000E+00  0.00000000E+00
  0.00000000E+00  0.00000000E+00  0.00000000E+00
  0.00000000E+00  0.00000000E+00  0.00000000E+00
  0.00000000E+00  0.00000000E+00  0.00000000E+00
  0.00000000E+00  0.00000000E+00  0.00000000E+00
  0.00000000E+00  0.00000000E+00  0.00000000E+00
  0.00000000E+00  0.00000000E+00  0.00000000E+00
  0.00000000E+00  0.00000000E+00  0.00000000E+00
  0.00000000E+00  0.00000000E+00  0.00000000E+00
  0.00000000E+00  0.00000000E+00  0.00000000E+00
  0.00000000E+00  0.00000000E+00  0.00000000E+00
  0.00000000E+00  0.00000000E+00  0.00000000E+00
