Li7 P2 N1 O7                            
   1.00000000000000     
     4.8911555044136898    0.0000038549981678    0.0301756119222651
     0.0000051338000844    6.0875739825456812    0.0000166428691167
     0.0299038203476809    0.0000152255644129    5.5234649013531216
   Li   P    N    O 
     7     2     1     7
Direct
  0.0503474896542563  0.4999951027297474  0.1323244564419523
  0.5566554761589108  0.7056363480863392  0.3076328108392324
  0.5566520775198843  0.2943715184141251  0.3076606906188850
  0.0079864038737070  0.7415943489162988  0.6862476397718714
  0.0079906728127184  0.2583985314321281  0.6862432955614119
  0.5444754159295970  0.0000575425925102  0.9149732129625594
  0.4362999395762671 -0.0000083263804637  0.5121042872501237
  0.5223821212247272  0.4999957585940047  0.8152641240793910
  0.0294139584529591  0.0000004812016119  0.1966356208378187
  0.6504810467477342  0.4999890532967577  0.0720902682825262
  0.1504305342465853  0.2039314810460032  0.3296328160795746
  0.1504395662850039  0.7960735420258371  0.3296333956837294
  0.2005752590552298  0.4999977377443861  0.8049986719544611
  0.7103223313682341 -0.0000021548211220  0.2261577527624549
  0.6097869682776021  0.7168109312758016  0.6595157937140655
  0.6097737851227490  0.2831567886324650  0.6595323373008269
  0.1105069536938601  0.0000013152135681  0.9220428258591205
 
  0.00000000E+00  0.00000000E+00  0.00000000E+00
  0.00000000E+00  0.00000000E+00  0.00000000E+00
  0.00000000E+00  0.00000000E+00  0.00000000E+00
  0.00000000E+00  0.00000000E+00  0.00000000E+00
  0.00000000E+00  0.00000000E+00  0.00000000E+00
  0.00000000E+00  0.00000000E+00  0.00000000E+00
  0.00000000E+00  0.00000000E+00  0.00000000E+00
  0.00000000E+00  0.00000000E+00  0.00000000E+00
  0.00000000E+00  0.00000000E+00  0.00000000E+00
  0.00000000E+00  0.00000000E+00  0.00000000E+00
  0.00000000E+00  0.00000000E+00  0.00000000E+00
  0.00000000E+00  0.00000000E+00  0.00000000E+00
  0.00000000E+00  0.00000000E+00  0.00000000E+00
  0.00000000E+00  0.00000000E+00  0.00000000E+00
  0.00000000E+00  0.00000000E+00  0.00000000E+00
  0.00000000E+00  0.00000000E+00  0.00000000E+00
  0.00000000E+00  0.00000000E+00  0.00000000E+00
