Li20 P20 O60                            
   1.00000000000000     
     5.5343749999999998    0.0000000000000000    0.0000000000000000
     1.5684050000000000   13.2513889999999996    0.0000000000000000
     1.2529390000000000   10.5860269999999996   16.5789399999999993
   Li   P    O 
    20    20    60
Direct
  0.5053929999999980  0.8735220000000012  0.1817800000000034
  0.4946070000000020  0.8735220000000012  0.6817800000000034
  0.5155809999999974  0.1111700000000013  0.0659959999999984
  0.4844190000000026  0.1111700000000013  0.5659959999999984
  0.4942160000000015  0.3470429999999993  0.9505430000000032
  0.5057839999999985  0.3470429999999993  0.4505430000000032
  0.4927759999999992  0.5817029999999974  0.8354519999999965
  0.5072240000000008  0.5817029999999974  0.3354519999999965
  0.0072169999999971  0.7291060000000016  0.7584340000000012
  0.9927830000000029  0.7291060000000016  0.2584340000000012
  0.4788059999999987  0.3757370000000009  0.6817139999999995
  0.5211940000000013  0.3757370000000009  0.1817139999999995
  0.5236870000000025  0.6122749999999968  0.5662700000000029
  0.4763129999999975  0.6122749999999968  0.0662700000000029
  0.4667499999999976  0.8481820000000013  0.4495470000000026
  0.5332500000000024  0.8481820000000013  0.9495470000000026
  0.5222630000000024  0.0845199999999977  0.3329840000000033
  0.4777369999999976  0.0845199999999977  0.8329840000000033
  0.0391109999999983  0.2331709999999987  0.2563659999999999
  0.9608890000000017  0.2331709999999987  0.7563659999999999
  0.8146229999999974  0.9992209999999986  0.9995869999999982
  0.1853770000000026  0.9992209999999986  0.4995869999999982
  0.1566830000000010  0.2056129999999996  0.9067200000000000
  0.8433169999999990  0.2056129999999996  0.4067200000000000
  0.8115560000000031  0.4011369999999985  0.8029390000000021
  0.1884439999999969  0.4011369999999985  0.3029390000000021
  0.1710229999999981  0.5916050000000013  0.6916889999999967
  0.8289770000000019  0.5916050000000013  0.1916889999999967
  0.8402609999999981  0.7915989999999979  0.5917510000000021
  0.1597390000000019  0.7915989999999979  0.0917510000000021
  0.1560699999999997  0.6650800000000032  0.4254329999999982
  0.8439300000000003  0.6650800000000032  0.9254329999999982
  0.8256780000000035  0.8654519999999977  0.3255619999999979
  0.1743219999999965  0.8654519999999977  0.8255619999999979
  0.1877220000000008  0.0563229999999990  0.2135450000000034
  0.8122779999999992  0.0563229999999990  0.7135450000000034
  0.8480989999999977  0.2521339999999981  0.1101439999999982
  0.1519010000000023  0.2521339999999981  0.6101439999999982
  0.1901330000000030  0.4584199999999967  0.0171550000000025
  0.8098669999999970  0.4584199999999967  0.5171550000000025
  0.9309999999999974  0.1299849999999978  0.9645870000000016
  0.0690000000000026  0.1299849999999978  0.4645870000000016
  0.0489129999999989  0.3401789999999991  0.8593720000000005
  0.9510870000000011  0.3401789999999991  0.3593720000000005
  0.9199819999999974  0.5186500000000009  0.7241440000000026
  0.0800180000000026  0.5186500000000009  0.2241440000000026
  0.0733189999999979  0.7069040000000015  0.6077409999999972
  0.9266810000000021  0.7069040000000015  0.1077409999999972
  0.0579779999999985  0.9198480000000018  0.0218520000000026
  0.9420220000000015  0.9198480000000018  0.5218520000000026
  0.9232190000000031  0.7499359999999982  0.4093779999999967
  0.0767809999999969  0.7499359999999982  0.9093779999999967
  0.0781589999999994  0.9367739999999998  0.2905960000000007
  0.9218410000000006  0.9367739999999998  0.7905960000000007
  0.9507350000000017  0.1167990000000003  0.1564449999999979
  0.0492649999999983  0.1167990000000003  0.6564449999999979
  0.0812129999999982  0.3254319999999993  0.0565199999999990
  0.9187870000000018  0.3254319999999993  0.5565199999999990
  0.0553090000000012  0.5363710000000026  0.4956729999999965
  0.9446909999999988  0.5363710000000026  0.9956729999999965
  0.6772050000000007  0.9708269999999999  0.0738890000000012
  0.3227949999999993  0.9708269999999999  0.5738890000000012
  0.6860819999999990  0.9949089999999998  0.9339259999999996
  0.3139180000000010  0.9949089999999998  0.4339259999999996
  0.3564239999999970  0.2046250000000001  0.9586510000000033
  0.6435760000000030  0.2046250000000001  0.4586510000000033
  0.2046950000000010  0.1710560000000001  0.8467430000000036
  0.7953049999999990  0.1710560000000001  0.3467430000000036
  0.6480260000000015  0.4396580000000014  0.8453530000000029
  0.3519739999999985  0.4396580000000014  0.3453530000000029
  0.7182189999999977  0.3225830000000016  0.7754100000000008
  0.2817810000000023  0.3225830000000016  0.2754100000000008
  0.2484540000000024  0.6306700000000021  0.7472950000000012
  0.7515459999999976  0.6306700000000021  0.2472950000000012
  0.3437100000000015  0.5275200000000027  0.6693520000000035
  0.6562899999999985  0.5275200000000027  0.1693520000000035
  0.7848789999999966  0.7905840000000026  0.6671589999999981
  0.2151210000000034  0.7905840000000026  0.1671589999999981
  0.6442229999999967  0.7611050000000006  0.5532919999999990
  0.3557770000000033  0.7611050000000006  0.0532919999999990
  0.3501100000000008  0.6976089999999999  0.4633350000000007
  0.6498899999999992  0.6976089999999999  0.9633350000000007
  0.2140040000000027  0.6650869999999998  0.3506059999999991
  0.7859959999999973  0.6650869999999998  0.8506059999999991
  0.6592070000000021  0.9314060000000026  0.3482150000000033
  0.3407929999999979  0.9314060000000026  0.8482150000000033
  0.7419560000000018  0.8246880000000019  0.2714580000000026
  0.2580439999999982  0.8246880000000019  0.7714580000000026
  0.2742659999999972  0.1352800000000016  0.2416249999999991
  0.7257340000000028  0.1352800000000016  0.7416249999999991
  0.3570500000000010  0.0198800000000006  0.1711990000000014
  0.6429499999999990  0.0198800000000006  0.6711990000000014
  0.7947279999999992  0.2863800000000012  0.1700269999999975
  0.2052720000000008  0.2863800000000012  0.6700269999999975
  0.6527049999999974  0.2570040000000020  0.0556399999999968
  0.3472950000000026  0.2570040000000020  0.5556399999999968
  0.3225300000000004  0.4671809999999965  0.0804410000000004
  0.6774699999999996  0.4671809999999965  0.5804410000000004
  0.3210860000000011  0.4846900000000005  0.9423659999999998
  0.6789139999999989  0.4846900000000005  0.4423659999999998
 
  0.00000000E+00  0.00000000E+00  0.00000000E+00
  0.00000000E+00  0.00000000E+00  0.00000000E+00
  0.00000000E+00  0.00000000E+00  0.00000000E+00
  0.00000000E+00  0.00000000E+00  0.00000000E+00
  0.00000000E+00  0.00000000E+00  0.00000000E+00
  0.00000000E+00  0.00000000E+00  0.00000000E+00
  0.00000000E+00  0.00000000E+00  0.00000000E+00
  0.00000000E+00  0.00000000E+00  0.00000000E+00
  0.00000000E+00  0.00000000E+00  0.00000000E+00
  0.00000000E+00  0.00000000E+00  0.00000000E+00
  0.00000000E+00  0.00000000E+00  0.00000000E+00
  0.00000000E+00  0.00000000E+00  0.00000000E+00
  0.00000000E+00  0.00000000E+00  0.00000000E+00
  0.00000000E+00  0.00000000E+00  0.00000000E+00
  0.00000000E+00  0.00000000E+00  0.00000000E+00
  0.00000000E+00  0.00000000E+00  0.00000000E+00
  0.00000000E+00  0.00000000E+00  0.00000000E+00
  0.00000000E+00  0.00000000E+00  0.00000000E+00
  0.00000000E+00  0.00000000E+00  0.00000000E+00
  0.00000000E+00  0.00000000E+00  0.00000000E+00
  0.00000000E+00  0.00000000E+00  0.00000000E+00
  0.00000000E+00  0.00000000E+00  0.00000000E+00
  0.00000000E+00  0.00000000E+00  0.00000000E+00
  0.00000000E+00  0.00000000E+00  0.00000000E+00
  0.00000000E+00  0.00000000E+00  0.00000000E+00
  0.00000000E+00  0.00000000E+00  0.00000000E+00
  0.00000000E+00  0.00000000E+00  0.00000000E+00
  0.00000000E+00  0.00000000E+00  0.00000000E+00
  0.00000000E+00  0.00000000E+00  0.00000000E+00
  0.00000000E+00  0.00000000E+00  0.00000000E+00
  0.00000000E+00  0.00000000E+00  0.00000000E+00
  0.00000000E+00  0.00000000E+00  0.00000000E+00
  0.00000000E+00  0.00000000E+00  0.00000000E+00
  0.00000000E+00  0.00000000E+00  0.00000000E+00
  0.00000000E+00  0.00000000E+00  0.00000000E+00
  0.00000000E+00  0.00000000E+00  0.00000000E+00
  0.00000000E+00  0.00000000E+00  0.00000000E+00
  0.00000000E+00  0.00000000E+00  0.00000000E+00
  0.00000000E+00  0.00000000E+00  0.00000000E+00
  0.00000000E+00  0.00000000E+00  0.00000000E+00
  0.00000000E+00  0.00000000E+00  0.00000000E+00
  0.00000000E+00  0.00000000E+00  0.00000000E+00
  0.00000000E+00  0.00000000E+00  0.00000000E+00
  0.00000000E+00  0.00000000E+00  0.00000000E+00
  0.00000000E+00  0.00000000E+00  0.00000000E+00
  0.00000000E+00  0.00000000E+00  0.00000000E+00
  0.00000000E+00  0.00000000E+00  0.00000000E+00
  0.00000000E+00  0.00000000E+00  0.00000000E+00
  0.00000000E+00  0.00000000E+00  0.00000000E+00
  0.00000000E+00  0.00000000E+00  0.00000000E+00
  0.00000000E+00  0.00000000E+00  0.00000000E+00
  0.00000000E+00  0.00000000E+00  0.00000000E+00
  0.00000000E+00  0.00000000E+00  0.00000000E+00
  0.00000000E+00  0.00000000E+00  0.00000000E+00
  0.00000000E+00  0.00000000E+00  0.00000000E+00
  0.00000000E+00  0.00000000E+00  0.00000000E+00
  0.00000000E+00  0.00000000E+00  0.00000000E+00
  0.00000000E+00  0.00000000E+00  0.00000000E+00
  0.00000000E+00  0.00000000E+00  0.00000000E+00
  0.00000000E+00  0.00000000E+00  0.00000000E+00
  0.00000000E+00  0.00000000E+00  0.00000000E+00
  0.00000000E+00  0.00000000E+00  0.00000000E+00
  0.00000000E+00  0.00000000E+00  0.00000000E+00
  0.00000000E+00  0.00000000E+00  0.00000000E+00
  0.00000000E+00  0.00000000E+00  0.00000000E+00
  0.00000000E+00  0.00000000E+00  0.00000000E+00
  0.00000000E+00  0.00000000E+00  0.00000000E+00
  0.00000000E+00  0.00000000E+00  0.00000000E+00
  0.00000000E+00  0.00000000E+00  0.00000000E+00
  0.00000000E+00  0.00000000E+00  0.00000000E+00
  0.00000000E+00  0.00000000E+00  0.00000000E+00
  0.00000000E+00  0.00000000E+00  0.00000000E+00
  0.00000000E+00  0.00000000E+00  0.00000000E+00
  0.00000000E+00  0.00000000E+00  0.00000000E+00
  0.00000000E+00  0.00000000E+00  0.00000000E+00
  0.00000000E+00  0.00000000E+00  0.00000000E+00
  0.00000000E+00  0.00000000E+00  0.00000000E+00
  0.00000000E+00  0.00000000E+00  0.00000000E+00
  0.00000000E+00  0.00000000E+00  0.00000000E+00
  0.00000000E+00  0.00000000E+00  0.00000000E+00
  0.00000000E+00  0.00000000E+00  0.00000000E+00
  0.00000000E+00  0.00000000E+00  0.00000000E+00
  0.00000000E+00  0.00000000E+00  0.00000000E+00
  0.00000000E+00  0.00000000E+00  0.00000000E+00
  0.00000000E+00  0.00000000E+00  0.00000000E+00
  0.00000000E+00  0.00000000E+00  0.00000000E+00
  0.00000000E+00  0.00000000E+00  0.00000000E+00
  0.00000000E+00  0.00000000E+00  0.00000000E+00
  0.00000000E+00  0.00000000E+00  0.00000000E+00
  0.00000000E+00  0.00000000E+00  0.00000000E+00
  0.00000000E+00  0.00000000E+00  0.00000000E+00
  0.00000000E+00  0.00000000E+00  0.00000000E+00
  0.00000000E+00  0.00000000E+00  0.00000000E+00
  0.00000000E+00  0.00000000E+00  0.00000000E+00
  0.00000000E+00  0.00000000E+00  0.00000000E+00
  0.00000000E+00  0.00000000E+00  0.00000000E+00
  0.00000000E+00  0.00000000E+00  0.00000000E+00
  0.00000000E+00  0.00000000E+00  0.00000000E+00
  0.00000000E+00  0.00000000E+00  0.00000000E+00
  0.00000000E+00  0.00000000E+00  0.00000000E+00
