Li1 N3                                  
   1.00000000000000     
     1.8111870000000001    3.0699369999999999    0.0000000000000000
    -1.6770250000000000    2.8425340000000001    0.0000000000000000
     0.0000000000000000    1.4808509999999999    4.7637210000000003
   Li   N 
     1     3
Direct
  0.0000000000000000  0.0000000000000000  0.0000000000000000
  0.6058110000000028  0.6058110000000028  0.2567069999999987
  0.3941889999999972  0.3941889999999972  0.7432930000000013
  0.5000000000000000  0.5000000000000000  0.5000000000000000
 
  0.00000000E+00  0.00000000E+00  0.00000000E+00
  0.00000000E+00  0.00000000E+00  0.00000000E+00
  0.00000000E+00  0.00000000E+00  0.00000000E+00
  0.00000000E+00  0.00000000E+00  0.00000000E+00
