Li1
1.0
-1.516987 1.713409 1.713409
1.516987 -1.713409 1.713409
1.909831 1.713409 -1.713409
Li
1
direct
0.000000 0.000000 0.000000 Li
