Li61 P7 N32                             
   1.00000000000000     
     0.0045569285253852    9.5993000037718250   -0.0181615819335739
     0.0189657235825996   -0.0174894102107043    9.5792048520417445
     9.5945145496448756    0.0048478831539402    0.0188843520424534
   Li   P    N 
    61     7    32
Direct
  0.5143829754136224  0.0028053168823800  0.5118350742406114
  0.0043393450968186  0.5029792663413847  0.0035379228438016
  0.5082985881337142  0.0047775096561021  0.0097992930270391
  0.0065479643942452  0.0035170963531925  0.5087316324821899
  0.5019641913237614  0.4993324711656224  0.0079987653524963
  0.0028431617606093  0.5052214966532297  0.4970543349836243
  0.7637648788443513 -0.0011494950022994  0.4975774933154803
  0.2564156039280734  0.9836625136255226  0.5186157963944708
  0.7834256315454233  0.5033572786120758  0.5126633687336086
  0.2179587001517306  0.4687681509628255  0.5356516507375481
  0.2666454020649917 -0.0040416132941058  0.0234752478210036
  0.7471469489836986  0.0009132097226468  0.9875728877271022
  0.4226568091090986  0.4229427803473542  0.4233339133266628
  0.5085664888817890  0.2459640182422722  0.0000993408425552
  0.4821877413812342  0.7601168082745207  0.9852605821637859
  0.0083752179469847  0.5063260965406454  0.2488078816254904
  0.0214721599146813  0.5166189861982388  0.7545508174214304
  0.2008098323171984  0.2419912331438782  0.2249381445026997
  0.2736643231038746  0.7352857257178524  0.7361318589224385
  0.2812518785534893  0.2261255627315094  0.7105012895789963
  0.3014974043225136  0.7294901893713635  0.2285521049991575
  0.7008595228076810  0.1966389967998994  0.3337157509773982
  0.7851181223560173  0.7006956657518650  0.7249167181075782
  0.7797411086948276  0.2110895332711299  0.7756341592067348
  0.7938532086117572  0.7585536692317366  0.2271386037958389
  0.9453555924357330  0.2703708499003985  0.2579457227035593
  0.0208443355371850  0.7793674601377210  0.7517828251173250
  0.2562994636579311  0.2287560710704606  0.4742711719133288
  0.2377109859338628  0.7171718256446623  0.4625216831662251
  0.7534317180080400  0.2492003012850230  0.5374052736713594
  0.7412445023865146  0.7569735268150657  0.4946870543037379
  0.7702856033606130  0.5124400306755647  0.2728773375879117
  0.5361756819185968  0.5239559059067976  0.7884695243339568
  0.2474573675044419  0.4979405537834316  0.2712935789907110
  0.2904720895030448  0.4606199483202075  0.7732754522261325
  0.5391776091375723  0.7517148806275664  0.2317636519612239
  0.5131576862343394  0.2635429690443298  0.7590919804803961
  0.2414492845294880  0.9772285700510684  0.2690595123806176
  0.2551193158294247  0.9886901518961694  0.7798634713656738
  0.2634536156673390  0.2372057585137808  0.9762270857229772
  0.2241626531277247  0.7497963492525089  0.9880882009014613
  0.7668867104259220  0.9612397378065901  0.7391049530309396
  0.7570305188156753 -0.0022445327241346  0.2274238404510498
  0.7322510808882065  0.7598249761753012  0.9714586462118611
  0.7783406773296647  0.2410593156047967  0.0121325314968204
  0.0361471177842424  0.2691683032041917  0.7697196698523107
  0.0389557657437747  0.7536922459992862  0.2385714461996583
  0.4579856195714219  0.2534459569012956  0.2461343951993415
  0.5484567393318235  0.7658801901540616  0.7203646129481933
  0.0166955995849338  0.2643910946600244  0.0126209587460770
  0.9816094488367696  0.7440711861811042  0.9965411591502198
  0.4982355350468917  0.2246060066901460  0.5080984357669464
  0.4766603266203725  0.7882448293337518  0.4714766464113344
  0.4933453332283576  0.5128226873326087  0.2303037834696415
  0.4277078541742583  0.5805506133960351  0.5821548362046963
 -0.0008684279353412  0.0086876381830793  0.2711512800273611
  0.0104548483126571  0.0231441924906767  0.7473897176737940
  0.5826943265078146  0.4194811437574970  0.5802288896152393
  0.5879458393320001  0.5807232088648427  0.4231803600299576
  0.7760878127998537  0.4660522444686585  0.7545926222194735
  0.6614180010983522  0.3415893776645677  0.1785801383843271
  0.0047575648784944  0.0035245392283895  0.0071794902553644
  0.7592317348583573  0.5039814936964465  0.0071616892894810
  0.2502630930560324  0.4979527468197316  0.0113574392077713
  0.0002964809280783  0.7568518613601644  0.4986374324909507
  0.0033946207593810  0.2501234995776274  0.5094061488469559
  0.5018756198891374  0.0039642246489978  0.2569308802460685
  0.5098950522811889  0.0055857093544224  0.7615625480038877
  0.6347438859128178  0.6112303982427455  0.6229204241770314
  0.6215983019493125  0.3780432489982892  0.3801824275550645
  0.8980713916132060  0.9009772088257555  0.1050217306096956
  0.9068652741222736  0.1097561708437965  0.9053153841125069
  0.1048452999608336  0.9010369250067896  0.9037068913190062
  0.1070265432288234  0.1006311752256575  0.1105963288229692
  0.3924420826876864  0.6222000028870673  0.3767804913176434
  0.3869722606747202  0.3740279609461592  0.6187213197974275
  0.0968460990966906  0.3490241098667441  0.3933973224836662
  0.1017286815600501  0.6549231876016269  0.6047919537418536
  0.1123507578731752  0.1504543733389490  0.6057580056812345
  0.1057455524238991  0.8600541122837737  0.4016074302717602
  0.8909614087900171  0.1488400781579250  0.4175802680464606
  0.8957634616402310  0.8531570296942549  0.6029815845706158
  0.8591779937092819  0.4049449627131807  0.1145153506728824
  0.8566338724690216  0.6005440476920093  0.8977608234889711
  0.1516434592948134  0.6022746718616477  0.1137825043945130
  0.1501031834705592  0.3983227190603381  0.9061581550647904
  0.4080579743136379  0.8975825836792418  0.1532245686383295
  0.4066438089933058  0.1092970380949364  0.8595815705092205
  0.3933296750642333  0.0934671063485133  0.3627151295693484
  0.4052642092001592  0.9033928821969369  0.6601365721166453
  0.3504401295192032  0.3891190092647679  0.1106192328917456
  0.3523285201757853  0.6037975856896416  0.9091363159951579
  0.6205147251403608  0.1037765364260524  0.6604436153382127
  0.6172057078936034  0.9089557545821546  0.3529443616724076
  0.6573069072310254  0.6082465670531879  0.1071296841996654
  0.6571718590780123  0.3886356485068423  0.9173632961546891
  0.9110715156139564  0.3546702069711395  0.6198756341111551
  0.9034567253042205  0.6549625413227776  0.3887403946935123
  0.5998657929391608  0.1193973067569417  0.1579686909864920
  0.6086373304935829  0.8997827388043996  0.8625458256092591
 
  0.00000000E+00  0.00000000E+00  0.00000000E+00
  0.00000000E+00  0.00000000E+00  0.00000000E+00
  0.00000000E+00  0.00000000E+00  0.00000000E+00
  0.00000000E+00  0.00000000E+00  0.00000000E+00
  0.00000000E+00  0.00000000E+00  0.00000000E+00
  0.00000000E+00  0.00000000E+00  0.00000000E+00
  0.00000000E+00  0.00000000E+00  0.00000000E+00
  0.00000000E+00  0.00000000E+00  0.00000000E+00
  0.00000000E+00  0.00000000E+00  0.00000000E+00
  0.00000000E+00  0.00000000E+00  0.00000000E+00
  0.00000000E+00  0.00000000E+00  0.00000000E+00
  0.00000000E+00  0.00000000E+00  0.00000000E+00
  0.00000000E+00  0.00000000E+00  0.00000000E+00
  0.00000000E+00  0.00000000E+00  0.00000000E+00
  0.00000000E+00  0.00000000E+00  0.00000000E+00
  0.00000000E+00  0.00000000E+00  0.00000000E+00
  0.00000000E+00  0.00000000E+00  0.00000000E+00
  0.00000000E+00  0.00000000E+00  0.00000000E+00
  0.00000000E+00  0.00000000E+00  0.00000000E+00
  0.00000000E+00  0.00000000E+00  0.00000000E+00
  0.00000000E+00  0.00000000E+00  0.00000000E+00
  0.00000000E+00  0.00000000E+00  0.00000000E+00
  0.00000000E+00  0.00000000E+00  0.00000000E+00
  0.00000000E+00  0.00000000E+00  0.00000000E+00
  0.00000000E+00  0.00000000E+00  0.00000000E+00
  0.00000000E+00  0.00000000E+00  0.00000000E+00
  0.00000000E+00  0.00000000E+00  0.00000000E+00
  0.00000000E+00  0.00000000E+00  0.00000000E+00
  0.00000000E+00  0.00000000E+00  0.00000000E+00
  0.00000000E+00  0.00000000E+00  0.00000000E+00
  0.00000000E+00  0.00000000E+00  0.00000000E+00
  0.00000000E+00  0.00000000E+00  0.00000000E+00
  0.00000000E+00  0.00000000E+00  0.00000000E+00
  0.00000000E+00  0.00000000E+00  0.00000000E+00
  0.00000000E+00  0.00000000E+00  0.00000000E+00
  0.00000000E+00  0.00000000E+00  0.00000000E+00
  0.00000000E+00  0.00000000E+00  0.00000000E+00
  0.00000000E+00  0.00000000E+00  0.00000000E+00
  0.00000000E+00  0.00000000E+00  0.00000000E+00
  0.00000000E+00  0.00000000E+00  0.00000000E+00
  0.00000000E+00  0.00000000E+00  0.00000000E+00
  0.00000000E+00  0.00000000E+00  0.00000000E+00
  0.00000000E+00  0.00000000E+00  0.00000000E+00
  0.00000000E+00  0.00000000E+00  0.00000000E+00
  0.00000000E+00  0.00000000E+00  0.00000000E+00
  0.00000000E+00  0.00000000E+00  0.00000000E+00
  0.00000000E+00  0.00000000E+00  0.00000000E+00
  0.00000000E+00  0.00000000E+00  0.00000000E+00
  0.00000000E+00  0.00000000E+00  0.00000000E+00
  0.00000000E+00  0.00000000E+00  0.00000000E+00
  0.00000000E+00  0.00000000E+00  0.00000000E+00
  0.00000000E+00  0.00000000E+00  0.00000000E+00
  0.00000000E+00  0.00000000E+00  0.00000000E+00
  0.00000000E+00  0.00000000E+00  0.00000000E+00
  0.00000000E+00  0.00000000E+00  0.00000000E+00
  0.00000000E+00  0.00000000E+00  0.00000000E+00
  0.00000000E+00  0.00000000E+00  0.00000000E+00
  0.00000000E+00  0.00000000E+00  0.00000000E+00
  0.00000000E+00  0.00000000E+00  0.00000000E+00
  0.00000000E+00  0.00000000E+00  0.00000000E+00
  0.00000000E+00  0.00000000E+00  0.00000000E+00
  0.00000000E+00  0.00000000E+00  0.00000000E+00
  0.00000000E+00  0.00000000E+00  0.00000000E+00
  0.00000000E+00  0.00000000E+00  0.00000000E+00
  0.00000000E+00  0.00000000E+00  0.00000000E+00
  0.00000000E+00  0.00000000E+00  0.00000000E+00
  0.00000000E+00  0.00000000E+00  0.00000000E+00
  0.00000000E+00  0.00000000E+00  0.00000000E+00
  0.00000000E+00  0.00000000E+00  0.00000000E+00
  0.00000000E+00  0.00000000E+00  0.00000000E+00
  0.00000000E+00  0.00000000E+00  0.00000000E+00
  0.00000000E+00  0.00000000E+00  0.00000000E+00
  0.00000000E+00  0.00000000E+00  0.00000000E+00
  0.00000000E+00  0.00000000E+00  0.00000000E+00
  0.00000000E+00  0.00000000E+00  0.00000000E+00
  0.00000000E+00  0.00000000E+00  0.00000000E+00
  0.00000000E+00  0.00000000E+00  0.00000000E+00
  0.00000000E+00  0.00000000E+00  0.00000000E+00
  0.00000000E+00  0.00000000E+00  0.00000000E+00
  0.00000000E+00  0.00000000E+00  0.00000000E+00
  0.00000000E+00  0.00000000E+00  0.00000000E+00
  0.00000000E+00  0.00000000E+00  0.00000000E+00
  0.00000000E+00  0.00000000E+00  0.00000000E+00
  0.00000000E+00  0.00000000E+00  0.00000000E+00
  0.00000000E+00  0.00000000E+00  0.00000000E+00
  0.00000000E+00  0.00000000E+00  0.00000000E+00
  0.00000000E+00  0.00000000E+00  0.00000000E+00
  0.00000000E+00  0.00000000E+00  0.00000000E+00
  0.00000000E+00  0.00000000E+00  0.00000000E+00
  0.00000000E+00  0.00000000E+00  0.00000000E+00
  0.00000000E+00  0.00000000E+00  0.00000000E+00
  0.00000000E+00  0.00000000E+00  0.00000000E+00
  0.00000000E+00  0.00000000E+00  0.00000000E+00
  0.00000000E+00  0.00000000E+00  0.00000000E+00
  0.00000000E+00  0.00000000E+00  0.00000000E+00
  0.00000000E+00  0.00000000E+00  0.00000000E+00
  0.00000000E+00  0.00000000E+00  0.00000000E+00
  0.00000000E+00  0.00000000E+00  0.00000000E+00
  0.00000000E+00  0.00000000E+00  0.00000000E+00
  0.00000000E+00  0.00000000E+00  0.00000000E+00
