Li61 P7 N32                             
   1.00000000000000     
    -0.0085797151244058    9.6177973395664171   -0.0424907195470752
    -0.0043113158425796   -0.0418960810449689    9.6271868739717590
     9.5837873217147322   -0.0084712066877548   -0.0041717409451309
   Li   P    N 
    61     7    32
Direct
  0.5081552755260179 -0.0053384562531085  0.5106615717595064
  0.0003828543317877  0.4985500255684024  0.0051226783668414
  0.5003749612377509  0.0043657921805653  0.0115390187224596
  0.0070004869225426  0.0031220401962034  0.5046191085477190
  0.4960789551856152  0.4886459964514639 -0.0262588778943209
  0.0129292194869921  0.5038231309201878  0.4971660179681491
  0.7598631278016845  0.0007760241179769  0.4957835246537540
  0.2557220438103345 -0.0023767799450380  0.5176613509251878
  0.7837161900385307  0.4944436428661518  0.5065237569204973
  0.2415527949356130  0.5043120712612607  0.5207570580485161
  0.2579029112418775 -0.0029038161701717  0.0282161184911316
  0.7389092197024133 -0.0067460333207193 -0.0029188853463295
  0.4307073535254981  0.4345686178037295  0.4315951554103648
  0.5032872560380502  0.2420319627217212  0.0072078856588053
  0.4802598620190356  0.7573557169437088 -0.0045727790481371
  0.0092504405280174  0.5038264668565907  0.2492554887113158
  0.0400060863642338  0.5340730212539115  0.7573858342238655
  0.2136916242734520  0.2350908929603418  0.2209777581262587
  0.2703512206466012  0.7336331001687267  0.7381600805760569
  0.2924749648717877  0.2081486819310351  0.6996409940968019
  0.2619727667094073  0.7323614639185581  0.2430525423058905
  0.7265807200511214  0.2285286751151891  0.3167050113752120
  0.8119843091307356  0.6839372874353863  0.6945646813871577
  0.7488663162944819  0.1863354106881881  0.8032225306407913
  0.7595495155977151  0.7692222729433115  0.2158464283123494
  0.9682299273658869  0.2583478649649588  0.2427030857451306
  0.0274822158329787  0.8008705683107734  0.7394400729040971
  0.2621800109197592  0.2471982398420500  0.4764843036269500
  0.2478980856132663  0.7405893487046830  0.4771529849395797
  0.7582269081568498  0.2387952512962834  0.5456951713325212
  0.7387508955627702  0.7618016533774395  0.4820425488096519
  0.7806784624756549  0.5269653518887570  0.2727266075428637
  0.6519864971968913  0.5536042645649895  0.7969631862781918
  0.2405071462068896  0.4880102631953388  0.2689695315405092
  0.2855833791008427  0.4406830851632813  0.7718868047530830
  0.4940269062623515  0.7634121484355910  0.2683217420394524
  0.5121923651642452  0.2709511613115281  0.7634021759330305
  0.2412299228013921  0.9787572020735752  0.2732555768477552
  0.2536007635130187 -0.0175680787821524  0.7860191419885878
  0.2587332232446390  0.2380845631349404  0.9692573875038064
  0.2229752615778688  0.7504274376677399 -0.0106076749917411
  0.7641874061159688  0.9464570067607867  0.7380789319835372
  0.7597158401622234  0.0072697636790734  0.2409753999681351
  0.7312163618388675  0.7524520424395248  0.9614579705655875
  0.7623570978022199  0.2295264678395240  0.0391355365857972
  0.0556892578873329  0.2828681795365258  0.7493174087589364
  0.0126478079195227  0.7581768050972169  0.2339546212177688
  0.4720119915601809  0.2556789024126758  0.2615220229290049
  0.5504578457385528  0.7692651721215750  0.7309719898258220
  0.0072999330122898  0.2590586979840053 -0.0015500580006581
 -0.0207513416886463  0.7404144409449512 -0.0111419112865170
  0.5063289413706791  0.2237677724257260  0.5078356366009734
  0.4859174801172655  0.7587106093753149  0.5095064029084484
  0.4616270839507219  0.5394975290117699  0.2031049445204555
  0.4420233000656262  0.5576082024506942  0.6691725934069116
 -0.0004038014876196  0.0054340650327494  0.2694489294298776
  0.0064029753291553  0.0403532573931629  0.7482001411554239
  0.5879229899795998  0.4234068217327051  0.5877093645150661
  0.5795598536230115  0.5780916528515713  0.4204225425308754
  0.8296328718252628  0.4130414918377551  0.7707179863526092
  0.6393011370123397  0.3886107741948074  0.1873467614880427
 -0.0031512489394698  0.0008442069622481  0.0083012098370300
  0.7587513876072334  0.4922967337125617  0.0052769972462016
  0.2447472286154699  0.4981803251779813  0.0046862360510364
  0.0008057908273946  0.7575295503815199  0.4915468375695679
  0.0091913589698057  0.2502196881776042  0.4979079383850017
  0.5010113215933425  0.0063581843463450  0.2579239739380907
  0.5063768149649550  0.0042618303763447  0.7636720326401185
  0.6316946074055816  0.6254201132095719  0.6157573971655647
  0.6253466040383040  0.3812776255003332  0.3898276013139951
  0.8933006103656529  0.8951412636355650  0.1062230439157412
  0.8950516659705625  0.1021838795354800  0.9101437042613763
  0.0996396477307708  0.9023416511670325  0.9040958584848162
  0.0979013710882011  0.1027370636813200  0.1102616212942788
  0.3792555237039645  0.6233857226321383  0.3736306642481083
  0.3865764939342937  0.3674964829407548  0.6176342079496180
  0.1027872346161969  0.3490940244647405  0.3835102639668278
  0.1012801512863852  0.6633508178811355  0.6031842449230367
  0.1159158208487289  0.1501069235085156  0.5966118853844036
  0.1055169767537275  0.8584325583828352  0.3922493624778683
  0.8951984826276356  0.1480622054988146  0.4079787530991654
  0.8953643628653957  0.8550778875589772  0.5934586431199415
  0.8559051964444575  0.4023616562327383  0.1178941355045603
  0.8512315227097583  0.5884022378854176  0.8892424180194188
  0.1472742083700456  0.5998436722841641  0.1090672839939858
  0.1418504346238460  0.3971389246177102  0.9022914100219166
  0.4003659129788200  0.9013798724115731  0.1558218999780708
  0.4034597240400143  0.1091892038251714  0.8599564365758372
  0.3941988004504114  0.0966188944739078  0.3638348626241639
  0.4010099515818819  0.8998267424770855  0.6634892425072157
  0.3492044078415137  0.3898403692697762  0.0986365147578155
  0.3413982379502052  0.6034261914768843  0.8973950913696671
  0.6176082932784994  0.0975371630064238  0.6615524642354416
  0.6138897069382377  0.9061180611897912  0.3519718730717451
  0.6500195633860073  0.5962456717159380  0.0948480516578561
  0.6646196994958399  0.3735111839140296  0.9096689353909790
  0.9210398993223846  0.3541724188646609  0.6082678038913989
  0.9040891502838843  0.6520263337415133  0.3867492301193462
  0.6007821359731447  0.1184544946200151  0.1592213986605162
  0.6026474680557592  0.9005989803759172  0.8685805551588646
 
  0.00000000E+00  0.00000000E+00  0.00000000E+00
  0.00000000E+00  0.00000000E+00  0.00000000E+00
  0.00000000E+00  0.00000000E+00  0.00000000E+00
  0.00000000E+00  0.00000000E+00  0.00000000E+00
  0.00000000E+00  0.00000000E+00  0.00000000E+00
  0.00000000E+00  0.00000000E+00  0.00000000E+00
  0.00000000E+00  0.00000000E+00  0.00000000E+00
  0.00000000E+00  0.00000000E+00  0.00000000E+00
  0.00000000E+00  0.00000000E+00  0.00000000E+00
  0.00000000E+00  0.00000000E+00  0.00000000E+00
  0.00000000E+00  0.00000000E+00  0.00000000E+00
  0.00000000E+00  0.00000000E+00  0.00000000E+00
  0.00000000E+00  0.00000000E+00  0.00000000E+00
  0.00000000E+00  0.00000000E+00  0.00000000E+00
  0.00000000E+00  0.00000000E+00  0.00000000E+00
  0.00000000E+00  0.00000000E+00  0.00000000E+00
  0.00000000E+00  0.00000000E+00  0.00000000E+00
  0.00000000E+00  0.00000000E+00  0.00000000E+00
  0.00000000E+00  0.00000000E+00  0.00000000E+00
  0.00000000E+00  0.00000000E+00  0.00000000E+00
  0.00000000E+00  0.00000000E+00  0.00000000E+00
  0.00000000E+00  0.00000000E+00  0.00000000E+00
  0.00000000E+00  0.00000000E+00  0.00000000E+00
  0.00000000E+00  0.00000000E+00  0.00000000E+00
  0.00000000E+00  0.00000000E+00  0.00000000E+00
  0.00000000E+00  0.00000000E+00  0.00000000E+00
  0.00000000E+00  0.00000000E+00  0.00000000E+00
  0.00000000E+00  0.00000000E+00  0.00000000E+00
  0.00000000E+00  0.00000000E+00  0.00000000E+00
  0.00000000E+00  0.00000000E+00  0.00000000E+00
  0.00000000E+00  0.00000000E+00  0.00000000E+00
  0.00000000E+00  0.00000000E+00  0.00000000E+00
  0.00000000E+00  0.00000000E+00  0.00000000E+00
  0.00000000E+00  0.00000000E+00  0.00000000E+00
  0.00000000E+00  0.00000000E+00  0.00000000E+00
  0.00000000E+00  0.00000000E+00  0.00000000E+00
  0.00000000E+00  0.00000000E+00  0.00000000E+00
  0.00000000E+00  0.00000000E+00  0.00000000E+00
  0.00000000E+00  0.00000000E+00  0.00000000E+00
  0.00000000E+00  0.00000000E+00  0.00000000E+00
  0.00000000E+00  0.00000000E+00  0.00000000E+00
  0.00000000E+00  0.00000000E+00  0.00000000E+00
  0.00000000E+00  0.00000000E+00  0.00000000E+00
  0.00000000E+00  0.00000000E+00  0.00000000E+00
  0.00000000E+00  0.00000000E+00  0.00000000E+00
  0.00000000E+00  0.00000000E+00  0.00000000E+00
  0.00000000E+00  0.00000000E+00  0.00000000E+00
  0.00000000E+00  0.00000000E+00  0.00000000E+00
  0.00000000E+00  0.00000000E+00  0.00000000E+00
  0.00000000E+00  0.00000000E+00  0.00000000E+00
  0.00000000E+00  0.00000000E+00  0.00000000E+00
  0.00000000E+00  0.00000000E+00  0.00000000E+00
  0.00000000E+00  0.00000000E+00  0.00000000E+00
  0.00000000E+00  0.00000000E+00  0.00000000E+00
  0.00000000E+00  0.00000000E+00  0.00000000E+00
  0.00000000E+00  0.00000000E+00  0.00000000E+00
  0.00000000E+00  0.00000000E+00  0.00000000E+00
  0.00000000E+00  0.00000000E+00  0.00000000E+00
  0.00000000E+00  0.00000000E+00  0.00000000E+00
  0.00000000E+00  0.00000000E+00  0.00000000E+00
  0.00000000E+00  0.00000000E+00  0.00000000E+00
  0.00000000E+00  0.00000000E+00  0.00000000E+00
  0.00000000E+00  0.00000000E+00  0.00000000E+00
  0.00000000E+00  0.00000000E+00  0.00000000E+00
  0.00000000E+00  0.00000000E+00  0.00000000E+00
  0.00000000E+00  0.00000000E+00  0.00000000E+00
  0.00000000E+00  0.00000000E+00  0.00000000E+00
  0.00000000E+00  0.00000000E+00  0.00000000E+00
  0.00000000E+00  0.00000000E+00  0.00000000E+00
  0.00000000E+00  0.00000000E+00  0.00000000E+00
  0.00000000E+00  0.00000000E+00  0.00000000E+00
  0.00000000E+00  0.00000000E+00  0.00000000E+00
  0.00000000E+00  0.00000000E+00  0.00000000E+00
  0.00000000E+00  0.00000000E+00  0.00000000E+00
  0.00000000E+00  0.00000000E+00  0.00000000E+00
  0.00000000E+00  0.00000000E+00  0.00000000E+00
  0.00000000E+00  0.00000000E+00  0.00000000E+00
  0.00000000E+00  0.00000000E+00  0.00000000E+00
  0.00000000E+00  0.00000000E+00  0.00000000E+00
  0.00000000E+00  0.00000000E+00  0.00000000E+00
  0.00000000E+00  0.00000000E+00  0.00000000E+00
  0.00000000E+00  0.00000000E+00  0.00000000E+00
  0.00000000E+00  0.00000000E+00  0.00000000E+00
  0.00000000E+00  0.00000000E+00  0.00000000E+00
  0.00000000E+00  0.00000000E+00  0.00000000E+00
  0.00000000E+00  0.00000000E+00  0.00000000E+00
  0.00000000E+00  0.00000000E+00  0.00000000E+00
  0.00000000E+00  0.00000000E+00  0.00000000E+00
  0.00000000E+00  0.00000000E+00  0.00000000E+00
  0.00000000E+00  0.00000000E+00  0.00000000E+00
  0.00000000E+00  0.00000000E+00  0.00000000E+00
  0.00000000E+00  0.00000000E+00  0.00000000E+00
  0.00000000E+00  0.00000000E+00  0.00000000E+00
  0.00000000E+00  0.00000000E+00  0.00000000E+00
  0.00000000E+00  0.00000000E+00  0.00000000E+00
  0.00000000E+00  0.00000000E+00  0.00000000E+00
  0.00000000E+00  0.00000000E+00  0.00000000E+00
  0.00000000E+00  0.00000000E+00  0.00000000E+00
  0.00000000E+00  0.00000000E+00  0.00000000E+00
  0.00000000E+00  0.00000000E+00  0.00000000E+00
