Li71 P24 N1 O94                         
   1.00000000000000     
    14.6914633073485792   -0.0011916767337575   -0.0016259677332039
    -0.0008815985858732   10.5811104890987497    0.0046459697273663
    -0.0013494883964900    0.0054052668566236   12.3015445076617791
   Li   P    N    O 
    71    24     1    94
Direct
  0.1687278512697677  0.4226321175087784  0.0032143288743789
  0.1697602321104414  0.4222823713318102  0.4977903041539058
  0.1611524236840263  0.8958672381051586  0.0035223328057580
  0.1702749036076202  0.9223869071032043  0.4977286925479786
  0.5031487590882258  0.4235495698341944  0.0009458877008652
  0.5031679655651654  0.4227658808963150  0.4994485261985840
  0.5084153005577569  0.9194697346949944  0.0005659724726666
  0.5028743051553348  0.9228166745415961  0.4993730689823124
  0.8374889361014572  0.4237473865065831  0.0004460658722934
  0.8370784195855219  0.4224454554053829  0.4995658235567681
  0.8347521032284884  0.9195235035743115  0.0000427643624978
  0.8369614163011952  0.9227663137683637  0.4995557158076128
  0.0071506267903885  0.0762939084652907  0.2523472075475547
  0.0015220344527959  0.0756644449906447  0.7484155026773586
  0.0035168217094281  0.5803494040448404  0.2507965646091425
  0.0028164884186099  0.5767011835136883  0.7501325012012450
  0.3323518572460448  0.0778875070865797  0.2509151454159047
  0.3364643052291710  0.0760999648742884  0.7463364626564702
  0.3356216125215418  0.5775049734222027  0.2513263986725000
  0.3369232975176578  0.5774883422405348  0.7493334238295224
  0.6718218361984086  0.0769982137968493  0.2505805290427175
  0.6700736060833516  0.0770821557768067  0.7490431490468489
  0.6701137571994560  0.5779200067737201  0.2504270381411385
  0.6701292390848346  0.5771353824592025  0.7498056027650435
  0.1692381139605960  0.1633807687371304  0.6238574297799698
  0.1698706115544765  0.6610203478785589  0.1295688329535636
  0.1695346023287824  0.6635569181106382  0.6263443804993929
  0.5072112133582393  0.1645588547697808  0.1288649158104314
  0.5027589298032188  0.1633985904588145  0.6254057552962187
  0.5030259313776410  0.6628848337767425  0.1269350370943582
  0.5032258378937784  0.6630361874231638  0.6260280645302344
  0.8415229746301117  0.1635413797647321  0.1261507295171317
  0.8362942681953683  0.1633792114981376  0.6256738588024222
  0.8368464474841507  0.6638780487073562  0.1268649038419815
  0.8361527463682927  0.6630206624171593  0.6265516767494209
  0.0053363799252522  0.3429232841125837  0.1259270561432660
  0.0030167277849866  0.3360722455396023  0.6237241747033584
  0.0019226462704149  0.8395000231543771  0.1250475568204350
  0.0028968789855367  0.8358681109847890  0.6229608087221328
  0.3322379851813643  0.3387115685115764  0.1249678450017021
  0.3362657977153131  0.3366558297837164  0.6229550659121411
  0.3357064406572527  0.8343505015380616  0.1267206508150978
  0.3371159121165123  0.8363005756063454  0.6228002439332451
  0.6711826463213776  0.3373331874019594  0.1241054457011142
  0.6698773327196952  0.3367283459193208  0.6235408964094565
  0.6699430881768377  0.8360356443629152  0.1245632748412198
  0.6695691594894713  0.8363990573333058  0.6230282902158932
  0.0041532022064502  0.3371808637897268  0.3743894644838733
  0.0026045012466708  0.3355987009528627  0.8792483295074701
  0.0031723968630150  0.8363059787502604  0.3768732954398923
  0.0009967491440983  0.8359976552874921  0.8743315030973596
  0.3356118455281579  0.3372364035836879  0.3756787761533615
  0.3360012596695531  0.3407872266442476  0.8764769114291636
  0.3357285113462110  0.8361105177275147  0.3761456542010392
  0.3362110563698089  0.8340841006863285  0.8747549764101572
  0.6698819792912057  0.3369402950214531  0.3766342104811534
  0.6698437748505066  0.3375805938345640  0.8767974631531151
  0.6696496047815902  0.8364488716056113  0.3768042137811505
  0.6699298631340230  0.8361071684336326  0.8756995470788743
  0.1699149327352926  0.1646247774135559  0.3662339811909590
  0.1636575457868186  0.1708357210514325  0.8616460655589031
  0.1687344352381699  0.6625230205063880  0.3757022333973204
  0.1691696720764480  0.6614200469693070  0.8728116888121247
  0.5028352787513096  0.1634075297253221  0.3736213076478099
  0.5071712104588230  0.1643185296466942  0.8717376526081818
  0.5030086028146856  0.6631243331637974  0.3738295213703705
  0.5031219950633692  0.6626747139307639  0.8735305051557580
  0.8373547399821755  0.1638760795397043  0.3735212444724086
  0.8345675227144577  0.1637423868109361  0.8715655797042480
  0.8365756181909416  0.6633395664749719  0.3742286181672543
  0.8359709428363984  0.6629765767370476  0.8732280272959467
  0.1681293906421266  0.4163904898191815  0.2492213274797162
  0.1670177170952215  0.4124455575710895  0.7499351683607473
  0.1682634343954124  0.9100284673569946  0.2515796795863283
  0.1671725960707521  0.9122328539048864  0.7511496010396979
  0.5007446350168511  0.4123640215511844  0.2500962301738899
  0.5004479056375442  0.4121873165105904  0.7498767648505299
  0.5007553605185107  0.9125056583575110  0.2502223388221952
  0.5004903173235647  0.9120648030661906  0.7499273722440871
  0.8334839992211368  0.4134661986759559  0.2500337633178552
  0.8337781957205397  0.4118243066094738  0.7501871489437673
  0.8334210748930452  0.9121627628141350  0.2506230993774113
  0.8329528374026670  0.9118379936588380  0.7493635230472457
 -0.0000800355718089  0.0854011881886449 -0.0025491129175934
  0.0008774957468674  0.0878204183635004  0.5006604402512511
  0.0004071378119692  0.5902680065352641 -0.0007699608849944
  0.0000974925582159  0.5874682776562445  0.5009281345703807
  0.3387728037857388  0.0870182220082462  0.0002728282113995
  0.3334146278781078  0.0880497322800674  0.4992589703680760
  0.3337556821966361  0.5883481977346365 -0.0000492583232399
  0.3341850539004460  0.5876346834650360  0.5006349738238774
  0.6667956460230259  0.0878232539481338 -0.0000024212099544
  0.6671621763669050  0.0878613642825071  0.4999958152723888
  0.6672220039254869  0.5881273635422366 -0.0000504396519048
  0.6671871200420990  0.5877898510016609  0.5002591887051816
  0.0217264408279967  0.1604883260174404  0.1085530776550053
  0.0364149482018211  0.1576637204909208  0.3976398483613824
  0.0372657733737285  0.1524740313804031  0.8922317478356436
  0.0349283250497247  0.6573584450488756  0.3973931227115437
  0.0355599784763635  0.6589597168422501  0.8946748456911929
  0.3693895886943246  0.1575412973934762  0.3959316698376372
  0.3672002878420816  0.1573283557038950  0.8942767874175563
  0.3697777125571793  0.6568970306254570  0.3969645266378399
  0.3693752255093482  0.6570151370954532  0.8955843159127452
  0.7026518237960349  0.1572038765859497  0.3962937931773203
  0.7009632280919066  0.1566604681981303  0.8953164603343959
  0.7024360182637155  0.6571885714649580  0.3964389622448049
  0.7021741997497526  0.6570944964647968  0.8956430891551217
  0.2039719766785354  0.0464251765497951  0.2539957698166583
  0.2014190650589879  0.0523283710703697  0.7522487641466015
  0.2015280226846314  0.5571292690753487  0.2542911940006765
  0.2010229298476690  0.5519702406392728  0.7499888480523205
  0.5353942721395130  0.0519403814055321  0.2500831611488958
  0.5340111174483724  0.0520460482159665  0.7499808631414522
  0.5345398953017654  0.5521813624194172  0.2501382734070408
  0.5343028985781797  0.5518765828803588  0.7499912753725658
  0.8662894762884142  0.0519202949895170  0.2512963847417913
  0.8665285181858098  0.0516676597617191  0.7492125347333142
  0.8672810635191615  0.5533653359799744  0.2504727427003683
  0.8674546111403320  0.5516472927075542  0.7502744173296982
  0.0619927797228654  0.4157837437572176  0.2512242351237786
  0.0611499273305043  0.4086841908480187  0.7509625639308967
  0.0621829791946771  0.9059796366341639  0.2511198423554689
  0.0614619170094194  0.9088898131322216  0.7496364034269916
  0.3948826861096577  0.4094638483837093  0.2497097926255649
  0.3944099179043233  0.4093130219632513  0.7497885831004023
  0.3948366347819410  0.9105932602318864  0.2497320093038019
  0.3944152792467096  0.9094691702901994  0.7503605427328210
  0.7273558313929965  0.4107243081304042  0.2509325781963737
  0.7277164068692491  0.4090789383737752  0.7501372898877849
  0.7273156604584126  0.9082291244672246  0.2504294396259644
  0.7269416165430805  0.9090907559396683  0.7493163361214802
  0.2275426537306766  0.0909705368755514  0.4990709444233593
  0.2278628882835095  0.5927586051908339 -0.0003262482699088
  0.2282851489223726  0.5902436400158870  0.5016511810285802
  0.5603607097456592  0.0908583710794205  0.0004047400703735
  0.5610879765484135  0.0904200604969434  0.4999115948066792
  0.5611504065813938  0.5910540609824650  0.0001430607999202
  0.5611509303440866  0.5904518498243867  0.5001338697317446
  0.8932855446766844  0.0854567353775533 -0.0062393941285663
  0.8947892920765534  0.0904081890956585  0.5005422565291708
  0.8943364572877716  0.5928911458793891 -0.0005313928701937
  0.8940725812341874  0.5902150343097481  0.5012204580215947
  0.2041033551604095  0.3553741897132585  0.1440039322843324
  0.2022706603460548  0.3427237197420013  0.6464456798572641
  0.2030229090611911  0.8409774186956770  0.1461060038451915
  0.2038128029070610  0.8434711116713706  0.6480876483856649
  0.5365534691426127  0.3434642735030360  0.1461311715668889
  0.5357378773058632  0.3427786461739098  0.6462125174617989
  0.5359429306998615  0.8430284889182978  0.1462242592082776
  0.5354541849978131  0.8431674789622837  0.6459557250487241
  0.8676578920361446  0.3457934280567476  0.1452257413087837
  0.8690158752402596  0.3427658430885863  0.6462903577942645
  0.8685450411175296  0.8437230728171196  0.1461744705249605
  0.8686593691990159  0.8427619752005703  0.6457137543369578
  0.0356755324529597  0.1560880653854164  0.6054775072223467
  0.0358615169200899  0.6599633152553125  0.1027386651419839
  0.0355754335843508  0.6564763021682494  0.6050648467125099
  0.3698745454803254  0.1576350330537049  0.1039171043129747
  0.3687218931277557  0.1566588309396936  0.6038029029870059
  0.3695955905636908  0.6570228541344753  0.1037829050388401
  0.3697617453880341  0.6566707430285388  0.6046875679126631
  0.7028221301184946  0.1566419656457565  0.1034106492576137
  0.7021635618241676  0.1568772853665167  0.6041749130702346
  0.7026427166121849  0.6572722446667641  0.1037205079740191
  0.7021786747726063  0.6568921171511382  0.6043975204960932
  0.0341114449205635  0.4509057308634244 -0.0009740303466610
  0.0339971663913611  0.4478017969776918  0.5008238069236263
  0.0356410655379329  0.9454620948117503 -0.0038078044473244
  0.0345036920500709  0.9478271471811379  0.5006090557302997
  0.3675729069970693  0.4485390473676591 -0.0003382643462686
  0.3680411170867080  0.4478387858337682  0.5004729089106655
  0.3679766872073017  0.9459263064735836 -0.0001237984025066
  0.3673756292004758  0.9482130927043128  0.4997527855926588
  0.7009726141381302  0.4483982124402814 -0.0001264561927486
  0.7010146924575921  0.4480798552550292  0.5003980732527097
  0.6993206137713303  0.9474573724753852 -0.0002698838394256
  0.7009227494277719  0.9480725098222149  0.5001171210679485
  0.2031264089855158  0.3450657584077017  0.3528722534214879
  0.2027454132900840  0.3433153499894522  0.8543204372801046
  0.2027143138384893  0.8371690538559154  0.3547496249029993
  0.2022425962612618  0.8443015629196627  0.8563754548657707
  0.5359851717965247  0.3429881396504849  0.3540499072373360
  0.5354983622173268  0.3432143755268341  0.8542542298449257
  0.5356599238679774  0.8430324773297018  0.3542158023816709
  0.5358013360680617  0.8430184901222335  0.8540158257867524
  0.8691686209372871  0.3437234812474687  0.3535715381133733
  0.8689137568930997  0.3426117588184528  0.8543011167515510
  0.8689374042900160  0.8425136603824173  0.3543066735243327
  0.8678793003225868  0.8425715402230159  0.8534552590081501
 
  0.00000000E+00  0.00000000E+00  0.00000000E+00
  0.00000000E+00  0.00000000E+00  0.00000000E+00
  0.00000000E+00  0.00000000E+00  0.00000000E+00
  0.00000000E+00  0.00000000E+00  0.00000000E+00
  0.00000000E+00  0.00000000E+00  0.00000000E+00
  0.00000000E+00  0.00000000E+00  0.00000000E+00
  0.00000000E+00  0.00000000E+00  0.00000000E+00
  0.00000000E+00  0.00000000E+00  0.00000000E+00
  0.00000000E+00  0.00000000E+00  0.00000000E+00
  0.00000000E+00  0.00000000E+00  0.00000000E+00
  0.00000000E+00  0.00000000E+00  0.00000000E+00
  0.00000000E+00  0.00000000E+00  0.00000000E+00
  0.00000000E+00  0.00000000E+00  0.00000000E+00
  0.00000000E+00  0.00000000E+00  0.00000000E+00
  0.00000000E+00  0.00000000E+00  0.00000000E+00
  0.00000000E+00  0.00000000E+00  0.00000000E+00
  0.00000000E+00  0.00000000E+00  0.00000000E+00
  0.00000000E+00  0.00000000E+00  0.00000000E+00
  0.00000000E+00  0.00000000E+00  0.00000000E+00
  0.00000000E+00  0.00000000E+00  0.00000000E+00
  0.00000000E+00  0.00000000E+00  0.00000000E+00
  0.00000000E+00  0.00000000E+00  0.00000000E+00
  0.00000000E+00  0.00000000E+00  0.00000000E+00
  0.00000000E+00  0.00000000E+00  0.00000000E+00
  0.00000000E+00  0.00000000E+00  0.00000000E+00
  0.00000000E+00  0.00000000E+00  0.00000000E+00
  0.00000000E+00  0.00000000E+00  0.00000000E+00
  0.00000000E+00  0.00000000E+00  0.00000000E+00
  0.00000000E+00  0.00000000E+00  0.00000000E+00
  0.00000000E+00  0.00000000E+00  0.00000000E+00
  0.00000000E+00  0.00000000E+00  0.00000000E+00
  0.00000000E+00  0.00000000E+00  0.00000000E+00
  0.00000000E+00  0.00000000E+00  0.00000000E+00
  0.00000000E+00  0.00000000E+00  0.00000000E+00
  0.00000000E+00  0.00000000E+00  0.00000000E+00
  0.00000000E+00  0.00000000E+00  0.00000000E+00
  0.00000000E+00  0.00000000E+00  0.00000000E+00
  0.00000000E+00  0.00000000E+00  0.00000000E+00
  0.00000000E+00  0.00000000E+00  0.00000000E+00
  0.00000000E+00  0.00000000E+00  0.00000000E+00
  0.00000000E+00  0.00000000E+00  0.00000000E+00
  0.00000000E+00  0.00000000E+00  0.00000000E+00
  0.00000000E+00  0.00000000E+00  0.00000000E+00
  0.00000000E+00  0.00000000E+00  0.00000000E+00
  0.00000000E+00  0.00000000E+00  0.00000000E+00
  0.00000000E+00  0.00000000E+00  0.00000000E+00
  0.00000000E+00  0.00000000E+00  0.00000000E+00
  0.00000000E+00  0.00000000E+00  0.00000000E+00
  0.00000000E+00  0.00000000E+00  0.00000000E+00
  0.00000000E+00  0.00000000E+00  0.00000000E+00
  0.00000000E+00  0.00000000E+00  0.00000000E+00
  0.00000000E+00  0.00000000E+00  0.00000000E+00
  0.00000000E+00  0.00000000E+00  0.00000000E+00
  0.00000000E+00  0.00000000E+00  0.00000000E+00
  0.00000000E+00  0.00000000E+00  0.00000000E+00
  0.00000000E+00  0.00000000E+00  0.00000000E+00
  0.00000000E+00  0.00000000E+00  0.00000000E+00
  0.00000000E+00  0.00000000E+00  0.00000000E+00
  0.00000000E+00  0.00000000E+00  0.00000000E+00
  0.00000000E+00  0.00000000E+00  0.00000000E+00
  0.00000000E+00  0.00000000E+00  0.00000000E+00
  0.00000000E+00  0.00000000E+00  0.00000000E+00
  0.00000000E+00  0.00000000E+00  0.00000000E+00
  0.00000000E+00  0.00000000E+00  0.00000000E+00
  0.00000000E+00  0.00000000E+00  0.00000000E+00
  0.00000000E+00  0.00000000E+00  0.00000000E+00
  0.00000000E+00  0.00000000E+00  0.00000000E+00
  0.00000000E+00  0.00000000E+00  0.00000000E+00
  0.00000000E+00  0.00000000E+00  0.00000000E+00
  0.00000000E+00  0.00000000E+00  0.00000000E+00
  0.00000000E+00  0.00000000E+00  0.00000000E+00
  0.00000000E+00  0.00000000E+00  0.00000000E+00
  0.00000000E+00  0.00000000E+00  0.00000000E+00
  0.00000000E+00  0.00000000E+00  0.00000000E+00
  0.00000000E+00  0.00000000E+00  0.00000000E+00
  0.00000000E+00  0.00000000E+00  0.00000000E+00
  0.00000000E+00  0.00000000E+00  0.00000000E+00
  0.00000000E+00  0.00000000E+00  0.00000000E+00
  0.00000000E+00  0.00000000E+00  0.00000000E+00
  0.00000000E+00  0.00000000E+00  0.00000000E+00
  0.00000000E+00  0.00000000E+00  0.00000000E+00
  0.00000000E+00  0.00000000E+00  0.00000000E+00
  0.00000000E+00  0.00000000E+00  0.00000000E+00
  0.00000000E+00  0.00000000E+00  0.00000000E+00
  0.00000000E+00  0.00000000E+00  0.00000000E+00
  0.00000000E+00  0.00000000E+00  0.00000000E+00
  0.00000000E+00  0.00000000E+00  0.00000000E+00
  0.00000000E+00  0.00000000E+00  0.00000000E+00
  0.00000000E+00  0.00000000E+00  0.00000000E+00
  0.00000000E+00  0.00000000E+00  0.00000000E+00
  0.00000000E+00  0.00000000E+00  0.00000000E+00
  0.00000000E+00  0.00000000E+00  0.00000000E+00
  0.00000000E+00  0.00000000E+00  0.00000000E+00
  0.00000000E+00  0.00000000E+00  0.00000000E+00
  0.00000000E+00  0.00000000E+00  0.00000000E+00
  0.00000000E+00  0.00000000E+00  0.00000000E+00
  0.00000000E+00  0.00000000E+00  0.00000000E+00
  0.00000000E+00  0.00000000E+00  0.00000000E+00
  0.00000000E+00  0.00000000E+00  0.00000000E+00
  0.00000000E+00  0.00000000E+00  0.00000000E+00
  0.00000000E+00  0.00000000E+00  0.00000000E+00
  0.00000000E+00  0.00000000E+00  0.00000000E+00
  0.00000000E+00  0.00000000E+00  0.00000000E+00
  0.00000000E+00  0.00000000E+00  0.00000000E+00
  0.00000000E+00  0.00000000E+00  0.00000000E+00
  0.00000000E+00  0.00000000E+00  0.00000000E+00
  0.00000000E+00  0.00000000E+00  0.00000000E+00
  0.00000000E+00  0.00000000E+00  0.00000000E+00
  0.00000000E+00  0.00000000E+00  0.00000000E+00
  0.00000000E+00  0.00000000E+00  0.00000000E+00
  0.00000000E+00  0.00000000E+00  0.00000000E+00
  0.00000000E+00  0.00000000E+00  0.00000000E+00
  0.00000000E+00  0.00000000E+00  0.00000000E+00
  0.00000000E+00  0.00000000E+00  0.00000000E+00
  0.00000000E+00  0.00000000E+00  0.00000000E+00
  0.00000000E+00  0.00000000E+00  0.00000000E+00
  0.00000000E+00  0.00000000E+00  0.00000000E+00
  0.00000000E+00  0.00000000E+00  0.00000000E+00
  0.00000000E+00  0.00000000E+00  0.00000000E+00
  0.00000000E+00  0.00000000E+00  0.00000000E+00
  0.00000000E+00  0.00000000E+00  0.00000000E+00
  0.00000000E+00  0.00000000E+00  0.00000000E+00
  0.00000000E+00  0.00000000E+00  0.00000000E+00
  0.00000000E+00  0.00000000E+00  0.00000000E+00
  0.00000000E+00  0.00000000E+00  0.00000000E+00
  0.00000000E+00  0.00000000E+00  0.00000000E+00
  0.00000000E+00  0.00000000E+00  0.00000000E+00
  0.00000000E+00  0.00000000E+00  0.00000000E+00
  0.00000000E+00  0.00000000E+00  0.00000000E+00
  0.00000000E+00  0.00000000E+00  0.00000000E+00
  0.00000000E+00  0.00000000E+00  0.00000000E+00
  0.00000000E+00  0.00000000E+00  0.00000000E+00
  0.00000000E+00  0.00000000E+00  0.00000000E+00
  0.00000000E+00  0.00000000E+00  0.00000000E+00
  0.00000000E+00  0.00000000E+00  0.00000000E+00
  0.00000000E+00  0.00000000E+00  0.00000000E+00
  0.00000000E+00  0.00000000E+00  0.00000000E+00
  0.00000000E+00  0.00000000E+00  0.00000000E+00
  0.00000000E+00  0.00000000E+00  0.00000000E+00
  0.00000000E+00  0.00000000E+00  0.00000000E+00
  0.00000000E+00  0.00000000E+00  0.00000000E+00
  0.00000000E+00  0.00000000E+00  0.00000000E+00
  0.00000000E+00  0.00000000E+00  0.00000000E+00
  0.00000000E+00  0.00000000E+00  0.00000000E+00
  0.00000000E+00  0.00000000E+00  0.00000000E+00
  0.00000000E+00  0.00000000E+00  0.00000000E+00
  0.00000000E+00  0.00000000E+00  0.00000000E+00
  0.00000000E+00  0.00000000E+00  0.00000000E+00
  0.00000000E+00  0.00000000E+00  0.00000000E+00
  0.00000000E+00  0.00000000E+00  0.00000000E+00
  0.00000000E+00  0.00000000E+00  0.00000000E+00
  0.00000000E+00  0.00000000E+00  0.00000000E+00
  0.00000000E+00  0.00000000E+00  0.00000000E+00
  0.00000000E+00  0.00000000E+00  0.00000000E+00
  0.00000000E+00  0.00000000E+00  0.00000000E+00
  0.00000000E+00  0.00000000E+00  0.00000000E+00
  0.00000000E+00  0.00000000E+00  0.00000000E+00
  0.00000000E+00  0.00000000E+00  0.00000000E+00
  0.00000000E+00  0.00000000E+00  0.00000000E+00
  0.00000000E+00  0.00000000E+00  0.00000000E+00
  0.00000000E+00  0.00000000E+00  0.00000000E+00
  0.00000000E+00  0.00000000E+00  0.00000000E+00
  0.00000000E+00  0.00000000E+00  0.00000000E+00
  0.00000000E+00  0.00000000E+00  0.00000000E+00
  0.00000000E+00  0.00000000E+00  0.00000000E+00
  0.00000000E+00  0.00000000E+00  0.00000000E+00
  0.00000000E+00  0.00000000E+00  0.00000000E+00
  0.00000000E+00  0.00000000E+00  0.00000000E+00
  0.00000000E+00  0.00000000E+00  0.00000000E+00
  0.00000000E+00  0.00000000E+00  0.00000000E+00
  0.00000000E+00  0.00000000E+00  0.00000000E+00
  0.00000000E+00  0.00000000E+00  0.00000000E+00
  0.00000000E+00  0.00000000E+00  0.00000000E+00
  0.00000000E+00  0.00000000E+00  0.00000000E+00
  0.00000000E+00  0.00000000E+00  0.00000000E+00
  0.00000000E+00  0.00000000E+00  0.00000000E+00
  0.00000000E+00  0.00000000E+00  0.00000000E+00
  0.00000000E+00  0.00000000E+00  0.00000000E+00
  0.00000000E+00  0.00000000E+00  0.00000000E+00
  0.00000000E+00  0.00000000E+00  0.00000000E+00
  0.00000000E+00  0.00000000E+00  0.00000000E+00
  0.00000000E+00  0.00000000E+00  0.00000000E+00
  0.00000000E+00  0.00000000E+00  0.00000000E+00
  0.00000000E+00  0.00000000E+00  0.00000000E+00
  0.00000000E+00  0.00000000E+00  0.00000000E+00
  0.00000000E+00  0.00000000E+00  0.00000000E+00
  0.00000000E+00  0.00000000E+00  0.00000000E+00
  0.00000000E+00  0.00000000E+00  0.00000000E+00
  0.00000000E+00  0.00000000E+00  0.00000000E+00
  0.00000000E+00  0.00000000E+00  0.00000000E+00
