Li61 P7 N32                             
   1.00000000000000     
    -0.0036335846459005    9.5598628207281990   -0.0204538670432077
    -0.0195666257242940   -0.0212380511442217    9.5879836663043214
     9.5762218529791223   -0.0029911764830933   -0.0202877611869993
   Li   P    N 
    61     7    32
Direct
  0.5092025994213785 -0.0076516984004205  0.4938033618857325
 -0.0070859618655324  0.5131703105374708  0.0110892973152012
  0.4952135006733805 -0.0035362077686549 -0.0053285674353642
  0.0070092120491417 -0.0052673110986037  0.5016625488380869
  0.4896765214708458  0.5015683821570106 -0.0062870398844473
 -0.0028683532731795  0.4955692875992043  0.5083906794525774
  0.7594184930173081 -0.0051558274102642  0.4834947423235972
  0.2562152746517884 -0.0118117049732276  0.4992010990108313
  0.7755455457598818  0.4947329622502947  0.5015612654817214
  0.2223187359566477  0.4895357036527714  0.5001374805024645
  0.2594569659951573 -0.0014194599013836  0.0016209886387237
  0.7356596166799652 -0.0006030032776869 -0.0149240025188989
  0.4223755820811546  0.5744233749404670  0.5737133625097028
  0.4946094904873914  0.2477727114224390  0.0117574016529791
  0.4755629827564790  0.7528415645608062 -0.0172701351566708
  0.0072778655570819  0.4836666224997642  0.2567940799262850
  0.0071347308648818  0.5272088417704581  0.7559423651571532
  0.2695063242137256  0.2243566413499758  0.2054106834945129
  0.2633598413781416  0.7373091555179466  0.7471326090349136
  0.2858165754550465  0.2237315894492380  0.7029719538587733
  0.2669575294108962  0.7357131941519306  0.2538909052523459
  0.7832588258975357  0.2945527523394757  0.2832816418434078
  0.7822815903510060  0.7017162564526339  0.7092397012879310
  0.7619305063297915  0.1931516237755126  0.7606592905586146
  0.7590479398765867  0.7819030876681856  0.2092205362556439
  0.0202513064124941  0.2157082550688086  0.2619937586475625
  0.0189562192523012  0.7893346924089297  0.7409226657116044
  0.2488946448201684  0.2367326665537361  0.4738120318171373
  0.2473904357758563  0.7372652666195030  0.4886487407695834
  0.7406526071175944  0.2394215326693286  0.5107362379441037
  0.7374598990532147  0.7518387156563476  0.4782954222054076
  0.7646567206932228  0.5271603992203233  0.2563421767432850
  0.7327708367562559  0.4902567292443279  0.7474055095575265
  0.2619703504685331  0.5025474781896011  0.2486821903712634
  0.2529762591090859  0.4689208219925977  0.7490512718650925
  0.5041427494434509  0.7288642377597865  0.2302246835450945
  0.5143213710877916  0.2576332259568164  0.7656920870279091
  0.2374637092386437  0.9795282987041841  0.2499856332348637
  0.2345915624853306 -0.0054855987430422  0.7539756850180672
  0.2531819933294127  0.2429844281266036  0.9577131029869989
  0.2273648120037523  0.7592620293097020  0.0040373616370543
  0.7482117923506445  0.9466779987995748  0.7192669654139363
  0.7578848241186938  0.0252098905651587  0.2391745986270513
  0.7193526114800817  0.7526443383575536  0.9542973445283457
  0.7377325870887810  0.2348899532198586  0.0381682915764615
  0.0501645719351105  0.2622347676598759  0.7601385764160508
  0.0186966263039944  0.7307895899432728  0.2333609616721815
  0.5420754252293692  0.2293015826239797  0.2785436631757058
  0.5330201917425121  0.7535111964393733  0.7215791640092957
  0.0110974177414125  0.2654893639074931  0.0271300311633665
 -0.0252865960487403  0.7506075578426920 -0.0137220727674031
  0.4890795259142696  0.2132399750232917  0.5164729442066288
  0.4882643843462914  0.7725513944258732  0.4771668918409471
  0.5793947386727438  0.5733479648462461  0.4148810400335910
  0.4920832602654407  0.5036209959269016  0.7720007149987151
 -0.0038115812245173 -0.0210646108579269  0.2635789020236058
 -0.0079444390758815  0.0262235496707599  0.7439181809488009
  0.4219979276445514  0.4106097141211157  0.4139601921442477
  0.5797993802070510  0.4143736756898381  0.5755034527543448
  0.8796403912638463  0.3526705629117547  0.8668175511721100
  0.5149034330510306  0.4742031558295922  0.2146115189636799
 -0.0020845636685802  0.0078755626963647  0.0031712845827209
  0.7433970941094353  0.5006853129362162  0.0041376483690218
  0.2378064210897794  0.4995738024558405 -0.0009839055340368
 -0.0027689181680815  0.7473652810673455  0.4921043318342702
 -0.0011576858007187  0.2428780590928523  0.5095803839888464
  0.4980389473386110 -0.0093912524896487  0.2396937412036396
  0.4969263835321833 -0.0022755498904132  0.7486622443082086
  0.6247256559470648  0.6109082532604493  0.6138407121675767
  0.6283164716398046  0.3783019914547223  0.3813316662397109
  0.8914837548238516  0.9046077328428159  0.0989106136114813
  0.9003384658643657  0.1211216876275421  0.9072461779641828
  0.0951003334880505  0.9064115693390843  0.8948117793539200
  0.1070731575210285  0.0989211522501176  0.1102183937138401
  0.3803874851463514  0.6135515340491440  0.3772675149221316
  0.3837023548972698  0.3738604709086494  0.6160462559061680
  0.0920478890427754  0.3468125879548787  0.4003961523256098
  0.0970253024963174  0.6524084578992174  0.6057223121096239
  0.1117334556347079  0.1412603975965287  0.6025480010315331
  0.1043752250123809  0.8468436745514996  0.3918978124516028
  0.8945186082362806  0.1419399822476716  0.4061551108451813
  0.8901946775179214  0.8496315616765681  0.5923535092351384
  0.8493281290402593  0.4043035422955801  0.1068992041272927
  0.8453388903387870  0.5923642258671324  0.8902393926300252
  0.1448480907245865  0.6016522034050750  0.1096428392223154
  0.1280133903876934  0.4010002555403477  0.8985947186957888
  0.3936815732036566  0.8870000699162994  0.1409768927986121
  0.3943926310970252  0.1030527414707666  0.8471110152979127
  0.3942101901814230  0.0920925133094456  0.3461728329285002
  0.3929801090614755  0.8949727457227155  0.6454026686264300
  0.3425175931202898  0.3887694245001052  0.0890457200768948
  0.3365846101883531  0.6037166057403948  0.8946926457717812
  0.6088288039428638  0.0945242640054931  0.6485066499234444
  0.6106345223106137  0.8930947686301295  0.3381957903986768
  0.6427949019130808  0.6102092695118105  0.0957541719151881
  0.6481240380860613  0.3845557105344374  0.9051999625014682
  0.9013339573814224  0.3393905550840532  0.6245645982333421
  0.8997908098091399  0.6426344721781356  0.3884330378476530
  0.5960426306462178  0.0978598134597566  0.1379048720414915
  0.5970907276159547  0.8936739043517010  0.8502035250627779
 
  0.00000000E+00  0.00000000E+00  0.00000000E+00
  0.00000000E+00  0.00000000E+00  0.00000000E+00
  0.00000000E+00  0.00000000E+00  0.00000000E+00
  0.00000000E+00  0.00000000E+00  0.00000000E+00
  0.00000000E+00  0.00000000E+00  0.00000000E+00
  0.00000000E+00  0.00000000E+00  0.00000000E+00
  0.00000000E+00  0.00000000E+00  0.00000000E+00
  0.00000000E+00  0.00000000E+00  0.00000000E+00
  0.00000000E+00  0.00000000E+00  0.00000000E+00
  0.00000000E+00  0.00000000E+00  0.00000000E+00
  0.00000000E+00  0.00000000E+00  0.00000000E+00
  0.00000000E+00  0.00000000E+00  0.00000000E+00
  0.00000000E+00  0.00000000E+00  0.00000000E+00
  0.00000000E+00  0.00000000E+00  0.00000000E+00
  0.00000000E+00  0.00000000E+00  0.00000000E+00
  0.00000000E+00  0.00000000E+00  0.00000000E+00
  0.00000000E+00  0.00000000E+00  0.00000000E+00
  0.00000000E+00  0.00000000E+00  0.00000000E+00
  0.00000000E+00  0.00000000E+00  0.00000000E+00
  0.00000000E+00  0.00000000E+00  0.00000000E+00
  0.00000000E+00  0.00000000E+00  0.00000000E+00
  0.00000000E+00  0.00000000E+00  0.00000000E+00
  0.00000000E+00  0.00000000E+00  0.00000000E+00
  0.00000000E+00  0.00000000E+00  0.00000000E+00
  0.00000000E+00  0.00000000E+00  0.00000000E+00
  0.00000000E+00  0.00000000E+00  0.00000000E+00
  0.00000000E+00  0.00000000E+00  0.00000000E+00
  0.00000000E+00  0.00000000E+00  0.00000000E+00
  0.00000000E+00  0.00000000E+00  0.00000000E+00
  0.00000000E+00  0.00000000E+00  0.00000000E+00
  0.00000000E+00  0.00000000E+00  0.00000000E+00
  0.00000000E+00  0.00000000E+00  0.00000000E+00
  0.00000000E+00  0.00000000E+00  0.00000000E+00
  0.00000000E+00  0.00000000E+00  0.00000000E+00
  0.00000000E+00  0.00000000E+00  0.00000000E+00
  0.00000000E+00  0.00000000E+00  0.00000000E+00
  0.00000000E+00  0.00000000E+00  0.00000000E+00
  0.00000000E+00  0.00000000E+00  0.00000000E+00
  0.00000000E+00  0.00000000E+00  0.00000000E+00
  0.00000000E+00  0.00000000E+00  0.00000000E+00
  0.00000000E+00  0.00000000E+00  0.00000000E+00
  0.00000000E+00  0.00000000E+00  0.00000000E+00
  0.00000000E+00  0.00000000E+00  0.00000000E+00
  0.00000000E+00  0.00000000E+00  0.00000000E+00
  0.00000000E+00  0.00000000E+00  0.00000000E+00
  0.00000000E+00  0.00000000E+00  0.00000000E+00
  0.00000000E+00  0.00000000E+00  0.00000000E+00
  0.00000000E+00  0.00000000E+00  0.00000000E+00
  0.00000000E+00  0.00000000E+00  0.00000000E+00
  0.00000000E+00  0.00000000E+00  0.00000000E+00
  0.00000000E+00  0.00000000E+00  0.00000000E+00
  0.00000000E+00  0.00000000E+00  0.00000000E+00
  0.00000000E+00  0.00000000E+00  0.00000000E+00
  0.00000000E+00  0.00000000E+00  0.00000000E+00
  0.00000000E+00  0.00000000E+00  0.00000000E+00
  0.00000000E+00  0.00000000E+00  0.00000000E+00
  0.00000000E+00  0.00000000E+00  0.00000000E+00
  0.00000000E+00  0.00000000E+00  0.00000000E+00
  0.00000000E+00  0.00000000E+00  0.00000000E+00
  0.00000000E+00  0.00000000E+00  0.00000000E+00
  0.00000000E+00  0.00000000E+00  0.00000000E+00
  0.00000000E+00  0.00000000E+00  0.00000000E+00
  0.00000000E+00  0.00000000E+00  0.00000000E+00
  0.00000000E+00  0.00000000E+00  0.00000000E+00
  0.00000000E+00  0.00000000E+00  0.00000000E+00
  0.00000000E+00  0.00000000E+00  0.00000000E+00
  0.00000000E+00  0.00000000E+00  0.00000000E+00
  0.00000000E+00  0.00000000E+00  0.00000000E+00
  0.00000000E+00  0.00000000E+00  0.00000000E+00
  0.00000000E+00  0.00000000E+00  0.00000000E+00
  0.00000000E+00  0.00000000E+00  0.00000000E+00
  0.00000000E+00  0.00000000E+00  0.00000000E+00
  0.00000000E+00  0.00000000E+00  0.00000000E+00
  0.00000000E+00  0.00000000E+00  0.00000000E+00
  0.00000000E+00  0.00000000E+00  0.00000000E+00
  0.00000000E+00  0.00000000E+00  0.00000000E+00
  0.00000000E+00  0.00000000E+00  0.00000000E+00
  0.00000000E+00  0.00000000E+00  0.00000000E+00
  0.00000000E+00  0.00000000E+00  0.00000000E+00
  0.00000000E+00  0.00000000E+00  0.00000000E+00
  0.00000000E+00  0.00000000E+00  0.00000000E+00
  0.00000000E+00  0.00000000E+00  0.00000000E+00
  0.00000000E+00  0.00000000E+00  0.00000000E+00
  0.00000000E+00  0.00000000E+00  0.00000000E+00
  0.00000000E+00  0.00000000E+00  0.00000000E+00
  0.00000000E+00  0.00000000E+00  0.00000000E+00
  0.00000000E+00  0.00000000E+00  0.00000000E+00
  0.00000000E+00  0.00000000E+00  0.00000000E+00
  0.00000000E+00  0.00000000E+00  0.00000000E+00
  0.00000000E+00  0.00000000E+00  0.00000000E+00
  0.00000000E+00  0.00000000E+00  0.00000000E+00
  0.00000000E+00  0.00000000E+00  0.00000000E+00
  0.00000000E+00  0.00000000E+00  0.00000000E+00
  0.00000000E+00  0.00000000E+00  0.00000000E+00
  0.00000000E+00  0.00000000E+00  0.00000000E+00
  0.00000000E+00  0.00000000E+00  0.00000000E+00
  0.00000000E+00  0.00000000E+00  0.00000000E+00
  0.00000000E+00  0.00000000E+00  0.00000000E+00
  0.00000000E+00  0.00000000E+00  0.00000000E+00
  0.00000000E+00  0.00000000E+00  0.00000000E+00
