P56 O140
1.0
5.549684 0.000000 0.000000
-2.774842 8.293785 0.000000
0.000000 0.000000 81.669140
P O
56 140
Selective dynamics
direct
0.526196 0.847864 0.094974 F F F P5+
0.678332 0.152136 0.079605 F F F P5+
0.526196 0.347864 0.004605 T T T P5+
0.178332 0.652136 0.069974 F F F P5+
0.026196 0.847864 0.044974 T T T P5+
0.178332 0.152136 0.029605 T T T P5+
0.026196 0.347864 0.054605 F F F P5+
0.678332 0.652136 0.019974 T T T P5+
0.526196 0.847864 0.194974 F F F P5+
0.678332 0.152136 0.179605 F F F P5+
0.526196 0.347864 0.104605 F F F P5+
0.178332 0.652136 0.169974 F F F P5+
0.026196 0.847864 0.144974 F F F P5+
0.178332 0.152136 0.129605 F F F P5+
0.026196 0.347864 0.154605 F F F P5+
0.678332 0.652136 0.119974 F F F P5+
0.526196 0.847864 0.294974 F F F P5+
0.678332 0.152136 0.279605 F F F P5+
0.526196 0.347864 0.204605 F F F P5+
0.178332 0.652136 0.269974 F F F P5+
0.026196 0.847864 0.244974 F F F P5+
0.178332 0.152136 0.229605 F F F P5+
0.026196 0.347864 0.254605 F F F P5+
0.678332 0.652136 0.219974 F F F P5+
0.526196 0.847864 0.394974 F F F P5+
0.678332 0.152136 0.379605 F F F P5+
0.526196 0.347864 0.304605 F F F P5+
0.178332 0.652136 0.369974 F F F P5+
0.026196 0.847864 0.344974 F F F P5+
0.178332 0.152136 0.329605 F F F P5+
0.026196 0.347864 0.354605 F F F P5+
0.678332 0.652136 0.319974 F F F P5+
0.526196 0.847864 0.494974 F F F P5+
0.678332 0.152136 0.479605 F F F P5+
0.526196 0.347864 0.404605 F F F P5+
0.178332 0.652136 0.469974 F F F P5+
0.026196 0.847864 0.444974 F F F P5+
0.178332 0.152136 0.429605 F F F P5+
0.026196 0.347864 0.454605 F F F P5+
0.678332 0.652136 0.419974 F F F P5+
0.526196 0.847864 0.594974 F F F P5+
0.678332 0.152136 0.579605 F F F P5+
0.526196 0.347864 0.504605 F F F P5+
0.178332 0.652136 0.569974 F F F P5+
0.026196 0.847864 0.544974 F F F P5+
0.178332 0.152136 0.529605 F F F P5+
0.026196 0.347864 0.554605 F F F P5+
0.678332 0.652136 0.519974 F F F P5+
0.526196 0.847864 0.694974 T T T P5+
0.678332 0.152136 0.679605 T T T P5+
0.526196 0.347864 0.604605 F F F P5+
0.178332 0.652136 0.669974 T T T P5+
0.026196 0.847864 0.644974 F F F P5+
0.178332 0.152136 0.629605 F F F P5+
0.026196 0.347864 0.654605 T T T P5+
0.678332 0.652136 0.619974 F F F P5+
0.322982 0.883254 0.003948 T T T O2-
0.439728 0.116746 0.070631 F F F O2-
0.822982 0.383254 0.045631 T T T O2-
0.939728 0.616746 0.078948 F F F O2-
0.240745 0.500000 0.062289 F F F O2-
0.740745 0.000000 0.087289 F F F O2-
0.439497 0.730975 0.079369 F F F O2-
0.708522 0.269025 0.095210 F F F O2-
0.939497 0.230975 0.070210 F F F O2-
0.208522 0.769025 0.054369 F F F O2-
0.822982 0.883254 0.053948 F F F O2-
0.939728 0.116746 0.020631 T T T O2-
0.322982 0.383254 0.095631 F F F O2-
0.439728 0.616746 0.028948 T T T O2-
0.740745 0.500000 0.012290 T T T O2-
0.240745 1.000000 0.037289 T T T O2-
0.939497 0.730975 0.029369 T T T O2-
0.208522 0.269025 0.045210 T T T O2-
0.439497 0.230975 0.020210 T T T O2-
0.708522 0.769025 0.004369 T T T O2-
0.322982 0.883254 0.103948 F F F O2-
0.439728 0.116746 0.170631 F F F O2-
0.822982 0.383254 0.145631 F F F O2-
0.939728 0.616746 0.178948 F F F O2-
0.240745 0.500000 0.162290 F F F O2-
0.740745 0.000000 0.187289 F F F O2-
0.439497 0.730975 0.179369 F F F O2-
0.708522 0.269025 0.195210 F F F O2-
0.939497 0.230975 0.170210 F F F O2-
0.208522 0.769025 0.154369 F F F O2-
0.822982 0.883254 0.153948 F F F O2-
0.939728 0.116746 0.120631 F F F O2-
0.322982 0.383254 0.195631 F F F O2-
0.439728 0.616746 0.128948 F F F O2-
0.740745 0.500000 0.112290 F F F O2-
0.240745 1.000000 0.137290 F F F O2-
0.939497 0.730975 0.129369 F F F O2-
0.208522 0.269025 0.145210 F F F O2-
0.439497 0.230975 0.120210 F F F O2-
0.708522 0.769025 0.104369 F F F O2-
0.322982 0.883254 0.203948 F F F O2-
0.439728 0.116746 0.270631 F F F O2-
0.822982 0.383254 0.245631 F F F O2-
0.939728 0.616746 0.278948 F F F O2-
0.240745 0.500000 0.262290 F F F O2-
0.740745 0.000000 0.287289 F F F O2-
0.439497 0.730975 0.279369 F F F O2-
0.708522 0.269025 0.295210 F F F O2-
0.939497 0.230975 0.270210 F F F O2-
0.208522 0.769025 0.254369 F F F O2-
0.822982 0.883254 0.253948 F F F O2-
0.939728 0.116746 0.220631 F F F O2-
0.322982 0.383254 0.295631 F F F O2-
0.439728 0.616746 0.228948 F F F O2-
0.740745 0.500000 0.212290 F F F O2-
0.240745 1.000000 0.237290 F F F O2-
0.939497 0.730975 0.229369 F F F O2-
0.208522 0.269025 0.245210 F F F O2-
0.439497 0.230975 0.220210 F F F O2-
0.708522 0.769025 0.204369 F F F O2-
0.322982 0.883254 0.303948 F F F O2-
0.439728 0.116746 0.370631 F F F O2-
0.822982 0.383254 0.345631 F F F O2-
0.939728 0.616746 0.378948 F F F O2-
0.240745 0.500000 0.362289 F F F O2-
0.740745 0.000000 0.387290 F F F O2-
0.439497 0.730975 0.379369 F F F O2-
0.708522 0.269025 0.395210 F F F O2-
0.939497 0.230975 0.370210 F F F O2-
0.208522 0.769025 0.354369 F F F O2-
0.822982 0.883254 0.353948 F F F O2-
0.939728 0.116746 0.320631 F F F O2-
0.322982 0.383254 0.395631 F F F O2-
0.439728 0.616746 0.328948 F F F O2-
0.740745 0.500000 0.312289 F F F O2-
0.240745 1.000000 0.337289 F F F O2-
0.939497 0.730975 0.329369 F F F O2-
0.208522 0.269025 0.345210 F F F O2-
0.439497 0.230975 0.320210 F F F O2-
0.708522 0.769025 0.304369 F F F O2-
0.322982 0.883254 0.403948 F F F O2-
0.439728 0.116746 0.470631 F F F O2-
0.822982 0.383254 0.445631 F F F O2-
0.939728 0.616746 0.478948 F F F O2-
0.240745 0.500000 0.462290 F F F O2-
0.740745 0.000000 0.487290 F F F O2-
0.439497 0.730975 0.479369 F F F O2-
0.708522 0.269025 0.495210 F F F O2-
0.939497 0.230975 0.470210 F F F O2-
0.208522 0.769025 0.454369 F F F O2-
0.822982 0.883254 0.453948 F F F O2-
0.939728 0.116746 0.420631 F F F O2-
0.322982 0.383254 0.495631 F F F O2-
0.439728 0.616746 0.428948 F F F O2-
0.740745 0.500000 0.412290 F F F O2-
0.240745 1.000000 0.437290 F F F O2-
0.939497 0.730975 0.429369 F F F O2-
0.208522 0.269025 0.445210 F F F O2-
0.439497 0.230975 0.420210 F F F O2-
0.708522 0.769025 0.404369 F F F O2-
0.322982 0.883254 0.503948 F F F O2-
0.439728 0.116746 0.570631 F F F O2-
0.822982 0.383254 0.545631 F F F O2-
0.939728 0.616746 0.578948 F F F O2-
0.240745 0.500000 0.562289 F F F O2-
0.740745 0.000000 0.587290 F F F O2-
0.439497 0.730975 0.579369 F F F O2-
0.708522 0.269025 0.595210 F F F O2-
0.939497 0.230975 0.570210 F F F O2-
0.208522 0.769025 0.554369 F F F O2-
0.822982 0.883254 0.553948 F F F O2-
0.939728 0.116746 0.520631 F F F O2-
0.322982 0.383254 0.595631 F F F O2-
0.439728 0.616746 0.528948 F F F O2-
0.740745 0.500000 0.512289 F F F O2-
0.240745 1.000000 0.537289 F F F O2-
0.939497 0.730975 0.529369 F F F O2-
0.208522 0.269025 0.545210 F F F O2-
0.439497 0.230975 0.520210 F F F O2-
0.708522 0.769025 0.504369 F F F O2-
0.322982 0.883254 0.603948 F F F O2-
0.439728 0.116746 0.670631 T T T O2-
0.822982 0.383254 0.645631 T T T O2-
0.939728 0.616746 0.678948 T T T O2-
0.240745 0.500000 0.662289 T T T O2-
0.740745 0.000000 0.687290 T T T O2-
0.439497 0.730975 0.679369 T T T O2-
0.708522 0.269025 0.695210 T T T O2-
0.939497 0.230975 0.670210 T T T O2-
0.208522 0.769025 0.654369 T T T O2-
0.822982 0.883254 0.653948 F F F O2-
0.939728 0.116746 0.620631 F F F O2-
0.322982 0.383254 0.695631 T T T O2-
0.439728 0.616746 0.628948 F F F O2-
0.740745 0.500000 0.612289 F F F O2-
0.240745 1.000000 0.637289 F F F O2-
0.939497 0.730975 0.629369 F F F O2-
0.208522 0.269025 0.645210 F F F O2-
0.439497 0.230975 0.620210 F F F O2-
0.708522 0.769025 0.604369 F F F O2-
