Li1 O8                                  
   1.00000000000000     
     4.6961890000000004    0.0350850000000000    1.9284079999999999
     1.9953770000000000    4.4989229999999996    1.5458520000000000
     0.5658170000000000   -0.3513680000000000    5.1154560000000000
   Li   O 
     1     8
Direct
  0.4929839999999999  0.8044299999999964  0.8044299999999964
  0.8413609999999991  0.3331149999999994  0.8206470000000010
  0.1517789999999977  0.2313860000000005  0.6997619999999998
  0.1517789999999977  0.6997619999999998  0.2313860000000005
  0.8413609999999991  0.8206470000000010  0.3331149999999994
  0.8379600000000025  0.2562730000000002  0.2562730000000002
  0.1547520000000020  0.7419769999999986  0.7419769999999986
  0.1439980000000034  0.1521430000000024  0.1521430000000024
  0.8423599999999993  0.8650280000000024  0.8650280000000024
 
  0.00000000E+00  0.00000000E+00  0.00000000E+00
  0.00000000E+00  0.00000000E+00  0.00000000E+00
  0.00000000E+00  0.00000000E+00  0.00000000E+00
  0.00000000E+00  0.00000000E+00  0.00000000E+00
  0.00000000E+00  0.00000000E+00  0.00000000E+00
  0.00000000E+00  0.00000000E+00  0.00000000E+00
  0.00000000E+00  0.00000000E+00  0.00000000E+00
  0.00000000E+00  0.00000000E+00  0.00000000E+00
  0.00000000E+00  0.00000000E+00  0.00000000E+00
