Li6 P2 O8                               
   1.00000000000000     
     5.0566789999999999    0.0000000000000000    0.0000000000000000
     0.0000000000000000    5.4412890000000003    0.0000000000000000
     0.0000000000000000    0.0000000000000000    6.3453660000000003
   Li   P    O 
     6     2     8
Direct
  0.5094089999999980  0.8450619999999986  0.0000000000000000
  0.0094089999999980  0.1549389999999988  0.5000000000000000
  0.5085499999999996  0.3262929999999997  0.2526640000000029
  0.0085499999999996  0.6737070000000003  0.2473359999999971
  0.0085499999999996  0.6737070000000003  0.7526640000000029
  0.5085499999999996  0.3262929999999997  0.7473359999999971
  0.5013420000000011  0.8242639999999994  0.5000000000000000
  0.0013420000000011  0.1757360000000006  0.0000000000000000
  0.1074940000000026  0.3142119999999977  0.7919559999999990
  0.6026990000000012  0.1048759999999973  0.5000000000000000
  0.1833620000000025  0.8185410000000033  0.5000000000000000
  0.6833620000000025  0.1814589999999967  0.0000000000000000
  0.6074940000000026  0.6857880000000023  0.2919559999999990
  0.1074940000000026  0.3142119999999977  0.2080440000000010
  0.1026990000000012  0.8951240000000027  0.0000000000000000
  0.6074940000000026  0.6857880000000023  0.7080440000000010
 
  0.00000000E+00  0.00000000E+00  0.00000000E+00
  0.00000000E+00  0.00000000E+00  0.00000000E+00
  0.00000000E+00  0.00000000E+00  0.00000000E+00
  0.00000000E+00  0.00000000E+00  0.00000000E+00
  0.00000000E+00  0.00000000E+00  0.00000000E+00
  0.00000000E+00  0.00000000E+00  0.00000000E+00
  0.00000000E+00  0.00000000E+00  0.00000000E+00
  0.00000000E+00  0.00000000E+00  0.00000000E+00
  0.00000000E+00  0.00000000E+00  0.00000000E+00
  0.00000000E+00  0.00000000E+00  0.00000000E+00
  0.00000000E+00  0.00000000E+00  0.00000000E+00
  0.00000000E+00  0.00000000E+00  0.00000000E+00
  0.00000000E+00  0.00000000E+00  0.00000000E+00
  0.00000000E+00  0.00000000E+00  0.00000000E+00
  0.00000000E+00  0.00000000E+00  0.00000000E+00
  0.00000000E+00  0.00000000E+00  0.00000000E+00
