Li1                                     
   1.00000000000000     
    -1.7019089999999999    1.7019089999999999    1.7019089999999999
     1.7019089999999999   -1.7019089999999999    1.7019089999999999
     1.7019089999999999    1.7019089999999999   -1.7019089999999999
   Li
     1
Direct
  0.0000000000000000  0.0000000000000000  0.0000000000000000
 
  0.00000000E+00  0.00000000E+00  0.00000000E+00
