Li140 P140 O420
1.0
13.312980 0.000000 5.521558
23.948210 16.540545 0.000000
0.000000 0.000000 60.737138
Li P O
140 140 420
Selective dynamics
direct
0.308258 0.818220 0.029022 T T T Li
0.808258 0.318220 0.075457 F F F Li
0.954826 0.934004 0.060226 F F F Li
0.454826 0.434004 0.017604 T T T Li
0.603500 0.049457 0.003198 T T T Li
0.103500 0.549457 0.047601 F F F Li
0.253749 0.164548 0.035124 F F F Li
0.753749 0.664548 0.079265 F F F Li
0.029328 0.241566 0.008759 T T T Li
0.529328 0.741566 0.055526 T T T Li
0.305977 0.318286 0.031646 T T T Li
0.805977 0.818286 0.073247 F F F Li
0.953995 0.433730 0.059565 F F F Li
0.453995 0.933730 0.018417 T T T Li
0.601365 0.550453 0.005889 T T T Li
0.101365 0.050453 0.045298 F F F Li
0.248464 0.667016 0.032924 F F F Li
0.748464 0.167016 0.082426 F F F Li
0.023195 0.743634 0.006417 T T T Li
0.523195 0.243634 0.058983 F F F Li
0.308258 0.818220 0.119931 F F F Li
0.808258 0.318220 0.166366 F F F Li
0.954826 0.934004 0.151135 F F F Li
0.454826 0.434004 0.108513 F F F Li
0.603500 0.049457 0.094107 F F F Li
0.103500 0.549457 0.138510 F F F Li
0.253749 0.164548 0.126033 F F F Li
0.753749 0.664548 0.170174 F F F Li
0.029328 0.241566 0.099668 F F F Li
0.529328 0.741566 0.146435 F F F Li
0.305977 0.318286 0.122555 F F F Li
0.805977 0.818286 0.164156 F F F Li
0.953995 0.433730 0.150474 F F F Li
0.453995 0.933730 0.109326 F F F Li
0.601365 0.550453 0.096798 F F F Li
0.101365 0.050453 0.136207 F F F Li
0.248464 0.667016 0.123833 F F F Li
0.748464 0.167016 0.173336 F F F Li
0.023195 0.743634 0.097326 F F F Li
0.523195 0.243634 0.149892 F F F Li
0.308258 0.818220 0.210840 F F F Li
0.808258 0.318220 0.257275 F F F Li
0.954826 0.934004 0.242044 F F F Li
0.454826 0.434004 0.199422 F F F Li
0.603500 0.049457 0.185016 F F F Li
0.103500 0.549457 0.229419 F F F Li
0.253749 0.164548 0.216942 F F F Li
0.753749 0.664548 0.261084 F F F Li
0.029328 0.241566 0.190577 F F F Li
0.529328 0.741566 0.237344 F F F Li
0.305977 0.318286 0.213464 F F F Li
0.805977 0.818286 0.255066 F F F Li
0.953995 0.433730 0.241383 F F F Li
0.453995 0.933730 0.200235 F F F Li
0.601365 0.550453 0.187707 F F F Li
0.101365 0.050453 0.227116 F F F Li
0.248464 0.667016 0.214742 F F F Li
0.748464 0.167016 0.264245 F F F Li
0.023195 0.743634 0.188235 F F F Li
0.523195 0.243634 0.240801 F F F Li
0.308258 0.818220 0.301749 F F F Li
0.808258 0.318220 0.348184 F F F Li
0.954826 0.934004 0.332953 F F F Li
0.454826 0.434004 0.290332 F F F Li
0.603500 0.049457 0.275925 F F F Li
0.103500 0.549457 0.320328 F F F Li
0.253749 0.164548 0.307852 F F F Li
0.753749 0.664548 0.351993 F F F Li
0.029328 0.241566 0.281486 F F F Li
0.529328 0.741566 0.328253 F F F Li
0.305977 0.318286 0.304374 F F F Li
0.805977 0.818286 0.345975 F F F Li
0.953995 0.433730 0.332292 F F F Li
0.453995 0.933730 0.291144 F F F Li
0.601365 0.550453 0.278616 F F F Li
0.101365 0.050453 0.318025 F F F Li
0.248464 0.667016 0.305651 F F F Li
0.748464 0.167016 0.355154 F F F Li
0.023195 0.743634 0.279144 F F F Li
0.523195 0.243634 0.331710 F F F Li
0.308258 0.818220 0.392658 F F F Li
0.808258 0.318220 0.439093 F F F Li
0.954826 0.934004 0.423862 F F F Li
0.454826 0.434004 0.381241 F F F Li
0.603500 0.049457 0.366834 F F F Li
0.103500 0.549457 0.411237 F F F Li
0.253749 0.164548 0.398761 F F F Li
0.753749 0.664548 0.442902 F F F Li
0.029328 0.241566 0.372395 F F F Li
0.529328 0.741566 0.419162 F F F Li
0.305977 0.318286 0.395283 F F F Li
0.805977 0.818286 0.436884 F F F Li
0.953995 0.433730 0.423201 F F F Li
0.453995 0.933730 0.382053 F F F Li
0.601365 0.550453 0.369525 F F F Li
0.101365 0.050453 0.408934 F F F Li
0.248464 0.667016 0.396560 F F F Li
0.748464 0.167016 0.446063 F F F Li
0.023195 0.743634 0.370053 F F F Li
0.523195 0.243634 0.422619 F F F Li
0.308258 0.818220 0.483567 F F F Li
0.808258 0.318220 0.530002 F F F Li
0.954826 0.934004 0.514771 F F F Li
0.454826 0.434004 0.472150 F F F Li
0.603500 0.049457 0.457743 F F F Li
0.103500 0.549457 0.502146 F F F Li
0.253749 0.164548 0.489670 F F F Li
0.753749 0.664548 0.533811 F F F Li
0.029328 0.241566 0.463304 F F F Li
0.529328 0.741566 0.510071 F F F Li
0.305977 0.318286 0.486192 F F F Li
0.805977 0.818286 0.527793 F F F Li
0.953995 0.433730 0.514110 F F F Li
0.453995 0.933730 0.472962 F F F Li
0.601365 0.550453 0.460434 F F F Li
0.101365 0.050453 0.499843 F F F Li
0.248464 0.667016 0.487470 F F F Li
0.748464 0.167016 0.536972 F F F Li
0.023195 0.743634 0.460962 F F F Li
0.523195 0.243634 0.513528 F F F Li
0.308258 0.818220 0.574476 F F F Li
0.808258 0.318220 0.620912 T T T Li
0.954826 0.934004 0.605680 T T T Li
0.454826 0.434004 0.563059 F F F Li
0.603500 0.049457 0.548652 F F F Li
0.103500 0.549457 0.593055 F F F Li
0.253749 0.164548 0.580579 F F F Li
0.753749 0.664548 0.624720 T T T Li
0.029328 0.241566 0.554213 F F F Li
0.529328 0.741566 0.600980 T T T Li
0.305977 0.318286 0.577101 F F F Li
0.805977 0.818286 0.618702 T T T Li
0.953995 0.433730 0.605019 T T T Li
0.453995 0.933730 0.563871 F F F Li
0.601365 0.550453 0.551343 F F F Li
0.101365 0.050453 0.590752 F F F Li
0.248464 0.667016 0.578379 F F F Li
0.748464 0.167016 0.627881 T T T Li
0.023195 0.743634 0.551871 F F F Li
0.523195 0.243634 0.604437 T T T Li
0.000366 0.000413 0.028900 T T T P
0.500366 0.500413 0.040650 F F F P
0.701107 0.093280 0.025009 T T T P
0.201107 0.593280 0.008043 T T T P
0.401802 0.197061 0.083594 F F F P
0.901802 0.697061 0.003877 T T T P
0.100084 0.308311 0.078344 F F F P
0.600084 0.808311 0.063985 F F F P
0.800152 0.408249 0.044771 F F F P
0.300152 0.908249 0.061182 F F F P
0.760353 0.574567 0.019679 T T T P
0.260353 0.074567 0.002601 T T T P
0.460110 0.674438 0.077009 F F F P
0.960110 0.174438 0.090769 F F F P
0.157222 0.786455 0.071632 F F F P
0.657222 0.286455 0.060308 F F F P
0.858010 0.889856 0.038798 F F F P
0.358010 0.389856 0.056635 T T T P
0.558735 0.982845 0.034911 F F F P
0.058735 0.482845 0.024026 T T T P
0.000366 0.000413 0.119809 F F F P
0.500366 0.500413 0.131559 F F F P
0.701107 0.093280 0.115918 F F F P
0.201107 0.593280 0.098952 F F F P
0.401802 0.197061 0.174503 F F F P
0.901802 0.697061 0.094786 F F F P
0.100084 0.308311 0.169253 F F F P
0.600084 0.808311 0.154894 F F F P
0.800152 0.408249 0.135680 F F F P
0.300152 0.908249 0.152091 F F F P
0.760353 0.574567 0.110588 F F F P
0.260353 0.074567 0.093510 F F F P
0.460110 0.674438 0.167919 F F F P
0.960110 0.174438 0.181678 F F F P
0.157222 0.786455 0.162541 F F F P
0.657222 0.286455 0.151217 F F F P
0.858010 0.889856 0.129708 F F F P
0.358010 0.389856 0.147544 F F F P
0.558735 0.982845 0.125820 F F F P
0.058735 0.482845 0.114935 F F F P
0.000366 0.000413 0.210718 F F F P
0.500366 0.500413 0.222468 F F F P
0.701107 0.093280 0.206827 F F F P
0.201107 0.593280 0.189861 F F F P
0.401802 0.197061 0.265412 F F F P
0.901802 0.697061 0.185695 F F F P
0.100084 0.308311 0.260162 F F F P
0.600084 0.808311 0.245803 F F F P
0.800152 0.408249 0.226589 F F F P
0.300152 0.908249 0.243000 F F F P
0.760353 0.574567 0.201497 F F F P
0.260353 0.074567 0.184419 F F F P
0.460110 0.674438 0.258828 F F F P
0.960110 0.174438 0.272587 F F F P
0.157222 0.786455 0.253450 F F F P
0.657222 0.286455 0.242127 F F F P
0.858010 0.889856 0.220617 F F F P
0.358010 0.389856 0.238453 F F F P
0.558735 0.982845 0.216729 F F F P
0.058735 0.482845 0.205845 F F F P
0.000366 0.000413 0.301628 F F F P
0.500366 0.500413 0.313377 F F F P
0.701107 0.093280 0.297737 F F F P
0.201107 0.593280 0.280770 F F F P
0.401802 0.197061 0.356321 F F F P
0.901802 0.697061 0.276604 F F F P
0.100084 0.308311 0.351071 F F F P
0.600084 0.808311 0.336712 F F F P
0.800152 0.408249 0.317498 F F F P
0.300152 0.908249 0.333909 F F F P
0.760353 0.574567 0.292406 F F F P
0.260353 0.074567 0.275328 F F F P
0.460110 0.674438 0.349737 F F F P
0.960110 0.174438 0.363496 F F F P
0.157222 0.786455 0.344359 F F F P
0.657222 0.286455 0.333036 F F F P
0.858010 0.889856 0.311526 F F F P
0.358010 0.389856 0.329362 F F F P
0.558735 0.982845 0.307639 F F F P
0.058735 0.482845 0.296754 F F F P
0.000366 0.000413 0.392537 F F F P
0.500366 0.500413 0.404286 F F F P
0.701107 0.093280 0.388646 F F F P
0.201107 0.593280 0.371679 F F F P
0.401802 0.197061 0.447230 F F F P
0.901802 0.697061 0.367513 F F F P
0.100084 0.308311 0.441980 F F F P
0.600084 0.808311 0.427621 F F F P
0.800152 0.408249 0.408407 F F F P
0.300152 0.908249 0.424818 F F F P
0.760353 0.574567 0.383315 F F F P
0.260353 0.074567 0.366237 F F F P
0.460110 0.674438 0.440646 F F F P
0.960110 0.174438 0.454405 F F F P
0.157222 0.786455 0.435268 F F F P
0.657222 0.286455 0.423945 F F F P
0.858010 0.889856 0.402435 F F F P
0.358010 0.389856 0.420271 F F F P
0.558735 0.982845 0.398548 F F F P
0.058735 0.482845 0.387663 F F F P
0.000366 0.000413 0.483446 F F F P
0.500366 0.500413 0.495195 F F F P
0.701107 0.093280 0.479555 F F F P
0.201107 0.593280 0.462588 F F F P
0.401802 0.197061 0.538139 F F F P
0.901802 0.697061 0.458422 F F F P
0.100084 0.308311 0.532890 F F F P
0.600084 0.808311 0.518530 F F F P
0.800152 0.408249 0.499316 F F F P
0.300152 0.908249 0.515727 F F F P
0.760353 0.574567 0.474224 F F F P
0.260353 0.074567 0.457146 F F F P
0.460110 0.674438 0.531555 F F F P
0.960110 0.174438 0.545315 F F F P
0.157222 0.786455 0.526177 F F F P
0.657222 0.286455 0.514854 F F F P
0.858010 0.889856 0.493344 F F F P
0.358010 0.389856 0.511180 F F F P
0.558735 0.982845 0.489457 F F F P
0.058735 0.482845 0.478572 F F F P
0.000366 0.000413 0.574355 F F F P
0.500366 0.500413 0.586104 F F F P
0.701107 0.093280 0.570464 F F F P
0.201107 0.593280 0.553497 F F F P
0.401802 0.197061 0.629049 T T T P
0.901802 0.697061 0.549331 F F F P
0.100084 0.308311 0.623799 T T T P
0.600084 0.808311 0.609439 T T T P
0.800152 0.408249 0.590225 F F F P
0.300152 0.908249 0.606636 F F F P
0.760353 0.574567 0.565134 F F F P
0.260353 0.074567 0.548055 F F F P
0.460110 0.674438 0.622464 T T T P
0.960110 0.174438 0.636224 T T T P
0.157222 0.786455 0.617086 T T T P
0.657222 0.286455 0.605763 F F F P
0.858010 0.889856 0.584253 F F F P
0.358010 0.389856 0.602089 T T T P
0.558735 0.982845 0.580366 F F F P
0.058735 0.482845 0.569481 F F F P
0.834602 0.035413 0.033390 F F F O
0.334602 0.535413 0.066299 F F F O
0.519193 0.140628 0.051344 F F F O
0.019193 0.640628 0.014783 T T T O
0.205494 0.275856 0.000674 F F F O
0.705494 0.775856 0.031580 T T T O
0.900837 0.392259 0.014431 F F F O
0.400837 0.892259 0.073216 F F F O
0.102004 0.978148 0.088446 F F F O
0.602004 0.478148 0.053533 F F F O
0.659442 0.590622 0.050021 F F F O
0.159442 0.090622 0.081515 F F F O
0.353822 0.709404 0.063719 F F F O
0.853822 0.209404 0.032475 F F F O
0.039646 0.843555 0.012956 F F F O
0.539646 0.343555 0.049453 F F F O
0.731088 0.943480 0.029145 F F F O
0.231088 0.443480 0.089365 F F F O
0.959302 0.504327 0.010753 T T T O
0.459302 0.004327 0.066264 F F F O
0.103062 0.926111 0.032057 T T T O
0.603062 0.426111 0.018821 T T T O
0.939017 0.066074 0.046163 T T T O
0.439017 0.566074 0.034542 F F F O
0.754026 0.041349 0.002040 T T T O
0.254026 0.541349 0.021390 T T T O
0.675687 0.153257 0.022955 T T T O
0.175687 0.653257 0.014718 T T T O
0.405695 0.154647 0.007197 F F F O
0.905695 0.654647 0.079566 F F F O
0.452827 0.224590 0.087441 F F F O
0.952827 0.724590 0.081662 F F F O
0.116625 0.252705 0.069801 F F F O
0.616625 0.752705 0.069520 F F F O
0.141832 0.330648 0.058850 F F F O
0.641832 0.830648 0.075888 F F F O
0.876575 0.332841 0.042858 F F F O
0.376575 0.832841 0.049200 F F F O
0.792187 0.446708 0.063317 F F F O
0.292187 0.946708 0.044084 F F F O
0.765726 0.536665 0.001551 T T T O
0.265726 0.036665 0.019752 T T T O
0.685519 0.649394 0.021215 T T T O
0.185519 0.149394 0.014671 T T T O
0.416809 0.651785 0.005171 F F F O
0.916809 0.151785 0.079572 F F F O
0.446770 0.728542 0.085833 F F F O
0.946770 0.228542 0.084371 F F F O
0.106345 0.758375 0.068389 F F F O
0.606345 0.258375 0.072801 F F F O
0.151319 0.828801 0.056775 F F F O
0.651319 0.328801 0.076238 F F F O
0.883647 0.829973 0.041320 F F F O
0.383647 0.329973 0.049452 T T T O
0.798636 0.944360 0.061959 F F F O
0.298636 0.444360 0.044269 F F F O
0.613260 0.919559 0.017918 T T T O
0.113260 0.419559 0.031106 T T T O
0.457676 0.057634 0.032194 F F F O
0.957676 0.557634 0.045118 T T T O
0.834602 0.035413 0.124299 F F F O
0.334602 0.535413 0.157208 F F F O
0.519193 0.140628 0.142253 F F F O
0.019193 0.640628 0.105692 F F F O
0.205494 0.275856 0.091583 F F F O
0.705494 0.775856 0.122489 F F F O
0.900837 0.392259 0.105340 F F F O
0.400837 0.892259 0.164125 F F F O
0.102004 0.978148 0.179355 F F F O
0.602004 0.478148 0.144442 F F F O
0.659442 0.590622 0.140930 F F F O
0.159442 0.090622 0.172424 F F F O
0.353822 0.709404 0.154628 F F F O
0.853822 0.209404 0.123384 F F F O
0.039646 0.843555 0.103865 F F F O
0.539646 0.343555 0.140362 F F F O
0.731088 0.943480 0.120054 F F F O
0.231088 0.443480 0.180274 F F F O
0.959302 0.504327 0.101662 F F F O
0.459302 0.004327 0.157173 F F F O
0.103062 0.926111 0.122966 F F F O
0.603062 0.426111 0.109730 F F F O
0.939017 0.066074 0.137072 F F F O
0.439017 0.566074 0.125451 F F F O
0.754026 0.041349 0.092949 F F F O
0.254026 0.541349 0.112299 F F F O
0.675687 0.153257 0.113865 F F F O
0.175687 0.653257 0.105627 F F F O
0.405695 0.154647 0.098106 F F F O
0.905695 0.654647 0.170475 F F F O
0.452827 0.224590 0.178350 F F F O
0.952827 0.724590 0.172571 F F F O
0.116625 0.252705 0.160710 F F F O
0.616625 0.752705 0.160429 F F F O
0.141832 0.330648 0.149759 F F F O
0.641832 0.830648 0.166797 F F F O
0.876575 0.332841 0.133767 F F F O
0.376575 0.832841 0.140109 F F F O
0.792187 0.446708 0.154226 F F F O
0.292187 0.946708 0.134993 F F F O
0.765726 0.536665 0.092460 F F F O
0.265726 0.036665 0.110661 F F F O
0.685519 0.649394 0.112124 F F F O
0.185519 0.149394 0.105580 F F F O
0.416809 0.651785 0.096080 F F F O
0.916809 0.151785 0.170481 F F F O
0.446770 0.728542 0.176742 F F F O
0.946770 0.228542 0.175280 F F F O
0.106345 0.758375 0.159298 F F F O
0.606345 0.258375 0.163710 F F F O
0.151319 0.828801 0.147684 F F F O
0.651319 0.328801 0.167148 F F F O
0.883647 0.829973 0.132229 F F F O
0.383647 0.329973 0.140361 F F F O
0.798636 0.944360 0.152868 F F F O
0.298636 0.444360 0.135178 F F F O
0.613260 0.919559 0.108827 F F F O
0.113260 0.419559 0.122015 F F F O
0.457676 0.057634 0.123103 F F F O
0.957676 0.557634 0.136027 F F F O
0.834602 0.035413 0.215208 F F F O
0.334602 0.535413 0.248117 F F F O
0.519193 0.140628 0.233162 F F F O
0.019193 0.640628 0.196601 F F F O
0.205494 0.275856 0.182492 F F F O
0.705494 0.775856 0.213398 F F F O
0.900837 0.392259 0.196249 F F F O
0.400837 0.892259 0.255034 F F F O
0.102004 0.978148 0.270265 F F F O
0.602004 0.478148 0.235351 F F F O
0.659442 0.590622 0.231839 F F F O
0.159442 0.090622 0.263334 F F F O
0.353822 0.709404 0.245537 F F F O
0.853822 0.209404 0.214294 F F F O
0.039646 0.843555 0.194774 F F F O
0.539646 0.343555 0.231271 F F F O
0.731088 0.943480 0.210963 F F F O
0.231088 0.443480 0.271183 F F F O
0.959302 0.504327 0.192571 F F F O
0.459302 0.004327 0.248082 F F F O
0.103062 0.926111 0.213875 F F F O
0.603062 0.426111 0.200640 F F F O
0.939017 0.066074 0.227981 F F F O
0.439017 0.566074 0.216360 F F F O
0.754026 0.041349 0.183858 F F F O
0.254026 0.541349 0.203208 F F F O
0.675687 0.153257 0.204774 F F F O
0.175687 0.653257 0.196536 F F F O
0.405695 0.154647 0.189016 F F F O
0.905695 0.654647 0.261384 F F F O
0.452827 0.224590 0.269259 F F F O
0.952827 0.724590 0.263480 F F F O
0.116625 0.252705 0.251619 F F F O
0.616625 0.752705 0.251338 F F F O
0.141832 0.330648 0.240668 F F F O
0.641832 0.830648 0.257706 F F F O
0.876575 0.332841 0.224676 F F F O
0.376575 0.832841 0.231018 F F F O
0.792187 0.446708 0.245135 F F F O
0.292187 0.946708 0.225903 F F F O
0.765726 0.536665 0.183369 F F F O
0.265726 0.036665 0.201571 F F F O
0.685519 0.649394 0.203034 F F F O
0.185519 0.149394 0.196489 F F F O
0.416809 0.651785 0.186989 F F F O
0.916809 0.151785 0.261390 F F F O
0.446770 0.728542 0.267651 F F F O
0.946770 0.228542 0.266189 F F F O
0.106345 0.758375 0.250207 F F F O
0.606345 0.258375 0.254619 F F F O
0.151319 0.828801 0.238593 F F F O
0.651319 0.328801 0.258057 F F F O
0.883647 0.829973 0.223138 F F F O
0.383647 0.329973 0.231270 F F F O
0.798636 0.944360 0.243777 F F F O
0.298636 0.444360 0.226087 F F F O
0.613260 0.919559 0.199737 F F F O
0.113260 0.419559 0.212924 F F F O
0.457676 0.057634 0.214012 F F F O
0.957676 0.557634 0.226937 F F F O
0.834602 0.035413 0.306117 F F F O
0.334602 0.535413 0.339026 F F F O
0.519193 0.140628 0.324071 F F F O
0.019193 0.640628 0.287510 F F F O
0.205494 0.275856 0.273401 F F F O
0.705494 0.775856 0.304307 F F F O
0.900837 0.392259 0.287158 F F F O
0.400837 0.892259 0.345943 F F F O
0.102004 0.978148 0.361174 F F F O
0.602004 0.478148 0.326261 F F F O
0.659442 0.590622 0.322748 F F F O
0.159442 0.090622 0.354243 F F F O
0.353822 0.709404 0.336446 F F F O
0.853822 0.209404 0.305203 F F F O
0.039646 0.843555 0.285683 F F F O
0.539646 0.343555 0.322180 F F F O
0.731088 0.943480 0.301872 F F F O
0.231088 0.443480 0.362092 F F F O
0.959302 0.504327 0.283480 F F F O
0.459302 0.004327 0.338991 F F F O
0.103062 0.926111 0.304784 F F F O
0.603062 0.426111 0.291549 F F F O
0.939017 0.066074 0.318890 F F F O
0.439017 0.566074 0.307269 F F F O
0.754026 0.041349 0.274767 F F F O
0.254026 0.541349 0.294117 F F F O
0.675687 0.153257 0.295683 F F F O
0.175687 0.653257 0.287445 F F F O
0.405695 0.154647 0.279925 F F F O
0.905695 0.654647 0.352293 F F F O
0.452827 0.224590 0.360168 F F F O
0.952827 0.724590 0.354389 F F F O
0.116625 0.252705 0.342528 F F F O
0.616625 0.752705 0.342247 F F F O
0.141832 0.330648 0.331577 F F F O
0.641832 0.830648 0.348615 F F F O
0.876575 0.332841 0.315585 F F F O
0.376575 0.832841 0.321927 F F F O
0.792187 0.446708 0.336044 F F F O
0.292187 0.946708 0.316812 F F F O
0.765726 0.536665 0.274278 F F F O
0.265726 0.036665 0.292480 F F F O
0.685519 0.649394 0.293943 F F F O
0.185519 0.149394 0.287398 F F F O
0.416809 0.651785 0.277898 F F F O
0.916809 0.151785 0.352299 F F F O
0.446770 0.728542 0.358561 F F F O
0.946770 0.228542 0.357098 F F F O
0.106345 0.758375 0.341116 F F F O
0.606345 0.258375 0.345528 F F F O
0.151319 0.828801 0.329502 F F F O
0.651319 0.328801 0.348966 F F F O
0.883647 0.829973 0.314047 F F F O
0.383647 0.329973 0.322179 F F F O
0.798636 0.944360 0.334686 F F F O
0.298636 0.444360 0.316996 F F F O
0.613260 0.919559 0.290646 F F F O
0.113260 0.419559 0.303833 F F F O
0.457676 0.057634 0.304921 F F F O
0.957676 0.557634 0.317846 F F F O
0.834602 0.035413 0.397026 F F F O
0.334602 0.535413 0.429935 F F F O
0.519193 0.140628 0.414981 F F F O
0.019193 0.640628 0.378419 F F F O
0.205494 0.275856 0.364311 F F F O
0.705494 0.775856 0.395216 F F F O
0.900837 0.392259 0.378067 F F F O
0.400837 0.892259 0.436852 F F F O
0.102004 0.978148 0.452083 F F F O
0.602004 0.478148 0.417170 F F F O
0.659442 0.590622 0.413657 F F F O
0.159442 0.090622 0.445152 F F F O
0.353822 0.709404 0.427356 F F F O
0.853822 0.209404 0.396112 F F F O
0.039646 0.843555 0.376592 F F F O
0.539646 0.343555 0.413089 F F F O
0.731088 0.943480 0.392781 F F F O
0.231088 0.443480 0.453002 F F F O
0.959302 0.504327 0.374389 F F F O
0.459302 0.004327 0.429900 F F F O
0.103062 0.926111 0.395693 F F F O
0.603062 0.426111 0.382458 F F F O
0.939017 0.066074 0.409799 F F F O
0.439017 0.566074 0.398178 F F F O
0.754026 0.041349 0.365677 F F F O
0.254026 0.541349 0.385026 F F F O
0.675687 0.153257 0.386592 F F F O
0.175687 0.653257 0.378355 F F F O
0.405695 0.154647 0.370834 F F F O
0.905695 0.654647 0.443202 F F F O
0.452827 0.224590 0.451077 F F F O
0.952827 0.724590 0.445299 F F F O
0.116625 0.252705 0.433438 F F F O
0.616625 0.752705 0.433156 F F F O
0.141832 0.330648 0.422486 F F F O
0.641832 0.830648 0.439525 F F F O
0.876575 0.332841 0.406494 F F F O
0.376575 0.832841 0.412836 F F F O
0.792187 0.446708 0.426953 F F F O
0.292187 0.946708 0.407721 F F F O
0.765726 0.536665 0.365187 F F F O
0.265726 0.036665 0.383389 F F F O
0.685519 0.649394 0.384852 F F F O
0.185519 0.149394 0.378307 F F F O
0.416809 0.651785 0.368807 F F F O
0.916809 0.151785 0.443208 F F F O
0.446770 0.728542 0.449470 F F F O
0.946770 0.228542 0.448007 F F F O
0.106345 0.758375 0.432026 F F F O
0.606345 0.258375 0.436438 F F F O
0.151319 0.828801 0.420411 F F F O
0.651319 0.328801 0.439875 F F F O
0.883647 0.829973 0.404956 F F F O
0.383647 0.329973 0.413088 F F F O
0.798636 0.944360 0.425596 F F F O
0.298636 0.444360 0.407906 F F F O
0.613260 0.919559 0.381555 F F F O
0.113260 0.419559 0.394742 F F F O
0.457676 0.057634 0.395830 F F F O
0.957676 0.557634 0.408755 F F F O
0.834602 0.035413 0.487935 F F F O
0.334602 0.535413 0.520845 F F F O
0.519193 0.140628 0.505890 F F F O
0.019193 0.640628 0.469328 F F F O
0.205494 0.275856 0.455220 F F F O
0.705494 0.775856 0.486125 F F F O
0.900837 0.392259 0.468976 F F F O
0.400837 0.892259 0.527761 F F F O
0.102004 0.978148 0.542992 F F F O
0.602004 0.478148 0.508079 F F F O
0.659442 0.590622 0.504566 F F F O
0.159442 0.090622 0.536061 F F F O
0.353822 0.709404 0.518265 F F F O
0.853822 0.209404 0.487021 F F F O
0.039646 0.843555 0.467501 F F F O
0.539646 0.343555 0.503998 F F F O
0.731088 0.943480 0.483690 F F F O
0.231088 0.443480 0.543911 F F F O
0.959302 0.504327 0.465298 F F F O
0.459302 0.004327 0.520809 F F F O
0.103062 0.926111 0.486602 F F F O
0.603062 0.426111 0.473367 F F F O
0.939017 0.066074 0.500708 F F F O
0.439017 0.566074 0.489087 F F F O
0.754026 0.041349 0.456586 F F F O
0.254026 0.541349 0.475935 F F F O
0.675687 0.153257 0.477501 F F F O
0.175687 0.653257 0.469264 F F F O
0.405695 0.154647 0.461743 F F F O
0.905695 0.654647 0.534111 F F F O
0.452827 0.224590 0.541986 F F F O
0.952827 0.724590 0.536208 F F F O
0.116625 0.252705 0.524347 F F F O
0.616625 0.752705 0.524066 F F F O
0.141832 0.330648 0.513395 F F F O
0.641832 0.830648 0.530434 F F F O
0.876575 0.332841 0.497403 F F F O
0.376575 0.832841 0.503745 F F F O
0.792187 0.446708 0.517862 F F F O
0.292187 0.946708 0.498630 F F F O
0.765726 0.536665 0.456096 F F F O
0.265726 0.036665 0.474298 F F F O
0.685519 0.649394 0.475761 F F F O
0.185519 0.149394 0.469216 F F F O
0.416809 0.651785 0.459716 F F F O
0.916809 0.151785 0.534117 F F F O
0.446770 0.728542 0.540379 F F F O
0.946770 0.228542 0.538916 F F F O
0.106345 0.758375 0.522935 F F F O
0.606345 0.258375 0.527347 F F F O
0.151319 0.828801 0.511320 F F F O
0.651319 0.328801 0.530784 F F F O
0.883647 0.829973 0.495865 F F F O
0.383647 0.329973 0.503998 F F F O
0.798636 0.944360 0.516505 F F F O
0.298636 0.444360 0.498815 F F F O
0.613260 0.919559 0.472464 F F F O
0.113260 0.419559 0.485651 F F F O
0.457676 0.057634 0.486739 F F F O
0.957676 0.557634 0.499664 F F F O
0.834602 0.035413 0.578845 F F F O
0.334602 0.535413 0.611754 F F F O
0.519193 0.140628 0.596799 T T T O
0.019193 0.640628 0.560237 F F F O
0.205494 0.275856 0.546129 F F F O
0.705494 0.775856 0.577035 F F F O
0.900837 0.392259 0.559885 F F F O
0.400837 0.892259 0.618670 F F F O
0.102004 0.978148 0.633901 F F F O
0.602004 0.478148 0.598988 F F F O
0.659442 0.590622 0.595476 F F F O
0.159442 0.090622 0.626970 T T T O
0.353822 0.709404 0.609174 T T T O
0.853822 0.209404 0.577930 F F F O
0.039646 0.843555 0.558410 F F F O
0.539646 0.343555 0.594907 F F F O
0.731088 0.943480 0.574599 F F F O
0.231088 0.443480 0.634820 F F F O
0.959302 0.504327 0.556207 F F F O
0.459302 0.004327 0.611718 F F F O
0.103062 0.926111 0.577511 F F F O
0.603062 0.426111 0.564276 F F F O
0.939017 0.066074 0.591618 F F F O
0.439017 0.566074 0.579996 F F F O
0.754026 0.041349 0.547495 F F F O
0.254026 0.541349 0.566845 F F F O
0.675687 0.153257 0.568410 F F F O
0.175687 0.653257 0.560173 F F F O
0.405695 0.154647 0.552652 F F F O
0.905695 0.654647 0.625020 F F F O
0.452827 0.224590 0.632895 T T T O
0.952827 0.724590 0.627117 F F F O
0.116625 0.252705 0.615256 T T T O
0.616625 0.752705 0.614975 F F F O
0.141832 0.330648 0.604305 T T T O
0.641832 0.830648 0.621343 T T T O
0.876575 0.332841 0.588313 F F F O
0.376575 0.832841 0.594654 F F F O
0.792187 0.446708 0.608771 F F F O
0.292187 0.946708 0.589539 F F F O
0.765726 0.536665 0.547005 F F F O
0.265726 0.036665 0.565207 F F F O
0.685519 0.649394 0.566670 F F F O
0.185519 0.149394 0.560125 F F F O
0.416809 0.651785 0.550625 F F F O
0.916809 0.151785 0.625026 T T T O
0.446770 0.728542 0.631288 T T T O
0.946770 0.228542 0.629825 T T T O
0.106345 0.758375 0.613844 T T T O
0.606345 0.258375 0.618256 F F F O
0.151319 0.828801 0.602229 T T T O
0.651319 0.328801 0.621693 F F F O
0.883647 0.829973 0.586774 F F F O
0.383647 0.329973 0.594907 T T T O
0.798636 0.944360 0.607414 F F F O
0.298636 0.444360 0.589724 F F F O
0.613260 0.919559 0.563373 F F F O
0.113260 0.419559 0.576560 F F F O
0.457676 0.057634 0.577648 F F F O
0.957676 0.557634 0.590573 F F F O
