Li56 P56
1.0
4.970385 0.000000 0.000000
0.000000 9.037780 0.756887
0.000000 0.000000 61.532592
Li P
56 56
Selective dynamics
direct
0.388247 0.329300 0.074518 F F F Li
0.888247 0.170700 0.049480 F F F Li
0.611753 0.670700 0.004026 T T T Li
0.111753 0.829300 0.029063 T T T Li
0.658316 0.029786 0.011634 T T T Li
0.158316 0.470214 0.021455 T T T Li
0.341684 0.970214 0.066910 F F F Li
0.841684 0.529786 0.057088 F F F Li
0.388247 0.329300 0.165427 F F F Li
0.888247 0.170700 0.140389 F F F Li
0.611753 0.670700 0.094935 F F F Li
0.111753 0.829300 0.119972 F F F Li
0.658316 0.029786 0.102543 F F F Li
0.158316 0.470214 0.112364 F F F Li
0.341684 0.970214 0.157819 F F F Li
0.841684 0.529786 0.147997 F F F Li
0.388247 0.329300 0.256336 F F F Li
0.888247 0.170700 0.231298 F F F Li
0.611753 0.670700 0.185844 F F F Li
0.111753 0.829300 0.210882 F F F Li
0.658316 0.029786 0.193452 F F F Li
0.158316 0.470214 0.203273 F F F Li
0.341684 0.970214 0.248728 F F F Li
0.841684 0.529786 0.238906 F F F Li
0.388247 0.329300 0.347245 F F F Li
0.888247 0.170700 0.322207 F F F Li
0.611753 0.670700 0.276753 F F F Li
0.111753 0.829300 0.301791 F F F Li
0.658316 0.029786 0.284361 F F F Li
0.158316 0.470214 0.294182 F F F Li
0.341684 0.970214 0.339637 F F F Li
0.841684 0.529786 0.329816 F F F Li
0.388247 0.329300 0.438154 F F F Li
0.888247 0.170700 0.413116 F F F Li
0.611753 0.670700 0.367662 F F F Li
0.111753 0.829300 0.392700 F F F Li
0.658316 0.029786 0.375270 F F F Li
0.158316 0.470214 0.385092 F F F Li
0.341684 0.970214 0.430546 F F F Li
0.841684 0.529786 0.420725 F F F Li
0.388247 0.329300 0.529063 F F F Li
0.888247 0.170700 0.504026 F F F Li
0.611753 0.670700 0.458571 F F F Li
0.111753 0.829300 0.483609 F F F Li
0.658316 0.029786 0.466179 F F F Li
0.158316 0.470214 0.476001 F F F Li
0.341684 0.970214 0.521455 F F F Li
0.841684 0.529786 0.511634 F F F Li
0.388247 0.329300 0.619972 T T T Li
0.888247 0.170700 0.594935 T T T Li
0.611753 0.670700 0.549480 F F F Li
0.111753 0.829300 0.574518 F F F Li
0.658316 0.029786 0.557088 F F F Li
0.158316 0.470214 0.566910 F F F Li
0.341684 0.970214 0.612364 T T T Li
0.841684 0.529786 0.602543 T T T Li
0.894904 0.292916 0.086883 F F F P
0.394904 0.207084 0.037115 T T T P
0.105096 0.707084 0.082569 F F F P
0.605096 0.792916 0.041429 F F F P
0.156027 0.111742 0.011221 T T T P
0.656027 0.388258 0.021868 F F F P
0.843973 0.888258 0.067323 F F F P
0.343973 0.611742 0.056675 F F F P
0.894904 0.292916 0.177793 F F F P
0.394904 0.207084 0.128024 F F F P
0.105096 0.707084 0.173478 F F F P
0.605096 0.792916 0.132338 F F F P
0.156027 0.111742 0.102130 F F F P
0.656027 0.388258 0.112777 F F F P
0.843973 0.888258 0.158232 F F F P
0.343973 0.611742 0.147584 F F F P
0.894904 0.292916 0.268702 F F F P
0.394904 0.207084 0.218933 F F F P
0.105096 0.707084 0.264387 F F F P
0.605096 0.792916 0.223247 F F F P
0.156027 0.111742 0.193039 F F F P
0.656027 0.388258 0.203686 F F F P
0.843973 0.888258 0.249141 F F F P
0.343973 0.611742 0.238494 F F F P
0.894904 0.292916 0.359611 F F F P
0.394904 0.207084 0.309842 F F F P
0.105096 0.707084 0.355296 F F F P
0.605096 0.792916 0.314156 F F F P
0.156027 0.111742 0.283948 F F F P
0.656027 0.388258 0.294595 F F F P
0.843973 0.888258 0.340050 F F F P
0.343973 0.611742 0.329403 F F F P
0.894904 0.292916 0.450520 F F F P
0.394904 0.207084 0.400751 F F F P
0.105096 0.707084 0.446206 F F F P
0.605096 0.792916 0.405065 F F F P
0.156027 0.111742 0.374857 F F F P
0.656027 0.388258 0.385505 F F F P
0.843973 0.888258 0.430959 F F F P
0.343973 0.611742 0.420312 F F F P
0.894904 0.292916 0.541429 F F F P
0.394904 0.207084 0.491660 F F F P
0.105096 0.707084 0.537115 F F F P
0.605096 0.792916 0.495974 F F F P
0.156027 0.111742 0.465766 F F F P
0.656027 0.388258 0.476414 F F F P
0.843973 0.888258 0.521868 F F F P
0.343973 0.611742 0.511221 F F F P
0.894904 0.292916 0.632338 T T T P
0.394904 0.207084 0.582569 F F F P
0.105096 0.707084 0.628024 T T T P
0.605096 0.792916 0.586883 T T T P
0.156027 0.111742 0.556675 F F F P
0.656027 0.388258 0.567323 F F F P
0.843973 0.888258 0.612777 T T T P
0.343973 0.611742 0.602130 T T T P
