Li56 P28 O98
1.0
4.907295 0.000000 -1.895193
-0.730671 8.419349 -1.900271
0.000000 0.000000 79.370284
Li P O
56 28 98
direct
0.744463 0.987971 0.052029 Li+
0.255537 0.012029 0.078388 Li+
0.395677 0.751653 0.011688 Li+
0.604323 0.248347 0.027820 Li+
0.027769 0.791276 0.035414 Li+
0.972231 0.208724 0.004094 Li+
0.056952 0.450796 0.043219 Li+
0.943048 0.549204 0.087198 Li+
0.744463 0.987971 0.142938 Li+
0.255537 0.012029 0.169298 Li+
0.395677 0.751653 0.102597 Li+
0.604323 0.248347 0.118729 Li+
0.027769 0.791276 0.126323 Li+
0.972231 0.208724 0.095003 Li+
0.056952 0.450796 0.134128 Li+
0.943048 0.549204 0.178107 Li+
0.744463 0.987971 0.233847 Li+
0.255537 0.012029 0.260207 Li+
0.395677 0.751653 0.193506 Li+
0.604323 0.248347 0.209638 Li+
0.027769 0.791276 0.217233 Li+
0.972231 0.208724 0.185912 Li+
0.056952 0.450796 0.225037 Li+
0.943048 0.549204 0.269017 Li+
0.744463 0.987971 0.324756 Li+
0.255537 0.012029 0.351116 Li+
0.395677 0.751653 0.284415 Li+
0.604323 0.248347 0.300548 Li+
0.027769 0.791276 0.308142 Li+
0.972231 0.208724 0.276821 Li+
0.056952 0.450796 0.315946 Li+
0.943048 0.549204 0.359926 Li+
0.744463 0.987971 0.415665 Li+
0.255537 0.012029 0.442025 Li+
0.395677 0.751653 0.375324 Li+
0.604323 0.248347 0.391457 Li+
0.027769 0.791276 0.399051 Li+
0.972231 0.208724 0.367730 Li+
0.056952 0.450796 0.406855 Li+
0.943048 0.549204 0.450835 Li+
0.744463 0.987971 0.506574 Li+
0.255537 0.012029 0.532934 Li+
0.395677 0.751653 0.466234 Li+
0.604323 0.248347 0.482366 Li+
0.027769 0.791276 0.489960 Li+
0.972231 0.208724 0.458639 Li+
0.056952 0.450796 0.497765 Li+
0.943048 0.549204 0.541744 Li+
0.744463 0.987971 0.597484 Li+
0.255537 0.012029 0.623843 Li+
0.395677 0.751653 0.557143 Li+
0.604323 0.248347 0.573275 Li+
0.027769 0.791276 0.580869 Li+
0.972231 0.208724 0.549549 Li+
0.056952 0.450796 0.588674 Li+
0.943048 0.549204 0.632653 Li+
0.573990 0.631956 0.045818 P5+
0.426010 0.368044 0.084599 P5+
0.784272 0.845502 0.085278 P5+
0.215728 0.154498 0.045140 P5+
0.573990 0.631956 0.136727 P5+
0.426010 0.368044 0.175509 P5+
0.784272 0.845502 0.176187 P5+
0.215728 0.154498 0.136049 P5+
0.573990 0.631956 0.227636 P5+
0.426010 0.368044 0.266418 P5+
0.784272 0.845502 0.267096 P5+
0.215728 0.154498 0.226958 P5+
0.573990 0.631956 0.318545 P5+
0.426010 0.368044 0.357327 P5+
0.784272 0.845502 0.358005 P5+
0.215728 0.154498 0.317867 P5+
0.573990 0.631956 0.409454 P5+
0.426010 0.368044 0.448236 P5+
0.784272 0.845502 0.448914 P5+
0.215728 0.154498 0.408776 P5+
0.573990 0.631956 0.500363 P5+
0.426010 0.368044 0.539145 P5+
0.784272 0.845502 0.539823 P5+
0.215728 0.154498 0.499685 P5+
0.573990 0.631956 0.591273 P5+
0.426010 0.368044 0.630054 P5+
0.784272 0.845502 0.630732 P5+
0.215728 0.154498 0.590594 P5+
0.519912 0.874340 0.088685 O2-
0.006130 0.790684 0.010143 O2-
0.993870 0.209316 0.029365 O2-
0.882911 0.981976 0.078973 O2-
0.732561 0.376455 0.088541 O2-
0.267439 0.623545 0.041877 O2-
0.314844 0.526190 0.089555 O2-
0.685156 0.473810 0.040862 O2-
0.338222 0.236504 0.001354 O2-
0.661778 0.763496 0.038154 O2-
0.733069 0.683894 0.068628 O2-
0.266931 0.316106 0.061789 O2-
0.117089 0.018024 0.051444 O2-
0.480088 0.125660 0.041732 O2-
0.519912 0.874340 0.179594 O2-
0.006130 0.790684 0.101052 O2-
0.993870 0.209316 0.120274 O2-
0.882911 0.981976 0.169882 O2-
0.732561 0.376455 0.179450 O2-
0.267439 0.623545 0.132786 O2-
0.314844 0.526190 0.180464 O2-
0.685156 0.473810 0.131771 O2-
0.338222 0.236504 0.092263 O2-
0.661778 0.763496 0.129064 O2-
0.733069 0.683894 0.159537 O2-
0.266931 0.316106 0.152698 O2-
0.117089 0.018024 0.142353 O2-
0.480088 0.125660 0.132641 O2-
0.519912 0.874340 0.270503 O2-
0.006130 0.790684 0.191961 O2-
0.993870 0.209316 0.211183 O2-
0.882911 0.981976 0.260791 O2-
0.732561 0.376455 0.270359 O2-
0.267439 0.623545 0.223695 O2-
0.314844 0.526190 0.271373 O2-
0.685156 0.473810 0.222680 O2-
0.338222 0.236504 0.183172 O2-
0.661778 0.763496 0.219973 O2-
0.733069 0.683894 0.250447 O2-
0.266931 0.316106 0.243607 O2-
0.117089 0.018024 0.233262 O2-
0.480088 0.125660 0.223550 O2-
0.519912 0.874340 0.361412 O2-
0.006130 0.790684 0.282871 O2-
0.993870 0.209316 0.302092 O2-
0.882911 0.981976 0.351700 O2-
0.732561 0.376455 0.361268 O2-
0.267439 0.623545 0.314604 O2-
0.314844 0.526190 0.362282 O2-
0.685156 0.473810 0.313590 O2-
0.338222 0.236504 0.274081 O2-
0.661778 0.763496 0.310882 O2-
0.733069 0.683894 0.341356 O2-
0.266931 0.316106 0.334516 O2-
0.117089 0.018024 0.324172 O2-
0.480088 0.125660 0.314460 O2-
0.519912 0.874340 0.452322 O2-
0.006130 0.790684 0.373780 O2-
0.993870 0.209316 0.393001 O2-
0.882911 0.981976 0.442610 O2-
0.732561 0.376455 0.452177 O2-
0.267439 0.623545 0.405513 O2-
0.314844 0.526190 0.453192 O2-
0.685156 0.473810 0.404499 O2-
0.338222 0.236504 0.364990 O2-
0.661778 0.763496 0.401791 O2-
0.733069 0.683894 0.432265 O2-
0.266931 0.316106 0.425425 O2-
0.117089 0.018024 0.415081 O2-
0.480088 0.125660 0.405369 O2-
0.519912 0.874340 0.543231 O2-
0.006130 0.790684 0.464689 O2-
0.993870 0.209316 0.483911 O2-
0.882911 0.981976 0.533519 O2-
0.732561 0.376455 0.543086 O2-
0.267439 0.623545 0.496422 O2-
0.314844 0.526190 0.544101 O2-
0.685156 0.473810 0.495408 O2-
0.338222 0.236504 0.455899 O2-
0.661778 0.763496 0.492700 O2-
0.733069 0.683894 0.523174 O2-
0.266931 0.316106 0.516335 O2-
0.117089 0.018024 0.505990 O2-
0.480088 0.125660 0.496278 O2-
0.519912 0.874340 0.634140 O2-
0.006130 0.790684 0.555598 O2-
0.993870 0.209316 0.574820 O2-
0.882911 0.981976 0.624428 O2-
0.732561 0.376455 0.633995 O2-
0.267439 0.623545 0.587331 O2-
0.314844 0.526190 0.635010 O2-
0.685156 0.473810 0.586317 O2-
0.338222 0.236504 0.546808 O2-
0.661778 0.763496 0.583609 O2-
0.733069 0.683894 0.614083 O2-
0.266931 0.316106 0.607244 O2-
0.117089 0.018024 0.596899 O2-
0.480088 0.125660 0.587187 O2-
