Li71 P24 N1 O94                         
   1.00000000000000     
    14.7233320045613763    0.0002649075443758   -0.0034055576934535
     0.0001879252443617   10.5685351926775688   -0.0022628219346630
    -0.0028655021083282   -0.0026444931341311   12.3018028530272705
   Li   P    N    O 
    71    24     1    94
Direct
  0.1702993026081805  0.4175491655631647  0.0018968600842065
  0.1694059198986463  0.4242140443028183  0.5003475004615890
  0.1673079939030432  0.9295736807903423  0.0003919995564980
  0.1673382518310428  0.9237687251301413  0.5034948735489474
  0.5028840759001753  0.4222780375275449 -0.0004269993435019
  0.5033347404193358  0.4228632889174833  0.5002786025640010
  0.5045337945957171  0.9229524556616243 -0.0010958453857181
  0.5039205942562580  0.9223804269546643  0.5005777072463422
  0.8375090207998510  0.4225204809690148  0.0000408982159598
  0.8360348776760709  0.4228021418542245  0.5000320638534399
  0.8351518540719075  0.9211263355761555 -0.0014005340314897
  0.8346308815129821  0.9195404985743946  0.5012230495134139
  0.0030995075267450  0.0813100835617920  0.2405781914977014
  0.0028598036636122  0.0761549633661682  0.7540930243718064
  0.0026853151001345  0.5792519610357920  0.2494350732169365
  0.0032579719589612  0.5759813188263128  0.7507773337662804
  0.3655497167541234  0.0839244131855015  0.2463391507384841
  0.3359679097813182  0.0775779672895339  0.7519409947593861
  0.3361170503522896  0.5768305177681339  0.2493762752603436
  0.3365552187819784  0.5766940562542382  0.7508773004801366
  0.6697312450874817  0.0787602024818624  0.2492167758254263
  0.6691911173968671  0.0773760422511388  0.7500868239621062
  0.6692908732992262  0.5780558442170217  0.2494983789207383
  0.6695423815921140  0.5771192609717691  0.7501328435986072
  0.1709577319158406  0.1627773804080030  0.6269842449366479
  0.1693590929083528  0.6578869041363167  0.1248874372705690
  0.1693324353472761  0.6630780160044906  0.6279785346926785
  0.5052038480119702  0.1659036045229253  0.1222955531309715
  0.5025476854384514  0.1634573682575819  0.6266806228358481
  0.5029082979245492  0.6623859413545227  0.1255514289977733
  0.5030053951946645  0.6632835430986471  0.6267899541644943
  0.8390446724749182  0.1634754341906401  0.1246254290289307
  0.8350233030550303  0.1628312935417960  0.6271580225580273
  0.8358606072964936  0.6629715984907075  0.1261061723576611
  0.8352742992360276  0.6623358194259603  0.6269429476527622
  0.0070903668787342  0.3355700147795163  0.1245149035647682
  0.0025201742696833  0.3369344717712315  0.6229196855234015
 -0.0000055208850306  0.8363046640206719  0.1202746333436331
  0.0010797120578910  0.8339382964969859  0.6270212186586815
  0.3328747764477944  0.3337226794726036  0.1228286284778160
  0.3359833319691049  0.3370617539653962  0.6237448931703954
  0.3385484518972129  0.8358194538323312  0.1209437641215985
  0.3360449066211156  0.8365440025630548  0.6241839655500950
  0.6706623621036570  0.3371902694427216  0.1228007194344817
  0.6693185000477320  0.3368581463608465  0.6236857721100385
  0.6704267945509307  0.8367691152320327  0.1230593885488751
  0.6689302919186823  0.8364639944318448  0.6240690210267223
  0.0001934649900302  0.3423233093801597  0.3728386022967244
  0.0032039961002091  0.3357025527366733  0.8770409449106062
 -0.0009005285551124  0.8358750656593248  0.3796538371088753
  0.0024964289742480  0.8368055971726851  0.8769746074905145
  0.3364223902633479  0.3391793885493692  0.3755795243556773
  0.3364492472225777  0.3345554608867112  0.8767318097831936
  0.3379868830340166  0.8350607194861780  0.3771253753899488
  0.3365208530637563  0.8370872114512816  0.8771054088814284
  0.6701550041636324  0.3374992478738802  0.3759268941540790
  0.6699362029542286  0.3367387130445877  0.8760473151479495
  0.6699480957500689  0.8367738469247942  0.3764671226436895
  0.6693840066996503  0.8364722364016692  0.8759017255463422
  0.1712955749594958  0.1755453222303853  0.3768856666347207
  0.1688695728643805  0.1629412970862719  0.8802158549202405
  0.1680738729889445  0.6600443505195261  0.3776954170198911
  0.1695430320539551  0.6628245644697928  0.8738238319311666
  0.5053597872896324  0.1657807879740029  0.3755144621273407
  0.5031359503004447  0.1631651837055594  0.8734402387536059
  0.5029820557524138  0.6625921881270210  0.3738075284835496
  0.5028042978409828  0.6631883500467849  0.8734421995641778
  0.8375021919675895  0.1641385711125324  0.3745826044919660
  0.8355900032494834  0.1627793027400597  0.8719419688876865
  0.8352376406774120  0.6626706349816648  0.3738621337376415
  0.8362108913039119  0.6625982348379685  0.8733535032083328
  0.1679225910703485  0.4176332182041656  0.2493185017698426
  0.1671637523137159  0.4108432935646627  0.7499438394233995
  0.1650441898672445  0.9045192875059884  0.2512278194881554
  0.1669844366509084  0.9121736650755727  0.7507082709575892
  0.5008601290433123  0.4122992862624299  0.2495292771440093
  0.5005447115055249  0.4118806312094185  0.7499004400960236
  0.5006175169701272  0.9104859220578664  0.2498534882049550
  0.5003111756413979  0.9122448619562289  0.7496068957157959
  0.8329060759321983  0.4135592418676141  0.2495251219019329
  0.8337597747925835  0.4116800741610748  0.7497527773557792
  0.8330412536224320  0.9125350585017693  0.2504410725308324
  0.8330271016328007  0.9113242758758830  0.7498017346113222
 -0.0029178673219788  0.0878977936013641  0.0002822108108707
 -0.0011455254431351  0.0839276223683654  0.5023546873064307
  0.0005345331911350  0.5879414187170841 -0.0004637415684832
 -0.0002409652890561  0.5884172276793527  0.5009326237851024
  0.3349530795878319  0.0858195427235089 -0.0005166435261138
  0.3340917267876740  0.0873260191045637  0.4981541627337140
  0.3340661509715177  0.5868470276369371 -0.0006829405405761
  0.3341762614248347  0.5879548906556128  0.5009728006422945
  0.6679150095239174  0.0878101596969412 -0.0006193255782640
  0.6668740309210263  0.0878211393796307  0.5001269179732007
  0.6672656108392990  0.5878015203994563 -0.0004805498241891
  0.6666650112501838  0.5878993986381149  0.5001517820222995
  0.0378213954930648  0.1604761189062565  0.3972797787160111
  0.0340450190298806  0.1563187413243119  0.8964903872527622
  0.0349298808500883  0.6587974264748406  0.3974023163390600
  0.0354976176603748  0.6570850859949430  0.8954411987623161
  0.3691446870995248  0.1563871461651546  0.3935749205786051
  0.3714653291848052  0.1559634131553471  0.8958825975101875
  0.3693197695770018  0.6568907296059372  0.3968164067615526
  0.3694263825756622  0.6567054173235686  0.8956513356748642
  0.7019516727014122  0.1567372550507464  0.3959553819544046
  0.7026673961668151  0.1568962608468522  0.8952648295722716
  0.7018007199753816  0.6571761187354122  0.3962045491778300
  0.7023531319050763  0.6570149382938436  0.8955270283852493
  0.2004270907509683  0.0522100003570684  0.7500430690071669
  0.2003154569396529  0.5591478345815898  0.2543227711567434
  0.2008777946879435  0.5508857261013580  0.7500326838727869
  0.5299715782419856  0.0529244004949396  0.2497426667424800
  0.5341563196622572  0.0521367233921412  0.7493608973126603
  0.5339936035699971  0.5525689372179521  0.2499362058561762
  0.5342125454436593  0.5518811055950468  0.7497748678349904
  0.8680292159257200  0.0518597255395817  0.2509823470948361
  0.8674329701813990  0.0509081659611648  0.7489584227587670
  0.8669270898408744  0.5535194984384690  0.2501233718321816
  0.8676408335099132  0.5515195223549627  0.7497288905970307
  0.0619952187460013  0.4150919766402302  0.2502404161664148
  0.0613158822186066  0.4080424799199754  0.7497881063854169
  0.0596552539438638  0.9082008433342278  0.2505840064045437
  0.0611192270568721  0.9090522891648644  0.7507716115392896
  0.3952095960530724  0.4083710461334232  0.2491561698584075
  0.3947839577740355  0.4087234970800551  0.7500308045153307
  0.3945538638931773  0.9057151561798357  0.2497623042647800
  0.3945500090631401  0.9096025580743922  0.7496701919490640
  0.7270574728575611  0.4111291709359193  0.2492661481177777
  0.7279430241179388  0.4092898658511684  0.7495452755587910
  0.7272100542754492  0.9110247907881922  0.2500855038112460
  0.7272287946663397  0.9096327136768128  0.7499282582785926
  0.2308675852057633  0.0851959638421857 -0.0019402692486807
  0.2280905483259737  0.0899964172559921  0.4959921178385931
  0.2283615617598766  0.5899361517865299 -0.0009361375459492
  0.2283937547651786  0.5911397631086385  0.5018665946586608
  0.5621923412909604  0.0906763964338856 -0.0007747212361700
  0.5609883425992778  0.0907901019574152  0.5002188398340024
  0.5614703096645064  0.5903097358338413 -0.0004201458603166
  0.5608904622677776  0.5906006316711296  0.5000992046714058
  0.8909262852796541  0.0863939436353217 -0.0048201089848681
  0.8929403075652270  0.0855727835317747  0.5023995153352082
  0.8946913915625594  0.5911699875779259 -0.0000924686757704
  0.8940020313170834  0.5910874219023892  0.5005211611506356
  0.2047999622440873  0.3550956592655701  0.1457793317808076
  0.2021985695513877  0.3424795086857147  0.6451387547577914
  0.2031096330057577  0.8427398448617409  0.1462998881687547
  0.2020505498653252  0.8433417760167227  0.6461308375260162
  0.5371115113419763  0.3436379812279781  0.1458455883479450
  0.5356668673329108  0.3428352971446314  0.6456564498475107
  0.5369379000401210  0.8427556509593845  0.1462600794098340
  0.5353904379307496  0.8431569737524027  0.6454025449993865
  0.8686873168468744  0.3445927956244689  0.1460765483528182
  0.8688501453599569  0.3423335512469941  0.6456167625024840
  0.8680139669741370  0.8429569716492185  0.1465598882835804
  0.8676151908743472  0.8411740077560989  0.6460140179921500
  0.0255298770022108  0.1577291491551253  0.1047187740343408
  0.0360660757734743  0.1556898566137740  0.6042546481534045
  0.0358789812731856  0.6581441706497207  0.1033331230708081
  0.0352119098382365  0.6563952387140208  0.6053520259556062
  0.3719361868613756  0.1558008994767420  0.1031035413185187
  0.3683084261870808  0.1571931143454280  0.6019527722981624
  0.3692871036672292  0.6561691447287920  0.1035526434691639
  0.3696344573106174  0.6570793859670907  0.6048074444506413
  0.7030026686021199  0.1567985121121290  0.1036290417155882
  0.7020949769515240  0.1570055375722565  0.6040340030743061
  0.7023731766234291  0.6572199100315909  0.1035464893165576
  0.7018188647056274  0.6569582860536085  0.6042386398280213
  0.0342407625650825  0.4483568094544945 -0.0002778706767241
  0.0337839788030713  0.4487499989208369  0.4998854737222565
  0.0323785873827701  0.9479787057944470  0.0006743318861330
  0.0313462120700271  0.9429795700399306  0.5037254321400368
  0.3682323918255739  0.4472886450364513 -0.0007910870334342
  0.3678617841319634  0.4479934740253849  0.5004233849156077
  0.3718252266381391  0.9465402118694300  0.0002539311163860
  0.3679336697857115  0.9476967358657338  0.4988238667413811
  0.7014281554693587  0.4481349406863585 -0.0005792420078977
  0.7005388432189709  0.4480596525646880  0.5000641489933089
  0.7007723830623971  0.9474584236108685 -0.0005444492497084
  0.6999924141965892  0.9476392246996930  0.5002553597501092
  0.2034087626490229  0.3476404291005613  0.3539769397358567
  0.2026720644817852  0.3413579010143884  0.8533216740927870
  0.2021977039714935  0.8425143879575330  0.3570214599080941
  0.2024244893441904  0.8427409419644846  0.8542120286379622
  0.5362523045800975  0.3435944503607405  0.3538896561866433
  0.5363204065103222  0.3429465466054765  0.8536487312287089
  0.5362949353636539  0.8433709428661388  0.3542099419748231
  0.5360106534429108  0.8428725347704776  0.8531940110945619
  0.8670614411186282  0.3448181479342174  0.3542349752956628
  0.8689273463579310  0.3426394408252669  0.8536618366402198
  0.8673480142738920  0.8425150088253203  0.3544950839843424
  0.8683533185051422  0.8419182802941296  0.8534951539875337
 
  0.00000000E+00  0.00000000E+00  0.00000000E+00
  0.00000000E+00  0.00000000E+00  0.00000000E+00
  0.00000000E+00  0.00000000E+00  0.00000000E+00
  0.00000000E+00  0.00000000E+00  0.00000000E+00
  0.00000000E+00  0.00000000E+00  0.00000000E+00
  0.00000000E+00  0.00000000E+00  0.00000000E+00
  0.00000000E+00  0.00000000E+00  0.00000000E+00
  0.00000000E+00  0.00000000E+00  0.00000000E+00
  0.00000000E+00  0.00000000E+00  0.00000000E+00
  0.00000000E+00  0.00000000E+00  0.00000000E+00
  0.00000000E+00  0.00000000E+00  0.00000000E+00
  0.00000000E+00  0.00000000E+00  0.00000000E+00
  0.00000000E+00  0.00000000E+00  0.00000000E+00
  0.00000000E+00  0.00000000E+00  0.00000000E+00
  0.00000000E+00  0.00000000E+00  0.00000000E+00
  0.00000000E+00  0.00000000E+00  0.00000000E+00
  0.00000000E+00  0.00000000E+00  0.00000000E+00
  0.00000000E+00  0.00000000E+00  0.00000000E+00
  0.00000000E+00  0.00000000E+00  0.00000000E+00
  0.00000000E+00  0.00000000E+00  0.00000000E+00
  0.00000000E+00  0.00000000E+00  0.00000000E+00
  0.00000000E+00  0.00000000E+00  0.00000000E+00
  0.00000000E+00  0.00000000E+00  0.00000000E+00
  0.00000000E+00  0.00000000E+00  0.00000000E+00
  0.00000000E+00  0.00000000E+00  0.00000000E+00
  0.00000000E+00  0.00000000E+00  0.00000000E+00
  0.00000000E+00  0.00000000E+00  0.00000000E+00
  0.00000000E+00  0.00000000E+00  0.00000000E+00
  0.00000000E+00  0.00000000E+00  0.00000000E+00
  0.00000000E+00  0.00000000E+00  0.00000000E+00
  0.00000000E+00  0.00000000E+00  0.00000000E+00
  0.00000000E+00  0.00000000E+00  0.00000000E+00
  0.00000000E+00  0.00000000E+00  0.00000000E+00
  0.00000000E+00  0.00000000E+00  0.00000000E+00
  0.00000000E+00  0.00000000E+00  0.00000000E+00
  0.00000000E+00  0.00000000E+00  0.00000000E+00
  0.00000000E+00  0.00000000E+00  0.00000000E+00
  0.00000000E+00  0.00000000E+00  0.00000000E+00
  0.00000000E+00  0.00000000E+00  0.00000000E+00
  0.00000000E+00  0.00000000E+00  0.00000000E+00
  0.00000000E+00  0.00000000E+00  0.00000000E+00
  0.00000000E+00  0.00000000E+00  0.00000000E+00
  0.00000000E+00  0.00000000E+00  0.00000000E+00
  0.00000000E+00  0.00000000E+00  0.00000000E+00
  0.00000000E+00  0.00000000E+00  0.00000000E+00
  0.00000000E+00  0.00000000E+00  0.00000000E+00
  0.00000000E+00  0.00000000E+00  0.00000000E+00
  0.00000000E+00  0.00000000E+00  0.00000000E+00
  0.00000000E+00  0.00000000E+00  0.00000000E+00
  0.00000000E+00  0.00000000E+00  0.00000000E+00
  0.00000000E+00  0.00000000E+00  0.00000000E+00
  0.00000000E+00  0.00000000E+00  0.00000000E+00
  0.00000000E+00  0.00000000E+00  0.00000000E+00
  0.00000000E+00  0.00000000E+00  0.00000000E+00
  0.00000000E+00  0.00000000E+00  0.00000000E+00
  0.00000000E+00  0.00000000E+00  0.00000000E+00
  0.00000000E+00  0.00000000E+00  0.00000000E+00
  0.00000000E+00  0.00000000E+00  0.00000000E+00
  0.00000000E+00  0.00000000E+00  0.00000000E+00
  0.00000000E+00  0.00000000E+00  0.00000000E+00
  0.00000000E+00  0.00000000E+00  0.00000000E+00
  0.00000000E+00  0.00000000E+00  0.00000000E+00
  0.00000000E+00  0.00000000E+00  0.00000000E+00
  0.00000000E+00  0.00000000E+00  0.00000000E+00
  0.00000000E+00  0.00000000E+00  0.00000000E+00
  0.00000000E+00  0.00000000E+00  0.00000000E+00
  0.00000000E+00  0.00000000E+00  0.00000000E+00
  0.00000000E+00  0.00000000E+00  0.00000000E+00
  0.00000000E+00  0.00000000E+00  0.00000000E+00
  0.00000000E+00  0.00000000E+00  0.00000000E+00
  0.00000000E+00  0.00000000E+00  0.00000000E+00
  0.00000000E+00  0.00000000E+00  0.00000000E+00
  0.00000000E+00  0.00000000E+00  0.00000000E+00
  0.00000000E+00  0.00000000E+00  0.00000000E+00
  0.00000000E+00  0.00000000E+00  0.00000000E+00
  0.00000000E+00  0.00000000E+00  0.00000000E+00
  0.00000000E+00  0.00000000E+00  0.00000000E+00
  0.00000000E+00  0.00000000E+00  0.00000000E+00
  0.00000000E+00  0.00000000E+00  0.00000000E+00
  0.00000000E+00  0.00000000E+00  0.00000000E+00
  0.00000000E+00  0.00000000E+00  0.00000000E+00
  0.00000000E+00  0.00000000E+00  0.00000000E+00
  0.00000000E+00  0.00000000E+00  0.00000000E+00
  0.00000000E+00  0.00000000E+00  0.00000000E+00
  0.00000000E+00  0.00000000E+00  0.00000000E+00
  0.00000000E+00  0.00000000E+00  0.00000000E+00
  0.00000000E+00  0.00000000E+00  0.00000000E+00
  0.00000000E+00  0.00000000E+00  0.00000000E+00
  0.00000000E+00  0.00000000E+00  0.00000000E+00
  0.00000000E+00  0.00000000E+00  0.00000000E+00
  0.00000000E+00  0.00000000E+00  0.00000000E+00
  0.00000000E+00  0.00000000E+00  0.00000000E+00
  0.00000000E+00  0.00000000E+00  0.00000000E+00
  0.00000000E+00  0.00000000E+00  0.00000000E+00
  0.00000000E+00  0.00000000E+00  0.00000000E+00
  0.00000000E+00  0.00000000E+00  0.00000000E+00
  0.00000000E+00  0.00000000E+00  0.00000000E+00
  0.00000000E+00  0.00000000E+00  0.00000000E+00
  0.00000000E+00  0.00000000E+00  0.00000000E+00
  0.00000000E+00  0.00000000E+00  0.00000000E+00
  0.00000000E+00  0.00000000E+00  0.00000000E+00
  0.00000000E+00  0.00000000E+00  0.00000000E+00
  0.00000000E+00  0.00000000E+00  0.00000000E+00
  0.00000000E+00  0.00000000E+00  0.00000000E+00
  0.00000000E+00  0.00000000E+00  0.00000000E+00
  0.00000000E+00  0.00000000E+00  0.00000000E+00
  0.00000000E+00  0.00000000E+00  0.00000000E+00
  0.00000000E+00  0.00000000E+00  0.00000000E+00
  0.00000000E+00  0.00000000E+00  0.00000000E+00
  0.00000000E+00  0.00000000E+00  0.00000000E+00
  0.00000000E+00  0.00000000E+00  0.00000000E+00
  0.00000000E+00  0.00000000E+00  0.00000000E+00
  0.00000000E+00  0.00000000E+00  0.00000000E+00
  0.00000000E+00  0.00000000E+00  0.00000000E+00
  0.00000000E+00  0.00000000E+00  0.00000000E+00
  0.00000000E+00  0.00000000E+00  0.00000000E+00
  0.00000000E+00  0.00000000E+00  0.00000000E+00
  0.00000000E+00  0.00000000E+00  0.00000000E+00
  0.00000000E+00  0.00000000E+00  0.00000000E+00
  0.00000000E+00  0.00000000E+00  0.00000000E+00
  0.00000000E+00  0.00000000E+00  0.00000000E+00
  0.00000000E+00  0.00000000E+00  0.00000000E+00
  0.00000000E+00  0.00000000E+00  0.00000000E+00
  0.00000000E+00  0.00000000E+00  0.00000000E+00
  0.00000000E+00  0.00000000E+00  0.00000000E+00
  0.00000000E+00  0.00000000E+00  0.00000000E+00
  0.00000000E+00  0.00000000E+00  0.00000000E+00
  0.00000000E+00  0.00000000E+00  0.00000000E+00
  0.00000000E+00  0.00000000E+00  0.00000000E+00
  0.00000000E+00  0.00000000E+00  0.00000000E+00
  0.00000000E+00  0.00000000E+00  0.00000000E+00
  0.00000000E+00  0.00000000E+00  0.00000000E+00
  0.00000000E+00  0.00000000E+00  0.00000000E+00
  0.00000000E+00  0.00000000E+00  0.00000000E+00
  0.00000000E+00  0.00000000E+00  0.00000000E+00
  0.00000000E+00  0.00000000E+00  0.00000000E+00
  0.00000000E+00  0.00000000E+00  0.00000000E+00
  0.00000000E+00  0.00000000E+00  0.00000000E+00
  0.00000000E+00  0.00000000E+00  0.00000000E+00
  0.00000000E+00  0.00000000E+00  0.00000000E+00
  0.00000000E+00  0.00000000E+00  0.00000000E+00
  0.00000000E+00  0.00000000E+00  0.00000000E+00
  0.00000000E+00  0.00000000E+00  0.00000000E+00
  0.00000000E+00  0.00000000E+00  0.00000000E+00
  0.00000000E+00  0.00000000E+00  0.00000000E+00
  0.00000000E+00  0.00000000E+00  0.00000000E+00
  0.00000000E+00  0.00000000E+00  0.00000000E+00
  0.00000000E+00  0.00000000E+00  0.00000000E+00
  0.00000000E+00  0.00000000E+00  0.00000000E+00
  0.00000000E+00  0.00000000E+00  0.00000000E+00
  0.00000000E+00  0.00000000E+00  0.00000000E+00
  0.00000000E+00  0.00000000E+00  0.00000000E+00
  0.00000000E+00  0.00000000E+00  0.00000000E+00
  0.00000000E+00  0.00000000E+00  0.00000000E+00
  0.00000000E+00  0.00000000E+00  0.00000000E+00
  0.00000000E+00  0.00000000E+00  0.00000000E+00
  0.00000000E+00  0.00000000E+00  0.00000000E+00
  0.00000000E+00  0.00000000E+00  0.00000000E+00
  0.00000000E+00  0.00000000E+00  0.00000000E+00
  0.00000000E+00  0.00000000E+00  0.00000000E+00
  0.00000000E+00  0.00000000E+00  0.00000000E+00
  0.00000000E+00  0.00000000E+00  0.00000000E+00
  0.00000000E+00  0.00000000E+00  0.00000000E+00
  0.00000000E+00  0.00000000E+00  0.00000000E+00
  0.00000000E+00  0.00000000E+00  0.00000000E+00
  0.00000000E+00  0.00000000E+00  0.00000000E+00
  0.00000000E+00  0.00000000E+00  0.00000000E+00
  0.00000000E+00  0.00000000E+00  0.00000000E+00
  0.00000000E+00  0.00000000E+00  0.00000000E+00
  0.00000000E+00  0.00000000E+00  0.00000000E+00
  0.00000000E+00  0.00000000E+00  0.00000000E+00
  0.00000000E+00  0.00000000E+00  0.00000000E+00
  0.00000000E+00  0.00000000E+00  0.00000000E+00
  0.00000000E+00  0.00000000E+00  0.00000000E+00
  0.00000000E+00  0.00000000E+00  0.00000000E+00
  0.00000000E+00  0.00000000E+00  0.00000000E+00
  0.00000000E+00  0.00000000E+00  0.00000000E+00
  0.00000000E+00  0.00000000E+00  0.00000000E+00
  0.00000000E+00  0.00000000E+00  0.00000000E+00
  0.00000000E+00  0.00000000E+00  0.00000000E+00
  0.00000000E+00  0.00000000E+00  0.00000000E+00
  0.00000000E+00  0.00000000E+00  0.00000000E+00
  0.00000000E+00  0.00000000E+00  0.00000000E+00
  0.00000000E+00  0.00000000E+00  0.00000000E+00
  0.00000000E+00  0.00000000E+00  0.00000000E+00
  0.00000000E+00  0.00000000E+00  0.00000000E+00
  0.00000000E+00  0.00000000E+00  0.00000000E+00
  0.00000000E+00  0.00000000E+00  0.00000000E+00
  0.00000000E+00  0.00000000E+00  0.00000000E+00
  0.00000000E+00  0.00000000E+00  0.00000000E+00
