Li42 P14 O56
1.0
5.296402 0.000000 -4.922448
0.000000 6.176136 -4.922448
0.000000 0.000000 68.914272
Li P O
42 14 56
direct
0.844520 0.000000 0.063196 Li+
0.155480 0.500000 0.013979 Li+
0.326434 0.747127 0.008052 Li+
0.673566 0.752873 0.068972 Li+
0.673566 0.247127 0.032847 Li+
0.326434 0.252873 0.044177 Li+
0.844520 0.000000 0.134624 Li+
0.155480 0.500000 0.085407 Li+
0.326434 0.747127 0.079481 Li+
0.673566 0.752873 0.140401 Li+
0.673566 0.247127 0.104276 Li+
0.326434 0.252873 0.115605 Li+
0.844520 0.000000 0.206053 Li+
0.155480 0.500000 0.156836 Li+
0.326434 0.747127 0.150909 Li+
0.673566 0.752873 0.211829 Li+
0.673566 0.247127 0.175704 Li+
0.326434 0.252873 0.187034 Li+
0.844520 0.000000 0.277482 Li+
0.155480 0.500000 0.228264 Li+
0.326434 0.747127 0.222338 Li+
0.673566 0.752873 0.283258 Li+
0.673566 0.247127 0.247133 Li+
0.326434 0.252873 0.258463 Li+
0.844520 0.000000 0.348910 Li+
0.155480 0.500000 0.299693 Li+
0.326434 0.747127 0.293766 Li+
0.673566 0.752873 0.354686 Li+
0.673566 0.247127 0.318562 Li+
0.326434 0.252873 0.329891 Li+
0.844520 0.000000 0.420339 Li+
0.155480 0.500000 0.371122 Li+
0.326434 0.747127 0.365195 Li+
0.673566 0.752873 0.426115 Li+
0.673566 0.247127 0.389990 Li+
0.326434 0.252873 0.401320 Li+
0.844520 0.000000 0.491767 Li+
0.155480 0.500000 0.442550 Li+
0.326434 0.747127 0.436624 Li+
0.673566 0.752873 0.497543 Li+
0.673566 0.247127 0.461419 Li+
0.326434 0.252873 0.472748 Li+
0.824261 0.500000 0.025463 P5+
0.175739 0.000000 0.050569 P5+
0.824261 0.500000 0.096892 P5+
0.175739 0.000000 0.121997 P5+
0.824261 0.500000 0.168320 P5+
0.175739 0.000000 0.193426 P5+
0.824261 0.500000 0.239749 P5+
0.175739 0.000000 0.264855 P5+
0.824261 0.500000 0.311178 P5+
0.175739 0.000000 0.336283 P5+
0.824261 0.500000 0.382606 P5+
0.175739 0.000000 0.407712 P5+
0.824261 0.500000 0.454035 P5+
0.175739 0.000000 0.479140 P5+
0.313509 0.207138 0.011319 O2-
0.103508 0.500000 0.052603 O2-
0.818396 0.500000 0.002457 O2-
0.181604 0.000000 0.028400 O2-
0.686491 0.707138 0.037960 O2-
0.313509 0.792862 0.053156 O2-
0.896492 0.000000 0.037816 O2-
0.686491 0.292862 0.008369 O2-
0.313509 0.207138 0.082747 O2-
0.103508 0.500000 0.124031 O2-
0.818396 0.500000 0.073885 O2-
0.181604 0.000000 0.099829 O2-
0.686491 0.707138 0.109389 O2-
0.313509 0.792862 0.124585 O2-
0.896492 0.000000 0.109245 O2-
0.686491 0.292862 0.079798 O2-
0.313509 0.207138 0.154176 O2-
0.103508 0.500000 0.195460 O2-
0.818396 0.500000 0.145314 O2-
0.181604 0.000000 0.171257 O2-
0.686491 0.707138 0.180817 O2-
0.313509 0.792862 0.196013 O2-
0.896492 0.000000 0.180673 O2-
0.686491 0.292862 0.151226 O2-
0.313509 0.207138 0.225604 O2-
0.103508 0.500000 0.266889 O2-
0.818396 0.500000 0.216742 O2-
0.181604 0.000000 0.242686 O2-
0.686491 0.707138 0.252246 O2-
0.313509 0.792862 0.267442 O2-
0.896492 0.000000 0.252102 O2-
0.686491 0.292862 0.222655 O2-
0.313509 0.207138 0.297033 O2-
0.103508 0.500000 0.338317 O2-
0.818396 0.500000 0.288171 O2-
0.181604 0.000000 0.314114 O2-
0.686491 0.707138 0.323675 O2-
0.313509 0.792862 0.338870 O2-
0.896492 0.000000 0.323530 O2-
0.686491 0.292862 0.294083 O2-
0.313509 0.207138 0.368462 O2-
0.103508 0.500000 0.409746 O2-
0.818396 0.500000 0.359599 O2-
0.181604 0.000000 0.385543 O2-
0.686491 0.707138 0.395103 O2-
0.313509 0.792862 0.410299 O2-
0.896492 0.000000 0.394959 O2-
0.686491 0.292862 0.365512 O2-
0.313509 0.207138 0.439890 O2-
0.103508 0.500000 0.481174 O2-
0.818396 0.500000 0.431028 O2-
0.181604 0.000000 0.456971 O2-
0.686491 0.707138 0.466532 O2-
0.313509 0.792862 0.481728 O2-
0.896492 0.000000 0.466387 O2-
0.686491 0.292862 0.436941 O2-
