Li392 P56 N224
1.0
9.402378 0.000000 0.000000
0.000000 9.402378 -9.402378
0.000000 0.000000 103.426158
Li P N
392 56 224
direct
0.500000 0.500000 0.023164 Li+
0.000000 0.000000 0.023164 Li+
0.500000 0.000000 0.068619 Li+
0.000000 0.500000 0.023164 Li+
0.500000 0.000000 0.023164 Li+
0.000000 0.500000 0.068619 Li+
0.500000 0.000000 0.045892 Li+
0.250000 0.500000 0.023164 Li+
0.750000 0.500000 0.023164 Li+
0.000000 0.750000 0.000437 Li+
0.000000 0.250000 0.045892 Li+
0.500000 0.000000 0.000437 Li+
0.774626 0.774626 0.027642 Li+
0.725374 0.274626 0.068619 Li+
0.274626 0.725374 0.018687 Li+
0.725374 0.725374 0.068619 Li+
0.774626 0.225374 0.018687 Li+
0.225374 0.225374 0.068619 Li+
0.225374 0.774626 0.068619 Li+
0.274626 0.274626 0.027642 Li+
0.024836 0.762917 0.024035 Li+
0.737083 0.524836 0.002998 Li+
0.262917 0.475164 0.089392 Li+
0.246664 0.737083 0.087914 Li+
0.753336 0.737083 0.001521 Li+
0.475164 0.753336 0.070096 Li+
0.475164 0.246664 0.067141 Li+
0.762917 0.746664 0.047846 Li+
0.746664 0.024836 0.049324 Li+
0.746664 0.975164 0.087914 Li+
0.237083 0.253336 0.002998 Li+
0.253336 0.024836 0.001521 Li+
0.762917 0.253336 0.089392 Li+
0.237083 0.746664 0.043331 Li+
0.253336 0.975164 0.044808 Li+
0.975164 0.237083 0.067141 Li+
0.975164 0.762917 0.070096 Li+
0.024836 0.237083 0.022293 Li+
0.524836 0.753336 0.022293 Li+
0.524836 0.246664 0.024035 Li+
0.753336 0.262917 0.044808 Li+
0.246664 0.262917 0.049324 Li+
0.737083 0.475164 0.043331 Li+
0.262917 0.524836 0.047846 Li+
0.000000 0.000000 0.044584 Li+
0.500000 0.500000 0.001745 Li+
0.235613 0.500000 0.068619 Li+
0.764387 0.500000 0.068619 Li+
0.500000 0.764387 0.001745 Li+
0.500000 0.235613 0.044584 Li+
0.000000 0.735613 0.044584 Li+
0.735613 0.000000 0.068619 Li+
0.000000 0.264387 0.001745 Li+
0.264387 0.000000 0.068619 Li+
0.000000 0.000000 0.001745 Li+
0.500000 0.500000 0.044584 Li+
0.500000 0.500000 0.114073 Li+
0.000000 0.000000 0.114073 Li+
0.500000 0.000000 0.159528 Li+
0.000000 0.500000 0.114073 Li+
0.500000 0.000000 0.114073 Li+
0.000000 0.500000 0.159528 Li+
0.500000 0.000000 0.136801 Li+
0.250000 0.500000 0.114073 Li+
0.750000 0.500000 0.114073 Li+
0.000000 0.750000 0.091346 Li+
0.000000 0.250000 0.136801 Li+
0.500000 0.000000 0.091346 Li+
0.774626 0.774626 0.118551 Li+
0.725374 0.274626 0.159528 Li+
0.274626 0.725374 0.109596 Li+
0.725374 0.725374 0.159528 Li+
0.774626 0.225374 0.109596 Li+
0.225374 0.225374 0.159528 Li+
0.225374 0.774626 0.159528 Li+
0.274626 0.274626 0.118551 Li+
0.024836 0.762917 0.114944 Li+
0.737083 0.524836 0.093907 Li+
0.262917 0.475164 0.180301 Li+
0.246664 0.737083 0.178823 Li+
0.753336 0.737083 0.092430 Li+
0.475164 0.753336 0.161006 Li+
0.475164 0.246664 0.158050 Li+
0.762917 0.746664 0.138755 Li+
0.746664 0.024836 0.140233 Li+
0.746664 0.975164 0.178823 Li+
0.237083 0.253336 0.093907 Li+
0.253336 0.024836 0.092430 Li+
0.762917 0.253336 0.180301 Li+
0.237083 0.746664 0.134240 Li+
0.253336 0.975164 0.135717 Li+
0.975164 0.237083 0.158050 Li+
0.975164 0.762917 0.161006 Li+
0.024836 0.237083 0.113202 Li+
0.524836 0.753336 0.113202 Li+
0.524836 0.246664 0.114944 Li+
0.753336 0.262917 0.135717 Li+
0.246664 0.262917 0.140233 Li+
0.737083 0.475164 0.134240 Li+
0.262917 0.524836 0.138755 Li+
0.000000 0.000000 0.135493 Li+
0.500000 0.500000 0.092654 Li+
0.235613 0.500000 0.159528 Li+
0.764387 0.500000 0.159528 Li+
0.500000 0.764387 0.092654 Li+
0.500000 0.235613 0.135493 Li+
0.000000 0.735613 0.135493 Li+
0.735613 0.000000 0.159528 Li+
0.000000 0.264387 0.092654 Li+
0.264387 0.000000 0.159528 Li+
0.000000 0.000000 0.092654 Li+
0.500000 0.500000 0.135493 Li+
0.500000 0.500000 0.204983 Li+
0.000000 0.000000 0.204983 Li+
0.500000 0.000000 0.250437 Li+
0.000000 0.500000 0.204983 Li+
0.500000 0.000000 0.204983 Li+
0.000000 0.500000 0.250437 Li+
0.500000 0.000000 0.227710 Li+
0.250000 0.500000 0.204983 Li+
0.750000 0.500000 0.204983 Li+
0.000000 0.750000 0.182255 Li+
0.000000 0.250000 0.227710 Li+
0.500000 0.000000 0.182255 Li+
0.774626 0.774626 0.209460 Li+
0.725374 0.274626 0.250437 Li+
0.274626 0.725374 0.200505 Li+
0.725374 0.725374 0.250437 Li+
0.774626 0.225374 0.200505 Li+
0.225374 0.225374 0.250437 Li+
0.225374 0.774626 0.250437 Li+
0.274626 0.274626 0.209460 Li+
0.024836 0.762917 0.205854 Li+
0.737083 0.524836 0.184816 Li+
0.262917 0.475164 0.271210 Li+
0.246664 0.737083 0.269732 Li+
0.753336 0.737083 0.183339 Li+
0.475164 0.753336 0.251915 Li+
0.475164 0.246664 0.248960 Li+
0.762917 0.746664 0.229664 Li+
0.746664 0.024836 0.231142 Li+
0.746664 0.975164 0.269732 Li+
0.237083 0.253336 0.184816 Li+
0.253336 0.024836 0.183339 Li+
0.762917 0.253336 0.271210 Li+
0.237083 0.746664 0.225149 Li+
0.253336 0.975164 0.226626 Li+
0.975164 0.237083 0.248960 Li+
0.975164 0.762917 0.251915 Li+
0.024836 0.237083 0.204112 Li+
0.524836 0.753336 0.204112 Li+
0.524836 0.246664 0.205854 Li+
0.753336 0.262917 0.226626 Li+
0.246664 0.262917 0.231142 Li+
0.737083 0.475164 0.225149 Li+
0.262917 0.524836 0.229664 Li+
0.000000 0.000000 0.226402 Li+
0.500000 0.500000 0.183563 Li+
0.235613 0.500000 0.250437 Li+
0.764387 0.500000 0.250437 Li+
0.500000 0.764387 0.183563 Li+
0.500000 0.235613 0.226402 Li+
0.000000 0.735613 0.226402 Li+
0.735613 0.000000 0.250437 Li+
0.000000 0.264387 0.183563 Li+
0.264387 0.000000 0.250437 Li+
0.000000 0.000000 0.183563 Li+
0.500000 0.500000 0.226402 Li+
0.500000 0.500000 0.295892 Li+
0.000000 0.000000 0.295892 Li+
0.500000 0.000000 0.341346 Li+
0.000000 0.500000 0.295892 Li+
0.500000 0.000000 0.295892 Li+
0.000000 0.500000 0.341346 Li+
0.500000 0.000000 0.318619 Li+
0.250000 0.500000 0.295892 Li+
0.750000 0.500000 0.295892 Li+
0.000000 0.750000 0.273164 Li+
0.000000 0.250000 0.318619 Li+
0.500000 0.000000 0.273164 Li+
0.774626 0.774626 0.300369 Li+
0.725374 0.274626 0.341346 Li+
0.274626 0.725374 0.291414 Li+
0.725374 0.725374 0.341346 Li+
0.774626 0.225374 0.291414 Li+
0.225374 0.225374 0.341346 Li+
0.225374 0.774626 0.341346 Li+
0.274626 0.274626 0.300369 Li+
0.024836 0.762917 0.296763 Li+
0.737083 0.524836 0.275725 Li+
0.262917 0.475164 0.362119 Li+
0.246664 0.737083 0.360641 Li+
0.753336 0.737083 0.274248 Li+
0.475164 0.753336 0.342824 Li+
0.475164 0.246664 0.339869 Li+
0.762917 0.746664 0.320573 Li+
0.746664 0.024836 0.322051 Li+
0.746664 0.975164 0.360641 Li+
0.237083 0.253336 0.275725 Li+
0.253336 0.024836 0.274248 Li+
0.762917 0.253336 0.362119 Li+
0.237083 0.746664 0.316058 Li+
0.253336 0.975164 0.317535 Li+
0.975164 0.237083 0.339869 Li+
0.975164 0.762917 0.342824 Li+
0.024836 0.237083 0.295021 Li+
0.524836 0.753336 0.295021 Li+
0.524836 0.246664 0.296763 Li+
0.753336 0.262917 0.317535 Li+
0.246664 0.262917 0.322051 Li+
0.737083 0.475164 0.316058 Li+
0.262917 0.524836 0.320573 Li+
0.000000 0.000000 0.317311 Li+
0.500000 0.500000 0.274472 Li+
0.235613 0.500000 0.341346 Li+
0.764387 0.500000 0.341346 Li+
0.500000 0.764387 0.274472 Li+
0.500000 0.235613 0.317311 Li+
0.000000 0.735613 0.317311 Li+
0.735613 0.000000 0.341346 Li+
0.000000 0.264387 0.274472 Li+
0.264387 0.000000 0.341346 Li+
0.000000 0.000000 0.274472 Li+
0.500000 0.500000 0.317311 Li+
0.500000 0.500000 0.386801 Li+
0.000000 0.000000 0.386801 Li+
0.500000 0.000000 0.432255 Li+
0.000000 0.500000 0.386801 Li+
0.500000 0.000000 0.386801 Li+
0.000000 0.500000 0.432255 Li+
0.500000 0.000000 0.409528 Li+
0.250000 0.500000 0.386801 Li+
0.750000 0.500000 0.386801 Li+
0.000000 0.750000 0.364073 Li+
0.000000 0.250000 0.409528 Li+
0.500000 0.000000 0.364073 Li+
0.774626 0.774626 0.391278 Li+
0.725374 0.274626 0.432255 Li+
0.274626 0.725374 0.382323 Li+
0.725374 0.725374 0.432255 Li+
0.774626 0.225374 0.382323 Li+
0.225374 0.225374 0.432255 Li+
0.225374 0.774626 0.432255 Li+
0.274626 0.274626 0.391278 Li+
0.024836 0.762917 0.387672 Li+
0.737083 0.524836 0.366635 Li+
0.262917 0.475164 0.453028 Li+
0.246664 0.737083 0.451550 Li+
0.753336 0.737083 0.365157 Li+
0.475164 0.753336 0.433733 Li+
0.475164 0.246664 0.430778 Li+
0.762917 0.746664 0.411483 Li+
0.746664 0.024836 0.412960 Li+
0.746664 0.975164 0.451550 Li+
0.237083 0.253336 0.366635 Li+
0.253336 0.024836 0.365157 Li+
0.762917 0.253336 0.453028 Li+
0.237083 0.746664 0.406967 Li+
0.253336 0.975164 0.408444 Li+
0.975164 0.237083 0.430778 Li+
0.975164 0.762917 0.433733 Li+
0.024836 0.237083 0.385930 Li+
0.524836 0.753336 0.385930 Li+
0.524836 0.246664 0.387672 Li+
0.753336 0.262917 0.408444 Li+
0.246664 0.262917 0.412960 Li+
0.737083 0.475164 0.406967 Li+
0.262917 0.524836 0.411483 Li+
0.000000 0.000000 0.408220 Li+
0.500000 0.500000 0.365381 Li+
0.235613 0.500000 0.432255 Li+
0.764387 0.500000 0.432255 Li+
0.500000 0.764387 0.365381 Li+
0.500000 0.235613 0.408220 Li+
0.000000 0.735613 0.408220 Li+
0.735613 0.000000 0.432255 Li+
0.000000 0.264387 0.365381 Li+
0.264387 0.000000 0.432255 Li+
0.000000 0.000000 0.365381 Li+
0.500000 0.500000 0.408220 Li+
0.500000 0.500000 0.477710 Li+
0.000000 0.000000 0.477710 Li+
0.500000 0.000000 0.523164 Li+
0.000000 0.500000 0.477710 Li+
0.500000 0.000000 0.477710 Li+
0.000000 0.500000 0.523164 Li+
0.500000 0.000000 0.500437 Li+
0.250000 0.500000 0.477710 Li+
0.750000 0.500000 0.477710 Li+
0.000000 0.750000 0.454983 Li+
0.000000 0.250000 0.500437 Li+
0.500000 0.000000 0.454983 Li+
0.774626 0.774626 0.482187 Li+
0.725374 0.274626 0.523164 Li+
0.274626 0.725374 0.473232 Li+
0.725374 0.725374 0.523164 Li+
0.774626 0.225374 0.473232 Li+
0.225374 0.225374 0.523164 Li+
0.225374 0.774626 0.523164 Li+
0.274626 0.274626 0.482187 Li+
0.024836 0.762917 0.478581 Li+
0.737083 0.524836 0.457544 Li+
0.262917 0.475164 0.543937 Li+
0.246664 0.737083 0.542460 Li+
0.753336 0.737083 0.456066 Li+
0.475164 0.753336 0.524642 Li+
0.475164 0.246664 0.521687 Li+
0.762917 0.746664 0.502392 Li+
0.746664 0.024836 0.503869 Li+
0.746664 0.975164 0.542460 Li+
0.237083 0.253336 0.457544 Li+
0.253336 0.024836 0.456066 Li+
0.762917 0.253336 0.543937 Li+
0.237083 0.746664 0.497876 Li+
0.253336 0.975164 0.499354 Li+
0.975164 0.237083 0.521687 Li+
0.975164 0.762917 0.524642 Li+
0.024836 0.237083 0.476839 Li+
0.524836 0.753336 0.476839 Li+
0.524836 0.246664 0.478581 Li+
0.753336 0.262917 0.499354 Li+
0.246664 0.262917 0.503869 Li+
0.737083 0.475164 0.497876 Li+
0.262917 0.524836 0.502392 Li+
0.000000 0.000000 0.499129 Li+
0.500000 0.500000 0.456290 Li+
0.235613 0.500000 0.523164 Li+
0.764387 0.500000 0.523164 Li+
0.500000 0.764387 0.456290 Li+
0.500000 0.235613 0.499129 Li+
0.000000 0.735613 0.499129 Li+
0.735613 0.000000 0.523164 Li+
0.000000 0.264387 0.456290 Li+
0.264387 0.000000 0.523164 Li+
0.000000 0.000000 0.456290 Li+
0.500000 0.500000 0.499129 Li+
0.500000 0.500000 0.568619 Li+
0.000000 0.000000 0.568619 Li+
0.500000 0.000000 0.614073 Li+
0.000000 0.500000 0.568619 Li+
0.500000 0.000000 0.568619 Li+
0.000000 0.500000 0.614073 Li+
0.500000 0.000000 0.591346 Li+
0.250000 0.500000 0.568619 Li+
0.750000 0.500000 0.568619 Li+
0.000000 0.750000 0.545892 Li+
0.000000 0.250000 0.591346 Li+
0.500000 0.000000 0.545892 Li+
0.774626 0.774626 0.573096 Li+
0.725374 0.274626 0.614073 Li+
0.274626 0.725374 0.564141 Li+
0.725374 0.725374 0.614073 Li+
0.774626 0.225374 0.564141 Li+
0.225374 0.225374 0.614073 Li+
0.225374 0.774626 0.614073 Li+
0.274626 0.274626 0.573096 Li+
0.024836 0.762917 0.569490 Li+
0.737083 0.524836 0.548453 Li+
0.262917 0.475164 0.634846 Li+
0.246664 0.737083 0.633369 Li+
0.753336 0.737083 0.546975 Li+
0.475164 0.753336 0.615551 Li+
0.475164 0.246664 0.612596 Li+
0.762917 0.746664 0.593301 Li+
0.746664 0.024836 0.594778 Li+
0.746664 0.975164 0.633369 Li+
0.237083 0.253336 0.548453 Li+
0.253336 0.024836 0.546975 Li+
0.762917 0.253336 0.634846 Li+
0.237083 0.746664 0.588785 Li+
0.253336 0.975164 0.590263 Li+
0.975164 0.237083 0.612596 Li+
0.975164 0.762917 0.615551 Li+
0.024836 0.237083 0.567748 Li+
0.524836 0.753336 0.567748 Li+
0.524836 0.246664 0.569490 Li+
0.753336 0.262917 0.590263 Li+
0.246664 0.262917 0.594778 Li+
0.737083 0.475164 0.588785 Li+
0.262917 0.524836 0.593301 Li+
0.000000 0.000000 0.590038 Li+
0.500000 0.500000 0.547200 Li+
0.235613 0.500000 0.614073 Li+
0.764387 0.500000 0.614073 Li+
0.500000 0.764387 0.547200 Li+
0.500000 0.235613 0.590038 Li+
0.000000 0.735613 0.590038 Li+
0.735613 0.000000 0.614073 Li+
0.000000 0.264387 0.547200 Li+
0.264387 0.000000 0.614073 Li+
0.000000 0.000000 0.547200 Li+
0.500000 0.500000 0.590038 Li+
0.500000 0.500000 0.068619 P4+
0.000000 0.000000 0.068619 P4+
0.250000 0.000000 0.023164 P4+
0.000000 0.500000 0.045892 P4+
0.000000 0.500000 0.000437 P4+
0.500000 0.750000 0.045892 P4+
0.500000 0.250000 0.000437 P4+
0.750000 0.000000 0.023164 P4+
0.500000 0.500000 0.159528 P4+
0.000000 0.000000 0.159528 P4+
0.250000 0.000000 0.114073 P4+
0.000000 0.500000 0.136801 P4+
0.000000 0.500000 0.091346 P4+
0.500000 0.750000 0.136801 P4+
0.500000 0.250000 0.091346 P4+
0.750000 0.000000 0.114073 P4+
0.500000 0.500000 0.250437 P4+
0.000000 0.000000 0.250437 P4+
0.250000 0.000000 0.204983 P4+
0.000000 0.500000 0.227710 P4+
0.000000 0.500000 0.182255 P4+
0.500000 0.750000 0.227710 P4+
0.500000 0.250000 0.182255 P4+
0.750000 0.000000 0.204983 P4+
0.500000 0.500000 0.341346 P4+
0.000000 0.000000 0.341346 P4+
0.250000 0.000000 0.295892 P4+
0.000000 0.500000 0.318619 P4+
0.000000 0.500000 0.273164 P4+
0.500000 0.750000 0.318619 P4+
0.500000 0.250000 0.273164 P4+
0.750000 0.000000 0.295892 P4+
0.500000 0.500000 0.432255 P4+
0.000000 0.000000 0.432255 P4+
0.250000 0.000000 0.386801 P4+
0.000000 0.500000 0.409528 P4+
0.000000 0.500000 0.364073 P4+
0.500000 0.750000 0.409528 P4+
0.500000 0.250000 0.364073 P4+
0.750000 0.000000 0.386801 P4+
0.500000 0.500000 0.523164 P4+
0.000000 0.000000 0.523164 P4+
0.250000 0.000000 0.477710 P4+
0.000000 0.500000 0.500437 P4+
0.000000 0.500000 0.454983 P4+
0.500000 0.750000 0.500437 P4+
0.500000 0.250000 0.454983 P4+
0.750000 0.000000 0.477710 P4+
0.500000 0.500000 0.614073 P4+
0.000000 0.000000 0.614073 P4+
0.250000 0.000000 0.568619 P4+
0.000000 0.500000 0.591346 P4+
0.000000 0.500000 0.545892 P4+
0.500000 0.750000 0.591346 P4+
0.500000 0.250000 0.545892 P4+
0.750000 0.000000 0.568619 P4+
0.396539 0.396539 0.049808 N2-
0.103461 0.896539 0.068619 N2-
0.103461 0.103461 0.068619 N2-
0.896539 0.103461 0.087430 N2-
0.603461 0.603461 0.068619 N2-
0.396539 0.603461 0.087430 N2-
0.603461 0.396539 0.068619 N2-
0.896539 0.896539 0.049808 N2-
0.396539 0.396539 0.140717 N2-
0.103461 0.896539 0.159528 N2-
0.103461 0.103461 0.159528 N2-
0.896539 0.103461 0.178339 N2-
0.603461 0.603461 0.159528 N2-
0.396539 0.603461 0.178339 N2-
0.603461 0.396539 0.159528 N2-
0.896539 0.896539 0.140717 N2-
0.396539 0.396539 0.231626 N2-
0.103461 0.896539 0.250437 N2-
0.103461 0.103461 0.250437 N2-
0.896539 0.103461 0.269248 N2-
0.603461 0.603461 0.250437 N2-
0.396539 0.603461 0.269248 N2-
0.603461 0.396539 0.250437 N2-
0.896539 0.896539 0.231626 N2-
0.396539 0.396539 0.322535 N2-
0.103461 0.896539 0.341346 N2-
0.103461 0.103461 0.341346 N2-
0.896539 0.103461 0.360157 N2-
0.603461 0.603461 0.341346 N2-
0.396539 0.603461 0.360157 N2-
0.603461 0.396539 0.341346 N2-
0.896539 0.896539 0.322535 N2-
0.396539 0.396539 0.413444 N2-
0.103461 0.896539 0.432255 N2-
0.103461 0.103461 0.432255 N2-
0.896539 0.103461 0.451066 N2-
0.603461 0.603461 0.432255 N2-
0.396539 0.603461 0.451066 N2-
0.603461 0.396539 0.432255 N2-
0.896539 0.896539 0.413444 N2-
0.396539 0.396539 0.504353 N2-
0.103461 0.896539 0.523164 N2-
0.103461 0.103461 0.523164 N2-
0.896539 0.103461 0.541975 N2-
0.603461 0.603461 0.523164 N2-
0.396539 0.603461 0.541975 N2-
0.603461 0.396539 0.523164 N2-
0.896539 0.896539 0.504353 N2-
0.396539 0.396539 0.595262 N2-
0.103461 0.896539 0.614073 N2-
0.103461 0.103461 0.614073 N2-
0.896539 0.103461 0.632885 N2-
0.603461 0.603461 0.614073 N2-
0.396539 0.603461 0.632885 N2-
0.603461 0.396539 0.614073 N2-
0.896539 0.896539 0.595262 N2-
0.900579 0.612615 0.001517 N3-
0.887385 0.400579 0.000556 N3-
0.112615 0.599421 0.018633 N3-
0.149269 0.887385 0.021965 N3-
0.850731 0.887385 0.003888 N3-
0.599421 0.850731 0.065287 N3-
0.599421 0.149269 0.071951 N3-
0.612615 0.649269 0.027696 N3-
0.649269 0.900579 0.024364 N3-
0.649269 0.099421 0.021965 N3-
0.387385 0.350731 0.000556 N3-
0.350731 0.900579 0.003888 N3-
0.612615 0.350731 0.018633 N3-
0.387385 0.649269 0.045773 N3-
0.350731 0.099421 0.042440 N3-
0.099421 0.387385 0.071951 N3-
0.099421 0.612615 0.065287 N3-
0.900579 0.387385 0.044811 N3-
0.400579 0.850731 0.044811 N3-
0.400579 0.149269 0.001517 N3-
0.850731 0.112615 0.042440 N3-
0.149269 0.112615 0.024364 N3-
0.887385 0.599421 0.045773 N3-
0.112615 0.400579 0.027696 N3-
0.900579 0.612615 0.092427 N3-
0.887385 0.400579 0.091465 N3-
0.112615 0.599421 0.109542 N3-
0.149269 0.887385 0.112874 N3-
0.850731 0.887385 0.094797 N3-
0.599421 0.850731 0.156196 N3-
0.599421 0.149269 0.162860 N3-
0.612615 0.649269 0.118605 N3-
0.649269 0.900579 0.115273 N3-
0.649269 0.099421 0.112874 N3-
0.387385 0.350731 0.091465 N3-
0.350731 0.900579 0.094797 N3-
0.612615 0.350731 0.109542 N3-
0.387385 0.649269 0.136682 N3-
0.350731 0.099421 0.133349 N3-
0.099421 0.387385 0.162860 N3-
0.099421 0.612615 0.156196 N3-
0.900579 0.387385 0.135720 N3-
0.400579 0.850731 0.135720 N3-
0.400579 0.149269 0.092427 N3-
0.850731 0.112615 0.133349 N3-
0.149269 0.112615 0.115273 N3-
0.887385 0.599421 0.136682 N3-
0.112615 0.400579 0.118605 N3-
0.900579 0.612615 0.183336 N3-
0.887385 0.400579 0.182374 N3-
0.112615 0.599421 0.200451 N3-
0.149269 0.887385 0.203783 N3-
0.850731 0.887385 0.185707 N3-
0.599421 0.850731 0.247105 N3-
0.599421 0.149269 0.253769 N3-
0.612615 0.649269 0.209514 N3-
0.649269 0.900579 0.206182 N3-
0.649269 0.099421 0.203783 N3-
0.387385 0.350731 0.182374 N3-
0.350731 0.900579 0.185707 N3-
0.612615 0.350731 0.200451 N3-
0.387385 0.649269 0.227591 N3-
0.350731 0.099421 0.224259 N3-
0.099421 0.387385 0.253769 N3-
0.099421 0.612615 0.247105 N3-
0.900579 0.387385 0.226629 N3-
0.400579 0.850731 0.226629 N3-
0.400579 0.149269 0.183336 N3-
0.850731 0.112615 0.224259 N3-
0.149269 0.112615 0.206182 N3-
0.887385 0.599421 0.227591 N3-
0.112615 0.400579 0.209514 N3-
0.900579 0.612615 0.274245 N3-
0.887385 0.400579 0.273283 N3-
0.112615 0.599421 0.291360 N3-
0.149269 0.887385 0.294692 N3-
0.850731 0.887385 0.276616 N3-
0.599421 0.850731 0.338014 N3-
0.599421 0.149269 0.344678 N3-
0.612615 0.649269 0.300423 N3-
0.649269 0.900579 0.297091 N3-
0.649269 0.099421 0.294692 N3-
0.387385 0.350731 0.273283 N3-
0.350731 0.900579 0.276616 N3-
0.612615 0.350731 0.291360 N3-
0.387385 0.649269 0.318500 N3-
0.350731 0.099421 0.315168 N3-
0.099421 0.387385 0.344678 N3-
0.099421 0.612615 0.338014 N3-
0.900579 0.387385 0.317539 N3-
0.400579 0.850731 0.317539 N3-
0.400579 0.149269 0.274245 N3-
0.850731 0.112615 0.315168 N3-
0.149269 0.112615 0.297091 N3-
0.887385 0.599421 0.318500 N3-
0.112615 0.400579 0.300423 N3-
0.900579 0.612615 0.365154 N3-
0.887385 0.400579 0.364193 N3-
0.112615 0.599421 0.382269 N3-
0.149269 0.887385 0.385601 N3-
0.850731 0.887385 0.367525 N3-
0.599421 0.850731 0.428923 N3-
0.599421 0.149269 0.435587 N3-
0.612615 0.649269 0.391332 N3-
0.649269 0.900579 0.388000 N3-
0.649269 0.099421 0.385601 N3-
0.387385 0.350731 0.364193 N3-
0.350731 0.900579 0.367525 N3-
0.612615 0.350731 0.382269 N3-
0.387385 0.649269 0.409409 N3-
0.350731 0.099421 0.406077 N3-
0.099421 0.387385 0.435587 N3-
0.099421 0.612615 0.428923 N3-
0.900579 0.387385 0.408448 N3-
0.400579 0.850731 0.408448 N3-
0.400579 0.149269 0.365154 N3-
0.850731 0.112615 0.406077 N3-
0.149269 0.112615 0.388000 N3-
0.887385 0.599421 0.409409 N3-
0.112615 0.400579 0.391332 N3-
0.900579 0.612615 0.456063 N3-
0.887385 0.400579 0.455102 N3-
0.112615 0.599421 0.473178 N3-
0.149269 0.887385 0.476510 N3-
0.850731 0.887385 0.458434 N3-
0.599421 0.850731 0.519832 N3-
0.599421 0.149269 0.526497 N3-
0.612615 0.649269 0.482241 N3-
0.649269 0.900579 0.478909 N3-
0.649269 0.099421 0.476510 N3-
0.387385 0.350731 0.455102 N3-
0.350731 0.900579 0.458434 N3-
0.612615 0.350731 0.473178 N3-
0.387385 0.649269 0.500318 N3-
0.350731 0.099421 0.496986 N3-
0.099421 0.387385 0.526497 N3-
0.099421 0.612615 0.519832 N3-
0.900579 0.387385 0.499357 N3-
0.400579 0.850731 0.499357 N3-
0.400579 0.149269 0.456063 N3-
0.850731 0.112615 0.496986 N3-
0.149269 0.112615 0.478909 N3-
0.887385 0.599421 0.500318 N3-
0.112615 0.400579 0.482241 N3-
0.900579 0.612615 0.546972 N3-
0.887385 0.400579 0.546011 N3-
0.112615 0.599421 0.564087 N3-
0.149269 0.887385 0.567419 N3-
0.850731 0.887385 0.549343 N3-
0.599421 0.850731 0.610741 N3-
0.599421 0.149269 0.617406 N3-
0.612615 0.649269 0.573151 N3-
0.649269 0.900579 0.569818 N3-
0.649269 0.099421 0.567419 N3-
0.387385 0.350731 0.546011 N3-
0.350731 0.900579 0.549343 N3-
0.612615 0.350731 0.564087 N3-
0.387385 0.649269 0.591227 N3-
0.350731 0.099421 0.587895 N3-
0.099421 0.387385 0.617406 N3-
0.099421 0.612615 0.610741 N3-
0.900579 0.387385 0.590266 N3-
0.400579 0.850731 0.590266 N3-
0.400579 0.149269 0.546972 N3-
0.850731 0.112615 0.587895 N3-
0.149269 0.112615 0.569818 N3-
0.887385 0.599421 0.591227 N3-
0.112615 0.400579 0.573151 N3-
