Li7 O56
1.0
5.111231 0.000000 0.106423
0.962040 5.098372 0.238916
0.000000 0.000000 50.719195
Li O
7 56
Selective dynamics
direct
0.827070 0.434482 0.926155 F F F Li
0.442454 0.049866 0.849232 F F F Li
0.057839 0.665251 0.772309 F F F Li
0.673223 0.280635 0.695386 F F F Li
0.288608 0.896020 0.618463 F F F Li
0.903993 0.511405 0.541540 F F F Li
0.519377 0.126789 0.464617 T T T Li
0.857990 0.011741 0.935677 F F F O
0.283212 0.216126 0.996566 F F F O
0.570178 0.503092 0.960695 T T T O
0.542320 0.696071 0.975136 T T T O
0.453952 0.965596 0.941955 F F F O
0.045050 0.527500 0.957255 T T T O
0.480007 0.785105 0.926511 F F F O
0.993220 0.722810 0.971603 T T T O
0.473375 0.627126 0.858754 F F F O
0.898597 0.831511 0.919643 F F F O
0.185563 0.118477 0.883772 F F F O
0.157704 0.311455 0.898212 F F F O
0.069337 0.580981 0.865032 F F F O
0.660434 0.142884 0.880332 F F F O
0.095391 0.400489 0.849588 F F F O
0.608605 0.338195 0.894680 F F F O
0.088759 0.242511 0.781830 F F F O
0.513981 0.446895 0.842720 F F F O
0.800947 0.733861 0.806849 F F F O
0.773089 0.926840 0.821289 F F F O
0.684722 0.196366 0.788109 F F F O
0.275819 0.758269 0.803409 F F F O
0.710776 0.015874 0.772665 F F F O
0.223989 0.953579 0.817757 F F F O
0.704144 0.857895 0.704907 F F F O
0.129366 0.062280 0.765797 F F F O
0.416332 0.349246 0.729926 F F F O
0.388473 0.542224 0.744366 F F F O
0.300106 0.811750 0.711186 F F F O
0.891204 0.373654 0.726486 F F F O
0.326160 0.631258 0.695742 F F F O
0.839374 0.568964 0.740834 F F F O
0.319529 0.473280 0.627984 F F F O
0.744750 0.677664 0.688873 F F F O
0.031717 0.964631 0.653003 F F F O
0.003858 0.157609 0.667443 F F F O
0.915491 0.427135 0.634263 F F F O
0.506588 0.989038 0.649563 F F F O
0.941545 0.246643 0.618819 F F F O
0.454759 0.184349 0.663911 F F F O
0.934913 0.088664 0.551061 F F F O
0.360135 0.293049 0.611950 F F F O
0.647101 0.580015 0.576080 F F F O
0.619243 0.772994 0.590520 F F F O
0.530875 0.042520 0.557339 F F F O
0.121973 0.604423 0.572640 F F F O
0.556930 0.862028 0.541896 F F F O
0.070143 0.799733 0.586988 F F F O
0.550298 0.704049 0.474138 F F F O
0.975520 0.908434 0.535027 F F F O
0.262486 0.195400 0.499157 F F F O
0.234627 0.388378 0.513597 F F F O
0.146260 0.657904 0.480416 T T T O
0.737357 0.219807 0.495716 T T T O
0.172314 0.477412 0.464973 T T T O
0.685528 0.415118 0.510065 T T T O
