Li73 P24 N1 O95                         
   1.00000000000000     
    14.6843431489756178   -0.0022359310633224   -0.0023220781043338
    -0.0016050069099402   10.5787469995348733   -0.0038037929251343
    -0.0019723006699606   -0.0044407803803685   12.3380167796980551
   Li   P    N    O 
    73    24     1    95
Direct
  0.1637113870600200  0.4179080890108999 -0.0036414820460548
  0.1704666075173151  0.4212674683399402  0.4989603220275554
  0.1691164524370080  0.9230738595104517  0.0004905768791024
  0.1687254221742767  0.9198372011916601  0.4999526855566823
  0.5049038700510662  0.4227988691267232 -0.0018305025891907
  0.5027355086713674  0.4231969129149881  0.5002912442775066
  0.5033673269229798  0.9213155231290684 -0.0010688846030558
  0.5044213906119837  0.9226330369308415  0.5003140191745205
  0.8361420604441997  0.4224758317088464 -0.0000486612590239
  0.8388164477466472  0.4220718289909453  0.4985553987277434
  0.8371212398801309  0.9230899886022227  0.0001235570805086
  0.8366137771704725  0.9216493123859765  0.5001717323143171
  0.0036929654212997  0.0772054102902060  0.2504208756952438
  0.0033260532040470  0.0781323380275350  0.7492434843522766
  0.0021179972851770  0.5774670509521445  0.2491543156045537
  0.0026317983625677  0.5769927457270557  0.7488266659385538
  0.3354659332087632  0.0736771142232248  0.2539621859717754
  0.3363614708052517  0.0784479288777251  0.7488972392389764
  0.3421082629829135  0.5903863178966120  0.2727173608989965
  0.3358268167793262  0.5750585976337467  0.7476844410934823
  0.6707940269335816  0.0772796423872930  0.2507908821857996
  0.6704653498078763  0.0782196625136167  0.7495524107721028
  0.6706804330272416  0.5775440340181743  0.2502332304771887
  0.6707382680175343  0.5768918881710373  0.7492988099185103
  0.1703551166000566  0.1666305997224128  0.1301068100841704
  0.1697818849062364  0.1631415939537803  0.6242487533236181
  0.1639184626975803  0.6680372772976466  0.1265424266171251
  0.1686733823095379  0.6633581082711072  0.6272594401851441
  0.5059911530305077  0.1598198128255228  0.1267492604815623
  0.5029093939501602  0.1632806949356147  0.6258986410088286
  0.5046934784601836  0.6650301083389698  0.1254898870538120
  0.5038699545699111  0.6635037057502081  0.6276447959599332
  0.8363223547734231  0.1639219744401597  0.1267369025799577
  0.8363819163579922  0.1630306670612901  0.6266487360498961
  0.8359038406933026  0.6635174695718572  0.1261187257919533
  0.8366679887176099  0.6633511736638575  0.6265414225477964
  0.0020722439586073  0.3384461463935520  0.1229191030453144
  0.0030495076685339  0.3358756103263640  0.6225730980049357
  0.0017567091102775  0.8378848858639147  0.1232118762715082
  0.0023612115386602  0.8364974980207868  0.6240544408802748
  0.3439001408655323  0.3130137861175709  0.1262349260644651
  0.3361221759942436  0.3367076362152954  0.6223352500760772
  0.3356519873836547  0.8372869694642261  0.1234584961672950
  0.3363687515427275  0.8374405910596141  0.6246285031774775
  0.6694115191935579  0.3370812584448506  0.1238834104099323
  0.6701228403641063  0.3366121437610098  0.6230946866356956
  0.6701881648215635  0.8373067481181786  0.1234620898803503
  0.6704649028336654  0.8370054048129416  0.6234072063764936
  0.0155816556086522  0.3370036445406471  0.3744702141551131
  0.0015205694275052  0.3362168497738115  0.8750596126505398
  0.0029205878000024  0.8357527645066418  0.3765170802588100
  0.0023298307102272  0.8377554189026324  0.8761619306325602
  0.3309045048401473  0.3359980633970476  0.3784623669176246
  0.3357147092841485  0.3344702205703371  0.8754527379378578
  0.3364331522691603  0.8395141511577494  0.3797510844060201
  0.3354904547006523  0.8386843456621225  0.8722229917032466
  0.6684839035914522  0.3370028219833556  0.3759353842946216
  0.6700736712991993  0.3364109027660767  0.8759804132516034
  0.6708456043271982  0.8371007253655539  0.3765664818730382
  0.6703707263123685  0.8375376458622499  0.8762242334363761
  0.1697549467270701  0.1630333995917878  0.3763086606584100
  0.1695996834968803  0.1625006323979463  0.8743616934420978
  0.1694456076593412  0.6588747265890569  0.3732934494275414
  0.1675968034816450  0.6636109577894006  0.8729173923894764
  0.5020486272739924  0.1630649073838470  0.3739732425250749
  0.5036666701248755  0.1626880498903474  0.8732893172833950
  0.5065338614757402  0.6656324782148559  0.3766062653998509
  0.5069523229998155  0.6646387287265213  0.8703446463002301
  0.8381776617031367  0.1644898691911960  0.3741602832309317
  0.8365920441602811  0.1633784225286643  0.8738208838795249
  0.8362652665131409  0.6632687930159775  0.3733112894519797
  0.8356069536077633  0.6639285382106905  0.8726810517976857
  0.2791911449409820  0.4930859041362069  0.1368179064190964
  0.1671244842939150  0.4085148852305346  0.2570204724617567
  0.1668622986589303  0.4114256738250701  0.7505407969917131
  0.1671561177258569  0.9103753272245808  0.2498568662979330
  0.1666490549828925  0.9122639380039493  0.7502571820800087
  0.4977284855407828  0.4153275687262665  0.2480191510563397
  0.5008657751371902  0.4114005134803637  0.7499008387539524
  0.5012025489044609  0.9114740201423629  0.2501712826774881
  0.5013580318832669  0.9132273683358306  0.7494811449303477
  0.8336471015523564  0.4122062443152977  0.2499690012243428
  0.8334267844288040  0.4119767441285805  0.7497402836239674
  0.8336343085456321  0.9123676169435792  0.2498205700009182
  0.8336010564239259  0.9126106767961042  0.7503075335220479
  0.0006278135438015  0.0886835541058950  0.0002462861253664
 -0.0006889900777968  0.0857498563454524  0.4998796172397953
 -0.0014104643828623  0.5888256986196339 -0.0017579784918998
 -0.0003009298928854  0.5882381805579816  0.5004638227959121
  0.3343155022097152  0.0832138069064323 -0.0003110856625669
  0.3344786871930280  0.0861214519638703  0.5009201707758653
  0.3373276769803655  0.5921216838974643 -0.0076837971183664
  0.3353109749750809  0.5903646246481689  0.5054388565300241
  0.6673283066642345  0.0876238056549534 -0.0001910524290772
  0.6674212472131065  0.0883884481073368  0.4998464657762891
  0.6666407524370795  0.5880799315528747 -0.0004314516164427
  0.6677132052013461  0.5873908321958827  0.5004110160228057
  0.1988935222276181  0.3393142030516874  0.3608537729096286
  0.0333675717848819  0.1523823657203066  0.3952151487357731
  0.0358012895169631  0.1573748063882561  0.8962386206447186
  0.0356346907398035  0.6562823715239893  0.3965419406534212
  0.0344420475207787  0.6576858551775607  0.8946787873686884
  0.3701451798338715  0.1542835107708637  0.3971435416234557
  0.3697323122640758  0.1554625544332052  0.8976946997269348
  0.3733359670890624  0.6634034238297367  0.4046834082795231
  0.3711725526265733  0.6588681660267525  0.8892041519902709
  0.7024800349212847  0.1577702584568720  0.3961488360971919
  0.7026593676722299  0.1570034804629320  0.8963899195968441
  0.7020017512899147  0.6568121497194481  0.3963958033584871
  0.7017905510794683  0.6569683906168027  0.8958068894881694
  0.2012854908868347  0.0495699913471536  0.2501151520970968
  0.2008679576664035  0.0519304250100054  0.7507463650926189
  0.2045338970399122  0.5540323674817595  0.2456928887743254
  0.2004257076940695  0.5515820903148185  0.7514945594832826
  0.5342731279602977  0.0516355346805371  0.2504396353859570
  0.5352673297664339  0.0529376239301494  0.7495744326486188
  0.5328198669993779  0.5544597498899344  0.2493242612008975
  0.5351635779601274  0.5510195382571343  0.7499676719002325
  0.8672431668178471  0.0521981505782249  0.2497195133005507
  0.8675417996544997  0.0523613000663118  0.7504554251771925
  0.8659875313931353  0.5528440673316045  0.2492160986915736
  0.8670297283110274  0.5519187276264951  0.7499073045063579
  0.0606345883504251  0.4164143196382209  0.2416629240287978
  0.0608532928929187  0.4086036917953328  0.7500305582811986
  0.0610889129136665  0.9074099017001624  0.2496770662837273
  0.0606426249213697  0.9099153665353864  0.7502851989582671
  0.3907111239447013  0.4171133612262767  0.2450475542610167
  0.3947283961744021  0.4084683214625908  0.7505479477154444
  0.3950656503743007  0.9061583422483594  0.2507717565338456
  0.3953238400450305  0.9113531571337030  0.7493800617736460
  0.7271595495259439  0.4087983558193003  0.2504722435701081
  0.7273223936522716  0.4091538061357574  0.7497196518236597
  0.7275189510759065  0.9094065530893637  0.2498766291552779
  0.7275185435079801  0.9100972751542286  0.7500461761167715
  0.2285535266902984  0.0899667141940217  0.0017370249548505
  0.2287383379194453  0.0845232792841214  0.5014023788800328
  0.2306419889679626  0.5903622349618745 -0.0002686314065713
  0.2296978347386510  0.5947398813100253  0.5026369703193362
  0.5611970506094991  0.0893458036606578 -0.0008263325268856
  0.5613365693368625  0.0913352779144753  0.4997510779003493
  0.5604234266064763  0.5912680535118606 -0.0009284908225509
  0.5616255393119742  0.5900255456033228  0.5012959405031121
  0.8945181708635260  0.0915386425900516  0.0003487063650796
  0.8931560066221448  0.0887183071901671  0.5013535198991982
  0.8926585036268402  0.5915124617343585 -0.0013015821879431
  0.8935505593223566  0.5925759335661568  0.4999607656481579
  0.2061933660420285  0.3492769381137026  0.1430474133952083
  0.2030710826231277  0.3426081183529097  0.6477028083888432
  0.2022184348061739  0.8419493507438538  0.1452785452967785
  0.2021119597282013  0.8427907033091531  0.6469741482189438
  0.5322451309913523  0.3444271742919092  0.1447244969622999
  0.5358893817402124  0.3425730306328935  0.6460943959838918
  0.5362140067743419  0.8435178199925724  0.1456839212605266
  0.5367531260010937  0.8434798749195446  0.6462144022240185
  0.8677797834884041  0.3438358761665967  0.1452073056278420
  0.8688454525465175  0.3428149845571875  0.6462918543951879
  0.8685152302954470  0.8433683683040417  0.1457914060628850
  0.8686611310905036  0.8430461455026832  0.6468452012866651
  0.0362565919445762  0.1577436815768569  0.1037648491909418
  0.0354030795456915  0.1557179132235887  0.6030460732622207
  0.0338399998787281  0.6586166587592658  0.1015613606080049
  0.0349555220987865  0.6578354729957788  0.6042736775101430
  0.3723864415474642  0.1462619971372605  0.1050541346516494
  0.3690154113417708  0.1571585594854706  0.6043280159351713
  0.3704322134361182  0.6577367359070425  0.0990991839766470
  0.3698058238643977  0.6574275922117520  0.6103610538142619
  0.7013563521531752  0.1571738490858386  0.1040125686427127
  0.7026155808052600  0.1571458229878505  0.6037935327081511
  0.7015093197511812  0.6569956276756354  0.1035086949892149
  0.7031016918898549  0.6566391377907406  0.6040060574127739
  0.0320853856131271  0.4489533285033816 -0.0024989481013309
  0.0322604055483592  0.4485513331360223  0.5020854292082921
  0.0339508373885554  0.9485445629486785  0.0000160968812226
  0.0329492492037056  0.9456493244830925  0.5009298035634031
  0.3679792122954014  0.4502935621845921 -0.0007969805621204
  0.3698085904959685  0.4513493294702310  0.5022609420624646
  0.3666803221907629  0.9430377194497682 -0.0031570194793115
  0.3701521019727332  0.9469672971246600  0.5020285921672896
  0.6996819068812268  0.4479615352443420 -0.0001158512525324
  0.7011939560712903  0.4474949206657140  0.4996380243475714
  0.7015821466342292  0.9481073803026823  0.0000729988088484
  0.7009349815575971  0.9483918102633937  0.4997954464242169
  0.2019313624394724  0.3426526714120543  0.8548668590349316
  0.2027365976127488  0.8401871788191040  0.3529383165786030
  0.2017233818246783  0.8427429493478760  0.8541386139455625
  0.5310916775918819  0.3450390974079233  0.3516426488608314
  0.5360216880420718  0.3424122773776996  0.8538247569420868
  0.5376042608976204  0.8431274326453834  0.3534931556695559
  0.5364756773278300  0.8440157851860174  0.8533007876351093
  0.8703583207840011  0.3437682134327084  0.3528309374384165
  0.8682828154584065  0.3430859724330312  0.8537690370218352
  0.8688146459300944  0.8430018961727855  0.3533311436604792
  0.8684952158002097  0.8436093672575902  0.8542537589269094
 
  0.00000000E+00  0.00000000E+00  0.00000000E+00
  0.00000000E+00  0.00000000E+00  0.00000000E+00
  0.00000000E+00  0.00000000E+00  0.00000000E+00
  0.00000000E+00  0.00000000E+00  0.00000000E+00
  0.00000000E+00  0.00000000E+00  0.00000000E+00
  0.00000000E+00  0.00000000E+00  0.00000000E+00
  0.00000000E+00  0.00000000E+00  0.00000000E+00
  0.00000000E+00  0.00000000E+00  0.00000000E+00
  0.00000000E+00  0.00000000E+00  0.00000000E+00
  0.00000000E+00  0.00000000E+00  0.00000000E+00
  0.00000000E+00  0.00000000E+00  0.00000000E+00
  0.00000000E+00  0.00000000E+00  0.00000000E+00
  0.00000000E+00  0.00000000E+00  0.00000000E+00
  0.00000000E+00  0.00000000E+00  0.00000000E+00
  0.00000000E+00  0.00000000E+00  0.00000000E+00
  0.00000000E+00  0.00000000E+00  0.00000000E+00
  0.00000000E+00  0.00000000E+00  0.00000000E+00
  0.00000000E+00  0.00000000E+00  0.00000000E+00
  0.00000000E+00  0.00000000E+00  0.00000000E+00
  0.00000000E+00  0.00000000E+00  0.00000000E+00
  0.00000000E+00  0.00000000E+00  0.00000000E+00
  0.00000000E+00  0.00000000E+00  0.00000000E+00
  0.00000000E+00  0.00000000E+00  0.00000000E+00
  0.00000000E+00  0.00000000E+00  0.00000000E+00
  0.00000000E+00  0.00000000E+00  0.00000000E+00
  0.00000000E+00  0.00000000E+00  0.00000000E+00
  0.00000000E+00  0.00000000E+00  0.00000000E+00
  0.00000000E+00  0.00000000E+00  0.00000000E+00
  0.00000000E+00  0.00000000E+00  0.00000000E+00
  0.00000000E+00  0.00000000E+00  0.00000000E+00
  0.00000000E+00  0.00000000E+00  0.00000000E+00
  0.00000000E+00  0.00000000E+00  0.00000000E+00
  0.00000000E+00  0.00000000E+00  0.00000000E+00
  0.00000000E+00  0.00000000E+00  0.00000000E+00
  0.00000000E+00  0.00000000E+00  0.00000000E+00
  0.00000000E+00  0.00000000E+00  0.00000000E+00
  0.00000000E+00  0.00000000E+00  0.00000000E+00
  0.00000000E+00  0.00000000E+00  0.00000000E+00
  0.00000000E+00  0.00000000E+00  0.00000000E+00
  0.00000000E+00  0.00000000E+00  0.00000000E+00
  0.00000000E+00  0.00000000E+00  0.00000000E+00
  0.00000000E+00  0.00000000E+00  0.00000000E+00
  0.00000000E+00  0.00000000E+00  0.00000000E+00
  0.00000000E+00  0.00000000E+00  0.00000000E+00
  0.00000000E+00  0.00000000E+00  0.00000000E+00
  0.00000000E+00  0.00000000E+00  0.00000000E+00
  0.00000000E+00  0.00000000E+00  0.00000000E+00
  0.00000000E+00  0.00000000E+00  0.00000000E+00
  0.00000000E+00  0.00000000E+00  0.00000000E+00
  0.00000000E+00  0.00000000E+00  0.00000000E+00
  0.00000000E+00  0.00000000E+00  0.00000000E+00
  0.00000000E+00  0.00000000E+00  0.00000000E+00
  0.00000000E+00  0.00000000E+00  0.00000000E+00
  0.00000000E+00  0.00000000E+00  0.00000000E+00
  0.00000000E+00  0.00000000E+00  0.00000000E+00
  0.00000000E+00  0.00000000E+00  0.00000000E+00
  0.00000000E+00  0.00000000E+00  0.00000000E+00
  0.00000000E+00  0.00000000E+00  0.00000000E+00
  0.00000000E+00  0.00000000E+00  0.00000000E+00
  0.00000000E+00  0.00000000E+00  0.00000000E+00
  0.00000000E+00  0.00000000E+00  0.00000000E+00
  0.00000000E+00  0.00000000E+00  0.00000000E+00
  0.00000000E+00  0.00000000E+00  0.00000000E+00
  0.00000000E+00  0.00000000E+00  0.00000000E+00
  0.00000000E+00  0.00000000E+00  0.00000000E+00
  0.00000000E+00  0.00000000E+00  0.00000000E+00
  0.00000000E+00  0.00000000E+00  0.00000000E+00
  0.00000000E+00  0.00000000E+00  0.00000000E+00
  0.00000000E+00  0.00000000E+00  0.00000000E+00
  0.00000000E+00  0.00000000E+00  0.00000000E+00
  0.00000000E+00  0.00000000E+00  0.00000000E+00
  0.00000000E+00  0.00000000E+00  0.00000000E+00
  0.00000000E+00  0.00000000E+00  0.00000000E+00
  0.00000000E+00  0.00000000E+00  0.00000000E+00
  0.00000000E+00  0.00000000E+00  0.00000000E+00
  0.00000000E+00  0.00000000E+00  0.00000000E+00
  0.00000000E+00  0.00000000E+00  0.00000000E+00
  0.00000000E+00  0.00000000E+00  0.00000000E+00
  0.00000000E+00  0.00000000E+00  0.00000000E+00
  0.00000000E+00  0.00000000E+00  0.00000000E+00
  0.00000000E+00  0.00000000E+00  0.00000000E+00
  0.00000000E+00  0.00000000E+00  0.00000000E+00
  0.00000000E+00  0.00000000E+00  0.00000000E+00
  0.00000000E+00  0.00000000E+00  0.00000000E+00
  0.00000000E+00  0.00000000E+00  0.00000000E+00
  0.00000000E+00  0.00000000E+00  0.00000000E+00
  0.00000000E+00  0.00000000E+00  0.00000000E+00
  0.00000000E+00  0.00000000E+00  0.00000000E+00
  0.00000000E+00  0.00000000E+00  0.00000000E+00
  0.00000000E+00  0.00000000E+00  0.00000000E+00
  0.00000000E+00  0.00000000E+00  0.00000000E+00
  0.00000000E+00  0.00000000E+00  0.00000000E+00
  0.00000000E+00  0.00000000E+00  0.00000000E+00
  0.00000000E+00  0.00000000E+00  0.00000000E+00
  0.00000000E+00  0.00000000E+00  0.00000000E+00
  0.00000000E+00  0.00000000E+00  0.00000000E+00
  0.00000000E+00  0.00000000E+00  0.00000000E+00
  0.00000000E+00  0.00000000E+00  0.00000000E+00
  0.00000000E+00  0.00000000E+00  0.00000000E+00
  0.00000000E+00  0.00000000E+00  0.00000000E+00
  0.00000000E+00  0.00000000E+00  0.00000000E+00
  0.00000000E+00  0.00000000E+00  0.00000000E+00
  0.00000000E+00  0.00000000E+00  0.00000000E+00
  0.00000000E+00  0.00000000E+00  0.00000000E+00
  0.00000000E+00  0.00000000E+00  0.00000000E+00
  0.00000000E+00  0.00000000E+00  0.00000000E+00
  0.00000000E+00  0.00000000E+00  0.00000000E+00
  0.00000000E+00  0.00000000E+00  0.00000000E+00
  0.00000000E+00  0.00000000E+00  0.00000000E+00
  0.00000000E+00  0.00000000E+00  0.00000000E+00
  0.00000000E+00  0.00000000E+00  0.00000000E+00
  0.00000000E+00  0.00000000E+00  0.00000000E+00
  0.00000000E+00  0.00000000E+00  0.00000000E+00
  0.00000000E+00  0.00000000E+00  0.00000000E+00
  0.00000000E+00  0.00000000E+00  0.00000000E+00
  0.00000000E+00  0.00000000E+00  0.00000000E+00
  0.00000000E+00  0.00000000E+00  0.00000000E+00
  0.00000000E+00  0.00000000E+00  0.00000000E+00
  0.00000000E+00  0.00000000E+00  0.00000000E+00
  0.00000000E+00  0.00000000E+00  0.00000000E+00
  0.00000000E+00  0.00000000E+00  0.00000000E+00
  0.00000000E+00  0.00000000E+00  0.00000000E+00
  0.00000000E+00  0.00000000E+00  0.00000000E+00
  0.00000000E+00  0.00000000E+00  0.00000000E+00
  0.00000000E+00  0.00000000E+00  0.00000000E+00
  0.00000000E+00  0.00000000E+00  0.00000000E+00
  0.00000000E+00  0.00000000E+00  0.00000000E+00
  0.00000000E+00  0.00000000E+00  0.00000000E+00
  0.00000000E+00  0.00000000E+00  0.00000000E+00
  0.00000000E+00  0.00000000E+00  0.00000000E+00
  0.00000000E+00  0.00000000E+00  0.00000000E+00
  0.00000000E+00  0.00000000E+00  0.00000000E+00
  0.00000000E+00  0.00000000E+00  0.00000000E+00
  0.00000000E+00  0.00000000E+00  0.00000000E+00
  0.00000000E+00  0.00000000E+00  0.00000000E+00
  0.00000000E+00  0.00000000E+00  0.00000000E+00
  0.00000000E+00  0.00000000E+00  0.00000000E+00
  0.00000000E+00  0.00000000E+00  0.00000000E+00
  0.00000000E+00  0.00000000E+00  0.00000000E+00
  0.00000000E+00  0.00000000E+00  0.00000000E+00
  0.00000000E+00  0.00000000E+00  0.00000000E+00
  0.00000000E+00  0.00000000E+00  0.00000000E+00
  0.00000000E+00  0.00000000E+00  0.00000000E+00
  0.00000000E+00  0.00000000E+00  0.00000000E+00
  0.00000000E+00  0.00000000E+00  0.00000000E+00
  0.00000000E+00  0.00000000E+00  0.00000000E+00
  0.00000000E+00  0.00000000E+00  0.00000000E+00
  0.00000000E+00  0.00000000E+00  0.00000000E+00
  0.00000000E+00  0.00000000E+00  0.00000000E+00
  0.00000000E+00  0.00000000E+00  0.00000000E+00
  0.00000000E+00  0.00000000E+00  0.00000000E+00
  0.00000000E+00  0.00000000E+00  0.00000000E+00
  0.00000000E+00  0.00000000E+00  0.00000000E+00
  0.00000000E+00  0.00000000E+00  0.00000000E+00
  0.00000000E+00  0.00000000E+00  0.00000000E+00
  0.00000000E+00  0.00000000E+00  0.00000000E+00
  0.00000000E+00  0.00000000E+00  0.00000000E+00
  0.00000000E+00  0.00000000E+00  0.00000000E+00
  0.00000000E+00  0.00000000E+00  0.00000000E+00
  0.00000000E+00  0.00000000E+00  0.00000000E+00
  0.00000000E+00  0.00000000E+00  0.00000000E+00
  0.00000000E+00  0.00000000E+00  0.00000000E+00
  0.00000000E+00  0.00000000E+00  0.00000000E+00
  0.00000000E+00  0.00000000E+00  0.00000000E+00
  0.00000000E+00  0.00000000E+00  0.00000000E+00
  0.00000000E+00  0.00000000E+00  0.00000000E+00
  0.00000000E+00  0.00000000E+00  0.00000000E+00
  0.00000000E+00  0.00000000E+00  0.00000000E+00
  0.00000000E+00  0.00000000E+00  0.00000000E+00
  0.00000000E+00  0.00000000E+00  0.00000000E+00
  0.00000000E+00  0.00000000E+00  0.00000000E+00
  0.00000000E+00  0.00000000E+00  0.00000000E+00
  0.00000000E+00  0.00000000E+00  0.00000000E+00
  0.00000000E+00  0.00000000E+00  0.00000000E+00
  0.00000000E+00  0.00000000E+00  0.00000000E+00
  0.00000000E+00  0.00000000E+00  0.00000000E+00
  0.00000000E+00  0.00000000E+00  0.00000000E+00
  0.00000000E+00  0.00000000E+00  0.00000000E+00
  0.00000000E+00  0.00000000E+00  0.00000000E+00
  0.00000000E+00  0.00000000E+00  0.00000000E+00
  0.00000000E+00  0.00000000E+00  0.00000000E+00
  0.00000000E+00  0.00000000E+00  0.00000000E+00
  0.00000000E+00  0.00000000E+00  0.00000000E+00
  0.00000000E+00  0.00000000E+00  0.00000000E+00
  0.00000000E+00  0.00000000E+00  0.00000000E+00
  0.00000000E+00  0.00000000E+00  0.00000000E+00
  0.00000000E+00  0.00000000E+00  0.00000000E+00
  0.00000000E+00  0.00000000E+00  0.00000000E+00
  0.00000000E+00  0.00000000E+00  0.00000000E+00
  0.00000000E+00  0.00000000E+00  0.00000000E+00
  0.00000000E+00  0.00000000E+00  0.00000000E+00
  0.00000000E+00  0.00000000E+00  0.00000000E+00
  0.00000000E+00  0.00000000E+00  0.00000000E+00
