Li140 P140 O420
1.0
13.312980 0.000000 5.521558
23.948210 16.540545 0.000000
0.000000 0.000000 60.737138
Li P O
140 140 420
Selective dynamics
direct
0.308258 0.818220 0.003966 T T T Li
0.808258 0.318220 0.050401 F F F Li
0.954826 0.934004 0.035170 T T T Li
0.454826 0.434004 0.083457 F F F Li
0.603500 0.049457 0.069051 F F F Li
0.103500 0.549457 0.022545 T T T Li
0.253749 0.164548 0.010068 T T T Li
0.753749 0.664548 0.054209 F F F Li
0.029328 0.241566 0.074612 F F F Li
0.529328 0.741566 0.030470 T T T Li
0.305977 0.318286 0.006590 T T T Li
0.805977 0.818286 0.048191 T T T Li
0.953995 0.433730 0.034509 T T T Li
0.453995 0.933730 0.084270 F F F Li
0.601365 0.550453 0.071742 F F F Li
0.101365 0.050453 0.020242 T T T Li
0.248464 0.667016 0.007868 T T T Li
0.748464 0.167016 0.057370 F F F Li
0.023195 0.743634 0.072270 F F F Li
0.523195 0.243634 0.033927 T T T Li
0.308258 0.818220 0.094875 F F F Li
0.808258 0.318220 0.141310 F F F Li
0.954826 0.934004 0.126079 F F F Li
0.454826 0.434004 0.174366 F F F Li
0.603500 0.049457 0.159960 F F F Li
0.103500 0.549457 0.113454 F F F Li
0.253749 0.164548 0.100977 F F F Li
0.753749 0.664548 0.145118 F F F Li
0.029328 0.241566 0.165521 F F F Li
0.529328 0.741566 0.121379 F F F Li
0.305977 0.318286 0.097499 F F F Li
0.805977 0.818286 0.139100 F F F Li
0.953995 0.433730 0.125418 F F F Li
0.453995 0.933730 0.175179 F F F Li
0.601365 0.550453 0.162651 F F F Li
0.101365 0.050453 0.111151 F F F Li
0.248464 0.667016 0.098777 F F F Li
0.748464 0.167016 0.148280 F F F Li
0.023195 0.743634 0.163179 F F F Li
0.523195 0.243634 0.124836 F F F Li
0.308258 0.818220 0.185784 F F F Li
0.808258 0.318220 0.232219 F F F Li
0.954826 0.934004 0.216988 F F F Li
0.454826 0.434004 0.265276 F F F Li
0.603500 0.049457 0.250869 F F F Li
0.103500 0.549457 0.204363 F F F Li
0.253749 0.164548 0.191886 F F F Li
0.753749 0.664548 0.236028 F F F Li
0.029328 0.241566 0.256430 F F F Li
0.529328 0.741566 0.212288 F F F Li
0.305977 0.318286 0.188408 F F F Li
0.805977 0.818286 0.230010 F F F Li
0.953995 0.433730 0.216327 F F F Li
0.453995 0.933730 0.266088 F F F Li
0.601365 0.550453 0.253560 F F F Li
0.101365 0.050453 0.202060 F F F Li
0.248464 0.667016 0.189686 F F F Li
0.748464 0.167016 0.239189 F F F Li
0.023195 0.743634 0.254088 F F F Li
0.523195 0.243634 0.215745 F F F Li
0.308258 0.818220 0.276693 F F F Li
0.808258 0.318220 0.323128 F F F Li
0.954826 0.934004 0.307897 F F F Li
0.454826 0.434004 0.356185 F F F Li
0.603500 0.049457 0.341778 F F F Li
0.103500 0.549457 0.295272 F F F Li
0.253749 0.164548 0.282796 F F F Li
0.753749 0.664548 0.326937 F F F Li
0.029328 0.241566 0.347339 F F F Li
0.529328 0.741566 0.303197 F F F Li
0.305977 0.318286 0.279318 F F F Li
0.805977 0.818286 0.320919 F F F Li
0.953995 0.433730 0.307236 F F F Li
0.453995 0.933730 0.356997 F F F Li
0.601365 0.550453 0.344469 F F F Li
0.101365 0.050453 0.292969 F F F Li
0.248464 0.667016 0.280595 F F F Li
0.748464 0.167016 0.330098 F F F Li
0.023195 0.743634 0.344997 F F F Li
0.523195 0.243634 0.306654 F F F Li
0.308258 0.818220 0.367602 F F F Li
0.808258 0.318220 0.414037 F F F Li
0.954826 0.934004 0.398806 F F F Li
0.454826 0.434004 0.447094 F F F Li
0.603500 0.049457 0.432687 F F F Li
0.103500 0.549457 0.386181 F F F Li
0.253749 0.164548 0.373705 F F F Li
0.753749 0.664548 0.417846 F F F Li
0.029328 0.241566 0.438248 F F F Li
0.529328 0.741566 0.394106 F F F Li
0.305977 0.318286 0.370227 F F F Li
0.805977 0.818286 0.411828 F F F Li
0.953995 0.433730 0.398145 F F F Li
0.453995 0.933730 0.447906 F F F Li
0.601365 0.550453 0.435378 F F F Li
0.101365 0.050453 0.383878 F F F Li
0.248464 0.667016 0.371504 F F F Li
0.748464 0.167016 0.421007 F F F Li
0.023195 0.743634 0.435906 F F F Li
0.523195 0.243634 0.397563 F F F Li
0.308258 0.818220 0.458511 F F F Li
0.808258 0.318220 0.504946 F F F Li
0.954826 0.934004 0.489715 F F F Li
0.454826 0.434004 0.538003 F F F Li
0.603500 0.049457 0.523596 F F F Li
0.103500 0.549457 0.477090 F F F Li
0.253749 0.164548 0.464614 F F F Li
0.753749 0.664548 0.508755 F F F Li
0.029328 0.241566 0.529157 F F F Li
0.529328 0.741566 0.485015 F F F Li
0.305977 0.318286 0.461136 F F F Li
0.805977 0.818286 0.502737 F F F Li
0.953995 0.433730 0.489054 F F F Li
0.453995 0.933730 0.538815 F F F Li
0.601365 0.550453 0.526287 F F F Li
0.101365 0.050453 0.474787 F F F Li
0.248464 0.667016 0.462414 F F F Li
0.748464 0.167016 0.511916 F F F Li
0.023195 0.743634 0.526815 F F F Li
0.523195 0.243634 0.488472 F F F Li
0.308258 0.818220 0.549420 F F F Li
0.808258 0.318220 0.595856 F F F Li
0.954826 0.934004 0.580624 F F F Li
0.454826 0.434004 0.628912 T T T Li
0.603500 0.049457 0.614505 T T T Li
0.103500 0.549457 0.567999 F F F Li
0.253749 0.164548 0.555523 F F F Li
0.753749 0.664548 0.599664 T T T Li
0.029328 0.241566 0.620066 T T T Li
0.529328 0.741566 0.575924 T T T Li
0.305977 0.318286 0.552045 F F F Li
0.805977 0.818286 0.593646 F F F Li
0.953995 0.433730 0.579963 F F F Li
0.453995 0.933730 0.629724 T T T Li
0.601365 0.550453 0.617196 T T T Li
0.101365 0.050453 0.565696 F F F Li
0.248464 0.667016 0.553323 F F F Li
0.748464 0.167016 0.602825 T T T Li
0.023195 0.743634 0.617725 T T T Li
0.523195 0.243634 0.579381 F F F Li
0.000366 0.000413 0.003844 T T T P
0.500366 0.500413 0.015594 T T T P
0.701107 0.093280 0.090862 F F F P
0.201107 0.593280 0.073896 F F F P
0.401802 0.197061 0.058538 F F F P
0.901802 0.697061 0.069730 F F F P
0.100084 0.308311 0.053288 F F F P
0.600084 0.808311 0.038929 T T T P
0.800152 0.408249 0.019715 T T T P
0.300152 0.908249 0.036126 F F F P
0.760353 0.574567 0.085532 F F F P
0.260353 0.074567 0.068454 F F F P
0.460110 0.674438 0.051953 F F F P
0.960110 0.174438 0.065713 T T T P
0.157222 0.786455 0.046576 F F F P
0.657222 0.286455 0.035252 F F F P
0.858010 0.889856 0.013742 T T T P
0.358010 0.389856 0.031579 T T T P
0.558735 0.982845 0.009855 T T T P
0.058735 0.482845 0.089879 F F F P
0.000366 0.000413 0.094753 F F F P
0.500366 0.500413 0.106503 F F F P
0.701107 0.093280 0.181771 F F F P
0.201107 0.593280 0.164805 F F F P
0.401802 0.197061 0.149447 F F F P
0.901802 0.697061 0.160639 F F F P
0.100084 0.308311 0.144197 F F F P
0.600084 0.808311 0.129838 F F F P
0.800152 0.408249 0.110624 F F F P
0.300152 0.908249 0.127035 F F F P
0.760353 0.574567 0.176441 F F F P
0.260353 0.074567 0.159363 F F F P
0.460110 0.674438 0.142863 F F F P
0.960110 0.174438 0.156622 F F F P
0.157222 0.786455 0.137485 F F F P
0.657222 0.286455 0.126161 F F F P
0.858010 0.889856 0.104652 F F F P
0.358010 0.389856 0.122488 F F F P
0.558735 0.982845 0.100764 F F F P
0.058735 0.482845 0.180789 F F F P
0.000366 0.000413 0.185662 F F F P
0.500366 0.500413 0.197412 F F F P
0.701107 0.093280 0.272681 F F F P
0.201107 0.593280 0.255714 F F F P
0.401802 0.197061 0.240356 F F F P
0.901802 0.697061 0.251548 F F F P
0.100084 0.308311 0.235106 F F F P
0.600084 0.808311 0.220747 F F F P
0.800152 0.408249 0.201533 F F F P
0.300152 0.908249 0.217944 F F F P
0.760353 0.574567 0.267350 F F F P
0.260353 0.074567 0.250272 F F F P
0.460110 0.674438 0.233772 F F F P
0.960110 0.174438 0.247531 F F F P
0.157222 0.786455 0.228394 F F F P
0.657222 0.286455 0.217071 F F F P
0.858010 0.889856 0.195561 F F F P
0.358010 0.389856 0.213397 F F F P
0.558735 0.982845 0.191673 F F F P
0.058735 0.482845 0.271698 F F F P
0.000366 0.000413 0.276572 F F F P
0.500366 0.500413 0.288321 F F F P
0.701107 0.093280 0.363590 F F F P
0.201107 0.593280 0.346623 F F F P
0.401802 0.197061 0.331265 F F F P
0.901802 0.697061 0.342457 F F F P
0.100084 0.308311 0.326015 F F F P
0.600084 0.808311 0.311656 F F F P
0.800152 0.408249 0.292442 F F F P
0.300152 0.908249 0.308853 F F F P
0.760353 0.574567 0.358259 F F F P
0.260353 0.074567 0.341181 F F F P
0.460110 0.674438 0.324681 F F F P
0.960110 0.174438 0.338440 F F F P
0.157222 0.786455 0.319303 F F F P
0.657222 0.286455 0.307980 F F F P
0.858010 0.889856 0.286470 F F F P
0.358010 0.389856 0.304306 F F F P
0.558735 0.982845 0.282583 F F F P
0.058735 0.482845 0.362607 F F F P
0.000366 0.000413 0.367481 F F F P
0.500366 0.500413 0.379230 F F F P
0.701107 0.093280 0.454499 F F F P
0.201107 0.593280 0.437532 F F F P
0.401802 0.197061 0.422174 F F F P
0.901802 0.697061 0.433366 F F F P
0.100084 0.308311 0.416924 F F F P
0.600084 0.808311 0.402565 F F F P
0.800152 0.408249 0.383351 F F F P
0.300152 0.908249 0.399762 F F F P
0.760353 0.574567 0.449168 F F F P
0.260353 0.074567 0.432090 F F F P
0.460110 0.674438 0.415590 F F F P
0.960110 0.174438 0.429349 F F F P
0.157222 0.786455 0.410212 F F F P
0.657222 0.286455 0.398889 F F F P
0.858010 0.889856 0.377379 F F F P
0.358010 0.389856 0.395215 F F F P
0.558735 0.982845 0.373492 F F F P
0.058735 0.482845 0.453516 F F F P
0.000366 0.000413 0.458390 F F F P
0.500366 0.500413 0.470139 F F F P
0.701107 0.093280 0.545408 F F F P
0.201107 0.593280 0.528441 F F F P
0.401802 0.197061 0.513083 F F F P
0.901802 0.697061 0.524275 F F F P
0.100084 0.308311 0.507834 F F F P
0.600084 0.808311 0.493474 F F F P
0.800152 0.408249 0.474260 F F F P
0.300152 0.908249 0.490671 F F F P
0.760353 0.574567 0.540078 F F F P
0.260353 0.074567 0.522999 F F F P
0.460110 0.674438 0.506499 F F F P
0.960110 0.174438 0.520259 F F F P
0.157222 0.786455 0.501121 F F F P
0.657222 0.286455 0.489798 F F F P
0.858010 0.889856 0.468288 F F F P
0.358010 0.389856 0.486124 F F F P
0.558735 0.982845 0.464401 F F F P
0.058735 0.482845 0.544425 F F F P
0.000366 0.000413 0.549299 F F F P
0.500366 0.500413 0.561048 F F F P
0.701107 0.093280 0.636317 T T T P
0.201107 0.593280 0.619350 T T T P
0.401802 0.197061 0.603993 T T T P
0.901802 0.697061 0.615185 T T T P
0.100084 0.308311 0.598743 F F F P
0.600084 0.808311 0.584383 T T T P
0.800152 0.408249 0.565169 F F F P
0.300152 0.908249 0.581580 F F F P
0.760353 0.574567 0.630987 T T T P
0.260353 0.074567 0.613908 T T T P
0.460110 0.674438 0.597408 F F F P
0.960110 0.174438 0.611168 T T T P
0.157222 0.786455 0.592030 F F F P
0.657222 0.286455 0.580707 F F F P
0.858010 0.889856 0.559197 F F F P
0.358010 0.389856 0.577033 F F F P
0.558735 0.982845 0.555310 F F F P
0.058735 0.482845 0.635334 T T T P
0.834602 0.035413 0.008334 T T T O
0.334602 0.535413 0.041243 F F F O
0.519193 0.140628 0.026288 F F F O
0.019193 0.640628 0.080636 F F F O
0.205494 0.275856 0.066527 F F F O
0.705494 0.775856 0.006524 F F F O
0.900837 0.392259 0.080284 F F F O
0.400837 0.892259 0.048160 F F F O
0.102004 0.978148 0.063390 F F F O
0.602004 0.478148 0.028477 T T T O
0.659442 0.590622 0.024965 F F F O
0.159442 0.090622 0.056459 F F F O
0.353822 0.709404 0.038663 F F F O
0.853822 0.209404 0.007419 F F F O
0.039646 0.843555 0.078809 F F F O
0.539646 0.343555 0.024397 F F F O
0.731088 0.943480 0.004089 T T T O
0.231088 0.443480 0.064309 F F F O
0.959302 0.504327 0.076606 F F F O
0.459302 0.004327 0.041208 F F F O
0.103062 0.926111 0.007001 T T T O
0.603062 0.426111 0.084674 F F F O
0.939017 0.066074 0.021107 T T T O
0.439017 0.566074 0.009486 T T T O
0.754026 0.041349 0.067893 F F F O
0.254026 0.541349 0.087243 F F F O
0.675687 0.153257 0.088809 F F F O
0.175687 0.653257 0.080571 F F F O
0.405695 0.154647 0.073050 F F F O
0.905695 0.654647 0.054510 F F F O
0.452827 0.224590 0.062385 F F F O
0.952827 0.724590 0.056606 F F F O
0.116625 0.252705 0.044745 F F F O
0.616625 0.752705 0.044464 F F F O
0.141832 0.330648 0.033794 F F F O
0.641832 0.830648 0.050832 T T T O
0.876575 0.332841 0.017802 T T T O
0.376575 0.832841 0.024144 F F F O
0.792187 0.446708 0.038261 T T T O
0.292187 0.946708 0.019028 T T T O
0.765726 0.536665 0.067404 F F F O
0.265726 0.036665 0.085605 F F F O
0.685519 0.649394 0.087068 F F F O
0.185519 0.149394 0.080524 F F F O
0.416809 0.651785 0.071024 F F F O
0.916809 0.151785 0.054516 T T T O
0.446770 0.728542 0.060777 F F F O
0.946770 0.228542 0.059315 F F F O
0.106345 0.758375 0.043333 F F F O
0.606345 0.258375 0.047745 F F F O
0.151319 0.828801 0.031719 F F F O
0.651319 0.328801 0.051182 F F F O
0.883647 0.829973 0.016264 T T T O
0.383647 0.329973 0.024396 T T T O
0.798636 0.944360 0.036903 T T T O
0.298636 0.444360 0.019213 T T T O
0.613260 0.919559 0.083771 F F F O
0.113260 0.419559 0.006050 T T T O
0.457676 0.057634 0.007138 T T T O
0.957676 0.557634 0.020062 F F F O
0.834602 0.035413 0.099243 F F F O
0.334602 0.535413 0.132152 F F F O
0.519193 0.140628 0.117197 F F F O
0.019193 0.640628 0.171545 F F F O
0.205494 0.275856 0.157436 F F F O
0.705494 0.775856 0.097433 F F F O
0.900837 0.392259 0.171193 F F F O
0.400837 0.892259 0.139069 F F F O
0.102004 0.978148 0.154299 F F F O
0.602004 0.478148 0.119386 F F F O
0.659442 0.590622 0.115874 F F F O
0.159442 0.090622 0.147368 F F F O
0.353822 0.709404 0.129572 F F F O
0.853822 0.209404 0.098328 F F F O
0.039646 0.843555 0.169718 F F F O
0.539646 0.343555 0.115306 F F F O
0.731088 0.943480 0.094998 F F F O
0.231088 0.443480 0.155218 F F F O
0.959302 0.504327 0.167515 F F F O
0.459302 0.004327 0.132117 F F F O
0.103062 0.926111 0.097910 F F F O
0.603062 0.426111 0.175584 F F F O
0.939017 0.066074 0.112016 F F F O
0.439017 0.566074 0.100395 F F F O
0.754026 0.041349 0.158802 F F F O
0.254026 0.541349 0.178152 F F F O
0.675687 0.153257 0.179718 F F F O
0.175687 0.653257 0.171480 F F F O
0.405695 0.154647 0.163960 F F F O
0.905695 0.654647 0.145419 F F F O
0.452827 0.224590 0.153294 F F F O
0.952827 0.724590 0.147515 F F F O
0.116625 0.252705 0.135654 F F F O
0.616625 0.752705 0.135373 F F F O
0.141832 0.330648 0.124703 F F F O
0.641832 0.830648 0.141741 F F F O
0.876575 0.332841 0.108711 F F F O
0.376575 0.832841 0.115053 F F F O
0.792187 0.446708 0.129170 F F F O
0.292187 0.946708 0.109937 F F F O
0.765726 0.536665 0.158313 F F F O
0.265726 0.036665 0.176515 F F F O
0.685519 0.649394 0.177978 F F F O
0.185519 0.149394 0.171433 F F F O
0.416809 0.651785 0.161933 F F F O
0.916809 0.151785 0.145425 F F F O
0.446770 0.728542 0.151686 F F F O
0.946770 0.228542 0.150224 F F F O
0.106345 0.758375 0.134242 F F F O
0.606345 0.258375 0.138654 F F F O
0.151319 0.828801 0.122628 F F F O
0.651319 0.328801 0.142092 F F F O
0.883647 0.829973 0.107173 F F F O
0.383647 0.329973 0.115305 F F F O
0.798636 0.944360 0.127812 F F F O
0.298636 0.444360 0.110122 F F F O
0.613260 0.919559 0.174681 F F F O
0.113260 0.419559 0.096959 F F F O
0.457676 0.057634 0.098047 F F F O
0.957676 0.557634 0.110971 F F F O
0.834602 0.035413 0.190152 F F F O
0.334602 0.535413 0.223061 F F F O
0.519193 0.140628 0.208106 F F F O
0.019193 0.640628 0.262454 F F F O
0.205494 0.275856 0.248345 F F F O
0.705494 0.775856 0.188342 F F F O
0.900837 0.392259 0.262102 F F F O
0.400837 0.892259 0.229978 F F F O
0.102004 0.978148 0.245209 F F F O
0.602004 0.478148 0.210295 F F F O
0.659442 0.590622 0.206783 F F F O
0.159442 0.090622 0.238278 F F F O
0.353822 0.709404 0.220481 F F F O
0.853822 0.209404 0.189238 F F F O
0.039646 0.843555 0.260627 F F F O
0.539646 0.343555 0.206215 F F F O
0.731088 0.943480 0.185907 F F F O
0.231088 0.443480 0.246127 F F F O
0.959302 0.504327 0.258424 F F F O
0.459302 0.004327 0.223026 F F F O
0.103062 0.926111 0.188819 F F F O
0.603062 0.426111 0.266493 F F F O
0.939017 0.066074 0.202925 F F F O
0.439017 0.566074 0.191304 F F F O
0.754026 0.041349 0.249711 F F F O
0.254026 0.541349 0.269061 F F F O
0.675687 0.153257 0.270627 F F F O
0.175687 0.653257 0.262389 F F F O
0.405695 0.154647 0.254869 F F F O
0.905695 0.654647 0.236328 F F F O
0.452827 0.224590 0.244203 F F F O
0.952827 0.724590 0.238424 F F F O
0.116625 0.252705 0.226563 F F F O
0.616625 0.752705 0.226282 F F F O
0.141832 0.330648 0.215612 F F F O
0.641832 0.830648 0.232650 F F F O
0.876575 0.332841 0.199620 F F F O
0.376575 0.832841 0.205962 F F F O
0.792187 0.446708 0.220079 F F F O
0.292187 0.946708 0.200847 F F F O
0.765726 0.536665 0.249222 F F F O
0.265726 0.036665 0.267424 F F F O
0.685519 0.649394 0.268887 F F F O
0.185519 0.149394 0.262342 F F F O
0.416809 0.651785 0.252842 F F F O
0.916809 0.151785 0.236334 F F F O
0.446770 0.728542 0.242595 F F F O
0.946770 0.228542 0.241133 F F F O
0.106345 0.758375 0.225151 F F F O
0.606345 0.258375 0.229563 F F F O
0.151319 0.828801 0.213537 F F F O
0.651319 0.328801 0.233001 F F F O
0.883647 0.829973 0.198082 F F F O
0.383647 0.329973 0.206214 F F F O
0.798636 0.944360 0.218721 F F F O
0.298636 0.444360 0.201031 F F F O
0.613260 0.919559 0.265590 F F F O
0.113260 0.419559 0.187868 F F F O
0.457676 0.057634 0.188956 F F F O
0.957676 0.557634 0.201881 F F F O
0.834602 0.035413 0.281061 F F F O
0.334602 0.535413 0.313970 F F F O
0.519193 0.140628 0.299015 F F F O
0.019193 0.640628 0.353363 F F F O
0.205494 0.275856 0.339255 F F F O
0.705494 0.775856 0.279251 F F F O
0.900837 0.392259 0.353011 F F F O
0.400837 0.892259 0.320887 F F F O
0.102004 0.978148 0.336118 F F F O
0.602004 0.478148 0.301205 F F F O
0.659442 0.590622 0.297692 F F F O
0.159442 0.090622 0.329187 F F F O
0.353822 0.709404 0.311390 F F F O
0.853822 0.209404 0.280147 F F F O
0.039646 0.843555 0.351536 F F F O
0.539646 0.343555 0.297124 F F F O
0.731088 0.943480 0.276816 F F F O
0.231088 0.443480 0.337036 F F F O
0.959302 0.504327 0.349333 F F F O
0.459302 0.004327 0.313935 F F F O
0.103062 0.926111 0.279728 F F F O
0.603062 0.426111 0.357402 F F F O
0.939017 0.066074 0.293834 F F F O
0.439017 0.566074 0.282213 F F F O
0.754026 0.041349 0.340621 F F F O
0.254026 0.541349 0.359970 F F F O
0.675687 0.153257 0.361536 F F F O
0.175687 0.653257 0.353299 F F F O
0.405695 0.154647 0.345778 F F F O
0.905695 0.654647 0.327237 F F F O
0.452827 0.224590 0.335112 F F F O
0.952827 0.724590 0.329333 F F F O
0.116625 0.252705 0.317472 F F F O
0.616625 0.752705 0.317191 F F F O
0.141832 0.330648 0.306521 F F F O
0.641832 0.830648 0.323559 F F F O
0.876575 0.332841 0.290529 F F F O
0.376575 0.832841 0.296871 F F F O
0.792187 0.446708 0.310988 F F F O
0.292187 0.946708 0.291756 F F F O
0.765726 0.536665 0.340131 F F F O
0.265726 0.036665 0.358333 F F F O
0.685519 0.649394 0.359796 F F F O
0.185519 0.149394 0.353251 F F F O
0.416809 0.651785 0.343751 F F F O
0.916809 0.151785 0.327243 F F F O
0.446770 0.728542 0.333505 F F F O
0.946770 0.228542 0.332042 F F F O
0.106345 0.758375 0.316060 F F F O
0.606345 0.258375 0.320472 F F F O
0.151319 0.828801 0.304446 F F F O
0.651319 0.328801 0.323910 F F F O
0.883647 0.829973 0.288991 F F F O
0.383647 0.329973 0.297123 F F F O
0.798636 0.944360 0.309630 F F F O
0.298636 0.444360 0.291940 F F F O
0.613260 0.919559 0.356499 F F F O
0.113260 0.419559 0.278777 F F F O
0.457676 0.057634 0.279865 F F F O
0.957676 0.557634 0.292790 F F F O
0.834602 0.035413 0.371970 F F F O
0.334602 0.535413 0.404879 F F F O
0.519193 0.140628 0.389925 F F F O
0.019193 0.640628 0.444272 F F F O
0.205494 0.275856 0.430164 F F F O
0.705494 0.775856 0.370160 F F F O
0.900837 0.392259 0.443920 F F F O
0.400837 0.892259 0.411796 F F F O
0.102004 0.978148 0.427027 F F F O
0.602004 0.478148 0.392114 F F F O
0.659442 0.590622 0.388601 F F F O
0.159442 0.090622 0.420096 F F F O
0.353822 0.709404 0.402300 F F F O
0.853822 0.209404 0.371056 F F F O
0.039646 0.843555 0.442445 F F F O
0.539646 0.343555 0.388033 F F F O
0.731088 0.943480 0.367725 F F F O
0.231088 0.443480 0.427946 F F F O
0.959302 0.504327 0.440242 F F F O
0.459302 0.004327 0.404844 F F F O
0.103062 0.926111 0.370637 F F F O
0.603062 0.426111 0.448311 F F F O
0.939017 0.066074 0.384743 F F F O
0.439017 0.566074 0.373122 F F F O
0.754026 0.041349 0.431530 F F F O
0.254026 0.541349 0.450879 F F F O
0.675687 0.153257 0.452445 F F F O
0.175687 0.653257 0.444208 F F F O
0.405695 0.154647 0.436687 F F F O
0.905695 0.654647 0.418146 F F F O
0.452827 0.224590 0.426021 F F F O
0.952827 0.724590 0.420243 F F F O
0.116625 0.252705 0.408382 F F F O
0.616625 0.752705 0.408100 F F F O
0.141832 0.330648 0.397430 F F F O
0.641832 0.830648 0.414469 F F F O
0.876575 0.332841 0.381438 F F F O
0.376575 0.832841 0.387780 F F F O
0.792187 0.446708 0.401897 F F F O
0.292187 0.946708 0.382665 F F F O
0.765726 0.536665 0.431040 F F F O
0.265726 0.036665 0.449242 F F F O
0.685519 0.649394 0.450705 F F F O
0.185519 0.149394 0.444160 F F F O
0.416809 0.651785 0.434660 F F F O
0.916809 0.151785 0.418152 F F F O
0.446770 0.728542 0.424414 F F F O
0.946770 0.228542 0.422951 F F F O
0.106345 0.758375 0.406970 F F F O
0.606345 0.258375 0.411382 F F F O
0.151319 0.828801 0.395355 F F F O
0.651319 0.328801 0.414819 F F F O
0.883647 0.829973 0.379900 F F F O
0.383647 0.329973 0.388032 F F F O
0.798636 0.944360 0.400540 F F F O
0.298636 0.444360 0.382850 F F F O
0.613260 0.919559 0.447408 F F F O
0.113260 0.419559 0.369686 F F F O
0.457676 0.057634 0.370774 F F F O
0.957676 0.557634 0.383699 F F F O
0.834602 0.035413 0.462879 F F F O
0.334602 0.535413 0.495789 F F F O
0.519193 0.140628 0.480834 F F F O
0.019193 0.640628 0.535181 F F F O
0.205494 0.275856 0.521073 F F F O
0.705494 0.775856 0.461069 F F F O
0.900837 0.392259 0.534829 F F F O
0.400837 0.892259 0.502705 F F F O
0.102004 0.978148 0.517936 F F F O
0.602004 0.478148 0.483023 F F F O
0.659442 0.590622 0.479510 F F F O
0.159442 0.090622 0.511005 F F F O
0.353822 0.709404 0.493209 F F F O
0.853822 0.209404 0.461965 F F F O
0.039646 0.843555 0.533354 F F F O
0.539646 0.343555 0.478942 F F F O
0.731088 0.943480 0.458634 F F F O
0.231088 0.443480 0.518855 F F F O
0.959302 0.504327 0.531151 F F F O
0.459302 0.004327 0.495753 F F F O
0.103062 0.926111 0.461546 F F F O
0.603062 0.426111 0.539220 F F F O
0.939017 0.066074 0.475652 F F F O
0.439017 0.566074 0.464031 F F F O
0.754026 0.041349 0.522439 F F F O
0.254026 0.541349 0.541789 F F F O
0.675687 0.153257 0.543354 F F F O
0.175687 0.653257 0.535117 F F F O
0.405695 0.154647 0.527596 F F F O
0.905695 0.654647 0.509055 F F F O
0.452827 0.224590 0.516930 F F F O
0.952827 0.724590 0.511152 F F F O
0.116625 0.252705 0.499291 F F F O
0.616625 0.752705 0.499010 F F F O
0.141832 0.330648 0.488339 F F F O
0.641832 0.830648 0.505378 F F F O
0.876575 0.332841 0.472347 F F F O
0.376575 0.832841 0.478689 F F F O
0.792187 0.446708 0.492806 F F F O
0.292187 0.946708 0.473574 F F F O
0.765726 0.536665 0.521949 F F F O
0.265726 0.036665 0.540151 F F F O
0.685519 0.649394 0.541614 F F F O
0.185519 0.149394 0.535069 F F F O
0.416809 0.651785 0.525569 F F F O
0.916809 0.151785 0.509061 F F F O
0.446770 0.728542 0.515323 F F F O
0.946770 0.228542 0.513860 F F F O
0.106345 0.758375 0.497879 F F F O
0.606345 0.258375 0.502291 F F F O
0.151319 0.828801 0.486264 F F F O
0.651319 0.328801 0.505728 F F F O
0.883647 0.829973 0.470809 F F F O
0.383647 0.329973 0.478942 F F F O
0.798636 0.944360 0.491449 F F F O
0.298636 0.444360 0.473759 F F F O
0.613260 0.919559 0.538317 F F F O
0.113260 0.419559 0.460595 F F F O
0.457676 0.057634 0.461683 F F F O
0.957676 0.557634 0.474608 F F F O
0.834602 0.035413 0.553789 F F F O
0.334602 0.535413 0.586698 F F F O
0.519193 0.140628 0.571743 F F F O
0.019193 0.640628 0.626091 T T T O
0.205494 0.275856 0.611982 F F F O
0.705494 0.775856 0.551979 F F F O
0.900837 0.392259 0.625738 F F F O
0.400837 0.892259 0.593614 F F F O
0.102004 0.978148 0.608845 F F F O
0.602004 0.478148 0.573932 F F F O
0.659442 0.590622 0.570420 F F F O
0.159442 0.090622 0.601914 F F F O
0.353822 0.709404 0.584118 F F F O
0.853822 0.209404 0.552874 F F F O
0.039646 0.843555 0.624263 F F F O
0.539646 0.343555 0.569851 F F F O
0.731088 0.943480 0.549543 F F F O
0.231088 0.443480 0.609764 T T T O
0.959302 0.504327 0.622060 T T T O
0.459302 0.004327 0.586662 F F F O
0.103062 0.926111 0.552455 F F F O
0.603062 0.426111 0.630129 F F F O
0.939017 0.066074 0.566562 F F F O
0.439017 0.566074 0.554940 F F F O
0.754026 0.041349 0.613348 T T T O
0.254026 0.541349 0.632698 T T T O
0.675687 0.153257 0.634263 T T T O
0.175687 0.653257 0.626026 T T T O
0.405695 0.154647 0.618505 T T T O
0.905695 0.654647 0.599964 T T T O
0.452827 0.224590 0.607839 F F F O
0.952827 0.724590 0.602061 T T T O
0.116625 0.252705 0.590200 F F F O
0.616625 0.752705 0.589919 F F F O
0.141832 0.330648 0.579249 F F F O
0.641832 0.830648 0.596287 T T T O
0.876575 0.332841 0.563257 F F F O
0.376575 0.832841 0.569598 F F F O
0.792187 0.446708 0.583715 F F F O
0.292187 0.946708 0.564483 F F F O
0.765726 0.536665 0.612858 T T T O
0.265726 0.036665 0.631060 T T T O
0.685519 0.649394 0.632523 T T T O
0.185519 0.149394 0.625978 T T T O
0.416809 0.651785 0.616478 F F F O
0.916809 0.151785 0.599970 T T T O
0.446770 0.728542 0.606232 F F F O
0.946770 0.228542 0.604769 T T T O
0.106345 0.758375 0.588788 F F F O
0.606345 0.258375 0.593200 F F F O
0.151319 0.828801 0.577173 F F F O
0.651319 0.328801 0.596637 F F F O
0.883647 0.829973 0.561718 F F F O
0.383647 0.329973 0.569851 F F F O
0.798636 0.944360 0.582358 F F F O
0.298636 0.444360 0.564668 F F F O
0.613260 0.919559 0.629226 F F F O
0.113260 0.419559 0.551504 F F F O
0.457676 0.057634 0.552592 F F F O
0.957676 0.557634 0.565517 F F F O
