Li5 P2 N1 O6                            
   1.00000000000000     
    -0.0134507757225651   -0.0180040234265571    5.2061146777742291
     6.1481535570375128   -0.1066109958782038   -0.0182237767437365
    -0.0891219368749039    5.2948335092370300   -0.0201797093127871
   Li   P    N    O 
     5     2     1     6
Direct
  0.4969552348278632 -0.0119832241331160  0.8350911431270019
  0.4912026878746296  0.7455831598311372  0.3272464570236850
 -0.0095187352145862  0.7441857558857663  0.6758097695877187
 -0.0176447320725049  0.2342804268980031  0.7184829942768765
  0.5741294867931168  0.2684001007807735  0.3188187720335166
  0.4968104196608570  0.4919540401491571  0.8051142473708852
 -0.0033517959619863  0.0106258121186029  0.1825483355311401
  0.1909387800291043  0.4885981507037867  0.7505698528541920
  0.6200542833699900  0.6968275880144359  0.6816118743908197
  0.1333526383456303  0.8627458910450726  0.3682903264801545
  0.6227123717723304  0.2795711347453324  0.6816583381584032
  0.5382471518772887  0.4966191807437359  0.0956599006690783
  0.1103074947149245 -0.0047335374379179  0.9120784541705085
  0.6971777139833695 -0.0098124793447700  0.1780305343260197
 
  0.00000000E+00  0.00000000E+00  0.00000000E+00
  0.00000000E+00  0.00000000E+00  0.00000000E+00
  0.00000000E+00  0.00000000E+00  0.00000000E+00
  0.00000000E+00  0.00000000E+00  0.00000000E+00
  0.00000000E+00  0.00000000E+00  0.00000000E+00
  0.00000000E+00  0.00000000E+00  0.00000000E+00
  0.00000000E+00  0.00000000E+00  0.00000000E+00
  0.00000000E+00  0.00000000E+00  0.00000000E+00
  0.00000000E+00  0.00000000E+00  0.00000000E+00
  0.00000000E+00  0.00000000E+00  0.00000000E+00
  0.00000000E+00  0.00000000E+00  0.00000000E+00
  0.00000000E+00  0.00000000E+00  0.00000000E+00
  0.00000000E+00  0.00000000E+00  0.00000000E+00
  0.00000000E+00  0.00000000E+00  0.00000000E+00
