Li5 P2 N1 O6                            
   1.00000000000000     
    -0.2269568716407829   -0.0528780301893861    5.3407105852476784
     5.9528510847186400   -0.1657794678569503   -0.2895361345406262
    -0.1432519074249933    5.1721249621452658   -0.0623543945450286
   Li   P    N    O 
     5     2     1     6
Direct
  0.4555550735651157 -0.0212535360615419  0.8617846034392944
 -0.1225422398245526  0.4362234111888478  0.2861093933135764
  0.4501397716886589  0.7295337475912148  0.3057424087397224
  0.0557942031021951  0.7537350281100295  0.6607006546421221
  0.1023715574942949  0.2618086674728924  0.6702044566728069
  0.5889417823155880  0.4909498692907367  0.7916626542498006
 -0.0078929544766087 -0.0137060902257874  0.1633514104715712
  0.6889265792015543 -0.0252756481771734  0.1526832729353814
  0.0873265404062217  0.2017495340000295  0.3279930332869519
  0.4379672923025230  0.6768277250924847  0.6733997542852556
  0.0818816850227653  0.7704083167112298  0.2848730354515739
  0.8629985318385059  0.4948219237477086  0.6992312270184118
  0.5750659296890621  0.4846155397154787  0.0901029304200293
  0.1077122476746972  0.0066885115438504  0.8873311650735004
 
  0.00000000E+00  0.00000000E+00  0.00000000E+00
  0.00000000E+00  0.00000000E+00  0.00000000E+00
  0.00000000E+00  0.00000000E+00  0.00000000E+00
  0.00000000E+00  0.00000000E+00  0.00000000E+00
  0.00000000E+00  0.00000000E+00  0.00000000E+00
  0.00000000E+00  0.00000000E+00  0.00000000E+00
  0.00000000E+00  0.00000000E+00  0.00000000E+00
  0.00000000E+00  0.00000000E+00  0.00000000E+00
  0.00000000E+00  0.00000000E+00  0.00000000E+00
  0.00000000E+00  0.00000000E+00  0.00000000E+00
  0.00000000E+00  0.00000000E+00  0.00000000E+00
  0.00000000E+00  0.00000000E+00  0.00000000E+00
  0.00000000E+00  0.00000000E+00  0.00000000E+00
  0.00000000E+00  0.00000000E+00  0.00000000E+00
