Li73 P24 N1 O95                         
   1.00000000000000     
    14.7340569732818452   -0.0070945928319482    0.0087358166660901
    -0.0049862210429723   10.5560211665139327    0.0018663301880976
     0.0072921369068803    0.0021705468918186   12.3298012964031543
   Li   P    N    O 
    73    24     1    95
Direct
  0.1042470065769971  0.4913902708100193  0.1056853187875545
  0.1705070227852623  0.4210876218247499  0.4970221148722271
  0.1703609984793104  0.9242645827682364 -0.0005603991404043
  0.1702745057202330  0.9211645660201049  0.4995411148867032
  0.5038414454483957  0.4200917898257880 -0.0000135651839151
  0.5049533018928668  0.4220128366662693  0.4996312016780579
  0.5036158920842141  0.9212113612320206 -0.0005745979086662
  0.5038755829243255  0.9211157345969139  0.4997086062533639
  0.8364293459329408  0.4233751250538411 -0.0009015785744475
  0.8379475834576013  0.4216358408034616  0.4990531342648862
  0.8368001413018969  0.9203168783600488 -0.0008728061426273
  0.8373702207831080  0.9213822360702693  0.4992445019257074
  0.0051529394440063  0.0790983183047476  0.2498673382865305
  0.0033854152464675  0.0764372665249000  0.7484415017404459
 -0.0006190674369579  0.5704630748743689  0.2588593265565097
  0.0028171924214166  0.5737386663768588  0.7466488269482849
  0.3371083257434055  0.0780732149952761  0.2511175867852753
  0.3372012227435514  0.0756098459728114  0.7490573889403983
  0.3382893886492410  0.5732786600579393  0.2530096218752105
  0.3367142344924287  0.5762814828619761  0.7486307102644285
  0.6712578167836996  0.0768563172705967  0.2499239609244197
  0.6702586886321459  0.0770770936607523  0.7488401093785105
  0.6706461033664212  0.5777372494091390  0.2502149020907204
  0.6701512398721573  0.5764835593964310  0.7487237992189085
  0.1691417183894530  0.1681652110902300  0.1281328592255618
  0.1703237328674471  0.1618593302901794  0.6251187499886468
  0.1835120731682001  0.6748743369548306  0.1330658579029024
  0.1699517087072673  0.6611452168504854  0.6259664102553304
  0.5053126911565831  0.1615292095360313  0.1263484312105911
  0.5038479937926647  0.1620279963745331  0.6255002371906669
  0.5042135332591660  0.6621243213501140  0.1269289390463626
  0.5035537218104598  0.6625458962589038  0.6257032581730355
  0.8356738646378834  0.1609906711172516  0.1249695943784192
  0.8369930637233476  0.1624514722177281  0.6251898548944531
  0.8337984433049868  0.6641560015549867  0.1268330626106782
  0.8368113177238659  0.6626265006840717  0.6253872766782993
 -0.0052368971330024  0.3257200811968121  0.1287677974940439
  0.0039140849829688  0.3348026411680537  0.6226641365833929
  0.0042272805192771  0.8347317995161108  0.1228168702717548
  0.0032335786017540  0.8353540727520535  0.6230963505454121
  0.3418136952458325  0.3324262326283740  0.1303605031114975
  0.3370718689443775  0.3357986091153074  0.6213891404601516
  0.3393972672733109  0.8383121609818454  0.1242437583639800
  0.3367198762540123  0.8354822434619672  0.6233501636209449
  0.6709722204050436  0.3359878016215317  0.1231098036817990
  0.6709483909305952  0.3355653898976495  0.6225695430273281
  0.6697700109887054  0.8366922106659025  0.1233389982743828
  0.6699740354664819  0.8360337142745666  0.6229677820556012
  0.0041060681941668  0.3374171716532065  0.3711460853163825
  0.0030778879774114  0.3333606223051440  0.8752384070257827
  0.0041483588721502  0.8364055003687845  0.3757539363162814
  0.0016452028405619  0.8371929717676228  0.8729824021318928
  0.3392583542169488  0.3356481495903215  0.3776836364320167
  0.3433431573652433  0.3303680301756390  0.8689771346089833
  0.3370749317319006  0.8358103905278909  0.3766340190603403
  0.3358777198942792  0.8360244071890423  0.8755483873347187
  0.6714640786116834  0.3357473603045217  0.3771116400641269
  0.6699046841809249  0.3357813645336606  0.8756057521534685
  0.6707768900693408  0.8363051048448488  0.3758109370774749
  0.6695654265728351  0.8365847600167788  0.8751880662323014
  0.1700036234267861  0.1656779822747380  0.3747435578372306
  0.1696962439422402  0.1599447683235636  0.8722384499475554
  0.1705652415251654  0.6596344147235091  0.3723147984420938
  0.1673612668700988  0.6604448045644865  0.8733193108567410
  0.5048351789528517  0.1622105501234141  0.3737941869065375
  0.5046613912889060  0.1608919233157824  0.8729070586931686
  0.5043439176838747  0.6626074219871106  0.3740026212704426
  0.5034473569791189  0.6622962440069474  0.8728747004444809
  0.8376158044938878  0.1624067998922807  0.3732672093352907
  0.8364003676730192  0.1621508316455347  0.8728099653349867
  0.8365838827751978  0.6628107816314932  0.3737998348373991
  0.8332567730324423  0.6649295661602710  0.8698695880803399
  0.2173156948039943  0.3996005353778807 -0.0061166440688804
  0.1682316442768001  0.4087151665774775  0.2543230466579735
  0.1692374035928845  0.4092120012143298  0.7481929352600478
  0.1686277193250095  0.9145876086630995  0.2503177360871190
  0.1675792801894126  0.9103809927745699  0.7493684181662780
  0.5033800499798550  0.4113616966931788  0.2506411341891969
  0.5018149431978846  0.4115244110726934  0.7487021544573238
  0.5015588773204919  0.9117249134925663  0.2501344110866603
  0.5008226762677784  0.9110336752490059  0.7495527823257279
  0.8315305602199675  0.4116358045935848  0.2495073806921151
  0.8336216589658697  0.4109944075327637  0.7492214391361031
  0.8350283205227225  0.9115548893866460  0.2494198652251190
  0.8334954775411018  0.9122001925114351  0.7486674179572658
  0.0005981744754282  0.0845485556897727 -0.0017764827468540
  0.0011157406406164  0.0863831981399636  0.4998743395497815
 -0.0047927301913185  0.5906178461560531 -0.0076051033759212
  0.0010847877026499  0.5870012151454159  0.5005951814007517
  0.3353403073741963  0.0868433678747247 -0.0000171854970304
  0.3351547762137310  0.0863401022443182  0.5001017326409759
  0.3326950393468432  0.5864108538988830  0.0003464986666814
  0.3353772661394477  0.5873347802526261  0.5003969728843086
  0.6674945970276503  0.0863605920387118 -0.0007669961529305
  0.6681642936860753  0.0864447426613031  0.4995280548075657
  0.6659504765519701  0.5872507844792203 -0.0010442276458766
  0.6681791396460811  0.5874666298689765  0.5000121068882803
  0.0622445496626337  0.4082899527882383  0.2433364232693477
  0.0364757902153442  0.1554582982031707  0.3965318850149162
  0.0361662721417928  0.1536852102356119  0.8943952371768487
  0.0365655552518610  0.6579199874965183  0.3978735685622485
  0.0315409708410323  0.6568238973900442  0.8884589033657134
  0.3715821993708686  0.1552245040661065  0.3967455386801211
  0.3714718470211649  0.1544253120432125  0.8957047922922792
  0.3711571945195262  0.6570398355616867  0.3970498963942358
  0.3676095227755637  0.6544378759653141  0.8964406993024336
  0.7034848768728129  0.1554217153790459  0.3957028218090312
  0.7024845809043361  0.1558477522501284  0.8954066080571575
  0.7032960908454455  0.6570017937022186  0.3963171940042076
  0.7004448585136560  0.6565016266578674  0.8947905277798351
  0.2013405277777822  0.0548356772417312  0.2514831567488051
  0.2021094313857796  0.0502059847293331  0.7494881118095991
  0.2073640946884593  0.5510835155880878  0.2498938279754875
  0.2020390631364193  0.5497464919106521  0.7505644803545883
  0.5360147202407589  0.0514732416945899  0.2498515776062236
  0.5346918415499512  0.0511333873423655  0.7493592938753783
  0.5363720484562841  0.5518087717096506  0.2501553680246867
  0.5353459909639209  0.5516087661106718  0.7493931301231342
  0.8685077717875639  0.0517695338032437  0.2491243557431906
  0.8675191401803928  0.0521239060753637  0.7487825527512527
  0.8647095469143976  0.5521725086518737  0.2489054365667469
  0.8670493405362132  0.5512822869680353  0.7491588497082577
  0.0636813822738257  0.4049605514589927  0.7504769837473593
  0.0630159045227620  0.9088664666500227  0.2485177357992532
  0.0619216312677752  0.9087860823111888  0.7487050325020920
  0.3979355227918768  0.4083729476778007  0.2519630752572882
  0.3961001429210374  0.4092616276057339  0.7471328122196460
  0.3958374692267391  0.9096240696875869  0.2507959843456878
  0.3950998513111300  0.9079593470353559  0.7496932777671618
  0.7257444362321740  0.4095829124341853  0.2502732982055850
  0.7278791411860588  0.4080153286979795  0.7491550191808846
  0.7292133934516541  0.9083829648162809  0.2492203457858296
  0.7277680049722716  0.9093292495920767  0.7487268375471481
  0.2296280660219467  0.0929159419309326  0.0002650332784895
  0.2295055497334837  0.0889742014035732  0.4997748345429480
  0.2261358217613516  0.5876001240072009  0.0023668324294864
  0.2297120648000325  0.5897341197660317  0.5001674305258349
  0.5617605178600164  0.0889288275913878 -0.0006768053889594
  0.5624271252521298  0.0891467323438039  0.4998028296992016
  0.5600418271113531  0.5889999426466264 -0.0005363239836882
  0.5624419145751043  0.5900292104842179  0.5000409552657867
  0.8948295264660822  0.0883025061934865 -0.0016125992617153
  0.8953247553670184  0.0891744786951281  0.4998232203133362
  0.8904352264495837  0.5988774573014032 -0.0022108115818977
  0.8952284110348194  0.5901491925327711  0.4997701956606816
  0.2117107111483701  0.3447891516389328  0.1466436172990341
  0.2036015887673072  0.3423953185163393  0.6431334176867051
  0.2059356824745414  0.8487038297587507  0.1455936125739041
  0.2030389403491615  0.8409010502732115  0.6459311481883211
  0.5369812418501785  0.3424100427727914  0.1457994894439105
  0.5377952943824704  0.3419083153628132  0.6457464616637948
  0.5357274271986356  0.8423533310520785  0.1457956375939736
  0.5362878786179841  0.8419409061418663  0.6459346837706947
  0.8641675882548369  0.3419975473111425  0.1446590447251528
  0.8694631032989442  0.3420340836307538  0.6457033213053198
  0.8703373699959287  0.8420908390281234  0.1457408749730774
  0.8690452858080868  0.8426391560565327  0.6452984521117862
  0.0359601978035475  0.1528659906921934  0.1018373578726336
  0.0362965154259709  0.1550794948870751  0.6039836843729757
  0.0391394221041829  0.6539121784012057  0.0954340782971885
  0.0358869300897532  0.6555171248090865  0.6050305801971267
  0.3721039134701244  0.1546095799922070  0.1035102400620021
  0.3701690080114601  0.1556194470132233  0.6040593300020776
  0.3688199506661813  0.6542910945331869  0.1036782665777111
  0.3700393126442058  0.6564006366842843  0.6046087121471067
  0.7024555554654761  0.1553109068718175  0.1031008457259190
  0.7032995694800601  0.1557893290186088  0.6032264136964065
  0.7008678779934181  0.6568889470580932  0.1025543100480393
  0.7031346194002031  0.6566323823328273  0.6038768670520338
  0.0248105392922583  0.4484252823348163 -0.0052980662912117
  0.0343352114382464  0.4470323651705481  0.5008916331001616
  0.0340951025124837  0.9443074539633320 -0.0021196251292867
  0.0347184613761438  0.9461285757270039  0.4999440240680109
  0.3622386246399000  0.4435498164551856 -0.0013161443064488
  0.3701995171170565  0.4478384857714378  0.5004323959148733
  0.3675364542605518  0.9460297922827896 -0.0005366981588546
  0.3687218431483203  0.9461582137690888  0.5004597979977720
  0.7001703191794438  0.4474849191468718 -0.0011452504859576
  0.7020696452664730  0.4475552116277039  0.5000886129041263
  0.7012368288899006  0.9463327603590149 -0.0008656240911687
  0.7017856867868576  0.9463800546856505  0.4995526453021877
  0.2096806346893208  0.3412721505845741  0.3567643411507428
  0.2079085550308363  0.3373040287827083  0.8491892753125045
  0.2035974806697173  0.8431257457666118  0.3529270348491218
  0.2020946268082867  0.8411178647210348  0.8536569336732568
  0.5388574772344658  0.3420127406822822  0.3539768436266068
  0.5351073583335023  0.3422815766209649  0.8535152739121478
  0.5370654387535267  0.8422506050310865  0.3534720551136106
  0.5357130347863416  0.8420765372720892  0.8536069203513906
  0.8669308370606392  0.3425110103447842  0.3529329145521213
  0.8685851623815914  0.3422621733847052  0.8532587518292937
  0.8701262549961145  0.8425251639051645  0.3532200816045747
  0.8681886011489265  0.8432080705320740  0.8526398428552009
 
  0.00000000E+00  0.00000000E+00  0.00000000E+00
  0.00000000E+00  0.00000000E+00  0.00000000E+00
  0.00000000E+00  0.00000000E+00  0.00000000E+00
  0.00000000E+00  0.00000000E+00  0.00000000E+00
  0.00000000E+00  0.00000000E+00  0.00000000E+00
  0.00000000E+00  0.00000000E+00  0.00000000E+00
  0.00000000E+00  0.00000000E+00  0.00000000E+00
  0.00000000E+00  0.00000000E+00  0.00000000E+00
  0.00000000E+00  0.00000000E+00  0.00000000E+00
  0.00000000E+00  0.00000000E+00  0.00000000E+00
  0.00000000E+00  0.00000000E+00  0.00000000E+00
  0.00000000E+00  0.00000000E+00  0.00000000E+00
  0.00000000E+00  0.00000000E+00  0.00000000E+00
  0.00000000E+00  0.00000000E+00  0.00000000E+00
  0.00000000E+00  0.00000000E+00  0.00000000E+00
  0.00000000E+00  0.00000000E+00  0.00000000E+00
  0.00000000E+00  0.00000000E+00  0.00000000E+00
  0.00000000E+00  0.00000000E+00  0.00000000E+00
  0.00000000E+00  0.00000000E+00  0.00000000E+00
  0.00000000E+00  0.00000000E+00  0.00000000E+00
  0.00000000E+00  0.00000000E+00  0.00000000E+00
  0.00000000E+00  0.00000000E+00  0.00000000E+00
  0.00000000E+00  0.00000000E+00  0.00000000E+00
  0.00000000E+00  0.00000000E+00  0.00000000E+00
  0.00000000E+00  0.00000000E+00  0.00000000E+00
  0.00000000E+00  0.00000000E+00  0.00000000E+00
  0.00000000E+00  0.00000000E+00  0.00000000E+00
  0.00000000E+00  0.00000000E+00  0.00000000E+00
  0.00000000E+00  0.00000000E+00  0.00000000E+00
  0.00000000E+00  0.00000000E+00  0.00000000E+00
  0.00000000E+00  0.00000000E+00  0.00000000E+00
  0.00000000E+00  0.00000000E+00  0.00000000E+00
  0.00000000E+00  0.00000000E+00  0.00000000E+00
  0.00000000E+00  0.00000000E+00  0.00000000E+00
  0.00000000E+00  0.00000000E+00  0.00000000E+00
  0.00000000E+00  0.00000000E+00  0.00000000E+00
  0.00000000E+00  0.00000000E+00  0.00000000E+00
  0.00000000E+00  0.00000000E+00  0.00000000E+00
  0.00000000E+00  0.00000000E+00  0.00000000E+00
  0.00000000E+00  0.00000000E+00  0.00000000E+00
  0.00000000E+00  0.00000000E+00  0.00000000E+00
  0.00000000E+00  0.00000000E+00  0.00000000E+00
  0.00000000E+00  0.00000000E+00  0.00000000E+00
  0.00000000E+00  0.00000000E+00  0.00000000E+00
  0.00000000E+00  0.00000000E+00  0.00000000E+00
  0.00000000E+00  0.00000000E+00  0.00000000E+00
  0.00000000E+00  0.00000000E+00  0.00000000E+00
  0.00000000E+00  0.00000000E+00  0.00000000E+00
  0.00000000E+00  0.00000000E+00  0.00000000E+00
  0.00000000E+00  0.00000000E+00  0.00000000E+00
  0.00000000E+00  0.00000000E+00  0.00000000E+00
  0.00000000E+00  0.00000000E+00  0.00000000E+00
  0.00000000E+00  0.00000000E+00  0.00000000E+00
  0.00000000E+00  0.00000000E+00  0.00000000E+00
  0.00000000E+00  0.00000000E+00  0.00000000E+00
  0.00000000E+00  0.00000000E+00  0.00000000E+00
  0.00000000E+00  0.00000000E+00  0.00000000E+00
  0.00000000E+00  0.00000000E+00  0.00000000E+00
  0.00000000E+00  0.00000000E+00  0.00000000E+00
  0.00000000E+00  0.00000000E+00  0.00000000E+00
  0.00000000E+00  0.00000000E+00  0.00000000E+00
  0.00000000E+00  0.00000000E+00  0.00000000E+00
  0.00000000E+00  0.00000000E+00  0.00000000E+00
  0.00000000E+00  0.00000000E+00  0.00000000E+00
  0.00000000E+00  0.00000000E+00  0.00000000E+00
  0.00000000E+00  0.00000000E+00  0.00000000E+00
  0.00000000E+00  0.00000000E+00  0.00000000E+00
  0.00000000E+00  0.00000000E+00  0.00000000E+00
  0.00000000E+00  0.00000000E+00  0.00000000E+00
  0.00000000E+00  0.00000000E+00  0.00000000E+00
  0.00000000E+00  0.00000000E+00  0.00000000E+00
  0.00000000E+00  0.00000000E+00  0.00000000E+00
  0.00000000E+00  0.00000000E+00  0.00000000E+00
  0.00000000E+00  0.00000000E+00  0.00000000E+00
  0.00000000E+00  0.00000000E+00  0.00000000E+00
  0.00000000E+00  0.00000000E+00  0.00000000E+00
  0.00000000E+00  0.00000000E+00  0.00000000E+00
  0.00000000E+00  0.00000000E+00  0.00000000E+00
  0.00000000E+00  0.00000000E+00  0.00000000E+00
  0.00000000E+00  0.00000000E+00  0.00000000E+00
  0.00000000E+00  0.00000000E+00  0.00000000E+00
  0.00000000E+00  0.00000000E+00  0.00000000E+00
  0.00000000E+00  0.00000000E+00  0.00000000E+00
  0.00000000E+00  0.00000000E+00  0.00000000E+00
  0.00000000E+00  0.00000000E+00  0.00000000E+00
  0.00000000E+00  0.00000000E+00  0.00000000E+00
  0.00000000E+00  0.00000000E+00  0.00000000E+00
  0.00000000E+00  0.00000000E+00  0.00000000E+00
  0.00000000E+00  0.00000000E+00  0.00000000E+00
  0.00000000E+00  0.00000000E+00  0.00000000E+00
  0.00000000E+00  0.00000000E+00  0.00000000E+00
  0.00000000E+00  0.00000000E+00  0.00000000E+00
  0.00000000E+00  0.00000000E+00  0.00000000E+00
  0.00000000E+00  0.00000000E+00  0.00000000E+00
  0.00000000E+00  0.00000000E+00  0.00000000E+00
  0.00000000E+00  0.00000000E+00  0.00000000E+00
  0.00000000E+00  0.00000000E+00  0.00000000E+00
  0.00000000E+00  0.00000000E+00  0.00000000E+00
  0.00000000E+00  0.00000000E+00  0.00000000E+00
  0.00000000E+00  0.00000000E+00  0.00000000E+00
  0.00000000E+00  0.00000000E+00  0.00000000E+00
  0.00000000E+00  0.00000000E+00  0.00000000E+00
  0.00000000E+00  0.00000000E+00  0.00000000E+00
  0.00000000E+00  0.00000000E+00  0.00000000E+00
  0.00000000E+00  0.00000000E+00  0.00000000E+00
  0.00000000E+00  0.00000000E+00  0.00000000E+00
  0.00000000E+00  0.00000000E+00  0.00000000E+00
  0.00000000E+00  0.00000000E+00  0.00000000E+00
  0.00000000E+00  0.00000000E+00  0.00000000E+00
  0.00000000E+00  0.00000000E+00  0.00000000E+00
  0.00000000E+00  0.00000000E+00  0.00000000E+00
  0.00000000E+00  0.00000000E+00  0.00000000E+00
  0.00000000E+00  0.00000000E+00  0.00000000E+00
  0.00000000E+00  0.00000000E+00  0.00000000E+00
  0.00000000E+00  0.00000000E+00  0.00000000E+00
  0.00000000E+00  0.00000000E+00  0.00000000E+00
  0.00000000E+00  0.00000000E+00  0.00000000E+00
  0.00000000E+00  0.00000000E+00  0.00000000E+00
  0.00000000E+00  0.00000000E+00  0.00000000E+00
  0.00000000E+00  0.00000000E+00  0.00000000E+00
  0.00000000E+00  0.00000000E+00  0.00000000E+00
  0.00000000E+00  0.00000000E+00  0.00000000E+00
  0.00000000E+00  0.00000000E+00  0.00000000E+00
  0.00000000E+00  0.00000000E+00  0.00000000E+00
  0.00000000E+00  0.00000000E+00  0.00000000E+00
  0.00000000E+00  0.00000000E+00  0.00000000E+00
  0.00000000E+00  0.00000000E+00  0.00000000E+00
  0.00000000E+00  0.00000000E+00  0.00000000E+00
  0.00000000E+00  0.00000000E+00  0.00000000E+00
  0.00000000E+00  0.00000000E+00  0.00000000E+00
  0.00000000E+00  0.00000000E+00  0.00000000E+00
  0.00000000E+00  0.00000000E+00  0.00000000E+00
  0.00000000E+00  0.00000000E+00  0.00000000E+00
  0.00000000E+00  0.00000000E+00  0.00000000E+00
  0.00000000E+00  0.00000000E+00  0.00000000E+00
  0.00000000E+00  0.00000000E+00  0.00000000E+00
  0.00000000E+00  0.00000000E+00  0.00000000E+00
  0.00000000E+00  0.00000000E+00  0.00000000E+00
  0.00000000E+00  0.00000000E+00  0.00000000E+00
  0.00000000E+00  0.00000000E+00  0.00000000E+00
  0.00000000E+00  0.00000000E+00  0.00000000E+00
  0.00000000E+00  0.00000000E+00  0.00000000E+00
  0.00000000E+00  0.00000000E+00  0.00000000E+00
  0.00000000E+00  0.00000000E+00  0.00000000E+00
  0.00000000E+00  0.00000000E+00  0.00000000E+00
  0.00000000E+00  0.00000000E+00  0.00000000E+00
  0.00000000E+00  0.00000000E+00  0.00000000E+00
  0.00000000E+00  0.00000000E+00  0.00000000E+00
  0.00000000E+00  0.00000000E+00  0.00000000E+00
  0.00000000E+00  0.00000000E+00  0.00000000E+00
  0.00000000E+00  0.00000000E+00  0.00000000E+00
  0.00000000E+00  0.00000000E+00  0.00000000E+00
  0.00000000E+00  0.00000000E+00  0.00000000E+00
  0.00000000E+00  0.00000000E+00  0.00000000E+00
  0.00000000E+00  0.00000000E+00  0.00000000E+00
  0.00000000E+00  0.00000000E+00  0.00000000E+00
  0.00000000E+00  0.00000000E+00  0.00000000E+00
  0.00000000E+00  0.00000000E+00  0.00000000E+00
  0.00000000E+00  0.00000000E+00  0.00000000E+00
  0.00000000E+00  0.00000000E+00  0.00000000E+00
  0.00000000E+00  0.00000000E+00  0.00000000E+00
  0.00000000E+00  0.00000000E+00  0.00000000E+00
  0.00000000E+00  0.00000000E+00  0.00000000E+00
  0.00000000E+00  0.00000000E+00  0.00000000E+00
  0.00000000E+00  0.00000000E+00  0.00000000E+00
  0.00000000E+00  0.00000000E+00  0.00000000E+00
  0.00000000E+00  0.00000000E+00  0.00000000E+00
  0.00000000E+00  0.00000000E+00  0.00000000E+00
  0.00000000E+00  0.00000000E+00  0.00000000E+00
  0.00000000E+00  0.00000000E+00  0.00000000E+00
  0.00000000E+00  0.00000000E+00  0.00000000E+00
  0.00000000E+00  0.00000000E+00  0.00000000E+00
  0.00000000E+00  0.00000000E+00  0.00000000E+00
  0.00000000E+00  0.00000000E+00  0.00000000E+00
  0.00000000E+00  0.00000000E+00  0.00000000E+00
  0.00000000E+00  0.00000000E+00  0.00000000E+00
  0.00000000E+00  0.00000000E+00  0.00000000E+00
  0.00000000E+00  0.00000000E+00  0.00000000E+00
  0.00000000E+00  0.00000000E+00  0.00000000E+00
  0.00000000E+00  0.00000000E+00  0.00000000E+00
  0.00000000E+00  0.00000000E+00  0.00000000E+00
  0.00000000E+00  0.00000000E+00  0.00000000E+00
  0.00000000E+00  0.00000000E+00  0.00000000E+00
  0.00000000E+00  0.00000000E+00  0.00000000E+00
  0.00000000E+00  0.00000000E+00  0.00000000E+00
  0.00000000E+00  0.00000000E+00  0.00000000E+00
  0.00000000E+00  0.00000000E+00  0.00000000E+00
  0.00000000E+00  0.00000000E+00  0.00000000E+00
  0.00000000E+00  0.00000000E+00  0.00000000E+00
  0.00000000E+00  0.00000000E+00  0.00000000E+00
  0.00000000E+00  0.00000000E+00  0.00000000E+00
  0.00000000E+00  0.00000000E+00  0.00000000E+00
  0.00000000E+00  0.00000000E+00  0.00000000E+00
