Li5 P2 N1 O6                            
   1.00000000000000     
     0.0413627965167436    0.0303107498280866    5.1634891915446213
     5.9842399769465668    0.0047091852113972    0.0566523589868742
     0.0081870544783262    5.4557774134282040    0.0327269348690223
   Li   P    N    O 
     5     2     1     6
Direct
  0.4878242127478059  0.0088146070740625  0.7946837544203379
 -0.0023787447831041  0.4924649904932497  0.1483442131069379
  0.4601580065266096  0.6665258734185481  0.3634866499854170
 -0.0044185438883087  0.7512998355193361  0.6617514106674811
 -0.0032719131362636  0.2556289280032840  0.6652083003677205
  0.5249261199031250  0.5183232403861723  0.8378292506277079
  0.0145240277176832 -0.0076017776684004  0.1694368988056934
  0.2098539984185322  0.5046887307196030  0.8239890741700976
  0.0629878388250451  0.2081420634321824  0.3139079262454563
  0.6189161985529962  0.7198836577063137  0.6717391721546392
  0.1130167897885973  0.7826219389011303  0.3144128622163664
  0.6284086268359873  0.2921580116154635  0.7335953813295285
  0.6343540159057866  0.5585186764164874  0.0957036048087471
  0.1193453665855308 -0.0043417760174339  0.8978735010938704
 
  0.00000000E+00  0.00000000E+00  0.00000000E+00
  0.00000000E+00  0.00000000E+00  0.00000000E+00
  0.00000000E+00  0.00000000E+00  0.00000000E+00
  0.00000000E+00  0.00000000E+00  0.00000000E+00
  0.00000000E+00  0.00000000E+00  0.00000000E+00
  0.00000000E+00  0.00000000E+00  0.00000000E+00
  0.00000000E+00  0.00000000E+00  0.00000000E+00
  0.00000000E+00  0.00000000E+00  0.00000000E+00
  0.00000000E+00  0.00000000E+00  0.00000000E+00
  0.00000000E+00  0.00000000E+00  0.00000000E+00
  0.00000000E+00  0.00000000E+00  0.00000000E+00
  0.00000000E+00  0.00000000E+00  0.00000000E+00
  0.00000000E+00  0.00000000E+00  0.00000000E+00
  0.00000000E+00  0.00000000E+00  0.00000000E+00
