(1, 1, 1)                               
   1.00000000000000     
     3.6402442533649757    0.0330898892724713   -6.3582253624466283
    -0.0148173154212703    7.6280542725401883   -4.2860214859694397
     0.3078638772021713   -0.3519327530569489   72.2443382684896704
   Li   P 
    42    14
Selective dynamics
Direct
  0.0303795481172928  0.7309844035530977  0.0446171939936392   T   T   T
 -0.0184946741262819  0.2302321203456830  0.0155677886293070   T   T   T
  0.5117759538313696  0.0961280098356300  0.0195577404401452   T   T   T
  0.6826044273850463  0.5891141249758909  0.0391652316095331   T   T   T
  0.6684249533899062  0.9374073645843950  0.0621537874323957   T   T   T
  0.3420965193758082  0.4344927211735889  0.0247972652003972   T   T   T
  0.0000000000000000  0.7500000000000000  0.1029410000000013   F   F   F
  0.0234950921526581  0.3111445475955716  0.0801637033506750   T   T   T
  0.2301700532635061  0.0732359454383157  0.0589789163837557   T   T   T
  0.6666669999999968  0.5841190000000012  0.0931830000000033   F   F   F
  0.6666669999999968  0.9158809999999988  0.1126989999999992   F   F   F
  0.3333330000000032  0.4158809999999988  0.0832869999999986   F   F   F
  0.0000000000000000  0.7500000000000000  0.1617650000000026   F   F   F
  0.0000000000000000  0.2500000000000000  0.1323530000000019   F   F   F
  0.3333330000000032  0.0841190000000012  0.1225949999999969   F   F   F
  0.6666669999999968  0.5841190000000012  0.1520069999999976   F   F   F
  0.6666669999999968  0.9158809999999988  0.1715220000000031   F   F   F
  0.3333330000000032  0.4158809999999988  0.1421109999999999   F   F   F
  0.0000000000000000  0.7500000000000000  0.2205879999999993   F   F   F
  0.0000000000000000  0.2500000000000000  0.1911759999999987   F   F   F
  0.3333330000000032  0.0841190000000012  0.1814189999999982   F   F   F
  0.6666669999999968  0.5841190000000012  0.2108309999999989   F   F   F
  0.6666669999999968  0.9158809999999988  0.2303459999999973   F   F   F
  0.3333330000000032  0.4158809999999988  0.2009339999999966   F   F   F
  0.0000000000000000  0.7500000000000000  0.2794120000000007   F   F   F
  0.0000000000000000  0.2500000000000000  0.2500000000000000   F   F   F
  0.3333330000000032  0.0841190000000012  0.2402420000000021   F   F   F
  0.6666669999999968  0.5841190000000012  0.2696540000000027   F   F   F
  0.6666669999999968  0.9158809999999988  0.2891690000000011   F   F   F
  0.3333330000000032  0.4158809999999988  0.2597579999999979   F   F   F
 -0.0236580754132896  0.6889302291972187  0.3316012517799340   T   T   T
  0.0000000000000000  0.2500000000000000  0.3088240000000013   F   F   F
  0.3333330000000032  0.0841190000000012  0.2990660000000034   F   F   F
  0.6666669999999968  0.5841190000000012  0.3284779999999969   F   F   F
  0.7696063987099888  0.9268242992935494  0.3527636193903932   T   T   T
  0.3333330000000032  0.4158809999999988  0.3185810000000018   F   F   F
  0.0186196951109126  0.7698101406818336  0.3962283242941160   T   T   T
 -0.0304682980568292  0.2687948438615288  0.3671235535988571   T   T   T
  0.3316010624113818  0.0626393590593942  0.3496149645989498   T   T   T
  0.6577243874056081  0.5655472235634593  0.3869450856668216   T   T   T
  0.4882253295684079  0.9037911880801148  0.3922100315578576   T   T   T
  0.3173190366594147  0.4109664292437116  0.3725835363346338   T   T   T
  0.3575970670699610  0.7539000868111849  0.0471258867878313   T   T   T
  0.6817391541184064  0.2758728516696816  0.0201477068875909   T   T   T
  0.3333330000000032  0.7500000000000000  0.1029410000000013   F   F   F
  0.6666669999999968  0.2500000000000000  0.0735290000000006   F   F   F
  0.3333330000000032  0.7500000000000000  0.1617650000000026   F   F   F
  0.6666669999999968  0.2500000000000000  0.1323530000000019   F   F   F
  0.3333330000000032  0.7500000000000000  0.2205879999999993   F   F   F
  0.6666669999999968  0.2500000000000000  0.1911759999999987   F   F   F
  0.3333330000000032  0.7500000000000000  0.2794120000000007   F   F   F
  0.6666669999999968  0.2500000000000000  0.2500000000000000   F   F   F
  0.3333330000000032  0.7500000000000000  0.3382349999999974   F   F   F
  0.6666669999999968  0.2500000000000000  0.3088240000000013   F   F   F
  0.3181369061252758  0.7242571842192078  0.3916309321731914   T   T   T
  0.6422401972981070  0.2461434405737566  0.3646169773059352   T   T   T
 
  0.00000000E+00  0.00000000E+00  0.00000000E+00
  0.00000000E+00  0.00000000E+00  0.00000000E+00
  0.00000000E+00  0.00000000E+00  0.00000000E+00
  0.00000000E+00  0.00000000E+00  0.00000000E+00
  0.00000000E+00  0.00000000E+00  0.00000000E+00
  0.00000000E+00  0.00000000E+00  0.00000000E+00
  0.00000000E+00  0.00000000E+00  0.00000000E+00
  0.00000000E+00  0.00000000E+00  0.00000000E+00
  0.00000000E+00  0.00000000E+00  0.00000000E+00
  0.00000000E+00  0.00000000E+00  0.00000000E+00
  0.00000000E+00  0.00000000E+00  0.00000000E+00
  0.00000000E+00  0.00000000E+00  0.00000000E+00
  0.00000000E+00  0.00000000E+00  0.00000000E+00
  0.00000000E+00  0.00000000E+00  0.00000000E+00
  0.00000000E+00  0.00000000E+00  0.00000000E+00
  0.00000000E+00  0.00000000E+00  0.00000000E+00
  0.00000000E+00  0.00000000E+00  0.00000000E+00
  0.00000000E+00  0.00000000E+00  0.00000000E+00
  0.00000000E+00  0.00000000E+00  0.00000000E+00
  0.00000000E+00  0.00000000E+00  0.00000000E+00
  0.00000000E+00  0.00000000E+00  0.00000000E+00
  0.00000000E+00  0.00000000E+00  0.00000000E+00
  0.00000000E+00  0.00000000E+00  0.00000000E+00
  0.00000000E+00  0.00000000E+00  0.00000000E+00
  0.00000000E+00  0.00000000E+00  0.00000000E+00
  0.00000000E+00  0.00000000E+00  0.00000000E+00
  0.00000000E+00  0.00000000E+00  0.00000000E+00
  0.00000000E+00  0.00000000E+00  0.00000000E+00
  0.00000000E+00  0.00000000E+00  0.00000000E+00
  0.00000000E+00  0.00000000E+00  0.00000000E+00
  0.00000000E+00  0.00000000E+00  0.00000000E+00
  0.00000000E+00  0.00000000E+00  0.00000000E+00
  0.00000000E+00  0.00000000E+00  0.00000000E+00
  0.00000000E+00  0.00000000E+00  0.00000000E+00
  0.00000000E+00  0.00000000E+00  0.00000000E+00
  0.00000000E+00  0.00000000E+00  0.00000000E+00
  0.00000000E+00  0.00000000E+00  0.00000000E+00
  0.00000000E+00  0.00000000E+00  0.00000000E+00
  0.00000000E+00  0.00000000E+00  0.00000000E+00
  0.00000000E+00  0.00000000E+00  0.00000000E+00
  0.00000000E+00  0.00000000E+00  0.00000000E+00
  0.00000000E+00  0.00000000E+00  0.00000000E+00
  0.00000000E+00  0.00000000E+00  0.00000000E+00
  0.00000000E+00  0.00000000E+00  0.00000000E+00
  0.00000000E+00  0.00000000E+00  0.00000000E+00
  0.00000000E+00  0.00000000E+00  0.00000000E+00
  0.00000000E+00  0.00000000E+00  0.00000000E+00
  0.00000000E+00  0.00000000E+00  0.00000000E+00
  0.00000000E+00  0.00000000E+00  0.00000000E+00
  0.00000000E+00  0.00000000E+00  0.00000000E+00
  0.00000000E+00  0.00000000E+00  0.00000000E+00
  0.00000000E+00  0.00000000E+00  0.00000000E+00
  0.00000000E+00  0.00000000E+00  0.00000000E+00
  0.00000000E+00  0.00000000E+00  0.00000000E+00
  0.00000000E+00  0.00000000E+00  0.00000000E+00
  0.00000000E+00  0.00000000E+00  0.00000000E+00
