(1, 1, 1)
1.0
3.668361 0.000000 -6.353787
0.000000 7.570718 -4.235858
0.000000 0.000000 72.009589
Li P
42 14
Selective dynamics
direct
0.000000 0.750000 0.044118 T T T Li+
0.000000 0.250000 0.014706 T T T Li+
0.333333 0.084119 0.004948 T T T Li+
0.666667 0.584119 0.034360 T T T Li+
0.666667 0.915881 0.053875 T T T Li+
0.333333 0.415881 0.024464 T T T Li+
0.000000 0.750000 0.102941 F F F Li+
0.000000 0.250000 0.073529 T T T Li+
0.333333 0.084119 0.063772 T T T Li+
0.666667 0.584119 0.093183 F F F Li+
0.666667 0.915881 0.112699 F F F Li+
0.333333 0.415881 0.083287 F F F Li+
0.000000 0.750000 0.161765 F F F Li+
0.000000 0.250000 0.132353 F F F Li+
0.333333 0.084119 0.122595 F F F Li+
0.666667 0.584119 0.152007 F F F Li+
0.666667 0.915881 0.171522 F F F Li+
0.333333 0.415881 0.142111 F F F Li+
0.000000 0.750000 0.220588 F F F Li+
0.000000 0.250000 0.191176 F F F Li+
0.333333 0.084119 0.181419 F F F Li+
0.666667 0.584119 0.210831 F F F Li+
0.666667 0.915881 0.230346 F F F Li+
0.333333 0.415881 0.200934 F F F Li+
0.000000 0.750000 0.279412 F F F Li+
0.000000 0.250000 0.250000 F F F Li+
0.333333 0.084119 0.240242 F F F Li+
0.666667 0.584119 0.269654 F F F Li+
0.666667 0.915881 0.289169 F F F Li+
0.333333 0.415881 0.259758 F F F Li+
0.000000 0.750000 0.338235 T T T Li+
0.000000 0.250000 0.308824 F F F Li+
0.333333 0.084119 0.299066 F F F Li+
0.666667 0.584119 0.328478 F F F Li+
0.666667 0.915881 0.347993 T T T Li+
0.333333 0.415881 0.318581 F F F Li+
0.000000 0.750000 0.397059 T T T Li+
0.000000 0.250000 0.367647 T T T Li+
0.333333 0.084119 0.357889 T T T Li+
0.666667 0.584119 0.387301 T T T Li+
0.666667 0.915881 0.406817 T T T Li+
0.333333 0.415881 0.377405 T T T Li+
0.333333 0.750000 0.044118 T T T P3+
0.666667 0.250000 0.014706 T T T P3+
0.333333 0.750000 0.102941 F F F P3+
0.666667 0.250000 0.073529 F F F P3+
0.333333 0.750000 0.161765 F F F P3+
0.666667 0.250000 0.132353 F F F P3+
0.333333 0.750000 0.220588 F F F P3+
0.666667 0.250000 0.191176 F F F P3+
0.333333 0.750000 0.279412 F F F P3+
0.666667 0.250000 0.250000 F F F P3+
0.333333 0.750000 0.338235 F F F P3+
0.666667 0.250000 0.308824 F F F P3+
0.333333 0.750000 0.397059 T T T P3+
0.666667 0.250000 0.367647 T T T P3+
