Li56 P28 O98
1.0
6.730959 0.000000 -2.599490
-2.035903 8.419349 5.263538
0.000000 0.000000 63.126504
Li P O
56 28 98
direct
0.144977 0.012029 0.072378 Li+
0.855023 0.987971 0.031793 Li+
0.588727 0.248347 0.081750 Li+
0.411273 0.751653 0.022421 Li+
0.327738 0.208724 0.032378 Li+
0.672262 0.791276 0.071793 Li+
0.241886 0.549204 0.001572 Li+
0.758114 0.450796 0.019265 Li+
0.144977 0.012029 0.155711 Li+
0.855023 0.987971 0.115126 Li+
0.588727 0.248347 0.165083 Li+
0.411273 0.751653 0.105754 Li+
0.327738 0.208724 0.115711 Li+
0.672262 0.791276 0.155127 Li+
0.241886 0.549204 0.084906 Li+
0.758114 0.450796 0.102598 Li+
0.144977 0.012029 0.239044 Li+
0.855023 0.987971 0.198460 Li+
0.588727 0.248347 0.248417 Li+
0.411273 0.751653 0.189087 Li+
0.327738 0.208724 0.199044 Li+
0.672262 0.791276 0.238460 Li+
0.241886 0.549204 0.168239 Li+
0.758114 0.450796 0.185932 Li+
0.144977 0.012029 0.322378 Li+
0.855023 0.987971 0.281793 Li+
0.588727 0.248347 0.331750 Li+
0.411273 0.751653 0.272421 Li+
0.327738 0.208724 0.282378 Li+
0.672262 0.791276 0.321793 Li+
0.241886 0.549204 0.251572 Li+
0.758114 0.450796 0.269265 Li+
0.144977 0.012029 0.405711 Li+
0.855023 0.987971 0.365126 Li+
0.588727 0.248347 0.415083 Li+
0.411273 0.751653 0.355754 Li+
0.327738 0.208724 0.365711 Li+
0.672262 0.791276 0.405127 Li+
0.241886 0.549204 0.334906 Li+
0.758114 0.450796 0.352598 Li+
0.144977 0.012029 0.489044 Li+
0.855023 0.987971 0.448460 Li+
0.588727 0.248347 0.498417 Li+
0.411273 0.751653 0.439087 Li+
0.327738 0.208724 0.449044 Li+
0.672262 0.791276 0.488460 Li+
0.241886 0.549204 0.418239 Li+
0.758114 0.450796 0.435932 Li+
0.144977 0.012029 0.572378 Li+
0.855023 0.987971 0.531793 Li+
0.588727 0.248347 0.581750 Li+
0.411273 0.751653 0.522421 Li+
0.327738 0.208724 0.532378 Li+
0.672262 0.791276 0.571793 Li+
0.241886 0.549204 0.501572 Li+
0.758114 0.450796 0.519265 Li+
0.213298 0.368044 0.056916 P5+
0.786702 0.631956 0.047255 P5+
0.779241 0.154498 0.057188 P5+
0.220759 0.845502 0.046983 P5+
0.213298 0.368044 0.140249 P5+
0.786702 0.631956 0.130588 P5+
0.779241 0.154498 0.140521 P5+
0.220759 0.845502 0.130316 P5+
0.213298 0.368044 0.223583 P5+
0.786702 0.631956 0.213922 P5+
0.779241 0.154498 0.223855 P5+
0.220759 0.845502 0.213650 P5+
0.213298 0.368044 0.306916 P5+
0.786702 0.631956 0.297255 P5+
0.779241 0.154498 0.307188 P5+
0.220759 0.845502 0.296983 P5+
0.213298 0.368044 0.390249 P5+
0.786702 0.631956 0.380588 P5+
0.779241 0.154498 0.390521 P5+
0.220759 0.845502 0.380316 P5+
0.213298 0.368044 0.473583 P5+
0.786702 0.631956 0.463922 P5+
0.779241 0.154498 0.473855 P5+
0.220759 0.845502 0.463650 P5+
0.213298 0.368044 0.556916 P5+
0.786702 0.631956 0.547255 P5+
0.779241 0.154498 0.557188 P5+
0.220759 0.845502 0.546983 P5+
0.741759 0.125660 0.081621 O2-
0.605720 0.209316 0.034132 O2-
0.394280 0.790684 0.070039 O2-
0.848591 0.018024 0.060341 O2-
0.743350 0.623545 0.022410 O2-
0.256650 0.376455 0.081761 O2-
0.732189 0.473810 0.069698 O2-
0.267811 0.526190 0.034473 O2-
0.702403 0.763496 0.043609 O2-
0.297597 0.236504 0.060562 O2-
0.962384 0.316106 0.047988 O2-
0.037616 0.683894 0.056183 O2-
0.151409 0.981976 0.043830 O2-
0.258241 0.874340 0.022550 O2-
0.741759 0.125660 0.164954 O2-
0.605720 0.209316 0.117465 O2-
0.394280 0.790684 0.153373 O2-
0.848591 0.018024 0.143674 O2-
0.743350 0.623545 0.105743 O2-
0.256650 0.376455 0.165094 O2-
0.732189 0.473810 0.153031 O2-
0.267811 0.526190 0.117807 O2-
0.702403 0.763496 0.126942 O2-
0.297597 0.236504 0.143895 O2-
0.962384 0.316106 0.131321 O2-
0.037616 0.683894 0.139517 O2-
0.151409 0.981976 0.127163 O2-
0.258241 0.874340 0.105883 O2-
0.741759 0.125660 0.248288 O2-
0.605720 0.209316 0.200798 O2-
0.394280 0.790684 0.236706 O2-
0.848591 0.018024 0.227008 O2-
0.743350 0.623545 0.189077 O2-
0.256650 0.376455 0.248428 O2-
0.732189 0.473810 0.236364 O2-
0.267811 0.526190 0.201140 O2-
0.702403 0.763496 0.210276 O2-
0.297597 0.236504 0.227229 O2-
0.962384 0.316106 0.214654 O2-
0.037616 0.683894 0.222850 O2-
0.151409 0.981976 0.210497 O2-
0.258241 0.874340 0.189216 O2-
0.741759 0.125660 0.331621 O2-
0.605720 0.209316 0.284132 O2-
0.394280 0.790684 0.320039 O2-
0.848591 0.018024 0.310341 O2-
0.743350 0.623545 0.272410 O2-
0.256650 0.376455 0.331761 O2-
0.732189 0.473810 0.319698 O2-
0.267811 0.526190 0.284473 O2-
0.702403 0.763496 0.293609 O2-
0.297597 0.236504 0.310562 O2-
0.962384 0.316106 0.297988 O2-
0.037616 0.683894 0.306183 O2-
0.151409 0.981976 0.293830 O2-
0.258241 0.874340 0.272550 O2-
0.741759 0.125660 0.414954 O2-
0.605720 0.209316 0.367465 O2-
0.394280 0.790684 0.403373 O2-
0.848591 0.018024 0.393674 O2-
0.743350 0.623545 0.355743 O2-
0.256650 0.376455 0.415094 O2-
0.732189 0.473810 0.403031 O2-
0.267811 0.526190 0.367807 O2-
0.702403 0.763496 0.376942 O2-
0.297597 0.236504 0.393895 O2-
0.962384 0.316106 0.381321 O2-
0.037616 0.683894 0.389517 O2-
0.151409 0.981976 0.377163 O2-
0.258241 0.874340 0.355883 O2-
0.741759 0.125660 0.498288 O2-
0.605720 0.209316 0.450798 O2-
0.394280 0.790684 0.486706 O2-
0.848591 0.018024 0.477008 O2-
0.743350 0.623545 0.439077 O2-
0.256650 0.376455 0.498428 O2-
0.732189 0.473810 0.486364 O2-
0.267811 0.526190 0.451140 O2-
0.702403 0.763496 0.460276 O2-
0.297597 0.236504 0.477229 O2-
0.962384 0.316106 0.464654 O2-
0.037616 0.683894 0.472850 O2-
0.151409 0.981976 0.460497 O2-
0.258241 0.874340 0.439216 O2-
0.741759 0.125660 0.581621 O2-
0.605720 0.209316 0.534132 O2-
0.394280 0.790684 0.570039 O2-
0.848591 0.018024 0.560341 O2-
0.743350 0.623545 0.522410 O2-
0.256650 0.376455 0.581761 O2-
0.732189 0.473810 0.569698 O2-
0.267811 0.526190 0.534473 O2-
0.702403 0.763496 0.543609 O2-
0.297597 0.236504 0.560562 O2-
0.962384 0.316106 0.547987 O2-
0.037616 0.683894 0.556183 O2-
0.151409 0.981976 0.543830 O2-
0.258241 0.874340 0.522550 O2-
