Li28 O14
1.0
3.294299 0.000000 -0.000000
0.000000 4.658842 0.000000
0.000000 0.000000 46.120183
Li O
28 14
direct
0.250000 0.250000 0.017857 Li+
0.750000 0.250000 0.053571 Li+
0.750000 0.750000 0.053571 Li+
0.250000 0.750000 0.017857 Li+
0.250000 0.250000 0.089286 Li+
0.750000 0.250000 0.125000 Li+
0.750000 0.750000 0.125000 Li+
0.250000 0.750000 0.089286 Li+
0.250000 0.250000 0.160714 Li+
0.750000 0.250000 0.196429 Li+
0.750000 0.750000 0.196429 Li+
0.250000 0.750000 0.160714 Li+
0.250000 0.250000 0.232143 Li+
0.750000 0.250000 0.267857 Li+
0.750000 0.750000 0.267857 Li+
0.250000 0.750000 0.232143 Li+
0.250000 0.250000 0.303571 Li+
0.750000 0.250000 0.339286 Li+
0.750000 0.750000 0.339286 Li+
0.250000 0.750000 0.303571 Li+
0.250000 0.250000 0.375000 Li+
0.750000 0.250000 0.410714 Li+
0.750000 0.750000 0.410714 Li+
0.250000 0.750000 0.375000 Li+
0.250000 0.250000 0.446429 Li+
0.750000 0.250000 0.482143 Li+
0.750000 0.750000 0.482143 Li+
0.250000 0.750000 0.446429 Li+
0.250000 0.000000 0.053571 O2-
0.750000 0.500000 0.017857 O2-
0.250000 0.000000 0.125000 O2-
0.750000 0.500000 0.089286 O2-
0.250000 0.000000 0.196429 O2-
0.750000 0.500000 0.160714 O2-
0.250000 0.000000 0.267857 O2-
0.750000 0.500000 0.232143 O2-
0.250000 0.000000 0.339286 O2-
0.750000 0.500000 0.303571 O2-
0.250000 0.000000 0.410714 O2-
0.750000 0.500000 0.375000 O2-
0.250000 0.000000 0.482143 O2-
0.750000 0.500000 0.446429 O2-
