Li5 P2 N1 O6                            
   1.00000000000000     
     0.0094458795423644    0.0002687742051744    5.2198179417856982
     6.0416087844623201   -0.0356649281482839    0.0077076762934625
    -0.0303819700836795    5.3715093366405764   -0.0009979933451034
   Li   P    N    O 
     5     2     1     6
Direct
  0.4911888868334517  0.0137478854920865  0.8650157649559836
  0.0956513721756599  0.4867601951888549  0.1580410588087853
  0.4703370014264517  0.8189212683818293  0.3815529059162104
 -0.0071948321539488  0.7522957594942967  0.6614887530311718
 -0.0057556080049700  0.2367039263446450  0.6642329480266351
  0.4918061952761708  0.5020212429107834  0.8098210492233137
  0.0003243306832027 -0.0110808158231547  0.1638603794460718
  0.6923084685619533 -0.0312458811140134  0.1651178086181370
  0.0699367538252245  0.2054521698628600  0.3069695103242550
  0.6039280048605361  0.7139444292442153  0.6870276493261384
  0.1200635573177001  0.7829472661464226  0.3039177320568036
  0.6209917121722061  0.2884434564061383  0.7156947280143592
  0.1113702194200438 -0.0079314898746341  0.8919151083101499
  0.1923549376063455  0.4961475873396689  0.7954026039419891
 
  0.00000000E+00  0.00000000E+00  0.00000000E+00
  0.00000000E+00  0.00000000E+00  0.00000000E+00
  0.00000000E+00  0.00000000E+00  0.00000000E+00
  0.00000000E+00  0.00000000E+00  0.00000000E+00
  0.00000000E+00  0.00000000E+00  0.00000000E+00
  0.00000000E+00  0.00000000E+00  0.00000000E+00
  0.00000000E+00  0.00000000E+00  0.00000000E+00
  0.00000000E+00  0.00000000E+00  0.00000000E+00
  0.00000000E+00  0.00000000E+00  0.00000000E+00
  0.00000000E+00  0.00000000E+00  0.00000000E+00
  0.00000000E+00  0.00000000E+00  0.00000000E+00
  0.00000000E+00  0.00000000E+00  0.00000000E+00
  0.00000000E+00  0.00000000E+00  0.00000000E+00
  0.00000000E+00  0.00000000E+00  0.00000000E+00
