Li71 P24 N1 O94                         
   1.00000000000000     
    14.7064598298344276   -0.0055054760867864   -0.0058421277483188
    -0.0039461938284013   10.5611438275596736   -0.0092520608802195
    -0.0048796937818934   -0.0108101853689437   12.3159223609459882
   Li   P    N    O 
    71    24     1    94
Direct
  0.1727729241350010  0.4186614863193359  0.0006559699737847
  0.1705919563053763  0.4222924733787152  0.4984131966181584
  0.1696199026419113  0.9216555084530110  0.0067909230554919
  0.1707936333720505  0.9230763291022380  0.4994826190622799
  0.5015883427144960  0.4219837329159762  0.0003618791344407
  0.5025879897166611  0.4223981333357854  0.4995084363556855
  0.5045465463251718  0.9217955806670745 -0.0002727169988466
  0.5020989328638659  0.9224031890505137  0.4995327857029974
  0.8357717156510064  0.4226595460044894 -0.0007341159282894
  0.8362888772978454  0.4224503598885007  0.5002958477972208
  0.8344440383385180  0.9183297914585480  0.0006780131499796
  0.8366050920794781  0.9220129987077675  0.5003496675670555
  0.0025980786941665  0.0656084396149778  0.2690917465884705
  0.0029210061754589  0.0758076529064169  0.7444402780189068
  0.0056382747401001  0.5785455683018100  0.2520478047707376
  0.0036614543132187  0.5778660618799742  0.7486688583516806
  0.3318233445994186  0.0787844124972542  0.2462721498293133
  0.3371788040082221  0.0775910055928338  0.7510850162706271
  0.3345881603377364  0.5773558005235688  0.2498932738306704
  0.3366732137258654  0.5776602283099188  0.7503115778315508
  0.6683953168552664  0.0780794627264990  0.2505876656796816
  0.6690949005284934  0.0774621376166463  0.7495753471631709
  0.6693540447580881  0.5765779467794956  0.2499040112654673
  0.6689267682948226  0.5778038651048858  0.7498275886265846
  0.1707950361614706  0.1640228204456332  0.6263018852136641
  0.1706662112678131  0.6614058470574077  0.1275858326442712
  0.1700034900247760  0.6647316775848809  0.6258002582087098
  0.5026450344390047  0.1629562681955662  0.1265731945759580
  0.5022362735135840  0.1630324452928414  0.6261755832834509
  0.5020218807433119  0.6632530974670198  0.1265719714449667
  0.5026172482483858  0.6630922228896082  0.6260824432038665
  0.8337693877200247  0.1636891847740936  0.1285076908423996
  0.8357389675090893  0.1635919572356005  0.6262905287948468
  0.8365039986395022  0.6621346655484984  0.1265430841278600
  0.8361075177748950  0.6635208791592089  0.6263750529298205
  0.0025141695256347  0.3554098743865131  0.1247591777873806
  0.0032926051118729  0.3372977605716654  0.6233370108630674
  0.0031736972070343  0.8339104153604909  0.1254362725921966
  0.0038797772886313  0.8364655783029641  0.6234781772914613
  0.3318406340761305  0.3334676002957949  0.1233373164117103
  0.3362947368398547  0.3367163313064616  0.6233713905489212
  0.3362584242508253  0.8380359616289298  0.1226509125635754
  0.3359819185765834  0.8370145736313366  0.6234868238869933
  0.6685087459073261  0.3371235761953985  0.1232230934007292
  0.6689618621096167  0.3370115547651442  0.6232278236242533
  0.6691692122348332  0.8369260600002090  0.1244695924764573
  0.6691953570820004  0.8368363538266994  0.6233999293102440
  0.0042375990039152  0.3371956273759047  0.3770081567940448
  0.0020866138383705  0.3406252676064850  0.8734802016614313
  0.0048043221377737  0.8340093025263835  0.3772762811463687
  0.0028738099843622  0.8324718264589550  0.8724878186395465
  0.3357755948016177  0.3368458307085468  0.3754021557380581
  0.3364079607234775  0.3338075038931795  0.8769531973187429
  0.3347575944934445  0.8366805596619395  0.3755688483253976
  0.3369664820156257  0.8374969726345384  0.8776191354469823
  0.6692332402081164  0.3367754194070889  0.3757471424701247
  0.6689806588566978  0.3375349782911705  0.8761524210825811
  0.6692787167901542  0.8370232522980647  0.3760184613798935
  0.6691939712037648  0.8366230143363634  0.8759535936088174
  0.1718136028476226  0.1642392573890816  0.3691356238522202
  0.1679886940919126  0.1701045370226959  0.8735508063568451
  0.1690687889259130  0.6622643304610917  0.3758161755934551
  0.1706529418950055  0.6633369995752529  0.8737281783167149
  0.5016572994612652  0.1632042489449037  0.3733524845005134
  0.5044746571400915  0.1625776778215348  0.8730847124546560
  0.5022726707260324  0.6634079480116466  0.3734686644752836
  0.5023053072793904  0.6631653998026193  0.8739130437086402
  0.8358210560989503  0.1635660585626095  0.3747952494079578
  0.8341511009706208  0.1658483183380006  0.8713841857565283
  0.8367947653905762  0.6628723682349563  0.3736312393897613
  0.8358975312993946  0.6629066815391331  0.8735473872845210
  0.1673687170951695  0.4138903040389170  0.2490945268182674
  0.1671952116744873  0.4140928630917929  0.7484353083633120
  0.1676450515513984  0.9102972867991603  0.2522515163377083
  0.1672343916435152  0.9131688205990710  0.7509907573490074
  0.5000923852080067  0.4120227209801007  0.2495872608252264
  0.5003564931786635  0.4120893336006071  0.7500110069049986
  0.5003109133385927  0.9123476378515434  0.2501051821073502
  0.5007946466196295  0.9116971680177145  0.7494430081320704
  0.8351337228538683  0.4112291600990914  0.2503796306874324
  0.8335629240904315  0.4128074060046822  0.7496271289001891
  0.8347525039661234  0.9122481542950127  0.2498357707942905
  0.8339670209153651  0.9124740440934775  0.7503311168875860
 -0.0018282016322693  0.0843167535947573 -0.0076688255041090
  0.0005572477507678  0.0879964534355004  0.5014067638107511
  0.0004464605664856  0.5878120503411515 -0.0009904845052414
 -0.0000962828566531  0.5874124996876501  0.5005469865644253
  0.3360437024448653  0.0868401445303231 -0.0007525930278971
  0.3332777780016395  0.0881882286209014  0.4997507670032769
  0.3335580856638916  0.5873221156426565 -0.0000277218796288
  0.3338119448717333  0.5877946180450071  0.5002339789678341
  0.6676142454123956  0.0880245828304941  0.0002509678599254
  0.6672095430812953  0.0878723546767828  0.4999602498366739
  0.6672462836850800  0.5880206481983996  0.0002683765625703
  0.6673924239334312  0.5879864800186857  0.4996319231940317
  0.2259166225497564  0.0892073858103111 -0.0039827835336211
  0.0359711126228724  0.1575686650655838  0.3979516875252283
  0.0328038840194314  0.1577770710478952  0.8914463096325758
  0.0347755365440435  0.6562777837577594  0.3966827279730346
  0.0355562645083241  0.6566365665217170  0.8952592814285999
  0.3687320242662313  0.1574898384273640  0.3962833534791840
  0.3740340634232487  0.1548022165662247  0.8947983344597445
  0.3689276629917720  0.6568802246041390  0.3963918137443898
  0.3690633396804159  0.6566974996172521  0.8962110243646996
  0.7028772290102505  0.1570590189821931  0.3962220168159628
  0.7028839266339552  0.1572260779171024  0.8963559646725462
  0.7029964105839956  0.6569891890965979  0.3957616855399814
  0.7027165536584108  0.6571378218051496  0.8964494185260660
  0.2019126212467910  0.0474803859136501  0.2558372730943214
  0.2003503881362489  0.0534995614301904  0.7511389338288754
  0.1981598066394537  0.5557723726385034  0.2537940398468999
  0.2004730526211062  0.5542386243123738  0.7485859896862852
  0.5347603749681942  0.0522299202828082  0.2501532811255349
  0.5350690269361661  0.0516017730730253  0.7492649187798637
  0.5343987755482059  0.5520121903093098  0.2499071684655260
  0.5341402165986360  0.5522949118672877  0.7499229134385869
  0.8703040830905646  0.0522247400579695  0.2496463272098662
  0.8679352078621813  0.0526532427022385  0.7507227919750389
  0.8690541255856288  0.5511242273487698  0.2497094785350048
  0.8677048273280256  0.5526478005325283  0.7498852162212412
  0.0605888353314587  0.4089805010033650  0.2508045526918579
  0.0610710693107703  0.4106938430861752  0.7487604589671089
  0.0606951510399276  0.9079773684721781  0.2500000855765320
  0.0609299433319458  0.9100376913221416  0.7503923485966376
  0.3943887262936890  0.4092075629868935  0.2493246415622788
  0.3945434563220179  0.4090561339048379  0.7502267999831100
  0.3946204845569144  0.9096785480315259  0.2499786513239566
  0.3949812120680361  0.9088048266897635  0.7496787773120520
  0.7293640777500018  0.4080964769856139  0.2488676652646609
  0.7277528424867060  0.4098308150169869  0.7497161936970624
  0.7290457643679337  0.9114523054657803  0.2500465270310132
  0.7282241791346251  0.9096514087336427  0.7502161024276600
  0.2274015696402227  0.0915374442918893  0.5000199880137541
  0.2276853030387220  0.5906524205572614 -0.0004999565578073
  0.2279585216659641  0.5902906208760272  0.5009585353406942
  0.5621270295408085  0.0907433481755094  0.0003189164317763
  0.5614408283856802  0.0906490243856774  0.4996584145010607
  0.5614944386160005  0.5905144455929114  0.0002300292683339
  0.5615928065122449  0.5906877756812950  0.4995801693688895
  0.8927656713327370  0.0921342304671539  0.0008804663572461
  0.8946046597713675  0.0906287586585228  0.5006248529293227
  0.8944916993911297  0.5903503624413975 -0.0005090997987902
  0.8939700553608020  0.5902710220507740  0.5005351499287402
  0.2023657919751758  0.3525555615243408  0.1440136011885577
  0.2020083776889454  0.3444189067108255  0.6446173982217851
  0.2019989743198256  0.8393678553831633  0.1485987377910628
  0.2019895697458767  0.8444956694741054  0.6465009014205004
  0.5360497813050528  0.3429351771364295  0.1458519507412603
  0.5356793026677680  0.3429878659969305  0.6459389023433312
  0.5363603135702298  0.8427878506449852  0.1465962778280872
  0.5359180898247565  0.8427055636663670  0.6452360320926216
  0.8718572204732828  0.3410892458575680  0.1467303343242454
  0.8690542658612344  0.3430896888204388  0.6461313609336506
  0.8693251286552416  0.8427715714821959  0.1456958948430159
  0.8697385997592647  0.8434399560501556  0.6466861279824974
  0.0356532921411941  0.1571089269170306  0.6052206220849115
  0.0357143772796872  0.6557593375224199  0.1033746701178462
  0.0353261452804732  0.6572748408600914  0.6041389670155217
  0.3702077388070808  0.1566001185289173  0.1036812150763219
  0.3688164659313394  0.1567261956257453  0.6041687403795024
  0.3687609507918564  0.6565394269456299  0.1040675262834575
  0.3692623460911620  0.6570543428558031  0.6042106053069151
  0.7031352259238115  0.1572844333763540  0.1042686529009809
  0.7026128256498142  0.1570800372755909  0.6040268237541514
  0.7029338146698692  0.6571190044160998  0.1042892427948310
  0.7027934785398863  0.6571735051004570  0.6036999026303022
  0.0338331322970383  0.4473869013167466 -0.0018416781654701
  0.0337728949693155  0.4476338248740028  0.5004840109375177
  0.0318836227798954  0.9456012642286767 -0.0013042849666877
  0.0339646418228847  0.9479799272373456  0.5002928502512721
  0.3672354172737480  0.4473341340121147 -0.0003479212546633
  0.3676591623739797  0.4477744893863506  0.4999807444934580
  0.3734562884718103  0.9471709837607555 -0.0006213826708089
  0.3667407547227175  0.9478832497100604  0.4996105865346713
  0.7014135822635834  0.4480300918599583  0.0001300028982890
  0.7012314448308509  0.4479031554917562  0.4994820527001159
  0.7015642757180357  0.9479469369664278  0.0001829015356028
  0.7013933100156596  0.9479522842563066  0.4998879002394164
  0.2024149598042253  0.3442898359540315  0.3530782300354515
  0.2024948900691029  0.3455466233083705  0.8520302348180417
  0.1997309710051681  0.8379804129843333  0.3565118186207670
  0.2020117642476091  0.8432978495063868  0.8544082610768370
  0.5357497371204863  0.3429847603556208  0.3534853381756357
  0.5362541800158221  0.3433590965396723  0.8537399658828949
  0.5358606566846648  0.8433485762559217  0.3540795648062595
  0.5366870793527511  0.8424604770740887  0.8529440201145604
  0.8697540314238774  0.3423956841097466  0.3544510705874732
  0.8687542067901516  0.3438104568249241  0.8537723823841079
  0.8702085698631730  0.8433845156560321  0.3535457863655125
  0.8693071888606687  0.8436787145396563  0.8545209820490108
 
  0.00000000E+00  0.00000000E+00  0.00000000E+00
  0.00000000E+00  0.00000000E+00  0.00000000E+00
  0.00000000E+00  0.00000000E+00  0.00000000E+00
  0.00000000E+00  0.00000000E+00  0.00000000E+00
  0.00000000E+00  0.00000000E+00  0.00000000E+00
  0.00000000E+00  0.00000000E+00  0.00000000E+00
  0.00000000E+00  0.00000000E+00  0.00000000E+00
  0.00000000E+00  0.00000000E+00  0.00000000E+00
  0.00000000E+00  0.00000000E+00  0.00000000E+00
  0.00000000E+00  0.00000000E+00  0.00000000E+00
  0.00000000E+00  0.00000000E+00  0.00000000E+00
  0.00000000E+00  0.00000000E+00  0.00000000E+00
  0.00000000E+00  0.00000000E+00  0.00000000E+00
  0.00000000E+00  0.00000000E+00  0.00000000E+00
  0.00000000E+00  0.00000000E+00  0.00000000E+00
  0.00000000E+00  0.00000000E+00  0.00000000E+00
  0.00000000E+00  0.00000000E+00  0.00000000E+00
  0.00000000E+00  0.00000000E+00  0.00000000E+00
  0.00000000E+00  0.00000000E+00  0.00000000E+00
  0.00000000E+00  0.00000000E+00  0.00000000E+00
  0.00000000E+00  0.00000000E+00  0.00000000E+00
  0.00000000E+00  0.00000000E+00  0.00000000E+00
  0.00000000E+00  0.00000000E+00  0.00000000E+00
  0.00000000E+00  0.00000000E+00  0.00000000E+00
  0.00000000E+00  0.00000000E+00  0.00000000E+00
  0.00000000E+00  0.00000000E+00  0.00000000E+00
  0.00000000E+00  0.00000000E+00  0.00000000E+00
  0.00000000E+00  0.00000000E+00  0.00000000E+00
  0.00000000E+00  0.00000000E+00  0.00000000E+00
  0.00000000E+00  0.00000000E+00  0.00000000E+00
  0.00000000E+00  0.00000000E+00  0.00000000E+00
  0.00000000E+00  0.00000000E+00  0.00000000E+00
  0.00000000E+00  0.00000000E+00  0.00000000E+00
  0.00000000E+00  0.00000000E+00  0.00000000E+00
  0.00000000E+00  0.00000000E+00  0.00000000E+00
  0.00000000E+00  0.00000000E+00  0.00000000E+00
  0.00000000E+00  0.00000000E+00  0.00000000E+00
  0.00000000E+00  0.00000000E+00  0.00000000E+00
  0.00000000E+00  0.00000000E+00  0.00000000E+00
  0.00000000E+00  0.00000000E+00  0.00000000E+00
  0.00000000E+00  0.00000000E+00  0.00000000E+00
  0.00000000E+00  0.00000000E+00  0.00000000E+00
  0.00000000E+00  0.00000000E+00  0.00000000E+00
  0.00000000E+00  0.00000000E+00  0.00000000E+00
  0.00000000E+00  0.00000000E+00  0.00000000E+00
  0.00000000E+00  0.00000000E+00  0.00000000E+00
  0.00000000E+00  0.00000000E+00  0.00000000E+00
  0.00000000E+00  0.00000000E+00  0.00000000E+00
  0.00000000E+00  0.00000000E+00  0.00000000E+00
  0.00000000E+00  0.00000000E+00  0.00000000E+00
  0.00000000E+00  0.00000000E+00  0.00000000E+00
  0.00000000E+00  0.00000000E+00  0.00000000E+00
  0.00000000E+00  0.00000000E+00  0.00000000E+00
  0.00000000E+00  0.00000000E+00  0.00000000E+00
  0.00000000E+00  0.00000000E+00  0.00000000E+00
  0.00000000E+00  0.00000000E+00  0.00000000E+00
  0.00000000E+00  0.00000000E+00  0.00000000E+00
  0.00000000E+00  0.00000000E+00  0.00000000E+00
  0.00000000E+00  0.00000000E+00  0.00000000E+00
  0.00000000E+00  0.00000000E+00  0.00000000E+00
  0.00000000E+00  0.00000000E+00  0.00000000E+00
  0.00000000E+00  0.00000000E+00  0.00000000E+00
  0.00000000E+00  0.00000000E+00  0.00000000E+00
  0.00000000E+00  0.00000000E+00  0.00000000E+00
  0.00000000E+00  0.00000000E+00  0.00000000E+00
  0.00000000E+00  0.00000000E+00  0.00000000E+00
  0.00000000E+00  0.00000000E+00  0.00000000E+00
  0.00000000E+00  0.00000000E+00  0.00000000E+00
  0.00000000E+00  0.00000000E+00  0.00000000E+00
  0.00000000E+00  0.00000000E+00  0.00000000E+00
  0.00000000E+00  0.00000000E+00  0.00000000E+00
  0.00000000E+00  0.00000000E+00  0.00000000E+00
  0.00000000E+00  0.00000000E+00  0.00000000E+00
  0.00000000E+00  0.00000000E+00  0.00000000E+00
  0.00000000E+00  0.00000000E+00  0.00000000E+00
  0.00000000E+00  0.00000000E+00  0.00000000E+00
  0.00000000E+00  0.00000000E+00  0.00000000E+00
  0.00000000E+00  0.00000000E+00  0.00000000E+00
  0.00000000E+00  0.00000000E+00  0.00000000E+00
  0.00000000E+00  0.00000000E+00  0.00000000E+00
  0.00000000E+00  0.00000000E+00  0.00000000E+00
  0.00000000E+00  0.00000000E+00  0.00000000E+00
  0.00000000E+00  0.00000000E+00  0.00000000E+00
  0.00000000E+00  0.00000000E+00  0.00000000E+00
  0.00000000E+00  0.00000000E+00  0.00000000E+00
  0.00000000E+00  0.00000000E+00  0.00000000E+00
  0.00000000E+00  0.00000000E+00  0.00000000E+00
  0.00000000E+00  0.00000000E+00  0.00000000E+00
  0.00000000E+00  0.00000000E+00  0.00000000E+00
  0.00000000E+00  0.00000000E+00  0.00000000E+00
  0.00000000E+00  0.00000000E+00  0.00000000E+00
  0.00000000E+00  0.00000000E+00  0.00000000E+00
  0.00000000E+00  0.00000000E+00  0.00000000E+00
  0.00000000E+00  0.00000000E+00  0.00000000E+00
  0.00000000E+00  0.00000000E+00  0.00000000E+00
  0.00000000E+00  0.00000000E+00  0.00000000E+00
  0.00000000E+00  0.00000000E+00  0.00000000E+00
  0.00000000E+00  0.00000000E+00  0.00000000E+00
  0.00000000E+00  0.00000000E+00  0.00000000E+00
  0.00000000E+00  0.00000000E+00  0.00000000E+00
  0.00000000E+00  0.00000000E+00  0.00000000E+00
  0.00000000E+00  0.00000000E+00  0.00000000E+00
  0.00000000E+00  0.00000000E+00  0.00000000E+00
  0.00000000E+00  0.00000000E+00  0.00000000E+00
  0.00000000E+00  0.00000000E+00  0.00000000E+00
  0.00000000E+00  0.00000000E+00  0.00000000E+00
  0.00000000E+00  0.00000000E+00  0.00000000E+00
  0.00000000E+00  0.00000000E+00  0.00000000E+00
  0.00000000E+00  0.00000000E+00  0.00000000E+00
  0.00000000E+00  0.00000000E+00  0.00000000E+00
  0.00000000E+00  0.00000000E+00  0.00000000E+00
  0.00000000E+00  0.00000000E+00  0.00000000E+00
  0.00000000E+00  0.00000000E+00  0.00000000E+00
  0.00000000E+00  0.00000000E+00  0.00000000E+00
  0.00000000E+00  0.00000000E+00  0.00000000E+00
  0.00000000E+00  0.00000000E+00  0.00000000E+00
  0.00000000E+00  0.00000000E+00  0.00000000E+00
  0.00000000E+00  0.00000000E+00  0.00000000E+00
  0.00000000E+00  0.00000000E+00  0.00000000E+00
  0.00000000E+00  0.00000000E+00  0.00000000E+00
  0.00000000E+00  0.00000000E+00  0.00000000E+00
  0.00000000E+00  0.00000000E+00  0.00000000E+00
  0.00000000E+00  0.00000000E+00  0.00000000E+00
  0.00000000E+00  0.00000000E+00  0.00000000E+00
  0.00000000E+00  0.00000000E+00  0.00000000E+00
  0.00000000E+00  0.00000000E+00  0.00000000E+00
  0.00000000E+00  0.00000000E+00  0.00000000E+00
  0.00000000E+00  0.00000000E+00  0.00000000E+00
  0.00000000E+00  0.00000000E+00  0.00000000E+00
  0.00000000E+00  0.00000000E+00  0.00000000E+00
  0.00000000E+00  0.00000000E+00  0.00000000E+00
  0.00000000E+00  0.00000000E+00  0.00000000E+00
  0.00000000E+00  0.00000000E+00  0.00000000E+00
  0.00000000E+00  0.00000000E+00  0.00000000E+00
  0.00000000E+00  0.00000000E+00  0.00000000E+00
  0.00000000E+00  0.00000000E+00  0.00000000E+00
  0.00000000E+00  0.00000000E+00  0.00000000E+00
  0.00000000E+00  0.00000000E+00  0.00000000E+00
  0.00000000E+00  0.00000000E+00  0.00000000E+00
  0.00000000E+00  0.00000000E+00  0.00000000E+00
  0.00000000E+00  0.00000000E+00  0.00000000E+00
  0.00000000E+00  0.00000000E+00  0.00000000E+00
  0.00000000E+00  0.00000000E+00  0.00000000E+00
  0.00000000E+00  0.00000000E+00  0.00000000E+00
  0.00000000E+00  0.00000000E+00  0.00000000E+00
  0.00000000E+00  0.00000000E+00  0.00000000E+00
  0.00000000E+00  0.00000000E+00  0.00000000E+00
  0.00000000E+00  0.00000000E+00  0.00000000E+00
  0.00000000E+00  0.00000000E+00  0.00000000E+00
  0.00000000E+00  0.00000000E+00  0.00000000E+00
  0.00000000E+00  0.00000000E+00  0.00000000E+00
  0.00000000E+00  0.00000000E+00  0.00000000E+00
  0.00000000E+00  0.00000000E+00  0.00000000E+00
  0.00000000E+00  0.00000000E+00  0.00000000E+00
  0.00000000E+00  0.00000000E+00  0.00000000E+00
  0.00000000E+00  0.00000000E+00  0.00000000E+00
  0.00000000E+00  0.00000000E+00  0.00000000E+00
  0.00000000E+00  0.00000000E+00  0.00000000E+00
  0.00000000E+00  0.00000000E+00  0.00000000E+00
  0.00000000E+00  0.00000000E+00  0.00000000E+00
  0.00000000E+00  0.00000000E+00  0.00000000E+00
  0.00000000E+00  0.00000000E+00  0.00000000E+00
  0.00000000E+00  0.00000000E+00  0.00000000E+00
  0.00000000E+00  0.00000000E+00  0.00000000E+00
  0.00000000E+00  0.00000000E+00  0.00000000E+00
  0.00000000E+00  0.00000000E+00  0.00000000E+00
  0.00000000E+00  0.00000000E+00  0.00000000E+00
  0.00000000E+00  0.00000000E+00  0.00000000E+00
  0.00000000E+00  0.00000000E+00  0.00000000E+00
  0.00000000E+00  0.00000000E+00  0.00000000E+00
  0.00000000E+00  0.00000000E+00  0.00000000E+00
  0.00000000E+00  0.00000000E+00  0.00000000E+00
  0.00000000E+00  0.00000000E+00  0.00000000E+00
  0.00000000E+00  0.00000000E+00  0.00000000E+00
  0.00000000E+00  0.00000000E+00  0.00000000E+00
  0.00000000E+00  0.00000000E+00  0.00000000E+00
  0.00000000E+00  0.00000000E+00  0.00000000E+00
  0.00000000E+00  0.00000000E+00  0.00000000E+00
  0.00000000E+00  0.00000000E+00  0.00000000E+00
  0.00000000E+00  0.00000000E+00  0.00000000E+00
  0.00000000E+00  0.00000000E+00  0.00000000E+00
  0.00000000E+00  0.00000000E+00  0.00000000E+00
  0.00000000E+00  0.00000000E+00  0.00000000E+00
  0.00000000E+00  0.00000000E+00  0.00000000E+00
  0.00000000E+00  0.00000000E+00  0.00000000E+00
  0.00000000E+00  0.00000000E+00  0.00000000E+00
  0.00000000E+00  0.00000000E+00  0.00000000E+00
  0.00000000E+00  0.00000000E+00  0.00000000E+00
  0.00000000E+00  0.00000000E+00  0.00000000E+00
  0.00000000E+00  0.00000000E+00  0.00000000E+00
