Li8 P8                                  
   1.00000000000000     
     4.8389480000000002    0.0000000000000000    0.0000000000000000
     0.0000000000000000    5.4549899999999996    0.0007620000000000
     0.0000000000000000    4.7181259999999998    8.8146620000000002
   Li   P 
     8     8
Direct
  0.6119309999999984  0.2169719999999984  0.6708939999999970
  0.1119309999999984  0.7830280000000016  0.8291060000000030
  0.3880690000000016  0.7830280000000016  0.3291060000000030
  0.8880690000000016  0.2169719999999984  0.1708939999999970
  0.3416100000000029  0.2260630000000035  0.9699159999999978
  0.8416100000000029  0.7739369999999965  0.5300840000000022
  0.6583899999999971  0.7739369999999965  0.0300840000000022
  0.1583899999999971  0.2260630000000035  0.4699159999999978
  0.1047590000000014  0.3163070000000019  0.7069570000000027
  0.6047590000000014  0.6836929999999981  0.7930429999999973
  0.8952409999999986  0.6836929999999981  0.2930429999999973
  0.3952409999999986  0.3163070000000019  0.2069570000000027
  0.8439819999999969  0.3027820000000006  0.8886529999999979
  0.3439819999999969  0.6972179999999994  0.6113470000000021
  0.1560180000000031  0.6972179999999994  0.1113470000000021
  0.6560180000000031  0.3027820000000006  0.3886529999999979
 
  0.00000000E+00  0.00000000E+00  0.00000000E+00
  0.00000000E+00  0.00000000E+00  0.00000000E+00
  0.00000000E+00  0.00000000E+00  0.00000000E+00
  0.00000000E+00  0.00000000E+00  0.00000000E+00
  0.00000000E+00  0.00000000E+00  0.00000000E+00
  0.00000000E+00  0.00000000E+00  0.00000000E+00
  0.00000000E+00  0.00000000E+00  0.00000000E+00
  0.00000000E+00  0.00000000E+00  0.00000000E+00
  0.00000000E+00  0.00000000E+00  0.00000000E+00
  0.00000000E+00  0.00000000E+00  0.00000000E+00
  0.00000000E+00  0.00000000E+00  0.00000000E+00
  0.00000000E+00  0.00000000E+00  0.00000000E+00
  0.00000000E+00  0.00000000E+00  0.00000000E+00
  0.00000000E+00  0.00000000E+00  0.00000000E+00
  0.00000000E+00  0.00000000E+00  0.00000000E+00
  0.00000000E+00  0.00000000E+00  0.00000000E+00
