Li5 P2 N1 O6                            
   1.00000000000000     
     0.0638221669741017    0.0365713509436331    5.2547228673219273
     6.0126335676680167   -0.0478805491664861    0.1290614933127646
    -0.0616802388505703    5.4518688663578621    0.0340904257547123
   Li   P    N    O 
     5     2     1     6
Direct
  0.4345862299764181  0.0185108911225184  0.7497337477112781
  0.1218325617392941  0.5284092503932167  0.1583149224957122
  0.6442161233507103  0.6588371955597541  0.3478946045219697
 -0.0455809959442501  0.7690902613930876  0.6834048089771114
 -0.0497239556154818  0.2808527528602838  0.6614664568904103
  0.4522410231838449  0.5152679920203966  0.8173735009075316
  0.0179249756576926  0.0227165067885336  0.1719046556514874
  0.9684880504298049 -0.1895840803601709  0.3108884740114057
  0.0228683082316639  0.2512288289224306  0.2948885376653714
  0.5724554359686702  0.7201850297457831  0.6883580638450574
  0.5841817454438570  0.2978472568030414  0.7137833601062303
  0.4821000249284985  0.5371280192499318  0.0969457192070366
  0.0777102894276611  0.0271563988501500  0.8936455209565054
  0.1591271832216406  0.5166186966510419  0.7714546270528904
 
  0.00000000E+00  0.00000000E+00  0.00000000E+00
  0.00000000E+00  0.00000000E+00  0.00000000E+00
  0.00000000E+00  0.00000000E+00  0.00000000E+00
  0.00000000E+00  0.00000000E+00  0.00000000E+00
  0.00000000E+00  0.00000000E+00  0.00000000E+00
  0.00000000E+00  0.00000000E+00  0.00000000E+00
  0.00000000E+00  0.00000000E+00  0.00000000E+00
  0.00000000E+00  0.00000000E+00  0.00000000E+00
  0.00000000E+00  0.00000000E+00  0.00000000E+00
  0.00000000E+00  0.00000000E+00  0.00000000E+00
  0.00000000E+00  0.00000000E+00  0.00000000E+00
  0.00000000E+00  0.00000000E+00  0.00000000E+00
  0.00000000E+00  0.00000000E+00  0.00000000E+00
  0.00000000E+00  0.00000000E+00  0.00000000E+00
