Li8 P8
1.0
5.006517 0.000000 0.000000
0.000000 5.643892 0.000789
0.000000 4.881511 9.119907
Li P
8 8
direct
0.611931 0.216972 0.670894 Li
0.111931 0.783028 0.829106 Li
0.388069 0.783028 0.329106 Li
0.888069 0.216972 0.170894 Li
0.341610 0.226063 0.969916 Li
0.841610 0.773937 0.530084 Li
0.658390 0.773937 0.030084 Li
0.158390 0.226063 0.469916 Li
0.104759 0.316307 0.706957 P
0.604759 0.683693 0.793043 P
0.895241 0.683693 0.293043 P
0.395241 0.316307 0.206957 P
0.843982 0.302782 0.888653 P
0.343982 0.697218 0.611347 P
0.156018 0.697218 0.111347 P
0.656018 0.302782 0.388653 P
