Li1 N3                                  
   1.00000000000000     
     1.6767920087070283    2.8415519312637723    0.0003747317407799
    -1.6767920087070283    2.8415519312637723    0.0003747317407799
     0.0000000000000000    1.4809673804513734    4.7635071944610257
   Li   N 
     1     3
Direct
 -0.0000000000000000 -0.0000000000000000 -0.0000000000000000
  0.6058764148989467  0.6058764148989467  0.2565334848727764
  0.3941235851010532  0.3941235851010532  0.7434665151272236
  0.5000000000000000  0.5000000000000000  0.5000000000000000
 
  0.00000000E+00  0.00000000E+00  0.00000000E+00
  0.00000000E+00  0.00000000E+00  0.00000000E+00
  0.00000000E+00  0.00000000E+00  0.00000000E+00
  0.00000000E+00  0.00000000E+00  0.00000000E+00
