Li2 O1
1.0
-0.109771 2.329421 2.329421
2.329421 0.000000 2.329421
2.219650 2.329421 0.000000
Li O
2 1
direct
0.750000 0.750000 0.750000 Li
0.250000 0.250000 0.250000 Li
0.000000 0.000000 0.000000 O
