Li1 N3
1.0
1.727336 2.927810 0.000000
-1.677025 2.842534 0.000000
0.000000 1.480851 4.763721
Li N
1 3
direct
0.000000 0.000000 0.000000 Li
0.605811 0.605811 0.256707 N
0.394189 0.394189 0.743293 N
0.500000 0.500000 0.500000 N
