Li5 P2 N1 O6                            
   1.00000000000000     
     0.5328628346994727    0.7188864471646943    5.0189919322429928
     6.4496899435628645   -0.4284039293560407    0.7381979314159816
    -0.3637922372410644    4.6974430132772067    0.8655311291623284
   Li   P    N    O 
     5     2     1     6
Direct
  0.5865204514376059  0.0693891992964859  0.8648321032702931
  0.4294336980922838  0.8867907803993634  0.4387823809165466
 -0.0300263212253134  0.7004524005225767  0.6165186836578859
  0.0038998287291633  0.2602644949390381  0.7134146271747529
  0.4696218038350943  0.2930957789893879  0.3426469503258440
  0.4082246306472328  0.5683916213170440  0.8834857173665872
  0.0287959587180996 -0.0044555467767548  0.1799972846640175
  0.2300778525858203  0.1240100294676676  0.2505141376024120
  0.5783303115557145  0.7064427561792775  0.7016692730863289
  0.1820968119251077  0.7255255351291914  0.1924749794104478
  0.6014129453238788  0.3953711906448925 -0.0262597690089658
 -0.0041321569841488 -0.0298839072377738  0.8639799832219073
  0.2294942671592906  0.4770986124593916  0.7169476685261106
  0.7276229182001966  0.0346450546702125  0.4190249797858378
 
  0.00000000E+00  0.00000000E+00  0.00000000E+00
  0.00000000E+00  0.00000000E+00  0.00000000E+00
  0.00000000E+00  0.00000000E+00  0.00000000E+00
  0.00000000E+00  0.00000000E+00  0.00000000E+00
  0.00000000E+00  0.00000000E+00  0.00000000E+00
  0.00000000E+00  0.00000000E+00  0.00000000E+00
  0.00000000E+00  0.00000000E+00  0.00000000E+00
  0.00000000E+00  0.00000000E+00  0.00000000E+00
  0.00000000E+00  0.00000000E+00  0.00000000E+00
  0.00000000E+00  0.00000000E+00  0.00000000E+00
  0.00000000E+00  0.00000000E+00  0.00000000E+00
  0.00000000E+00  0.00000000E+00  0.00000000E+00
  0.00000000E+00  0.00000000E+00  0.00000000E+00
  0.00000000E+00  0.00000000E+00  0.00000000E+00
