Li7 N21
1.0
3.298373 0.000000 0.114677
0.417792 5.987868 0.326343
0.000000 0.000000 36.793373
Li N
7 21
direct
0.250000 0.156250 0.968750 Li+
0.750000 0.468750 0.906250 Li+
0.250000 0.781250 0.843750 Li+
0.750000 0.093750 0.781250 Li+
0.250000 0.406250 0.718750 Li+
0.750000 0.718750 0.656250 Li+
0.250000 0.031250 0.593750 Li+
0.287070 0.790448 0.990569 N3-
0.212930 0.522052 0.946931 N3-
0.250000 0.656250 0.968750 N3-
0.787070 0.102948 0.928069 N3-
0.712930 0.834552 0.884431 N3-
0.750000 0.968750 0.906250 N3-
0.287070 0.415448 0.865569 N3-
0.212930 0.147052 0.821931 N3-
0.250000 0.281250 0.843750 N3-
0.787070 0.727948 0.803069 N3-
0.712930 0.459552 0.759431 N3-
0.750000 0.593750 0.781250 N3-
0.287070 0.040448 0.740569 N3-
0.212930 0.772052 0.696931 N3-
0.250000 0.906250 0.718750 N3-
0.787070 0.352948 0.678069 N3-
0.712930 0.084552 0.634431 N3-
0.750000 0.218750 0.656250 N3-
0.287070 0.665448 0.615569 N3-
0.212930 0.397052 0.571931 N3-
0.250000 0.531250 0.593750 N3-
