Li71 P24 N1 O94                         
   1.00000000000000     
    14.7187472945326956   -0.0077654510841378   -0.0002270686365350
    -0.0055263044585692   10.5656479006256578    0.0076199647412529
    -0.0001948169303871    0.0089084549540712   12.3322055731632911
   Li   P    N    O 
    71    24     1    94
Direct
  0.1687011362576769  0.4192097848494748  0.9968353108017269
  0.1697719760836556  0.4234596343160876  0.5025446400244130
  0.1687009930470393  0.9303306915753368  0.0069107834040384
  0.1734048174410803  0.9199696136620179  0.5004914648770918
  0.5037311743025874  0.4225606153679922 -0.0000205061829370
  0.5026944765612696  0.4227845033044286  0.4999770900159680
  0.5037532953691911  0.9222728117024868  0.9999177038446203
  0.5025230021773865  0.9219618827499703  0.4997420884883321
  0.8375343223328098  0.4229743223664957  0.0001340687110645
  0.8340040035222984  0.4232102793712253  0.5013404452879056
  0.8359367315413185  0.9199291690543037  0.9983994066131285
  0.8329373573705627  0.9182221437809005  0.4989503809233615
  0.0031666351837710  0.0651263403405156  0.2261198529569129
  0.0029628618883222  0.0758728955625872  0.7568348347410102
  0.0035301603032658  0.5792213945024066  0.2481890336074267
  0.0035847876614624  0.5775669471682026  0.7522711846040202
  0.3340308845902554  0.0753731201866024  0.2394258614717904
  0.3368861448855180  0.0774815911327015  0.7529034690754735
  0.3350640998768789  0.5757139725121978  0.2485308450172653
  0.3368765015747724  0.5777158885202193  0.7513209854332934
  0.6687744546525970  0.0779569934726700  0.2484937789328926
  0.6686051195279298  0.0771222061809783  0.7502484078629383
  0.6696318978819172  0.5776691045981091  0.2497321587628094
  0.6689109664992212  0.5780798017205664  0.7505374642967524
  0.1729731027867221  0.1641490420478133  0.6295184819716286
  0.1704564086188478  0.6608554887714321  0.1260364360185079
  0.1703982794889779  0.6638324651894475  0.6278517594129117
  0.5030767267200162  0.1625400906484174  0.1252512509610439
  0.5026390534413835  0.1634166313257885  0.6267974501989619
  0.5025392540222420  0.6630597411944634  0.1263275870108986
  0.5026085153789029  0.6633395239934570  0.6263953902201962
  0.8395557204573233  0.1632602135944269  0.1228499873554057
  0.8328935695122377  0.1658904407261647  0.6278581006776806
  0.8364777285291632  0.6630652411235227  0.1266532542226450
  0.8349177683377855  0.6633571414489295  0.6271800593348600
  0.0085049133835858  0.3366301836903791  0.1229377300032556
  0.0016564514689635  0.3404527275172757  0.6269342371988831
  0.0049153611608213  0.8342453017792314  0.1227012170623853
  0.0023140452200942  0.8329494391397388  0.6282111936860904
  0.3383523878955753  0.3315135574124163  0.1213289059805021
  0.3365782173054738  0.3374841651453122  0.6242983530637005
  0.3362442749641192  0.8364638817826916  0.1221217905229645
  0.3365245303856884  0.8365452370123398  0.6246084162416469
  0.6703141717535350  0.3363204832699022  0.1234138862689988
  0.6681463120877820  0.3375895596528079  0.6239309955279866
  0.6697321697418719  0.8370132966394149  0.1237126327431831
  0.6682019264064579  0.8367810871786800  0.6236983442091806
  0.9968386746957980  0.3588450898184890  0.3775658446560038
  0.0025973965681888  0.3360954034549297  0.8765730708211145
  0.0025567487055409  0.8345446139328486  0.3750188508679644
  0.0041541988868371  0.8375569625837324  0.8773229056708473
  0.3362134877308947  0.3411344696989914  0.3753081790601052
  0.3368790525535162  0.3347250974646737  0.8776296181203761
  0.3353669423464991  0.8361181940897776  0.3752518381057910
  0.3358652558371036  0.8374216654198989  0.8775039037684887
  0.6684707935457767  0.3372005812873528  0.3764420556896994
  0.6696945118654615  0.3370070288782788  0.8766221569385152
  0.6684189897989659  0.8369419417376649  0.3755380760131133
  0.6695862844411796  0.8369081502121677  0.8758359814465059
  0.2010403770259449  0.1655290555659004  0.3655038446583622
  0.1693387644187871  0.1633933271634541  0.8799679723603836
  0.1685031145946882  0.6624149401109890  0.3771189219987089
  0.1701033764804334  0.6637829675235177  0.8746827358401046
  0.5003653194994623  0.1632581108907083  0.3725613102538098
  0.5038957510893676  0.1629355071317906  0.8740400793994472
  0.5021594486990283  0.6630614084309856  0.3731676403480225
  0.5026084592141309  0.6634819162341202  0.8740057028344026
  0.8331108904047726  0.1634929980118760  0.3703640962982593
  0.8346476144136876  0.1632431173257964  0.8711158244850240
  0.8357459390842259  0.6627208788730121  0.3740482358830576
  0.8362817599706547  0.6636768454444965  0.8732334465545346
  0.1651104643667480  0.4134119738272634  0.2530168639383227
  0.1673737197020307  0.4123554164525672  0.7500687847651736
  0.1681112066552332  0.9095511655242987  0.2532429869231362
  0.1672248730157439  0.9126094381975830  0.7507839443435484
  0.5012269403881180  0.4121619127634344  0.2500976714193104
  0.5004826533700661  0.4123967373677535  0.7501455899975481
  0.5003409773753156  0.9119181190903364  0.2500302417930820
  0.5005154557167621  0.9119635148275516  0.7496800025021364
  0.8337221799126944  0.4121150125639457  0.2496009295897157
  0.8332492232907579  0.4127834703132797  0.7500604058638239
  0.8345462850456223  0.9119892359509074  0.2505824660231442
  0.8338231029151361  0.9123857230398729  0.7481253166718235
  0.9965743105417216  0.0883855486774711  0.9982141185287178
  0.9991948356112440  0.0846188766044347  0.5074445361633874
  0.9999004432278409  0.5880031092617334  0.9992561166687344
  0.9991729728130354  0.5888786794876135  0.5022041699869069
  0.3354480270693125  0.0855349714311431  0.9977657334809144
  0.3329962988295115  0.0876451693326056  0.5010426520357495
  0.3345712377992278  0.5871138809648123  0.9994542626902244
  0.3336732436381251  0.5880874875735307  0.5005552836154052
  0.6682116183083625  0.0873461060256828  0.9995669554981628
  0.6659033372902899  0.0881828506669113  0.4993974435722466
  0.6677189531241211  0.5882700901870392  0.0000999900342634
  0.6666661602393879  0.5884018251949072  0.4999489596588682
  0.2068746029151477  0.3576452495875206  0.1420366834546170
  0.0336567331270373  0.1566165508508520  0.8946631123388264
  0.0342531890484233  0.6565269599323609  0.3978717724542613
  0.0353988869002922  0.6579878374727296  0.8959155478402181
  0.3639267471837365  0.1583836499281791  0.3955786289599212
  0.3727606979403117  0.1558921552443721  0.8945131364800816
  0.3685887378485108  0.6566107541833983  0.3963462425865457
  0.3694347332573764  0.6579133392562379  0.8959347845271959
  0.7018993125121128  0.1570436763003019  0.3956941062086428
  0.7024311705503280  0.1565081495019784  0.8950591090294946
  0.7024541168329396  0.6575391600711172  0.3962826060110178
  0.7029709075408931  0.6574489155889202  0.8961391160053546
  0.2035060375986308  0.0462031853849187  0.2573819726251693
  0.2006056486859113  0.0525735326388811  0.7504632556851885
  0.1979611162035625  0.5546753266602686  0.2549294463478525
  0.2008747723023455  0.5524777171905233  0.7502003242445107
  0.5341722626069472  0.0520416644836613  0.2503337125021360
  0.5346109730478649  0.0519014432309102  0.7492762447238613
  0.5354073429456710  0.5521396475303535  0.2502739887566491
  0.5341922182369244  0.5525668127456275  0.7498106974536950
  0.8699194226630683  0.0517278135573050  0.2506928428739681
  0.8678264437615081  0.0524609316245761  0.7466793968365715
  0.8678510167540334  0.5520188775085284  0.2514054380241473
  0.8675904107535326  0.5524815480681567  0.7497605358633204
  0.0584877676194808  0.4093262510838417  0.2551764841591181
  0.0613370761840442  0.4099468344064988  0.7504734814101116
  0.0614177555265866  0.9080941533073336  0.2516513741099544
  0.0609680042278007  0.9101719657553923  0.7496283978541121
  0.3956568940132839  0.4096701239769560  0.2497808536639781
  0.3947441965995117  0.4093819513504525  0.7503704343506612
  0.3946667047184105  0.9085335634024931  0.2494938273684994
  0.3947805779689281  0.9090570881550986  0.7499133036962662
  0.7280295031144127  0.4092919904173576  0.2507922525443284
  0.7275068166567490  0.4101295155009709  0.7495742317014974
  0.7288384392915465  0.9106340091279663  0.2501617175366916
  0.7281105249428276  0.9096148312758259  0.7487744268571167
  0.2314895939914002  0.0852047920016773  0.9945038807384631
  0.2268410623402677  0.0894661754882825  0.5029138130215738
  0.2287498614032711  0.5894032596126514  0.9990639880051968
  0.2278120164628643  0.5906895217960513  0.5018770230582887
  0.5626048784538620  0.0901696150947688  0.0002762951444589
  0.5602292436622388  0.0911023090976046  0.4992555289069570
  0.5619823301454173  0.5911837572216597  0.0001956252028915
  0.5609742757775502  0.5910912230146815  0.4997783092169767
  0.8903617643461516  0.0859267541476257  0.9929405318838318
  0.8942443774910314  0.0924797192346885  0.4990424565734369
  0.8939925320831937  0.5925779520098260  0.9998771255179350
  0.8934127029348906  0.5907116600083262  0.5015991004153836
  0.2020088499367432  0.3440578154734554  0.6455450367111077
  0.2023080877870678  0.8404205519642094  0.1490760019958728
  0.2021462776973532  0.8434972837628593  0.6465969394424131
  0.5370266751899734  0.3429032216619838  0.1467587444114324
  0.5353668920265449  0.3434792128081210  0.6459852582633833
  0.5367105830092676  0.8427519421031763  0.1469700623439025
  0.5353594907351609  0.8431866097157369  0.6454396496388822
  0.8689882773618777  0.3442493970193948  0.1460718056414671
  0.8683566459571282  0.3433867224942263  0.6460530379305262
  0.8702717831722023  0.8425938951698311  0.1475254361012044
  0.8687734318502738  0.8437872682598468  0.6436809604767915
  0.0238791470279083  0.1598946507297579  0.1018324120233071
  0.0361520008036146  0.1588831481545286  0.6063955871550234
  0.0358099526820186  0.6556948203910502  0.1034362137442580
  0.0350319644084643  0.6575300139692729  0.6054899753249483
  0.3724749897630024  0.1541955291601028  0.1011474002892272
  0.3691148066708400  0.1570855148346978  0.6038265640194658
  0.3690186372368425  0.6561116460660923  0.1038458941307514
  0.3693036128657582  0.6571143577444413  0.6040981741405473
  0.7042409893797044  0.1564582771967676  0.1030184366940448
  0.7013468773557742  0.1573960198778590  0.6031160523841546
  0.7032238273138558  0.6572668259438857  0.1038929953323397
  0.7019586635225638  0.6573240617386813  0.6038094749376745
  0.0321356297427975  0.4479780162581457  0.9978457615742269
  0.0327821696920501  0.4485172501995144  0.5032008683436753
  0.0323080683557675  0.9489171139368854  0.0009202800809717
  0.0347126383460722  0.9470045894427991  0.5011173466811938
  0.3702835529439861  0.4484178832292406  0.9984403208351302
  0.3673012231189507  0.4479683890128761  0.5003794899153425
  0.3714792966248085  0.9456709342417497  0.9989991523939042
  0.3671482917628369  0.9481779697490599  0.4995900572459638
  0.7015312099985861  0.4482780016386321  0.0000673821122847
  0.7003600968428505  0.4482809974386744  0.5000867719807688
  0.7015489613844297  0.9470603547149529  0.9994743834411862
  0.6998576641121358  0.9482189082351290  0.4996951900539455
  0.1979995303638584  0.3442995557997780  0.3593400714013390
  0.2028382820358044  0.3421744635306961  0.8526094255324668
  0.2004034059410011  0.8368443505107218  0.3572856420811948
  0.2015015844248380  0.8427337816887067  0.8541210528760935
  0.5357928493658886  0.3427647264989476  0.3544123373907953
  0.5366613108155734  0.3434160572263468  0.8534845124637240
  0.5353468632462993  0.8430545939811577  0.3543363283429544
  0.5366459613022704  0.8426590679447101  0.8528674888582521
  0.8690265625126109  0.3418327010393443  0.3539892294147716
  0.8684843659813858  0.3431729580013658  0.8533733268888629
  0.8689205568854003  0.8431056910663384  0.3551936461858232
  0.8697866975554466  0.8427967084499730  0.8510707246996093
 
  0.00000000E+00  0.00000000E+00  0.00000000E+00
  0.00000000E+00  0.00000000E+00  0.00000000E+00
  0.00000000E+00  0.00000000E+00  0.00000000E+00
  0.00000000E+00  0.00000000E+00  0.00000000E+00
  0.00000000E+00  0.00000000E+00  0.00000000E+00
  0.00000000E+00  0.00000000E+00  0.00000000E+00
  0.00000000E+00  0.00000000E+00  0.00000000E+00
  0.00000000E+00  0.00000000E+00  0.00000000E+00
  0.00000000E+00  0.00000000E+00  0.00000000E+00
  0.00000000E+00  0.00000000E+00  0.00000000E+00
  0.00000000E+00  0.00000000E+00  0.00000000E+00
  0.00000000E+00  0.00000000E+00  0.00000000E+00
  0.00000000E+00  0.00000000E+00  0.00000000E+00
  0.00000000E+00  0.00000000E+00  0.00000000E+00
  0.00000000E+00  0.00000000E+00  0.00000000E+00
  0.00000000E+00  0.00000000E+00  0.00000000E+00
  0.00000000E+00  0.00000000E+00  0.00000000E+00
  0.00000000E+00  0.00000000E+00  0.00000000E+00
  0.00000000E+00  0.00000000E+00  0.00000000E+00
  0.00000000E+00  0.00000000E+00  0.00000000E+00
  0.00000000E+00  0.00000000E+00  0.00000000E+00
  0.00000000E+00  0.00000000E+00  0.00000000E+00
  0.00000000E+00  0.00000000E+00  0.00000000E+00
  0.00000000E+00  0.00000000E+00  0.00000000E+00
  0.00000000E+00  0.00000000E+00  0.00000000E+00
  0.00000000E+00  0.00000000E+00  0.00000000E+00
  0.00000000E+00  0.00000000E+00  0.00000000E+00
  0.00000000E+00  0.00000000E+00  0.00000000E+00
  0.00000000E+00  0.00000000E+00  0.00000000E+00
  0.00000000E+00  0.00000000E+00  0.00000000E+00
  0.00000000E+00  0.00000000E+00  0.00000000E+00
  0.00000000E+00  0.00000000E+00  0.00000000E+00
  0.00000000E+00  0.00000000E+00  0.00000000E+00
  0.00000000E+00  0.00000000E+00  0.00000000E+00
  0.00000000E+00  0.00000000E+00  0.00000000E+00
  0.00000000E+00  0.00000000E+00  0.00000000E+00
  0.00000000E+00  0.00000000E+00  0.00000000E+00
  0.00000000E+00  0.00000000E+00  0.00000000E+00
  0.00000000E+00  0.00000000E+00  0.00000000E+00
  0.00000000E+00  0.00000000E+00  0.00000000E+00
  0.00000000E+00  0.00000000E+00  0.00000000E+00
  0.00000000E+00  0.00000000E+00  0.00000000E+00
  0.00000000E+00  0.00000000E+00  0.00000000E+00
  0.00000000E+00  0.00000000E+00  0.00000000E+00
  0.00000000E+00  0.00000000E+00  0.00000000E+00
  0.00000000E+00  0.00000000E+00  0.00000000E+00
  0.00000000E+00  0.00000000E+00  0.00000000E+00
  0.00000000E+00  0.00000000E+00  0.00000000E+00
  0.00000000E+00  0.00000000E+00  0.00000000E+00
  0.00000000E+00  0.00000000E+00  0.00000000E+00
  0.00000000E+00  0.00000000E+00  0.00000000E+00
  0.00000000E+00  0.00000000E+00  0.00000000E+00
  0.00000000E+00  0.00000000E+00  0.00000000E+00
  0.00000000E+00  0.00000000E+00  0.00000000E+00
  0.00000000E+00  0.00000000E+00  0.00000000E+00
  0.00000000E+00  0.00000000E+00  0.00000000E+00
  0.00000000E+00  0.00000000E+00  0.00000000E+00
  0.00000000E+00  0.00000000E+00  0.00000000E+00
  0.00000000E+00  0.00000000E+00  0.00000000E+00
  0.00000000E+00  0.00000000E+00  0.00000000E+00
  0.00000000E+00  0.00000000E+00  0.00000000E+00
  0.00000000E+00  0.00000000E+00  0.00000000E+00
  0.00000000E+00  0.00000000E+00  0.00000000E+00
  0.00000000E+00  0.00000000E+00  0.00000000E+00
  0.00000000E+00  0.00000000E+00  0.00000000E+00
  0.00000000E+00  0.00000000E+00  0.00000000E+00
  0.00000000E+00  0.00000000E+00  0.00000000E+00
  0.00000000E+00  0.00000000E+00  0.00000000E+00
  0.00000000E+00  0.00000000E+00  0.00000000E+00
  0.00000000E+00  0.00000000E+00  0.00000000E+00
  0.00000000E+00  0.00000000E+00  0.00000000E+00
  0.00000000E+00  0.00000000E+00  0.00000000E+00
  0.00000000E+00  0.00000000E+00  0.00000000E+00
  0.00000000E+00  0.00000000E+00  0.00000000E+00
  0.00000000E+00  0.00000000E+00  0.00000000E+00
  0.00000000E+00  0.00000000E+00  0.00000000E+00
  0.00000000E+00  0.00000000E+00  0.00000000E+00
  0.00000000E+00  0.00000000E+00  0.00000000E+00
  0.00000000E+00  0.00000000E+00  0.00000000E+00
  0.00000000E+00  0.00000000E+00  0.00000000E+00
  0.00000000E+00  0.00000000E+00  0.00000000E+00
  0.00000000E+00  0.00000000E+00  0.00000000E+00
  0.00000000E+00  0.00000000E+00  0.00000000E+00
  0.00000000E+00  0.00000000E+00  0.00000000E+00
  0.00000000E+00  0.00000000E+00  0.00000000E+00
  0.00000000E+00  0.00000000E+00  0.00000000E+00
  0.00000000E+00  0.00000000E+00  0.00000000E+00
  0.00000000E+00  0.00000000E+00  0.00000000E+00
  0.00000000E+00  0.00000000E+00  0.00000000E+00
  0.00000000E+00  0.00000000E+00  0.00000000E+00
  0.00000000E+00  0.00000000E+00  0.00000000E+00
  0.00000000E+00  0.00000000E+00  0.00000000E+00
  0.00000000E+00  0.00000000E+00  0.00000000E+00
  0.00000000E+00  0.00000000E+00  0.00000000E+00
  0.00000000E+00  0.00000000E+00  0.00000000E+00
  0.00000000E+00  0.00000000E+00  0.00000000E+00
  0.00000000E+00  0.00000000E+00  0.00000000E+00
  0.00000000E+00  0.00000000E+00  0.00000000E+00
  0.00000000E+00  0.00000000E+00  0.00000000E+00
  0.00000000E+00  0.00000000E+00  0.00000000E+00
  0.00000000E+00  0.00000000E+00  0.00000000E+00
  0.00000000E+00  0.00000000E+00  0.00000000E+00
  0.00000000E+00  0.00000000E+00  0.00000000E+00
  0.00000000E+00  0.00000000E+00  0.00000000E+00
  0.00000000E+00  0.00000000E+00  0.00000000E+00
  0.00000000E+00  0.00000000E+00  0.00000000E+00
  0.00000000E+00  0.00000000E+00  0.00000000E+00
  0.00000000E+00  0.00000000E+00  0.00000000E+00
  0.00000000E+00  0.00000000E+00  0.00000000E+00
  0.00000000E+00  0.00000000E+00  0.00000000E+00
  0.00000000E+00  0.00000000E+00  0.00000000E+00
  0.00000000E+00  0.00000000E+00  0.00000000E+00
  0.00000000E+00  0.00000000E+00  0.00000000E+00
  0.00000000E+00  0.00000000E+00  0.00000000E+00
  0.00000000E+00  0.00000000E+00  0.00000000E+00
  0.00000000E+00  0.00000000E+00  0.00000000E+00
  0.00000000E+00  0.00000000E+00  0.00000000E+00
  0.00000000E+00  0.00000000E+00  0.00000000E+00
  0.00000000E+00  0.00000000E+00  0.00000000E+00
  0.00000000E+00  0.00000000E+00  0.00000000E+00
  0.00000000E+00  0.00000000E+00  0.00000000E+00
  0.00000000E+00  0.00000000E+00  0.00000000E+00
  0.00000000E+00  0.00000000E+00  0.00000000E+00
  0.00000000E+00  0.00000000E+00  0.00000000E+00
  0.00000000E+00  0.00000000E+00  0.00000000E+00
  0.00000000E+00  0.00000000E+00  0.00000000E+00
  0.00000000E+00  0.00000000E+00  0.00000000E+00
  0.00000000E+00  0.00000000E+00  0.00000000E+00
  0.00000000E+00  0.00000000E+00  0.00000000E+00
  0.00000000E+00  0.00000000E+00  0.00000000E+00
  0.00000000E+00  0.00000000E+00  0.00000000E+00
  0.00000000E+00  0.00000000E+00  0.00000000E+00
  0.00000000E+00  0.00000000E+00  0.00000000E+00
  0.00000000E+00  0.00000000E+00  0.00000000E+00
  0.00000000E+00  0.00000000E+00  0.00000000E+00
  0.00000000E+00  0.00000000E+00  0.00000000E+00
  0.00000000E+00  0.00000000E+00  0.00000000E+00
  0.00000000E+00  0.00000000E+00  0.00000000E+00
  0.00000000E+00  0.00000000E+00  0.00000000E+00
  0.00000000E+00  0.00000000E+00  0.00000000E+00
  0.00000000E+00  0.00000000E+00  0.00000000E+00
  0.00000000E+00  0.00000000E+00  0.00000000E+00
  0.00000000E+00  0.00000000E+00  0.00000000E+00
  0.00000000E+00  0.00000000E+00  0.00000000E+00
  0.00000000E+00  0.00000000E+00  0.00000000E+00
  0.00000000E+00  0.00000000E+00  0.00000000E+00
  0.00000000E+00  0.00000000E+00  0.00000000E+00
  0.00000000E+00  0.00000000E+00  0.00000000E+00
  0.00000000E+00  0.00000000E+00  0.00000000E+00
  0.00000000E+00  0.00000000E+00  0.00000000E+00
  0.00000000E+00  0.00000000E+00  0.00000000E+00
  0.00000000E+00  0.00000000E+00  0.00000000E+00
  0.00000000E+00  0.00000000E+00  0.00000000E+00
  0.00000000E+00  0.00000000E+00  0.00000000E+00
  0.00000000E+00  0.00000000E+00  0.00000000E+00
  0.00000000E+00  0.00000000E+00  0.00000000E+00
  0.00000000E+00  0.00000000E+00  0.00000000E+00
  0.00000000E+00  0.00000000E+00  0.00000000E+00
  0.00000000E+00  0.00000000E+00  0.00000000E+00
  0.00000000E+00  0.00000000E+00  0.00000000E+00
  0.00000000E+00  0.00000000E+00  0.00000000E+00
  0.00000000E+00  0.00000000E+00  0.00000000E+00
  0.00000000E+00  0.00000000E+00  0.00000000E+00
  0.00000000E+00  0.00000000E+00  0.00000000E+00
  0.00000000E+00  0.00000000E+00  0.00000000E+00
  0.00000000E+00  0.00000000E+00  0.00000000E+00
  0.00000000E+00  0.00000000E+00  0.00000000E+00
  0.00000000E+00  0.00000000E+00  0.00000000E+00
  0.00000000E+00  0.00000000E+00  0.00000000E+00
  0.00000000E+00  0.00000000E+00  0.00000000E+00
  0.00000000E+00  0.00000000E+00  0.00000000E+00
  0.00000000E+00  0.00000000E+00  0.00000000E+00
  0.00000000E+00  0.00000000E+00  0.00000000E+00
  0.00000000E+00  0.00000000E+00  0.00000000E+00
  0.00000000E+00  0.00000000E+00  0.00000000E+00
  0.00000000E+00  0.00000000E+00  0.00000000E+00
  0.00000000E+00  0.00000000E+00  0.00000000E+00
  0.00000000E+00  0.00000000E+00  0.00000000E+00
  0.00000000E+00  0.00000000E+00  0.00000000E+00
  0.00000000E+00  0.00000000E+00  0.00000000E+00
  0.00000000E+00  0.00000000E+00  0.00000000E+00
  0.00000000E+00  0.00000000E+00  0.00000000E+00
  0.00000000E+00  0.00000000E+00  0.00000000E+00
  0.00000000E+00  0.00000000E+00  0.00000000E+00
  0.00000000E+00  0.00000000E+00  0.00000000E+00
  0.00000000E+00  0.00000000E+00  0.00000000E+00
  0.00000000E+00  0.00000000E+00  0.00000000E+00
  0.00000000E+00  0.00000000E+00  0.00000000E+00
  0.00000000E+00  0.00000000E+00  0.00000000E+00
  0.00000000E+00  0.00000000E+00  0.00000000E+00
