(1, 0, 0)                               
   1.00000000000000     
     3.7104966679313049    0.0000012880530816   -2.1421344872761505
    -0.0000032191890913    7.5599048920537211   -0.0000087189847965
    -0.4350295912818541   -0.0000656081724821   54.9420907418785376
   Li   P 
    42    14
Selective dynamics
Direct
 -0.0163023813530272  0.7499977791982685  0.0359855936099299   T   T   T
  0.0000000000000000  0.2500000000000000  0.0384620000000027   F   F   F
  0.3405135463300915  0.0458550088425789  0.0138962778342627   T   T   T
  0.6666669999999968  0.5841190000000012  0.0641030000000029   F   F   F
  0.6666669999999968  0.9158809999999988  0.0641030000000029   F   F   F
  0.3404949948552112  0.4541526015781282  0.0138984078692490   T   T   T
  0.0000000000000000  0.7500000000000000  0.1153850000000034   F   F   F
  0.0000000000000000  0.2500000000000000  0.1153850000000034   F   F   F
  0.3333330000000032  0.0841190000000012  0.0897440000000032   F   F   F
  0.6666669999999968  0.5841190000000012  0.1410259999999965   F   F   F
  0.6666669999999968  0.9158809999999988  0.1410259999999965   F   F   F
  0.3333330000000032  0.4158809999999988  0.0897440000000032   F   F   F
  0.0000000000000000  0.7500000000000000  0.1923079999999970   F   F   F
  0.0000000000000000  0.2500000000000000  0.1923079999999970   F   F   F
  0.3333330000000032  0.0841190000000012  0.1666669999999968   F   F   F
  0.6666669999999968  0.5841190000000012  0.2179489999999973   F   F   F
  0.6666669999999968  0.9158809999999988  0.2179489999999973   F   F   F
  0.3333330000000032  0.4158809999999988  0.1666669999999968   F   F   F
  0.0000000000000000  0.7500000000000000  0.2692309999999978   F   F   F
  0.0000000000000000  0.2500000000000000  0.2692309999999978   F   F   F
  0.3333330000000032  0.0841190000000012  0.2435899999999975   F   F   F
  0.6666669999999968  0.5841190000000012  0.2948719999999980   F   F   F
  0.6666669999999968  0.9158809999999988  0.2948719999999980   F   F   F
  0.3333330000000032  0.4158809999999988  0.2435899999999975   F   F   F
  0.0000000000000000  0.7500000000000000  0.3461539999999985   F   F   F
  0.0000000000000000  0.2500000000000000  0.3461539999999985   F   F   F
  0.3333330000000032  0.0841190000000012  0.3205129999999983   F   F   F
  0.6666669999999968  0.5841190000000012  0.3717949999999988   F   F   F
  0.6666669999999968  0.9158809999999988  0.3717949999999988   F   F   F
  0.3333330000000032  0.4158809999999988  0.3205129999999983   F   F   F
  0.0000000000000000  0.7500000000000000  0.4230769999999993   F   F   F
  0.0000000000000000  0.2500000000000000  0.4230769999999993   F   F   F
  0.3333330000000032  0.0841190000000012  0.3974359999999990   F   F   F
  0.6666669999999968  0.5841190000000012  0.4487179999999995   F   F   F
  0.6666669999999968  0.9158809999999988  0.4487179999999995   F   F   F
  0.3333330000000032  0.4158809999999988  0.3974359999999990   F   F   F
  0.0000000000000000  0.7500000000000000  0.5000000000000000   F   F   F
  0.0159179568159675  0.2500005643871572  0.5024763887478089   T   T   T
  0.3333330000000032  0.0841190000000012  0.4743589999999998   F   F   F
  0.6599153204326382  0.5461319552819937  0.5245969042157389   T   T   T
  0.6599189547991908  0.9538708015914878  0.5245969915417965   T   T   T
  0.3333330000000032  0.4158809999999988  0.4743589999999998   F   F   F
  0.3599072830080052  0.7499790180219107  0.0169246475435780   T   T   T
  0.6666669999999968  0.2500000000000000  0.0641030000000029   F   F   F
  0.3333330000000032  0.7500000000000000  0.0897440000000032   F   F   F
  0.6666669999999968  0.2500000000000000  0.1410259999999965   F   F   F
  0.3333330000000032  0.7500000000000000  0.1666669999999968   F   F   F
  0.6666669999999968  0.2500000000000000  0.2179489999999973   F   F   F
  0.3333330000000032  0.7500000000000000  0.2435899999999975   F   F   F
  0.6666669999999968  0.2500000000000000  0.2948719999999980   F   F   F
  0.3333330000000032  0.7500000000000000  0.3205129999999983   F   F   F
  0.6666669999999968  0.2500000000000000  0.3717949999999988   F   F   F
  0.3333330000000032  0.7500000000000000  0.3974359999999990   F   F   F
  0.6666669999999968  0.2500000000000000  0.4487179999999995   F   F   F
  0.3333330000000032  0.7500000000000000  0.4743589999999998   F   F   F
  0.6394900565316759  0.2499997590240301  0.5214627947906491   T   T   T
 
  0.00000000E+00  0.00000000E+00  0.00000000E+00
  0.00000000E+00  0.00000000E+00  0.00000000E+00
  0.00000000E+00  0.00000000E+00  0.00000000E+00
  0.00000000E+00  0.00000000E+00  0.00000000E+00
  0.00000000E+00  0.00000000E+00  0.00000000E+00
  0.00000000E+00  0.00000000E+00  0.00000000E+00
  0.00000000E+00  0.00000000E+00  0.00000000E+00
  0.00000000E+00  0.00000000E+00  0.00000000E+00
  0.00000000E+00  0.00000000E+00  0.00000000E+00
  0.00000000E+00  0.00000000E+00  0.00000000E+00
  0.00000000E+00  0.00000000E+00  0.00000000E+00
  0.00000000E+00  0.00000000E+00  0.00000000E+00
  0.00000000E+00  0.00000000E+00  0.00000000E+00
  0.00000000E+00  0.00000000E+00  0.00000000E+00
  0.00000000E+00  0.00000000E+00  0.00000000E+00
  0.00000000E+00  0.00000000E+00  0.00000000E+00
  0.00000000E+00  0.00000000E+00  0.00000000E+00
  0.00000000E+00  0.00000000E+00  0.00000000E+00
  0.00000000E+00  0.00000000E+00  0.00000000E+00
  0.00000000E+00  0.00000000E+00  0.00000000E+00
  0.00000000E+00  0.00000000E+00  0.00000000E+00
  0.00000000E+00  0.00000000E+00  0.00000000E+00
  0.00000000E+00  0.00000000E+00  0.00000000E+00
  0.00000000E+00  0.00000000E+00  0.00000000E+00
  0.00000000E+00  0.00000000E+00  0.00000000E+00
  0.00000000E+00  0.00000000E+00  0.00000000E+00
  0.00000000E+00  0.00000000E+00  0.00000000E+00
  0.00000000E+00  0.00000000E+00  0.00000000E+00
  0.00000000E+00  0.00000000E+00  0.00000000E+00
  0.00000000E+00  0.00000000E+00  0.00000000E+00
  0.00000000E+00  0.00000000E+00  0.00000000E+00
  0.00000000E+00  0.00000000E+00  0.00000000E+00
  0.00000000E+00  0.00000000E+00  0.00000000E+00
  0.00000000E+00  0.00000000E+00  0.00000000E+00
  0.00000000E+00  0.00000000E+00  0.00000000E+00
  0.00000000E+00  0.00000000E+00  0.00000000E+00
  0.00000000E+00  0.00000000E+00  0.00000000E+00
  0.00000000E+00  0.00000000E+00  0.00000000E+00
  0.00000000E+00  0.00000000E+00  0.00000000E+00
  0.00000000E+00  0.00000000E+00  0.00000000E+00
  0.00000000E+00  0.00000000E+00  0.00000000E+00
  0.00000000E+00  0.00000000E+00  0.00000000E+00
  0.00000000E+00  0.00000000E+00  0.00000000E+00
  0.00000000E+00  0.00000000E+00  0.00000000E+00
  0.00000000E+00  0.00000000E+00  0.00000000E+00
  0.00000000E+00  0.00000000E+00  0.00000000E+00
  0.00000000E+00  0.00000000E+00  0.00000000E+00
  0.00000000E+00  0.00000000E+00  0.00000000E+00
  0.00000000E+00  0.00000000E+00  0.00000000E+00
  0.00000000E+00  0.00000000E+00  0.00000000E+00
  0.00000000E+00  0.00000000E+00  0.00000000E+00
  0.00000000E+00  0.00000000E+00  0.00000000E+00
  0.00000000E+00  0.00000000E+00  0.00000000E+00
  0.00000000E+00  0.00000000E+00  0.00000000E+00
  0.00000000E+00  0.00000000E+00  0.00000000E+00
  0.00000000E+00  0.00000000E+00  0.00000000E+00
