Li7 N21
1.0
3.300349 0.000000 -0.010298
-0.321486 5.213677 -0.271752
0.000000 0.000000 39.592117
Li N
7 21
direct
0.496671 0.186252 0.937916 Li+
0.030005 0.386252 0.871249 Li+
0.563338 0.586252 0.804583 Li+
0.096671 0.786252 0.737916 Li+
0.630005 0.986252 0.671249 Li+
0.163338 0.186252 0.604583 Li+
0.696671 0.386252 0.537916 Li+
0.955019 0.902048 0.947082 N3-
0.504991 0.270455 0.995417 N3-
0.996671 0.686252 0.937916 N3-
0.488352 0.102048 0.880415 N3-
0.038324 0.470455 0.928751 N3-
0.530005 0.886252 0.871249 N3-
0.021685 0.302048 0.813748 N3-
0.571658 0.670455 0.862084 N3-
0.063338 0.086252 0.804583 N3-
0.555019 0.502048 0.747082 N3-
0.104991 0.870455 0.795417 N3-
0.596671 0.286252 0.737916 N3-
0.088352 0.702048 0.680415 N3-
0.638324 0.070455 0.728751 N3-
0.130005 0.486252 0.671249 N3-
0.621685 0.902048 0.613748 N3-
0.171658 0.270455 0.662084 N3-
0.663338 0.686252 0.604583 N3-
0.155019 0.102048 0.547082 N3-
0.704991 0.470455 0.595417 N3-
0.196671 0.886252 0.537916 N3-
