(2, 1, 1)
1.0
8.674503 0.000000 0.106143
3.493438 9.903704 0.925088
0.000000 0.000000 32.863931
Li P
48 16
Selective dynamics
direct
0.531250 0.750000 0.968750 T T T Li+
0.906250 0.416667 0.927083 T T T Li+
0.843750 0.916667 0.989583 T T T Li+
0.218750 0.583333 0.947917 T T T Li+
0.905759 0.083071 0.927051 F F F Li+
0.530759 0.416405 0.968717 T T T Li+
0.801592 0.694183 0.920106 F F F Li+
0.426592 0.027516 0.961773 T T T Li+
0.844241 0.250262 0.989616 T T T Li+
0.219241 0.916929 0.947949 T T T Li+
0.948408 0.639151 0.996561 T T T Li+
0.323408 0.305817 0.954894 T T T Li+
0.281250 0.083333 0.885417 F F F Li+
0.656250 0.750000 0.843750 F F F Li+
0.593750 0.250000 0.906250 F F F Li+
0.968750 0.916667 0.864583 F F F Li+
0.655759 0.416405 0.843717 F F F Li+
0.280759 0.749738 0.885384 F F F Li+
0.551592 0.027516 0.836773 F F F Li+
0.176592 0.360849 0.878439 F F F Li+
0.594241 0.583595 0.906283 F F F Li+
0.969241 0.250262 0.864616 F F F Li+
0.698408 0.972484 0.913227 F F F Li+
0.073408 0.639151 0.871561 F F F Li+
0.031250 0.416667 0.802083 F F F Li+
0.406250 0.083333 0.760417 F F F Li+
0.343750 0.583333 0.822917 F F F Li+
0.718750 0.250000 0.781250 F F F Li+
0.405759 0.749738 0.760384 F F F Li+
0.030759 0.083071 0.802051 F F F Li+
0.301592 0.360849 0.753439 F F F Li+
0.926592 0.694183 0.795106 F F F Li+
0.344241 0.916929 0.822949 F F F Li+
0.719241 0.583595 0.781283 F F F Li+
0.448408 0.305817 0.829894 F F F Li+
0.823408 0.972484 0.788227 F F F Li+
0.781250 0.750000 0.718750 T T T Li+
0.156250 0.416667 0.677083 T T T Li+
0.093750 0.916667 0.739583 T T T Li+
0.468750 0.583333 0.697917 T T T Li+
0.155759 0.083071 0.677051 T T T Li+
0.780759 0.416405 0.718717 T T T Li+
0.051592 0.694183 0.670106 T T T Li+
0.676592 0.027516 0.711773 T T T Li+
0.094241 0.250262 0.739616 F F F Li+
0.469241 0.916929 0.697949 T T T Li+
0.198408 0.639151 0.746561 F F F Li+
0.573408 0.305817 0.704894 T T T Li+
0.739583 0.527778 0.982639 T T T P3+
0.114583 0.194444 0.940972 T T T P3+
0.010417 0.805556 0.934028 T T T P3+
0.635417 0.138889 0.975694 T T T P3+
0.489583 0.861111 0.899306 F F F P3+
0.864583 0.527778 0.857639 F F F P3+
0.760417 0.138889 0.850694 F F F P3+
0.385417 0.472222 0.892361 F F F P3+
0.239583 0.194444 0.815972 F F F P3+
0.614583 0.861111 0.774306 F F F P3+
0.510417 0.472222 0.767361 F F F P3+
0.135417 0.805556 0.809028 F F F P3+
0.989583 0.527778 0.732639 T T T P3+
0.364583 0.194444 0.690972 T T T P3+
0.260417 0.805556 0.684028 T T T P3+
0.885417 0.138889 0.725694 T T T P3+
