Li42 P14 O56
1.0
5.296402 0.000000 0.000000
-0.000000 6.176136 -4.922448
0.000000 0.000000 63.991824
Li P O
42 14 56
direct
0.844520 0.000000 0.052220 Li+
0.155480 0.500000 0.052220 Li+
0.326434 0.747127 0.032687 Li+
0.673566 0.752873 0.071591 Li+
0.673566 0.247127 0.032687 Li+
0.326434 0.252873 0.071591 Li+
0.844520 0.000000 0.129143 Li+
0.155480 0.500000 0.129143 Li+
0.326434 0.747127 0.109610 Li+
0.673566 0.752873 0.148514 Li+
0.673566 0.247127 0.109610 Li+
0.326434 0.252873 0.148514 Li+
0.844520 0.000000 0.206066 Li+
0.155480 0.500000 0.206066 Li+
0.326434 0.747127 0.186534 Li+
0.673566 0.752873 0.225437 Li+
0.673566 0.247127 0.186534 Li+
0.326434 0.252873 0.225437 Li+
0.844520 0.000000 0.282989 Li+
0.155480 0.500000 0.282989 Li+
0.326434 0.747127 0.263457 Li+
0.673566 0.752873 0.302360 Li+
0.673566 0.247127 0.263457 Li+
0.326434 0.252873 0.302360 Li+
0.844520 0.000000 0.359913 Li+
0.155480 0.500000 0.359913 Li+
0.326434 0.747127 0.340380 Li+
0.673566 0.752873 0.379283 Li+
0.673566 0.247127 0.340380 Li+
0.326434 0.252873 0.379283 Li+
0.844520 0.000000 0.436836 Li+
0.155480 0.500000 0.436836 Li+
0.326434 0.747127 0.417303 Li+
0.673566 0.752873 0.456206 Li+
0.673566 0.247127 0.417303 Li+
0.326434 0.252873 0.456206 Li+
0.844520 0.000000 0.513759 Li+
0.155480 0.500000 0.513759 Li+
0.326434 0.747127 0.494226 Li+
0.673566 0.752873 0.533129 Li+
0.673566 0.247127 0.494226 Li+
0.326434 0.252873 0.533129 Li+
0.824261 0.500000 0.013144 P5+
0.175739 0.000000 0.013144 P5+
0.824261 0.500000 0.090067 P5+
0.175739 0.000000 0.090067 P5+
0.824261 0.500000 0.166990 P5+
0.175739 0.000000 0.166990 P5+
0.824261 0.500000 0.243913 P5+
0.175739 0.000000 0.243913 P5+
0.824261 0.500000 0.320836 P5+
0.175739 0.000000 0.320836 P5+
0.824261 0.500000 0.397759 P5+
0.175739 0.000000 0.397759 P5+
0.824261 0.500000 0.474682 P5+
0.175739 0.000000 0.474682 P5+
0.313509 0.207138 0.037200 O2-
0.103508 0.500000 0.020890 O2-
0.818396 0.500000 0.065741 O2-
0.181604 0.000000 0.065741 O2-
0.686491 0.707138 0.037200 O2-
0.313509 0.792862 0.005332 O2-
0.896492 0.000000 0.020890 O2-
0.686491 0.292862 0.005332 O2-
0.313509 0.207138 0.114123 O2-
0.103508 0.500000 0.097813 O2-
0.818396 0.500000 0.142664 O2-
0.181604 0.000000 0.142664 O2-
0.686491 0.707138 0.114123 O2-
0.313509 0.792862 0.082255 O2-
0.896492 0.000000 0.097813 O2-
0.686491 0.292862 0.082255 O2-
0.313509 0.207138 0.191046 O2-
0.103508 0.500000 0.174736 O2-
0.818396 0.500000 0.219587 O2-
0.181604 0.000000 0.219587 O2-
0.686491 0.707138 0.191046 O2-
0.313509 0.792862 0.159178 O2-
0.896492 0.000000 0.174736 O2-
0.686491 0.292862 0.159178 O2-
0.313509 0.207138 0.267969 O2-
0.103508 0.500000 0.251659 O2-
0.818396 0.500000 0.296511 O2-
0.181604 0.000000 0.296511 O2-
0.686491 0.707138 0.267969 O2-
0.313509 0.792862 0.236101 O2-
0.896492 0.000000 0.251659 O2-
0.686491 0.292862 0.236101 O2-
0.313509 0.207138 0.344892 O2-
0.103508 0.500000 0.328582 O2-
0.818396 0.500000 0.373434 O2-
0.181604 0.000000 0.373434 O2-
0.686491 0.707138 0.344892 O2-
0.313509 0.792862 0.313024 O2-
0.896492 0.000000 0.328582 O2-
0.686491 0.292862 0.313024 O2-
0.313509 0.207138 0.421815 O2-
0.103508 0.500000 0.405506 O2-
0.818396 0.500000 0.450357 O2-
0.181604 0.000000 0.450357 O2-
0.686491 0.707138 0.421815 O2-
0.313509 0.792862 0.389948 O2-
0.896492 0.000000 0.405506 O2-
0.686491 0.292862 0.389948 O2-
0.313509 0.207138 0.498738 O2-
0.103508 0.500000 0.482429 O2-
0.818396 0.500000 0.527280 O2-
0.181604 0.000000 0.527280 O2-
0.686491 0.707138 0.498738 O2-
0.313509 0.792862 0.466871 O2-
0.896492 0.000000 0.482429 O2-
0.686491 0.292862 0.466871 O2-
