Li56 P56
1.0
4.970385 0.000000 0.000000
0.000000 9.037780 0.756887
0.000000 0.000000 61.532592
Li P
56 56
Selective dynamics
direct
0.388247 0.329300 0.057973 T T T Li+
0.888247 0.170700 0.032936 T T T Li+
0.611753 0.670700 0.078390 F F F Li+
0.111753 0.829300 0.012519 T T T Li+
0.658316 0.029786 0.085998 T T T Li+
0.158316 0.470214 0.004911 T T T Li+
0.341684 0.970214 0.050365 F F F Li+
0.841684 0.529786 0.040544 T T T Li+
0.388247 0.329300 0.148883 F F F Li+
0.888247 0.170700 0.123845 F F F Li+
0.611753 0.670700 0.169299 F F F Li+
0.111753 0.829300 0.103428 F F F Li+
0.658316 0.029786 0.176907 F F F Li+
0.158316 0.470214 0.095820 F F F Li+
0.341684 0.970214 0.141274 F F F Li+
0.841684 0.529786 0.131453 F F F Li+
0.388247 0.329300 0.239792 F F F Li+
0.888247 0.170700 0.214754 F F F Li+
0.611753 0.670700 0.260208 F F F Li+
0.111753 0.829300 0.194337 F F F Li+
0.658316 0.029786 0.267817 F F F Li+
0.158316 0.470214 0.186729 F F F Li+
0.341684 0.970214 0.232183 F F F Li+
0.841684 0.529786 0.222362 F F F Li+
0.388247 0.329300 0.330701 F F F Li+
0.888247 0.170700 0.305663 F F F Li+
0.611753 0.670700 0.351117 F F F Li+
0.111753 0.829300 0.285246 F F F Li+
0.658316 0.029786 0.358726 F F F Li+
0.158316 0.470214 0.277638 F F F Li+
0.341684 0.970214 0.323093 F F F Li+
0.841684 0.529786 0.313271 F F F Li+
0.388247 0.329300 0.421610 F F F Li+
0.888247 0.170700 0.396572 F F F Li+
0.611753 0.670700 0.442027 F F F Li+
0.111753 0.829300 0.376155 F F F Li+
0.658316 0.029786 0.449635 F F F Li+
0.158316 0.470214 0.368547 F F F Li+
0.341684 0.970214 0.414002 F F F Li+
0.841684 0.529786 0.404180 F F F Li+
0.388247 0.329300 0.512519 F F F Li+
0.888247 0.170700 0.487481 F F F Li+
0.611753 0.670700 0.532936 F F F Li+
0.111753 0.829300 0.467064 F F F Li+
0.658316 0.029786 0.540544 F F F Li+
0.158316 0.470214 0.459456 F F F Li+
0.341684 0.970214 0.504911 F F F Li+
0.841684 0.529786 0.495089 F F F Li+
0.388247 0.329300 0.603428 T T T Li+
0.888247 0.170700 0.578390 F F F Li+
0.611753 0.670700 0.623845 T T T Li+
0.111753 0.829300 0.557973 T T T Li+
0.658316 0.029786 0.631453 T T T Li+
0.158316 0.470214 0.550365 F F F Li+
0.341684 0.970214 0.595820 T T T Li+
0.841684 0.529786 0.585998 T T T Li+
0.894904 0.292916 0.070339 T T T P-
0.394904 0.207084 0.020570 T T T P-
0.105096 0.707084 0.066025 F F F P-
0.605096 0.792916 0.024884 T T T P-
0.156027 0.111742 0.085585 T T T P-
0.656027 0.388258 0.005324 T T T P-
0.843973 0.888258 0.050778 F F F P-
0.343973 0.611742 0.040131 T T T P-
0.894904 0.292916 0.161248 F F F P-
0.394904 0.207084 0.111479 F F F P-
0.105096 0.707084 0.156934 F F F P-
0.605096 0.792916 0.115794 F F F P-
0.156027 0.111742 0.176495 F F F P-
0.656027 0.388258 0.096233 F F F P-
0.843973 0.888258 0.141687 F F F P-
0.343973 0.611742 0.131040 F F F P-
0.894904 0.292916 0.252157 F F F P-
0.394904 0.207084 0.202388 F F F P-
0.105096 0.707084 0.247843 F F F P-
0.605096 0.792916 0.206703 F F F P-
0.156027 0.111742 0.267404 F F F P-
0.656027 0.388258 0.187142 F F F P-
0.843973 0.888258 0.232596 F F F P-
0.343973 0.611742 0.221949 F F F P-
0.894904 0.292916 0.343066 F F F P-
0.394904 0.207084 0.293297 F F F P-
0.105096 0.707084 0.338752 F F F P-
0.605096 0.792916 0.297612 F F F P-
0.156027 0.111742 0.358313 F F F P-
0.656027 0.388258 0.278051 F F F P-
0.843973 0.888258 0.323505 F F F P-
0.343973 0.611742 0.312858 F F F P-
0.894904 0.292916 0.433975 F F F P-
0.394904 0.207084 0.384206 F F F P-
0.105096 0.707084 0.429661 F F F P-
0.605096 0.792916 0.388521 F F F P-
0.156027 0.111742 0.449222 F F F P-
0.656027 0.388258 0.368960 F F F P-
0.843973 0.888258 0.414415 F F F P-
0.343973 0.611742 0.403767 F F F P-
0.894904 0.292916 0.524884 F F F P-
0.394904 0.207084 0.475116 F F F P-
0.105096 0.707084 0.520570 F F F P-
0.605096 0.792916 0.479430 F F F P-
0.156027 0.111742 0.540131 F F F P-
0.656027 0.388258 0.459869 F F F P-
0.843973 0.888258 0.505324 F F F P-
0.343973 0.611742 0.494676 F F F P-
0.894904 0.292916 0.615794 T T T P-
0.394904 0.207084 0.566025 F F F P-
0.105096 0.707084 0.611479 T T T P-
0.605096 0.792916 0.570339 T T T P-
0.156027 0.111742 0.631040 T T T P-
0.656027 0.388258 0.550778 F F F P-
0.843973 0.888258 0.596233 T T T P-
0.343973 0.611742 0.585585 T T T P-
