Li56 P28 O98
1.0
6.730959 0.000000 -2.599490
-2.035903 8.419349 -5.257546
0.000000 0.000000 57.865962
Li P O
56 28 98
Selective dynamics
direct
0.144977 0.012029 0.012143 T T T Li
0.855023 0.987971 0.054404 F F F Li
0.588727 0.248347 0.065334 F F F Li
0.411273 0.751653 0.001213 T T T Li
0.327738 0.208724 0.004269 T T T Li
0.672262 0.791276 0.062278 F F F Li
0.241886 0.549204 0.032569 F F F Li
0.758114 0.450796 0.033978 T T T Li
0.144977 0.012029 0.103052 F F F Li
0.855023 0.987971 0.145313 F F F Li
0.588727 0.248347 0.156244 F F F Li
0.411273 0.751653 0.092122 F F F Li
0.327738 0.208724 0.095179 F F F Li
0.672262 0.791276 0.153187 F F F Li
0.241886 0.549204 0.123478 F F F Li
0.758114 0.450796 0.124887 F F F Li
0.144977 0.012029 0.193961 F F F Li
0.855023 0.987971 0.236222 F F F Li
0.588727 0.248347 0.247153 F F F Li
0.411273 0.751653 0.183031 F F F Li
0.327738 0.208724 0.186088 F F F Li
0.672262 0.791276 0.244096 F F F Li
0.241886 0.549204 0.214387 F F F Li
0.758114 0.450796 0.215796 F F F Li
0.144977 0.012029 0.284870 F F F Li
0.855023 0.987971 0.327131 F F F Li
0.588727 0.248347 0.338062 F F F Li
0.411273 0.751653 0.273940 F F F Li
0.327738 0.208724 0.276997 F F F Li
0.672262 0.791276 0.335005 F F F Li
0.241886 0.549204 0.305296 F F F Li
0.758114 0.450796 0.306705 F F F Li
0.144977 0.012029 0.375780 F F F Li
0.855023 0.987971 0.418040 F F F Li
0.588727 0.248347 0.428971 F F F Li
0.411273 0.751653 0.364849 F F F Li
0.327738 0.208724 0.367906 F F F Li
0.672262 0.791276 0.425914 F F F Li
0.241886 0.549204 0.396206 F F F Li
0.758114 0.450796 0.397614 F F F Li
0.144977 0.012029 0.466689 F F F Li
0.855023 0.987971 0.508949 F F F Li
0.588727 0.248347 0.519880 F F F Li
0.411273 0.751653 0.455758 F F F Li
0.327738 0.208724 0.458815 F F F Li
0.672262 0.791276 0.516823 F F F Li
0.241886 0.549204 0.487115 F F F Li
0.758114 0.450796 0.488523 F F F Li
0.144977 0.012029 0.557598 F F F Li
0.855023 0.987971 0.599858 T T T Li
0.588727 0.248347 0.610789 F F F Li
0.411273 0.751653 0.546667 F F F Li
0.327738 0.208724 0.549724 F F F Li
0.672262 0.791276 0.607732 T T T Li
0.241886 0.549204 0.578024 F F F Li
0.758114 0.450796 0.579432 T T T Li
0.213298 0.368044 0.060006 F F F P
0.786702 0.631956 0.006541 T T T P
0.779241 0.154498 0.021476 T T T P
0.220759 0.845502 0.045071 F F F P
0.213298 0.368044 0.150915 F F F P
0.786702 0.631956 0.097450 F F F P
0.779241 0.154498 0.112385 F F F P
0.220759 0.845502 0.135980 F F F P
0.213298 0.368044 0.241824 F F F P
0.786702 0.631956 0.188360 F F F P
0.779241 0.154498 0.203294 F F F P
0.220759 0.845502 0.226889 F F F P
0.213298 0.368044 0.332733 F F F P
0.786702 0.631956 0.279269 F F F P
0.779241 0.154498 0.294203 F F F P
0.220759 0.845502 0.317798 F F F P
0.213298 0.368044 0.423642 F F F P
0.786702 0.631956 0.370178 F F F P
0.779241 0.154498 0.385112 F F F P
0.220759 0.845502 0.408708 F F F P
0.213298 0.368044 0.514551 F F F P
0.786702 0.631956 0.461087 F F F P
0.779241 0.154498 0.476021 F F F P
0.220759 0.845502 0.499617 F F F P
0.213298 0.368044 0.605460 F F F P
0.786702 0.631956 0.551996 F F F P
0.779241 0.154498 0.566930 F F F P
0.220759 0.845502 0.590526 T T T P
0.741759 0.125660 0.042887 T T T O
0.605720 0.209316 0.006290 T T T O
0.394280 0.790684 0.060257 F F F O
0.848591 0.018024 0.000102 T T T O
0.743350 0.623545 0.068818 F F F O
0.256650 0.376455 0.088639 F F F O
0.732189 0.473810 0.002270 T T T O
0.267811 0.526190 0.064277 F F F O
0.702403 0.763496 0.026480 T T T O
0.297597 0.236504 0.040067 F F F O
0.962384 0.316106 0.040822 F F F O
0.037616 0.683894 0.025725 T T T O
0.151409 0.981976 0.066445 F F F O
0.258241 0.874340 0.023660 F F F O
0.741759 0.125660 0.133796 F F F O
0.605720 0.209316 0.097200 F F F O
0.394280 0.790684 0.151166 F F F O
0.848591 0.018024 0.091011 F F F O
0.743350 0.623545 0.159727 F F F O
0.256650 0.376455 0.179548 F F F O
0.732189 0.473810 0.093180 F F F O
0.267811 0.526190 0.155186 F F F O
0.702403 0.763496 0.117389 F F F O
0.297597 0.236504 0.130976 F F F O
0.962384 0.316106 0.131731 F F F O
0.037616 0.683894 0.116634 F F F O
0.151409 0.981976 0.157354 F F F O
0.258241 0.874340 0.114569 F F F O
0.741759 0.125660 0.224705 F F F O
0.605720 0.209316 0.188109 F F F O
0.394280 0.790684 0.242075 F F F O
0.848591 0.018024 0.181920 F F F O
0.743350 0.623545 0.250636 F F F O
0.256650 0.376455 0.270457 F F F O
0.732189 0.473810 0.184089 F F F O
0.267811 0.526190 0.246095 F F F O
0.702403 0.763496 0.208298 F F F O
0.297597 0.236504 0.221885 F F F O
0.962384 0.316106 0.222641 F F F O
0.037616 0.683894 0.207543 F F F O
0.151409 0.981976 0.248263 F F F O
0.258241 0.874340 0.205478 F F F O
0.741759 0.125660 0.315614 F F F O
0.605720 0.209316 0.279018 F F F O
0.394280 0.790684 0.332984 F F F O
0.848591 0.018024 0.272829 F F F O
0.743350 0.623545 0.341545 F F F O
0.256650 0.376455 0.361366 F F F O
0.732189 0.473810 0.274998 F F F O
0.267811 0.526190 0.337004 F F F O
0.702403 0.763496 0.299208 F F F O
0.297597 0.236504 0.312794 F F F O
0.962384 0.316106 0.313550 F F F O
0.037616 0.683894 0.298452 F F F O
0.151409 0.981976 0.339172 F F F O
0.258241 0.874340 0.296387 F F F O
0.741759 0.125660 0.406523 F F F O
0.605720 0.209316 0.369927 F F F O
0.394280 0.790684 0.423893 F F F O
0.848591 0.018024 0.363738 F F F O
0.743350 0.623545 0.432454 F F F O
0.256650 0.376455 0.452275 F F F O
0.732189 0.473810 0.365907 F F F O
0.267811 0.526190 0.427913 F F F O
0.702403 0.763496 0.390117 F F F O
0.297597 0.236504 0.403703 F F F O
0.962384 0.316106 0.404459 F F F O
0.037616 0.683894 0.389361 F F F O
0.151409 0.981976 0.430081 F F F O
0.258241 0.874340 0.387296 F F F O
0.741759 0.125660 0.497432 F F F O
0.605720 0.209316 0.460836 F F F O
0.394280 0.790684 0.514802 F F F O
0.848591 0.018024 0.454647 F F F O
0.743350 0.623545 0.523363 F F F O
0.256650 0.376455 0.543184 F F F O
0.732189 0.473810 0.456816 F F F O
0.267811 0.526190 0.518822 F F F O
0.702403 0.763496 0.481026 F F F O
0.297597 0.236504 0.494612 F F F O
0.962384 0.316106 0.495368 F F F O
0.037616 0.683894 0.480270 F F F O
0.151409 0.981976 0.520991 F F F O
0.258241 0.874340 0.478206 F F F O
0.741759 0.125660 0.588342 F F F O
0.605720 0.209316 0.551745 F F F O
0.394280 0.790684 0.605711 T T T O
0.848591 0.018024 0.545557 F F F O
0.743350 0.623545 0.614272 T T T O
0.256650 0.376455 0.634093 F F F O
0.732189 0.473810 0.547725 F F F O
0.267811 0.526190 0.609731 F F F O
0.702403 0.763496 0.571935 F F F O
0.297597 0.236504 0.585521 F F F O
0.962384 0.316106 0.586277 F F F O
0.037616 0.683894 0.571179 F F F O
0.151409 0.981976 0.611900 T T T O
0.258241 0.874340 0.569115 T T T O
