Li1 N3
1.0
1.693395 2.869688 0.000378
-1.693395 2.869688 0.000378
0.000000 1.495631 4.810674
Li N
1 3
direct
-0.000000 -0.000000 -0.000000 Li
0.605876 0.605876 0.256533 N
0.394124 0.394124 0.743467 N
0.500000 0.500000 0.500000 N
