Li71 P24 N1 O94                         
   1.00000000000000     
    14.7081743685345465   -0.0091601568906179   -0.0026215385760748
    -0.0065951835658187   10.5693358511926725   -0.0113727787150993
    -0.0021996665306142   -0.0132766347997224   12.3210962750374993
   Li   P    N    O 
    71    24     1    94
Direct
  0.1639581988526309  0.4287497067742723 -0.0192896131376506
  0.1684987367853489  0.4227185466124110  0.5039959376372984
  0.1688155793354340  0.9336743164907366  0.0083295487175942
  0.1693462834953479  0.9225163742074725  0.5003009092271324
  0.5061644209527579  0.4238070334347032 -0.0035914177940556
  0.5036810731551281  0.4224072228945933  0.5007992686030269
  0.5036728530185638  0.9227540672414432 -0.0002990204120650
  0.5027041291456683  0.9228456167293425  0.4997989103190146
  0.8349381754067984  0.4221679887864945 -0.0005249712091550
  0.8351095245478249  0.4229033806275680  0.5003073473398419
  0.8359141585226236  0.9211913056235769 -0.0006908989487109
  0.8357933897271603  0.9190509128963660  0.5000209250825073
  0.0145499949373920  0.0789916731674605  0.2418141404015998
  0.0029606604535082  0.0751656112563145  0.7536672143891833
 -0.0005918799025194  0.5849756913644337  0.2493027244963597
  0.0030203108700287  0.5773348734971682  0.7498561250317033
  0.3340868463270463  0.0767241009387648  0.2455785548546401
  0.3364135455219574  0.0775375202658361  0.7514907036868247
  0.3390040997672772  0.5808427261768481  0.2512262746583769
  0.3362838294719158  0.5770644535757933  0.7500430286645337
  0.6713085349516170  0.0771744589716946  0.2500565749542475
  0.6696683637561708  0.0760756893608859  0.7497166612098179
  0.6696973417498457  0.5793792831319723  0.2500895225524751
  0.6691991940690307  0.5778230238815480  0.7498425691917576
  0.1701054239166214  0.1613900265799727  0.6273125474925276
  0.1690772552278828  0.6655798662609236  0.1248653852101420
  0.1697087156503330  0.6641292359687723  0.6268947340656172
  0.5049816298694045  0.1588555995508562  0.1266160766602017
  0.5024854815871334  0.1626935774035734  0.6261992268219576
  0.5033323573608219  0.6641721278634933  0.1260767163629395
  0.5026758419876286  0.6637014500878747  0.6265189602493733
  0.8399497452495576  0.1622514174961226  0.1257176320088226
  0.8350989620065349  0.1622104921440100  0.6269358846985874
  0.8354291165143485  0.6643951424948521  0.1256156104906701
  0.8357100854300530  0.6625809545238626  0.6266579503312715
  0.0004022205024186  0.3360787925846206  0.1231507718202541
  0.0018808524409290  0.3351805381421825  0.6223062025940286
  0.0034725666328163  0.8389446742902340  0.1240062741344940
  0.0023476359899249  0.8354194435901505  0.6263365957293610
  0.3633317783390818  0.3324531381169509  0.1184149010193100
  0.3365546072096773  0.3360645774747410  0.6235223974181432
  0.3366204004993494  0.8380829187778319  0.1228109740059828
  0.3357234171603722  0.8375072241833132  0.6238600319754819
  0.6689874917688343  0.3360517160688308  0.1229343732002806
  0.6691969982690961  0.3362057968692360  0.6233507176567336
  0.6701779489867414  0.8377305976596117  0.1238181283879057
  0.6690317419777957  0.8366980850180702  0.6233535354227463
 -0.0023370274354492  0.3419594735225268  0.3769344003810461
  0.0007086387702824  0.3345608149053901  0.8750648425010323
  0.0035793391101347  0.8391708031301897  0.3770964308149580
  0.0032311355561312  0.8381262628114243  0.8786323917059836
  0.3383602570880130  0.3361640018380097  0.3779239103742031
  0.3366138554187906  0.3334087556586524  0.8748915787154242
  0.3358495925954927  0.8375261164572341  0.3763543357540603
  0.3359232845528778  0.8384981782936559  0.8776057127990637
  0.6701848932988368  0.3364114879670859  0.3762884436796315
  0.6700778035950983  0.3360190720693182  0.8752727410096538
  0.6698370048113217  0.8374370125007786  0.3761669068272930
  0.6693763265860807  0.8365730934648175  0.8761203544906879
  0.1724110731136244  0.1583845383824526  0.3660415541418133
  0.1678460730682686  0.1614777449487433  0.8776503177348660
  0.1685592222116054  0.6662108462648869  0.3783420074717832
  0.1702612206263956  0.6662926749159712  0.8738998006224890
  0.5025670249597525  0.1620699949898520  0.3734026485536157
  0.5044269520679755  0.1628045269709150  0.8734312952969150
  0.5034243665062911  0.6643087666209455  0.3748484219469077
  0.5022039806909081  0.6641299508198305  0.8730995582914276
  0.8381212334782853  0.1629287632109858  0.3734891526035504
  0.8351841789720311  0.1617693814553392  0.8718589435608455
  0.8354886819397681  0.6640180603733140  0.3744708624920511
  0.8361891706761038  0.6628517069968169  0.8729926048327501
  0.1656891077316737  0.4181756670829671  0.2559350269799966
  0.1665183965354348  0.4115696734801881  0.7481682582202507
  0.1694314459911839  0.9096363089271791  0.2519724318856062
  0.1671736990204695  0.9119675738019535  0.7514954315409971
  0.5004084129184192  0.4132900241447586  0.2509527933850491
  0.5004523365978534  0.4123071046515994  0.7495677932534832
  0.5011716047494043  0.9116159306940033  0.2502466764745013
  0.5003430322855519  0.9120345051402551  0.7496090212369479
  0.8314128427904655  0.4141521532286409  0.2493838242993690
  0.8331710797603905  0.4119171465811969  0.7493342878247053
  0.8349904411475900  0.9122438370061776  0.2503586347985869
  0.8332563020143087  0.9106676206653690  0.7496452381790518
 -0.0028790917008041  0.0895965742420133  0.0002898831277860
 -0.0005154815197580  0.0850425147875320  0.5039859614732680
 -0.0000022144314336  0.5879830582907575 -0.0001105456928320
  0.0000164719538416  0.5885030802399369  0.5004549745760323
  0.3350501691684457  0.0879152370150951 -0.0012900443075153
  0.3332784891482122  0.0882006848128333  0.4997788566710027
  0.3336827341914960  0.5858829732502600  0.0002581787396014
  0.3341845150431930  0.5875584110336969  0.5007923824295822
  0.6678786153229163  0.0875594182006302 -0.0002637445027765
  0.6671222336718522  0.0877186356353872  0.4999062097394247
  0.6666657341588047  0.5882350395957612 -0.0004497763871162
  0.6667110935860789  0.5878670859441647  0.5003611100317402
  0.0339547139622559  0.1640806256569140  0.3984038179544547
  0.0334817202888717  0.1572444290581042  0.8958284771089113
  0.0351844217339088  0.6571341354644155  0.3963976364562812
  0.0360160208089511  0.6565034297305157  0.8963810451493980
  0.3689478267468483  0.1575495932422456  0.3962553073801946
  0.3731359241364250  0.1573404204857462  0.8956933841686909
  0.3696506064710090  0.6570030393433043  0.3973775748339141
  0.3676035503493336  0.6555579057046019  0.8964599224008453
  0.7030036788274932  0.1568550645841507  0.3964566549905258
  0.7021458098042163  0.1564213915159299  0.8953652554894943
  0.7019979573930351  0.6572553986413512  0.3967896146732550
  0.7023533908401232  0.6565457802581212  0.8957685339072762
  0.2055582383555585  0.0458993503324360  0.2548712437109764
  0.2006116540629513  0.0520300761546106  0.7506665064929045
  0.2026443600883688  0.5559195270622400  0.2513784020603994
  0.2001844035254239  0.5516200036739277  0.7500237190115654
  0.5356224457798487  0.0513722067446198  0.2505256071253031
  0.5346156822748418  0.0517398510040932  0.7494034882237265
  0.5343341129709913  0.5528701816399048  0.2502559292826267
  0.5338046779163785  0.5525366290994467  0.7497663371989378
  0.8695238267482073  0.0516620675595285  0.2508012045868117
  0.8670749880120731  0.0505466036888953  0.7489473724778386
  0.8655614833920392  0.5541393937706165  0.2499749388163288
  0.8677173702911513  0.5515452326010377  0.7495848764480270
  0.0605367653653953  0.4145151442964911  0.2492577263747492
  0.0606830064657236  0.4086114354614672  0.7491376439623139
  0.0631863006402436  0.9068915979566208  0.2505784789834093
  0.0612185597354406  0.9082236858208773  0.7519529690723613
  0.3941387692229287  0.4112885800880030  0.2518338276430024
  0.3945493495984585  0.4091579730491726  0.7500090521533065
  0.3954579289375400  0.9086792464784652  0.2500251792499474
  0.3945104574125755  0.9092547966613247  0.7500313183195007
  0.7255431115490777  0.4112817576514846  0.2491099387036670
  0.7273030992035293  0.4099681426255180  0.7491269569333895
  0.7289079991272254  0.9097338518876918  0.2502676769665614
  0.7273325222008317  0.9081824352768733  0.7498704579408578
  0.2309866723758300  0.0910404509050615 -0.0040614267557074
  0.2273940115004486  0.0912358074993073  0.4997155490241715
  0.2274526313061822  0.5853753475312160  0.0009673866034900
  0.2281557105002106  0.5890340330527649  0.5005626540643683
  0.5620313170591259  0.0903052101597175 -0.0000097732532150
  0.5612012062978511  0.0908987853865610  0.4996104870722849
  0.5607163803326883  0.5918030279101663 -0.0006027890231525
  0.5608288182707202  0.5904846694145776  0.5003425517720029
  0.8908346666391921  0.0871754818690594 -0.0047474056508172
  0.8933331848754337  0.0855849462917402  0.5021434710938328
  0.8942502265491670  0.5899954801182345 -0.0004028937322889
  0.8941927198640085  0.5905775885523841  0.5002918925910764
  0.2018996971452894  0.3431069938393703  0.6442760277096486
  0.2040045321355811  0.8397867589628046  0.1475337997005131
  0.2021472446675369  0.8427785112931316  0.6471714519218297
  0.5321833442172512  0.3434660828676641  0.1453539500022235
  0.5354955833319899  0.3431453815433794  0.6456244102590166
  0.5366888938549168  0.8424826747550112  0.1464014187603503
  0.5352670295052498  0.8428778916957517  0.6454384188081763
  0.8669830468413559  0.3455979283698052  0.1456651921179256
  0.8682617456677937  0.3424042631006112  0.6454342118137079
  0.8694815874966858  0.8425224215404372  0.1462769876537756
  0.8680949741241901  0.8408743034391136  0.6458875192437703
  0.0254267662784905  0.1620998218761046  0.1035102270838656
  0.0354716906021141  0.1543606389684061  0.6078003586576601
  0.0351825759013618  0.6569735265890427  0.1039276478054705
  0.0356952378684517  0.6569379323621946  0.6044180883816198
  0.3721315909501925  0.1564516189617703  0.1029960921991347
  0.3685984169429577  0.1571181260145753  0.6040401962541379
  0.3687935229010341  0.6552462164625736  0.1039018914548899
  0.3687644076598495  0.6568481278995802  0.6049281391527531
  0.7032269465500546  0.1571386301459888  0.1035411866450215
  0.7020921850017177  0.1567300019924753  0.6041541087076380
  0.7020263954162890  0.6573114255669475  0.1034281453354766
  0.7020104400021869  0.6567530942411288  0.6043857235209017
  0.0341379782685825  0.4477352259625443 -0.0003417770556607
  0.0341729051229432  0.4487401584821203  0.4999662436438425
  0.0330600569297435  0.9503333797753346  0.0018639607357585
  0.0329367720395069  0.9445934103880661  0.5047808246958416
  0.3681694007680584  0.4460616848797302 -0.0005394696063422
  0.3682338402982199  0.4477687622276230  0.5005473836339179
  0.3703354414072589  0.9480055135906208  0.0000058004581159
  0.3671991324314555  0.9483377041702729  0.4998474468409997
  0.6993184396589019  0.4477745206983531 -0.0002989170730258
  0.7002693718839189  0.4478924894093058  0.4999909731665768
  0.7010288145651918  0.9474163362505643 -0.0002771439106860
  0.7004721062274882  0.9476517667249942  0.4999954548790631
  0.2028867620771989  0.3436215979104972  0.3549138716473229
  0.2023382968481259  0.3417405528176889  0.8513239153922766
  0.2023691955056047  0.8375091977226948  0.3561147117197593
  0.2027401888393802  0.8433804581525906  0.8551533232165865
  0.5359901273265428  0.3431817455665457  0.3535675191513422
  0.5364616624797541  0.3436516166304385  0.8530991944918226
  0.5362836912849258  0.8427234700638647  0.3542263121553825
  0.5358338818031562  0.8427049825909693  0.8531659201385788
  0.8659956046191748  0.3454216468421240  0.3535304948365640
  0.8677148137768474  0.3427370007741344  0.8532867985891817
  0.8695336176072052  0.8421966938582565  0.3540751534756231
  0.8687448714681308  0.8416486409820093  0.8532663036778944
 
  0.00000000E+00  0.00000000E+00  0.00000000E+00
  0.00000000E+00  0.00000000E+00  0.00000000E+00
  0.00000000E+00  0.00000000E+00  0.00000000E+00
  0.00000000E+00  0.00000000E+00  0.00000000E+00
  0.00000000E+00  0.00000000E+00  0.00000000E+00
  0.00000000E+00  0.00000000E+00  0.00000000E+00
  0.00000000E+00  0.00000000E+00  0.00000000E+00
  0.00000000E+00  0.00000000E+00  0.00000000E+00
  0.00000000E+00  0.00000000E+00  0.00000000E+00
  0.00000000E+00  0.00000000E+00  0.00000000E+00
  0.00000000E+00  0.00000000E+00  0.00000000E+00
  0.00000000E+00  0.00000000E+00  0.00000000E+00
  0.00000000E+00  0.00000000E+00  0.00000000E+00
  0.00000000E+00  0.00000000E+00  0.00000000E+00
  0.00000000E+00  0.00000000E+00  0.00000000E+00
  0.00000000E+00  0.00000000E+00  0.00000000E+00
  0.00000000E+00  0.00000000E+00  0.00000000E+00
  0.00000000E+00  0.00000000E+00  0.00000000E+00
  0.00000000E+00  0.00000000E+00  0.00000000E+00
  0.00000000E+00  0.00000000E+00  0.00000000E+00
  0.00000000E+00  0.00000000E+00  0.00000000E+00
  0.00000000E+00  0.00000000E+00  0.00000000E+00
  0.00000000E+00  0.00000000E+00  0.00000000E+00
  0.00000000E+00  0.00000000E+00  0.00000000E+00
  0.00000000E+00  0.00000000E+00  0.00000000E+00
  0.00000000E+00  0.00000000E+00  0.00000000E+00
  0.00000000E+00  0.00000000E+00  0.00000000E+00
  0.00000000E+00  0.00000000E+00  0.00000000E+00
  0.00000000E+00  0.00000000E+00  0.00000000E+00
  0.00000000E+00  0.00000000E+00  0.00000000E+00
  0.00000000E+00  0.00000000E+00  0.00000000E+00
  0.00000000E+00  0.00000000E+00  0.00000000E+00
  0.00000000E+00  0.00000000E+00  0.00000000E+00
  0.00000000E+00  0.00000000E+00  0.00000000E+00
  0.00000000E+00  0.00000000E+00  0.00000000E+00
  0.00000000E+00  0.00000000E+00  0.00000000E+00
  0.00000000E+00  0.00000000E+00  0.00000000E+00
  0.00000000E+00  0.00000000E+00  0.00000000E+00
  0.00000000E+00  0.00000000E+00  0.00000000E+00
  0.00000000E+00  0.00000000E+00  0.00000000E+00
  0.00000000E+00  0.00000000E+00  0.00000000E+00
  0.00000000E+00  0.00000000E+00  0.00000000E+00
  0.00000000E+00  0.00000000E+00  0.00000000E+00
  0.00000000E+00  0.00000000E+00  0.00000000E+00
  0.00000000E+00  0.00000000E+00  0.00000000E+00
  0.00000000E+00  0.00000000E+00  0.00000000E+00
  0.00000000E+00  0.00000000E+00  0.00000000E+00
  0.00000000E+00  0.00000000E+00  0.00000000E+00
  0.00000000E+00  0.00000000E+00  0.00000000E+00
  0.00000000E+00  0.00000000E+00  0.00000000E+00
  0.00000000E+00  0.00000000E+00  0.00000000E+00
  0.00000000E+00  0.00000000E+00  0.00000000E+00
  0.00000000E+00  0.00000000E+00  0.00000000E+00
  0.00000000E+00  0.00000000E+00  0.00000000E+00
  0.00000000E+00  0.00000000E+00  0.00000000E+00
  0.00000000E+00  0.00000000E+00  0.00000000E+00
  0.00000000E+00  0.00000000E+00  0.00000000E+00
  0.00000000E+00  0.00000000E+00  0.00000000E+00
  0.00000000E+00  0.00000000E+00  0.00000000E+00
  0.00000000E+00  0.00000000E+00  0.00000000E+00
  0.00000000E+00  0.00000000E+00  0.00000000E+00
  0.00000000E+00  0.00000000E+00  0.00000000E+00
  0.00000000E+00  0.00000000E+00  0.00000000E+00
  0.00000000E+00  0.00000000E+00  0.00000000E+00
  0.00000000E+00  0.00000000E+00  0.00000000E+00
  0.00000000E+00  0.00000000E+00  0.00000000E+00
  0.00000000E+00  0.00000000E+00  0.00000000E+00
  0.00000000E+00  0.00000000E+00  0.00000000E+00
  0.00000000E+00  0.00000000E+00  0.00000000E+00
  0.00000000E+00  0.00000000E+00  0.00000000E+00
  0.00000000E+00  0.00000000E+00  0.00000000E+00
  0.00000000E+00  0.00000000E+00  0.00000000E+00
  0.00000000E+00  0.00000000E+00  0.00000000E+00
  0.00000000E+00  0.00000000E+00  0.00000000E+00
  0.00000000E+00  0.00000000E+00  0.00000000E+00
  0.00000000E+00  0.00000000E+00  0.00000000E+00
  0.00000000E+00  0.00000000E+00  0.00000000E+00
  0.00000000E+00  0.00000000E+00  0.00000000E+00
  0.00000000E+00  0.00000000E+00  0.00000000E+00
  0.00000000E+00  0.00000000E+00  0.00000000E+00
  0.00000000E+00  0.00000000E+00  0.00000000E+00
  0.00000000E+00  0.00000000E+00  0.00000000E+00
  0.00000000E+00  0.00000000E+00  0.00000000E+00
  0.00000000E+00  0.00000000E+00  0.00000000E+00
  0.00000000E+00  0.00000000E+00  0.00000000E+00
  0.00000000E+00  0.00000000E+00  0.00000000E+00
  0.00000000E+00  0.00000000E+00  0.00000000E+00
  0.00000000E+00  0.00000000E+00  0.00000000E+00
  0.00000000E+00  0.00000000E+00  0.00000000E+00
  0.00000000E+00  0.00000000E+00  0.00000000E+00
  0.00000000E+00  0.00000000E+00  0.00000000E+00
  0.00000000E+00  0.00000000E+00  0.00000000E+00
  0.00000000E+00  0.00000000E+00  0.00000000E+00
  0.00000000E+00  0.00000000E+00  0.00000000E+00
  0.00000000E+00  0.00000000E+00  0.00000000E+00
  0.00000000E+00  0.00000000E+00  0.00000000E+00
  0.00000000E+00  0.00000000E+00  0.00000000E+00
  0.00000000E+00  0.00000000E+00  0.00000000E+00
  0.00000000E+00  0.00000000E+00  0.00000000E+00
  0.00000000E+00  0.00000000E+00  0.00000000E+00
  0.00000000E+00  0.00000000E+00  0.00000000E+00
  0.00000000E+00  0.00000000E+00  0.00000000E+00
  0.00000000E+00  0.00000000E+00  0.00000000E+00
  0.00000000E+00  0.00000000E+00  0.00000000E+00
  0.00000000E+00  0.00000000E+00  0.00000000E+00
  0.00000000E+00  0.00000000E+00  0.00000000E+00
  0.00000000E+00  0.00000000E+00  0.00000000E+00
  0.00000000E+00  0.00000000E+00  0.00000000E+00
  0.00000000E+00  0.00000000E+00  0.00000000E+00
  0.00000000E+00  0.00000000E+00  0.00000000E+00
  0.00000000E+00  0.00000000E+00  0.00000000E+00
  0.00000000E+00  0.00000000E+00  0.00000000E+00
  0.00000000E+00  0.00000000E+00  0.00000000E+00
  0.00000000E+00  0.00000000E+00  0.00000000E+00
  0.00000000E+00  0.00000000E+00  0.00000000E+00
  0.00000000E+00  0.00000000E+00  0.00000000E+00
  0.00000000E+00  0.00000000E+00  0.00000000E+00
  0.00000000E+00  0.00000000E+00  0.00000000E+00
  0.00000000E+00  0.00000000E+00  0.00000000E+00
  0.00000000E+00  0.00000000E+00  0.00000000E+00
  0.00000000E+00  0.00000000E+00  0.00000000E+00
  0.00000000E+00  0.00000000E+00  0.00000000E+00
  0.00000000E+00  0.00000000E+00  0.00000000E+00
  0.00000000E+00  0.00000000E+00  0.00000000E+00
  0.00000000E+00  0.00000000E+00  0.00000000E+00
  0.00000000E+00  0.00000000E+00  0.00000000E+00
  0.00000000E+00  0.00000000E+00  0.00000000E+00
  0.00000000E+00  0.00000000E+00  0.00000000E+00
  0.00000000E+00  0.00000000E+00  0.00000000E+00
  0.00000000E+00  0.00000000E+00  0.00000000E+00
  0.00000000E+00  0.00000000E+00  0.00000000E+00
  0.00000000E+00  0.00000000E+00  0.00000000E+00
  0.00000000E+00  0.00000000E+00  0.00000000E+00
  0.00000000E+00  0.00000000E+00  0.00000000E+00
  0.00000000E+00  0.00000000E+00  0.00000000E+00
  0.00000000E+00  0.00000000E+00  0.00000000E+00
  0.00000000E+00  0.00000000E+00  0.00000000E+00
  0.00000000E+00  0.00000000E+00  0.00000000E+00
  0.00000000E+00  0.00000000E+00  0.00000000E+00
  0.00000000E+00  0.00000000E+00  0.00000000E+00
  0.00000000E+00  0.00000000E+00  0.00000000E+00
  0.00000000E+00  0.00000000E+00  0.00000000E+00
  0.00000000E+00  0.00000000E+00  0.00000000E+00
  0.00000000E+00  0.00000000E+00  0.00000000E+00
  0.00000000E+00  0.00000000E+00  0.00000000E+00
  0.00000000E+00  0.00000000E+00  0.00000000E+00
  0.00000000E+00  0.00000000E+00  0.00000000E+00
  0.00000000E+00  0.00000000E+00  0.00000000E+00
  0.00000000E+00  0.00000000E+00  0.00000000E+00
  0.00000000E+00  0.00000000E+00  0.00000000E+00
  0.00000000E+00  0.00000000E+00  0.00000000E+00
  0.00000000E+00  0.00000000E+00  0.00000000E+00
  0.00000000E+00  0.00000000E+00  0.00000000E+00
  0.00000000E+00  0.00000000E+00  0.00000000E+00
  0.00000000E+00  0.00000000E+00  0.00000000E+00
  0.00000000E+00  0.00000000E+00  0.00000000E+00
  0.00000000E+00  0.00000000E+00  0.00000000E+00
  0.00000000E+00  0.00000000E+00  0.00000000E+00
  0.00000000E+00  0.00000000E+00  0.00000000E+00
  0.00000000E+00  0.00000000E+00  0.00000000E+00
  0.00000000E+00  0.00000000E+00  0.00000000E+00
  0.00000000E+00  0.00000000E+00  0.00000000E+00
  0.00000000E+00  0.00000000E+00  0.00000000E+00
  0.00000000E+00  0.00000000E+00  0.00000000E+00
  0.00000000E+00  0.00000000E+00  0.00000000E+00
  0.00000000E+00  0.00000000E+00  0.00000000E+00
  0.00000000E+00  0.00000000E+00  0.00000000E+00
  0.00000000E+00  0.00000000E+00  0.00000000E+00
  0.00000000E+00  0.00000000E+00  0.00000000E+00
  0.00000000E+00  0.00000000E+00  0.00000000E+00
  0.00000000E+00  0.00000000E+00  0.00000000E+00
  0.00000000E+00  0.00000000E+00  0.00000000E+00
  0.00000000E+00  0.00000000E+00  0.00000000E+00
  0.00000000E+00  0.00000000E+00  0.00000000E+00
  0.00000000E+00  0.00000000E+00  0.00000000E+00
  0.00000000E+00  0.00000000E+00  0.00000000E+00
  0.00000000E+00  0.00000000E+00  0.00000000E+00
  0.00000000E+00  0.00000000E+00  0.00000000E+00
  0.00000000E+00  0.00000000E+00  0.00000000E+00
  0.00000000E+00  0.00000000E+00  0.00000000E+00
  0.00000000E+00  0.00000000E+00  0.00000000E+00
  0.00000000E+00  0.00000000E+00  0.00000000E+00
  0.00000000E+00  0.00000000E+00  0.00000000E+00
  0.00000000E+00  0.00000000E+00  0.00000000E+00
  0.00000000E+00  0.00000000E+00  0.00000000E+00
  0.00000000E+00  0.00000000E+00  0.00000000E+00
  0.00000000E+00  0.00000000E+00  0.00000000E+00
  0.00000000E+00  0.00000000E+00  0.00000000E+00
  0.00000000E+00  0.00000000E+00  0.00000000E+00
  0.00000000E+00  0.00000000E+00  0.00000000E+00
