Li8 P8
1.0
4.970385 0.000000 0.000000
0.000000 5.593872 0.000000
0.000000 4.836985 9.037780
Li P
8 8
direct
0.611753 0.217008 0.670700 Li
0.111753 0.782992 0.829300 Li
0.388247 0.782992 0.329300 Li
0.888247 0.217008 0.170700 Li
0.341684 0.225768 0.970214 Li
0.841684 0.774232 0.529786 Li
0.658316 0.774232 0.029786 Li
0.158316 0.225768 0.470214 Li
0.105096 0.316645 0.707084 P
0.605096 0.683355 0.792916 P
0.894904 0.683355 0.292916 P
0.394904 0.316645 0.207084 P
0.843973 0.303182 0.888258 P
0.343973 0.696818 0.611742 P
0.156027 0.696818 0.111742 P
0.656027 0.303182 0.388258 P
