Li73 P24 N1 O95                         
   1.00000000000000     
    14.7009645799975015    0.0143245896156692    0.0157253509666227
     0.0102627074828462   10.5787120403121300    0.0031776451039822
     0.0130212158227644    0.0036568248608768   12.3358902615983634
   Li   P    N    O 
    73    24     1    95
Direct
  0.1669544289571178  0.4218290912343078  0.9987314058786574
  0.1657863533761737  0.4196019435237459  0.5032668192486878
  0.1641439040223976  0.9260468264916935  0.9997513378887252
  0.1686785923823240  0.9225917847837803  0.4996585631125641
  0.5030354879156107  0.4213449063773766  0.9980242843263969
  0.5050387413379994  0.4213587986959997  0.5034256799150922
  0.5047071985720410  0.9247425092691930  0.9988774328950294
  0.5037559398797808  0.9224011200965933  0.5014339803354372
  0.8378755570249529  0.4209889703615108  0.9991667449214277
  0.8354397499325803  0.4203018181571122  0.5002552186683337
  0.8382476056636438  0.9219187169453321  0.9973766995784055
  0.8368934261976426  0.9233474636378888  0.4991528247169636
  0.0039558545092811  0.0778024469799189  0.2460110033194657
  0.0017150829962825  0.0743991785453283  0.7528852995837565
  0.9997155621467606  0.5787959355656749  0.2485024777186007
  0.0023913388416115  0.5762036468988491  0.7516013912113227
  0.3360068406323571  0.0726561255939080  0.2468503691588811
  0.3355071630908772  0.0770504637235933  0.7521801177852688
  0.3890381391979718  0.6074545072959600  0.2377100412270698
  0.3349176249062179  0.5752710416758474  0.7519392826454975
  0.6730524820664140  0.0771766485347652  0.2468864562030760
  0.6709588800610138  0.0764308109398689  0.7503743115517162
  0.6709072009811753  0.5799371954438952  0.2489488978666787
  0.6707932997916615  0.5759707191449118  0.7503350489682518
  0.1613254783158828  0.1619290946675824  0.1238034387786761
  0.1681881337710558  0.1610827744795644  0.6272933383556708
  0.1682998103875527  0.6658590089935448  0.1250531532476525
  0.1676147568162001  0.6631995281524526  0.6263724800462332
  0.5027415816331482  0.1624848996321867  0.1253296045740401
  0.5034560048729003  0.1617435622427169  0.6272966101044556
  0.5122028426146523  0.6700578262898054  0.1154733777355390
  0.5055888987269682  0.6636377961113289  0.6297259443724800
  0.8556697095122896  0.1612549622973635  0.1239761816908474
  0.8364614445580397  0.1623194203771782  0.6257122681601875
  0.8361208039134413  0.6636921116965340  0.1256072106032766
  0.8359975671282295  0.6622426835137700  0.6266077399932509
  0.0009064704956841  0.3332616543110575  0.1225962105397928
  0.0017308144168676  0.3344581791696457  0.6252731498388251
  0.0026365498155231  0.8421770377794814  0.1210346728234339
  0.0016029905974329  0.8361442998849815  0.6227040735274144
  0.3335807294602050  0.3384150885229024  0.1227245732057078
  0.3352342145256787  0.3333101107637222  0.6259854433602394
  0.3351505506730966  0.8398380221387935  0.1199816817359298
  0.3356412372974402  0.8376646491820942  0.6267379102970707
  0.6726935918301296  0.3345066237239518  0.1228719083690872
  0.6700221398087620  0.3351000591730874  0.6246284267909528
  0.6724398830832952  0.8379738179035028  0.1218714216162228
  0.6699618690962688  0.8363763245777923  0.6229271377953435
  0.9985768804982196  0.3339542080062702  0.3754436519372248
  0.0030197439647553  0.3294477951253709  0.8794074336149019
  0.0002218969275572  0.8375733039901655  0.3758565386155412
  0.0017928071684264  0.8380562659389720  0.8755762208117527
  0.3444470270044844  0.3159396872499070  0.3802984666381491
  0.3356106919348841  0.3361433251519904  0.8767678470658844
  0.3353330977007701  0.8372585158398327  0.3765552479976567
  0.3358124132732332  0.8376992029077615  0.8765991612576671
  0.6696325930666641  0.3363569824871581  0.3766020462611064
  0.6709116172580464  0.3346206030795301  0.8758776971859610
  0.6708307656636155  0.8375635156708191  0.3767938937808820
  0.6708620314026252  0.8363586249938548  0.8757184477124044
  0.1686804740608297  0.1622925084922456  0.3711585824545392
  0.1644429381421215  0.1607812246414814  0.8754766514778549
  0.1622359396449142  0.6701314915419654  0.3728520727581490
  0.1685980997703289  0.6640112378253364  0.8739565311577855
  0.5057419049302468  0.1593698325681737  0.3730709244102005
  0.5037225407384708  0.1625434571077230  0.8737038344131947
  0.5100813309488382  0.6675202862769438  0.3796091498967757
  0.5030935752653687  0.6626863262789868  0.8713175676397708
  0.8354589231050664  0.1626409465034533  0.3722720170939626
  0.8377010297698246  0.1601578534352761  0.8719458848338090
  0.8349432627298435  0.6630623639639824  0.3748627541650693
  0.8371976850628723  0.6622606770581974  0.8723026276711120
  0.2885550542185241  0.5018156688377784  0.3413641458433967
  0.1627155289646001  0.4128265137320392  0.2463352530288842
  0.1663409718997154  0.4112600978443016  0.7499777780753942
  0.1675571329443519  0.9114396398525800  0.2503890640414998
  0.1671310420562742  0.9103630235069219  0.7489341417807619
  0.4971331437825695  0.4142846114060062  0.2515604257618352
  0.5004463669631957  0.4110031510729822  0.7499416816452463
  0.5015830333201436  0.9112918529180575  0.2496047742968160
  0.5007889090110001  0.9118868742783144  0.7503033827421078
  0.8303814153822734  0.4137844085619428  0.2497879186333327
  0.8334941760432407  0.4111389918675347  0.7496782534267767
  0.8323982482100140  0.9107863722359975  0.2507127398721823
  0.8325444316382857  0.9101027396181790  0.7470825227354162
  0.9994118309134757  0.0878021929365597  0.0018802839488300
  0.0004516449177057  0.0879798308234812  0.5000779173629796
 -0.0003057359177415  0.5886169571286946  0.9995698354976112
  0.9985470595193923  0.5861198562491736  0.5000379339302333
  0.3340693155624061  0.0889882966152536  0.9997710575445410
  0.3342413382153904  0.0833715167178853  0.5005374689844059
  0.3353207790155034  0.5891969601404040  0.9970095608655324
  0.3362875732372286  0.5885234611967066  0.5040638853148295
  0.6676918781079167  0.0877789784418810  0.9995083822379383
  0.6665612988913719  0.0875483569835801  0.4997278955403364
  0.6677974909396683  0.5856571615542626  0.9977943235341822
  0.6663366196790248  0.5863023387970950  0.5011811724810424
  0.0300230030260910  0.1580959097922913  0.1071652309909127
  0.0369587661748091  0.1580497908355399  0.3975504526352410
  0.0333517443232279  0.1511512404048950  0.8904742395340999
  0.0328210999585780  0.6561740869774466  0.3961803790248511
  0.0352118652943277  0.6570759806131640  0.8955134229888572
  0.3720399240532984  0.1474442340750605  0.3951959830772141
  0.3700210259255369  0.1583396511491907  0.8962306993513620
  0.3715540973252365  0.6529610877163391  0.3966114778959343
  0.3688750782538492  0.6553477731753810  0.8912051939922837
  0.7003205317266465  0.1569772069340660  0.3954179713368634
  0.7017890318574208  0.1560488829098112  0.8947908544401373
  0.6992522392176298  0.6556907518497130  0.3965079037006931
  0.7034487783408516  0.6553330793459402  0.8949002347797220
  0.2023965166040887  0.0505056809467195  0.2512510297437840
  0.2011821067613557  0.0500464466723555  0.7486980773622856
  0.1952434315634951  0.5543292443157530  0.2497447855112164
  0.2002816506116246  0.5513043749132057  0.7485799389039388
  0.5334371026231556  0.0516250566550690  0.2495179526436709
  0.5346210104711736  0.0514087546346520  0.7499600385717360
  0.5259665157886168  0.5573447024641672  0.2493724589980927
  0.5343368721943332  0.5506313190010749  0.7493934337278546
  0.8651487943897347  0.0501136575474297  0.2527018051488853
  0.8656977848191082  0.0496500967506420  0.7459698632089607
  0.8637043959448104  0.5539008095950835  0.2513312227121733
  0.8669941143670971  0.5510323728423470  0.7489773430149348
  0.0582642397010702  0.4082415141772380  0.2521095106870597
  0.0607065069192607  0.4084190752282250  0.7501880194745925
  0.0620982927820813  0.9059784225428041  0.2520001702558882
  0.0615463254794078  0.9061959970931869  0.7473482410829509
  0.3896959656591384  0.4158189112423052  0.2550497156540908
  0.3943662752156972  0.4086283764606219  0.7495275850869305
  0.3955516013322350  0.9039472432774321  0.2490684787268293
  0.3948385694284056  0.9097217186901170  0.7506347923895432
  0.7239985529798132  0.4115807417761665  0.2508660308495517
  0.7273389538011329  0.4087500759721781  0.7495164057937878
  0.7261907967696629  0.9072420873622833  0.2502156958681434
  0.7264016840441870  0.9075750824736023  0.7480840443824368
  0.2286838455415374  0.0905152804959069  0.9994532549349777
  0.2285921500666769  0.0904681040285912  0.4989395474694087
  0.2297402001424570  0.5926126058375754  0.0008550710699338
  0.2302493225184282  0.5897286869657085  0.4959757453341088
  0.5612046874489538  0.0914336037898790 -0.0001146292721400
  0.5604260028338997  0.0898247093680334  0.5005666312465764
  0.5616871693900586  0.5873857185504104  0.9956063957686503
  0.5600642514874284  0.5889000086499182  0.5028328449631913
  0.8912985189132311  0.0828719341658921  0.9912255892796595
  0.8944635508042333  0.0916056810795955  0.4989098223568506
  0.8936174651002504  0.5913246153737202  0.9994717575604419
  0.8927589326279232  0.5881176098891078  0.5006418254187295
  0.2004798531901655  0.3462579423199685  0.1440094641170986
  0.2020009146559249  0.3422322455185272  0.6457062307920969
  0.2034173184310220  0.8429868804435339  0.1464787179078134
  0.2032378122846784  0.8410808374853156  0.6449070415126797
  0.5310685738613664  0.3458066707612706  0.1481841485398057
  0.5354556442516450  0.3416778495736751  0.6460280460923699
  0.5384005770277366  0.8435569856074504  0.1461198163973083
  0.5356149394769826  0.8425159694537490  0.6461668986167969
  0.8648550915548868  0.3473955449415179  0.1454530234484801
  0.8682533567095133  0.3420572877685598  0.6454991649573507
  0.8677632474272050  0.8417043121679815  0.1472681734458957
  0.8672791809027327  0.8413062610697105  0.6425755040970561
  0.0352395328986689  0.1554556688437053  0.6045796453819021
  0.0344328580131921  0.6576020330072611  0.1035507427195687
  0.0347584562098931  0.6550233258854080  0.6031629551341742
  0.3691168250859865  0.1582335323302309  0.1039356642710174
  0.3696668222740073  0.1550467534815694  0.6026006813490896
  0.3754337615092276  0.6630614635657461  0.0959768284203724
  0.3703641641082773  0.6565706573722334  0.6062387352530193
  0.7023365273189993  0.1564299211153750  0.1030851785144708
  0.7018414086909004  0.1566284219089442  0.6030400574022872
  0.6999745335242389  0.6555351075796797  0.1025455120227083
  0.7017722557971829  0.6555428471072278  0.6040931436059295
  0.0336088399675786  0.4491580116892086  0.9996941285047009
  0.0331476150382859  0.4464109504517890  0.4994459277670203
  0.0321414866369600  0.9431862742588208  0.9950863318143981
  0.0336233433235953  0.9475773433709116  0.4993812258166276
  0.3687520257823190  0.4492178068000670  0.0001669409254430
  0.3670742879750936  0.4468493743479584  0.4989880049487091
  0.3695684752123812  0.9496348436916913 -0.0003632326809975
  0.3670216514775248  0.9432243685088404  0.5022460782400466
  0.7013879779747162  0.4460878232275928  0.9992028104253833
  0.6994393976597377  0.4463829235851517  0.5004239018721504
  0.6999620680908190  0.9471003528422415  0.9988138286162519
  0.7004670565346856  0.9478609778914766  0.4994778011515142
  0.2069280533683227  0.3498264083718447  0.3506684001188298
  0.2025371838282473  0.3429473843470349  0.8533751648324149
  0.2037117379176837  0.8419134417452228  0.3543992945222985
  0.2029820223256121  0.8417714581514593  0.8525164349558882
  0.5323247796688755  0.3463138436340359  0.3550550826142859
  0.5356596665905231  0.3421171696878292  0.8534458911964731
  0.5365316548122487  0.8433960911390629  0.3542413479099656
  0.5360613541333555  0.8420748593804709  0.8535898166729120
  0.8654162048185691  0.3435913569801348  0.3532697844615407
  0.8684752630319698  0.3424436086482547  0.8531372269539929
  0.8667282323555349  0.8410418909536598  0.3549524360254649
  0.8678572782856223  0.8396106254236883  0.8495687623923585
 
  0.00000000E+00  0.00000000E+00  0.00000000E+00
  0.00000000E+00  0.00000000E+00  0.00000000E+00
  0.00000000E+00  0.00000000E+00  0.00000000E+00
  0.00000000E+00  0.00000000E+00  0.00000000E+00
  0.00000000E+00  0.00000000E+00  0.00000000E+00
  0.00000000E+00  0.00000000E+00  0.00000000E+00
  0.00000000E+00  0.00000000E+00  0.00000000E+00
  0.00000000E+00  0.00000000E+00  0.00000000E+00
  0.00000000E+00  0.00000000E+00  0.00000000E+00
  0.00000000E+00  0.00000000E+00  0.00000000E+00
  0.00000000E+00  0.00000000E+00  0.00000000E+00
  0.00000000E+00  0.00000000E+00  0.00000000E+00
  0.00000000E+00  0.00000000E+00  0.00000000E+00
  0.00000000E+00  0.00000000E+00  0.00000000E+00
  0.00000000E+00  0.00000000E+00  0.00000000E+00
  0.00000000E+00  0.00000000E+00  0.00000000E+00
  0.00000000E+00  0.00000000E+00  0.00000000E+00
  0.00000000E+00  0.00000000E+00  0.00000000E+00
  0.00000000E+00  0.00000000E+00  0.00000000E+00
  0.00000000E+00  0.00000000E+00  0.00000000E+00
  0.00000000E+00  0.00000000E+00  0.00000000E+00
  0.00000000E+00  0.00000000E+00  0.00000000E+00
  0.00000000E+00  0.00000000E+00  0.00000000E+00
  0.00000000E+00  0.00000000E+00  0.00000000E+00
  0.00000000E+00  0.00000000E+00  0.00000000E+00
  0.00000000E+00  0.00000000E+00  0.00000000E+00
  0.00000000E+00  0.00000000E+00  0.00000000E+00
  0.00000000E+00  0.00000000E+00  0.00000000E+00
  0.00000000E+00  0.00000000E+00  0.00000000E+00
  0.00000000E+00  0.00000000E+00  0.00000000E+00
  0.00000000E+00  0.00000000E+00  0.00000000E+00
  0.00000000E+00  0.00000000E+00  0.00000000E+00
  0.00000000E+00  0.00000000E+00  0.00000000E+00
  0.00000000E+00  0.00000000E+00  0.00000000E+00
  0.00000000E+00  0.00000000E+00  0.00000000E+00
  0.00000000E+00  0.00000000E+00  0.00000000E+00
  0.00000000E+00  0.00000000E+00  0.00000000E+00
  0.00000000E+00  0.00000000E+00  0.00000000E+00
  0.00000000E+00  0.00000000E+00  0.00000000E+00
  0.00000000E+00  0.00000000E+00  0.00000000E+00
  0.00000000E+00  0.00000000E+00  0.00000000E+00
  0.00000000E+00  0.00000000E+00  0.00000000E+00
  0.00000000E+00  0.00000000E+00  0.00000000E+00
  0.00000000E+00  0.00000000E+00  0.00000000E+00
  0.00000000E+00  0.00000000E+00  0.00000000E+00
  0.00000000E+00  0.00000000E+00  0.00000000E+00
  0.00000000E+00  0.00000000E+00  0.00000000E+00
  0.00000000E+00  0.00000000E+00  0.00000000E+00
  0.00000000E+00  0.00000000E+00  0.00000000E+00
  0.00000000E+00  0.00000000E+00  0.00000000E+00
  0.00000000E+00  0.00000000E+00  0.00000000E+00
  0.00000000E+00  0.00000000E+00  0.00000000E+00
  0.00000000E+00  0.00000000E+00  0.00000000E+00
  0.00000000E+00  0.00000000E+00  0.00000000E+00
  0.00000000E+00  0.00000000E+00  0.00000000E+00
  0.00000000E+00  0.00000000E+00  0.00000000E+00
  0.00000000E+00  0.00000000E+00  0.00000000E+00
  0.00000000E+00  0.00000000E+00  0.00000000E+00
  0.00000000E+00  0.00000000E+00  0.00000000E+00
  0.00000000E+00  0.00000000E+00  0.00000000E+00
  0.00000000E+00  0.00000000E+00  0.00000000E+00
  0.00000000E+00  0.00000000E+00  0.00000000E+00
  0.00000000E+00  0.00000000E+00  0.00000000E+00
  0.00000000E+00  0.00000000E+00  0.00000000E+00
  0.00000000E+00  0.00000000E+00  0.00000000E+00
  0.00000000E+00  0.00000000E+00  0.00000000E+00
  0.00000000E+00  0.00000000E+00  0.00000000E+00
  0.00000000E+00  0.00000000E+00  0.00000000E+00
  0.00000000E+00  0.00000000E+00  0.00000000E+00
  0.00000000E+00  0.00000000E+00  0.00000000E+00
  0.00000000E+00  0.00000000E+00  0.00000000E+00
  0.00000000E+00  0.00000000E+00  0.00000000E+00
  0.00000000E+00  0.00000000E+00  0.00000000E+00
  0.00000000E+00  0.00000000E+00  0.00000000E+00
  0.00000000E+00  0.00000000E+00  0.00000000E+00
  0.00000000E+00  0.00000000E+00  0.00000000E+00
  0.00000000E+00  0.00000000E+00  0.00000000E+00
  0.00000000E+00  0.00000000E+00  0.00000000E+00
  0.00000000E+00  0.00000000E+00  0.00000000E+00
  0.00000000E+00  0.00000000E+00  0.00000000E+00
  0.00000000E+00  0.00000000E+00  0.00000000E+00
  0.00000000E+00  0.00000000E+00  0.00000000E+00
  0.00000000E+00  0.00000000E+00  0.00000000E+00
  0.00000000E+00  0.00000000E+00  0.00000000E+00
  0.00000000E+00  0.00000000E+00  0.00000000E+00
  0.00000000E+00  0.00000000E+00  0.00000000E+00
  0.00000000E+00  0.00000000E+00  0.00000000E+00
  0.00000000E+00  0.00000000E+00  0.00000000E+00
  0.00000000E+00  0.00000000E+00  0.00000000E+00
  0.00000000E+00  0.00000000E+00  0.00000000E+00
  0.00000000E+00  0.00000000E+00  0.00000000E+00
  0.00000000E+00  0.00000000E+00  0.00000000E+00
  0.00000000E+00  0.00000000E+00  0.00000000E+00
  0.00000000E+00  0.00000000E+00  0.00000000E+00
  0.00000000E+00  0.00000000E+00  0.00000000E+00
  0.00000000E+00  0.00000000E+00  0.00000000E+00
  0.00000000E+00  0.00000000E+00  0.00000000E+00
  0.00000000E+00  0.00000000E+00  0.00000000E+00
  0.00000000E+00  0.00000000E+00  0.00000000E+00
  0.00000000E+00  0.00000000E+00  0.00000000E+00
  0.00000000E+00  0.00000000E+00  0.00000000E+00
  0.00000000E+00  0.00000000E+00  0.00000000E+00
  0.00000000E+00  0.00000000E+00  0.00000000E+00
  0.00000000E+00  0.00000000E+00  0.00000000E+00
  0.00000000E+00  0.00000000E+00  0.00000000E+00
  0.00000000E+00  0.00000000E+00  0.00000000E+00
  0.00000000E+00  0.00000000E+00  0.00000000E+00
  0.00000000E+00  0.00000000E+00  0.00000000E+00
  0.00000000E+00  0.00000000E+00  0.00000000E+00
  0.00000000E+00  0.00000000E+00  0.00000000E+00
  0.00000000E+00  0.00000000E+00  0.00000000E+00
  0.00000000E+00  0.00000000E+00  0.00000000E+00
  0.00000000E+00  0.00000000E+00  0.00000000E+00
  0.00000000E+00  0.00000000E+00  0.00000000E+00
  0.00000000E+00  0.00000000E+00  0.00000000E+00
  0.00000000E+00  0.00000000E+00  0.00000000E+00
  0.00000000E+00  0.00000000E+00  0.00000000E+00
  0.00000000E+00  0.00000000E+00  0.00000000E+00
  0.00000000E+00  0.00000000E+00  0.00000000E+00
  0.00000000E+00  0.00000000E+00  0.00000000E+00
  0.00000000E+00  0.00000000E+00  0.00000000E+00
  0.00000000E+00  0.00000000E+00  0.00000000E+00
  0.00000000E+00  0.00000000E+00  0.00000000E+00
  0.00000000E+00  0.00000000E+00  0.00000000E+00
  0.00000000E+00  0.00000000E+00  0.00000000E+00
  0.00000000E+00  0.00000000E+00  0.00000000E+00
  0.00000000E+00  0.00000000E+00  0.00000000E+00
  0.00000000E+00  0.00000000E+00  0.00000000E+00
  0.00000000E+00  0.00000000E+00  0.00000000E+00
  0.00000000E+00  0.00000000E+00  0.00000000E+00
  0.00000000E+00  0.00000000E+00  0.00000000E+00
  0.00000000E+00  0.00000000E+00  0.00000000E+00
  0.00000000E+00  0.00000000E+00  0.00000000E+00
  0.00000000E+00  0.00000000E+00  0.00000000E+00
  0.00000000E+00  0.00000000E+00  0.00000000E+00
  0.00000000E+00  0.00000000E+00  0.00000000E+00
  0.00000000E+00  0.00000000E+00  0.00000000E+00
  0.00000000E+00  0.00000000E+00  0.00000000E+00
  0.00000000E+00  0.00000000E+00  0.00000000E+00
  0.00000000E+00  0.00000000E+00  0.00000000E+00
  0.00000000E+00  0.00000000E+00  0.00000000E+00
  0.00000000E+00  0.00000000E+00  0.00000000E+00
  0.00000000E+00  0.00000000E+00  0.00000000E+00
  0.00000000E+00  0.00000000E+00  0.00000000E+00
  0.00000000E+00  0.00000000E+00  0.00000000E+00
  0.00000000E+00  0.00000000E+00  0.00000000E+00
  0.00000000E+00  0.00000000E+00  0.00000000E+00
  0.00000000E+00  0.00000000E+00  0.00000000E+00
  0.00000000E+00  0.00000000E+00  0.00000000E+00
  0.00000000E+00  0.00000000E+00  0.00000000E+00
  0.00000000E+00  0.00000000E+00  0.00000000E+00
  0.00000000E+00  0.00000000E+00  0.00000000E+00
  0.00000000E+00  0.00000000E+00  0.00000000E+00
  0.00000000E+00  0.00000000E+00  0.00000000E+00
  0.00000000E+00  0.00000000E+00  0.00000000E+00
  0.00000000E+00  0.00000000E+00  0.00000000E+00
  0.00000000E+00  0.00000000E+00  0.00000000E+00
  0.00000000E+00  0.00000000E+00  0.00000000E+00
  0.00000000E+00  0.00000000E+00  0.00000000E+00
  0.00000000E+00  0.00000000E+00  0.00000000E+00
  0.00000000E+00  0.00000000E+00  0.00000000E+00
  0.00000000E+00  0.00000000E+00  0.00000000E+00
  0.00000000E+00  0.00000000E+00  0.00000000E+00
  0.00000000E+00  0.00000000E+00  0.00000000E+00
  0.00000000E+00  0.00000000E+00  0.00000000E+00
  0.00000000E+00  0.00000000E+00  0.00000000E+00
  0.00000000E+00  0.00000000E+00  0.00000000E+00
  0.00000000E+00  0.00000000E+00  0.00000000E+00
  0.00000000E+00  0.00000000E+00  0.00000000E+00
  0.00000000E+00  0.00000000E+00  0.00000000E+00
  0.00000000E+00  0.00000000E+00  0.00000000E+00
  0.00000000E+00  0.00000000E+00  0.00000000E+00
  0.00000000E+00  0.00000000E+00  0.00000000E+00
  0.00000000E+00  0.00000000E+00  0.00000000E+00
  0.00000000E+00  0.00000000E+00  0.00000000E+00
  0.00000000E+00  0.00000000E+00  0.00000000E+00
  0.00000000E+00  0.00000000E+00  0.00000000E+00
  0.00000000E+00  0.00000000E+00  0.00000000E+00
  0.00000000E+00  0.00000000E+00  0.00000000E+00
  0.00000000E+00  0.00000000E+00  0.00000000E+00
  0.00000000E+00  0.00000000E+00  0.00000000E+00
  0.00000000E+00  0.00000000E+00  0.00000000E+00
  0.00000000E+00  0.00000000E+00  0.00000000E+00
  0.00000000E+00  0.00000000E+00  0.00000000E+00
  0.00000000E+00  0.00000000E+00  0.00000000E+00
  0.00000000E+00  0.00000000E+00  0.00000000E+00
  0.00000000E+00  0.00000000E+00  0.00000000E+00
  0.00000000E+00  0.00000000E+00  0.00000000E+00
  0.00000000E+00  0.00000000E+00  0.00000000E+00
  0.00000000E+00  0.00000000E+00  0.00000000E+00
  0.00000000E+00  0.00000000E+00  0.00000000E+00
  0.00000000E+00  0.00000000E+00  0.00000000E+00
  0.00000000E+00  0.00000000E+00  0.00000000E+00
