Li73 P24 N1 O95                         
   1.00000000000000     
    14.7114980157437198    0.0117113357074956    0.0113821075845625
     0.0084003994043136   10.5651741209886687    0.0022040850845076
     0.0093807997256390    0.0025160590486833   12.3412081392438786
   Li   P    N    O 
    73    24     1    95
Direct
  0.1667145018951567  0.4212678697484856 -0.0004985879839070
  0.1653517149530767  0.4206379467985339  0.5021244210521142
  0.1643338823214907  0.9257718751914055 -0.0002367173525013
  0.1680760028853427  0.9214748011815358  0.5003384862994571
  0.5028623537147613  0.4212075883824083 -0.0029102140066341
  0.5028860074976490  0.4205496614822537  0.5032043261068508
  0.5049421722191326  0.9240454617389111 -0.0014490098093406
  0.5034424251449923  0.9234443080865564  0.5013552818219739
  0.8384611144026503  0.4208511167640465 -0.0008189828073414
  0.8362777930387630  0.4202571003380610  0.5003191040209727
  0.8387312460788020  0.9221778263456745 -0.0025387574753398
  0.8362616312284800  0.9227628641747319  0.4994715794706355
  0.0034745935391520  0.0773187772063270  0.2457785643428238
  0.0018032689165838  0.0748910247683111  0.7530650103472044
 -0.0000472912582575  0.5800650257900620  0.2485511300456220
  0.0026615813549833  0.5762007189522199  0.7517957659854355
  0.3368399499556427  0.0718555238192296  0.2471985325258280
  0.3357625793648840  0.0766187592997331  0.7520887707946108
  0.3994761524654183  0.6273451552263019  0.2409419834223168
  0.3347258752871642  0.5751543727206676  0.7517948736761700
  0.6732412064676073  0.0770955523608725  0.2472052124438066
  0.6711650939676421  0.0767425487341429  0.7505012316597199
  0.6705212636679367  0.5804035432695441  0.2490239470534539
  0.6712693659744163  0.5764662492051752  0.7503448947136883
  0.1615377234841346  0.1613899412155980  0.1243164399125358
  0.1679089994916725  0.1611799103893726  0.6272262568527788
  0.1683588695605939  0.6650923971734847  0.1256326596091703
  0.1667367815042562  0.6634061686352432  0.6277351087867570
  0.5035061902518067  0.1639516531400462  0.1253440623592635
  0.5035635934594354  0.1613736261080522  0.6268532001239290
  0.5147179676685091  0.6695512644625620  0.1115401274621132
  0.5048025145032650  0.6630672559978217  0.6295471570324652
  0.8559291983494441  0.1611575452191934  0.1243192567193672
  0.8360695258477978  0.1624711396404517  0.6262156403909183
  0.8358511566253723  0.6631471877485644  0.1253263746691959
  0.8359237967559819  0.6624609458225328  0.6270748769700523
  0.0003316811705462  0.3331772912182278  0.1222710769653031
  0.0017270114345580  0.3343204280672010  0.6255568820280973
  0.0030802892615582  0.8419682330710272  0.1206968947750603
  0.0011749212077279  0.8361321092776495  0.6234160419359465
  0.3324700492306829  0.3378206708434057  0.1228082939119456
  0.3343002120410998  0.3326723693853816  0.6257385071565782
  0.3340101049911220  0.8395439012492827  0.1190979403077216
  0.3354378918959237  0.8363597092449188  0.6270070905100174
  0.6726137535278128  0.3354486405248521  0.1228479046698061
  0.6701486958978735  0.3354480265035023  0.6242034104441500
  0.6736004194928374  0.8373706375797435  0.1218402272726016
  0.6696641975831655  0.8370571759841362  0.6234291432643562
 -0.0021618075592103  0.3338227269044600  0.3754692616723947
  0.0029414592035327  0.3293177005739026  0.8791429282159662
  0.0003143597419578  0.8373830219285154  0.3765018747241902
  0.0020796277379149  0.8381489680916167  0.8754749908497679
  0.3406405869395795  0.3158528567836856  0.3806015662223403
  0.3358959116219496  0.3357662753644528  0.8760705857971668
  0.3335795510746968  0.8376224081246468  0.3775653957673784
  0.3358219850759189  0.8373247636023922  0.8763447829540455
  0.6691912332939970  0.3373361773057599  0.3763138738732633
  0.6711138141674023  0.3348038751444986  0.8757914307635403
  0.6714979857596440  0.8373765702228512  0.3771777921199452
  0.6711963013988127  0.8367386371973269  0.8756470536142358
  0.1680398237772329  0.1619555552449280  0.3715110548970006
  0.1649889410992582  0.1606725330178045  0.8756163841959981
  0.1618402379882190  0.6687083930486304  0.3739868742911677
  0.1689077542269235  0.6639140459471766  0.8748899491350307
  0.5051569310530676  0.1610471198294795  0.3725361980841438
  0.5044425398219269  0.1618892220447218  0.8732349082218878
  0.5127539636905910  0.6674251497907038  0.3835834385926167
  0.5028267646813708  0.6623441459253627  0.8696480425828940
  0.8354418146677905  0.1624310366171592  0.3726510718017659
  0.8374935504084172  0.1601739864522271  0.8723307635010686
  0.8343313642798894  0.6628181776434965  0.3749860522496707
  0.8382152701653307  0.6628456880812581  0.8725910769779333
  0.2945236171398212  0.5052956321345081  0.3290351921225789
  0.1611082560177902  0.4129630884762505  0.2472874548268184
  0.1663500211436275  0.4111925368321785  0.7503346859742012
  0.1672144648642194  0.9109526327570096  0.2508377978676785
  0.1671706889242081  0.9104708239960698  0.7493489831113017
  0.4965150997454315  0.4155604745297783  0.2508584121352511
  0.5004226725583970  0.4104954469900367  0.7492287580132102
  0.5019057667906631  0.9098477180829980  0.2495824703332685
  0.5008209820000428  0.9114411814172568  0.7498869018775851
  0.8302604828169630  0.4141327040685157  0.2498006849696072
  0.8334214798946807  0.4112072492417679  0.7499282697365096
  0.8324975324769172  0.9102422444377833  0.2508761765268240
  0.8324649843583897  0.9104310774265230  0.7473811699618791
 -0.0001994653986514  0.0878587248341677  0.0019822863154859
 -0.0000413321664354  0.0876454286556771  0.5002430041106011
 -0.0000077312483915  0.5887268107736530 -0.0005128075872925
 -0.0021249949950628  0.5863523746351413  0.5004866799820923
  0.3347381899022040  0.0880633419588308 -0.0003932948070611
  0.3337944332513507  0.0830763464579445  0.5004961728887989
  0.3356767439913236  0.5889303438523329 -0.0026868601615586
  0.3344407929806066  0.5875834143580130  0.5036684566170302
  0.6676993101959541  0.0876165826302068 -0.0001369592053946
  0.6662143462186690  0.0879613904473133  0.4994718821082513
  0.6686464860074721  0.5854722016086573 -0.0034566801160056
  0.6666885609198592  0.5857289717281277  0.5020070744135957
  0.0304256962309213  0.1578648675992989  0.1074061427093338
  0.0360350920664860  0.1575874773813993  0.3975551340452249
  0.0338693612723827  0.1511908898197779  0.8907328585211660
  0.0324695450239433  0.6564579355396816  0.3969830647852653
  0.0352842901080425  0.6571718679590771  0.8954068835739284
  0.3713463050825503  0.1473369876595131  0.3952114500308039
  0.3708044378215491  0.1575310479112796  0.8962157005890292
  0.3702299505549521  0.6527107800617121  0.3964334437013626
  0.3685915184203842  0.6552734888412034  0.8912829108245576
  0.7002929860126675  0.1574062497958395  0.3953851241331322
  0.7016414660459612  0.1561469001851930  0.8952409371269612
  0.6982299749116794  0.6554490086126442  0.3968468371643564
  0.7048594817006145  0.6560366243813894  0.8945590552005939
  0.2027764610700409  0.0498758126918364  0.2519320078740300
  0.2014697707787400  0.0501841463730767  0.7487889963144344
  0.1924267531448498  0.5547143095811495  0.2502688374202390
  0.2000628438911960  0.5515980782860602  0.7494011364862071
  0.5323362583331198  0.0508311517511789  0.2495345672994479
  0.5347856497715707  0.0509939404869230  0.7494387846179253
  0.5247546659964696  0.5592021717242098  0.2494574470200218
  0.5344653299953586  0.5502359023729287  0.7488044257590678
  0.8651884368927286  0.0497700018929240  0.2527694077899791
  0.8654754802343826  0.0502006333770588  0.7462176151015055
  0.8636397758732407  0.5544138820023140  0.2512861840784081
  0.8669165101059747  0.5512563201525902  0.7493452847350935
  0.0567357045444692  0.4076437167377324  0.2526893177295627
  0.0608274791482789  0.4081497123106486  0.7505770081681270
  0.0617997606713870  0.9059463524658802  0.2520529690337764
  0.0616837929111139  0.9065728541448476  0.7474472834121114
  0.3895328424653767  0.4138245471774913  0.2539035815774457
  0.3943959708872356  0.4082224698814463  0.7488451937471035
  0.3959081531500487  0.8997954949331798  0.2489666048062241
  0.3949576929239076  0.9091167670648157  0.7504931414660115
  0.7239277165874368  0.4121616862940434  0.2507044756839600
  0.7273413027013497  0.4087825098731816  0.7494046555653603
  0.7264065717436824  0.9067487185698389  0.2503053510864549
  0.7264403654751187  0.9078634517524642  0.7482319402351422
  0.2294538640624711  0.0902366347043230 -0.0002687667582221
  0.2283031096909114  0.0901676346807866  0.4990042056914545
  0.2301630938855287  0.5924666646823920  0.0018529343959696
  0.2288181363261096  0.5910898039406292  0.4975611504305832
  0.5613701158189043  0.0908906278382238  0.0000936707717009
  0.5601351976790646  0.0906455689821558  0.4997508539047108
  0.5626600312969717  0.5864360553239123 -0.0073766328943564
  0.5604799327833369  0.5867596238342747  0.5046326362972584
  0.8917876362269596  0.0832525282157278 -0.0087286933017722
  0.8940478936783792  0.0910863737504133  0.4994249872302456
  0.8940254259425930  0.5913275573893039 -0.0002136678564291
  0.8921282982086515  0.5890124484632075  0.5008700965424876
  0.1995185781646317  0.3463711373230048  0.1452522351757202
  0.2016430531208859  0.3425664440086191  0.6457858983717584
  0.2029853817279651  0.8424790451919776  0.1468857250883761
  0.2032404443880773  0.8407876055707615  0.6455735909210455
  0.5322840710551245  0.3484644689019177  0.1476009313905241
  0.5352333908108667  0.3412642165338129  0.6452596218619060
  0.5394677024749797  0.8424663913084828  0.1463209525731273
  0.5352511171046973  0.8422045955201246  0.6455769130878777
  0.8645965649006887  0.3474743691719887  0.1456218950975674
  0.8682516559378424  0.3421217471562840  0.6459064528299442
  0.8678293588947341  0.8412026641054158  0.1474239734142426
  0.8669682808568578  0.8415087154511699  0.6430006629409879
  0.0349097757017608  0.1553366315759119  0.6045367661558418
  0.0349814826772903  0.6578225514184224  0.1032370776662582
  0.0340715713194055  0.6549052013920125  0.6038290361080714
  0.3699909721549976  0.1568664004451676  0.1038564666195830
  0.3693665453372778  0.1547237514621375  0.6024889705413166
  0.3765201091879711  0.6630910079157930  0.0956791126451853
  0.3701301011536998  0.6555949158849309  0.6053816253110538
  0.7019189538825810  0.1564369871896177  0.1035778272744562
  0.7012456202494538  0.1566985049152851  0.6030510793496224
  0.6993187385853415  0.6551431020919450  0.1020945943423083
  0.7020270903501823  0.6561648688070690  0.6042637059453944
  0.0337573377520465  0.4490075550553951 -0.0004128945506538
  0.0320034873012996  0.4463066840904284  0.4997563564790301
  0.0323079509224709  0.9430798420600144 -0.0050266678675136
  0.0333456721220166  0.9471645409480517  0.4998504571140118
  0.3690102565076466  0.4487371493614659 -0.0000098920086537
  0.3653554737558750  0.4460856020959458  0.4981018972962490
  0.3697319882539419  0.9482452043210424 -0.0009410585171347
  0.3668096170560945  0.9428778271998371  0.5021355249937636
  0.7025016230387017  0.4460031278089643 -0.0015856752743031
  0.7006947827488087  0.4462609068262879  0.5008040122953188
  0.7003742531869613  0.9469588738627968 -0.0009844908774368
  0.6999787564490005  0.9480628690043085  0.4996712025979381
  0.2058699698707699  0.3501936989581043  0.3512226245764083
  0.2029412346039027  0.3427402085717258  0.8534625571451407
  0.2027911757661163  0.8410232142427569  0.3547876058252682
  0.2029241808623127  0.8418884997200172  0.8530230622236563
  0.5328960917815211  0.3484083454251616  0.3542217258568536
  0.5358089026326295  0.3413484624835088  0.8524466840626261
  0.5373451088108662  0.8426354003822849  0.3543079441637732
  0.5363957862591833  0.8414426719464564  0.8529429665606070
  0.8651183598264419  0.3437543559132321  0.3531203094550298
  0.8683746828811435  0.3423127271912553  0.8533176286134397
  0.8666125729055568  0.8405278364684071  0.3551364276804529
  0.8679876614914932  0.8400271159643121  0.8497933599785263
 
  0.00000000E+00  0.00000000E+00  0.00000000E+00
  0.00000000E+00  0.00000000E+00  0.00000000E+00
  0.00000000E+00  0.00000000E+00  0.00000000E+00
  0.00000000E+00  0.00000000E+00  0.00000000E+00
  0.00000000E+00  0.00000000E+00  0.00000000E+00
  0.00000000E+00  0.00000000E+00  0.00000000E+00
  0.00000000E+00  0.00000000E+00  0.00000000E+00
  0.00000000E+00  0.00000000E+00  0.00000000E+00
  0.00000000E+00  0.00000000E+00  0.00000000E+00
  0.00000000E+00  0.00000000E+00  0.00000000E+00
  0.00000000E+00  0.00000000E+00  0.00000000E+00
  0.00000000E+00  0.00000000E+00  0.00000000E+00
  0.00000000E+00  0.00000000E+00  0.00000000E+00
  0.00000000E+00  0.00000000E+00  0.00000000E+00
  0.00000000E+00  0.00000000E+00  0.00000000E+00
  0.00000000E+00  0.00000000E+00  0.00000000E+00
  0.00000000E+00  0.00000000E+00  0.00000000E+00
  0.00000000E+00  0.00000000E+00  0.00000000E+00
  0.00000000E+00  0.00000000E+00  0.00000000E+00
  0.00000000E+00  0.00000000E+00  0.00000000E+00
  0.00000000E+00  0.00000000E+00  0.00000000E+00
  0.00000000E+00  0.00000000E+00  0.00000000E+00
  0.00000000E+00  0.00000000E+00  0.00000000E+00
  0.00000000E+00  0.00000000E+00  0.00000000E+00
  0.00000000E+00  0.00000000E+00  0.00000000E+00
  0.00000000E+00  0.00000000E+00  0.00000000E+00
  0.00000000E+00  0.00000000E+00  0.00000000E+00
  0.00000000E+00  0.00000000E+00  0.00000000E+00
  0.00000000E+00  0.00000000E+00  0.00000000E+00
  0.00000000E+00  0.00000000E+00  0.00000000E+00
  0.00000000E+00  0.00000000E+00  0.00000000E+00
  0.00000000E+00  0.00000000E+00  0.00000000E+00
  0.00000000E+00  0.00000000E+00  0.00000000E+00
  0.00000000E+00  0.00000000E+00  0.00000000E+00
  0.00000000E+00  0.00000000E+00  0.00000000E+00
  0.00000000E+00  0.00000000E+00  0.00000000E+00
  0.00000000E+00  0.00000000E+00  0.00000000E+00
  0.00000000E+00  0.00000000E+00  0.00000000E+00
  0.00000000E+00  0.00000000E+00  0.00000000E+00
  0.00000000E+00  0.00000000E+00  0.00000000E+00
  0.00000000E+00  0.00000000E+00  0.00000000E+00
  0.00000000E+00  0.00000000E+00  0.00000000E+00
  0.00000000E+00  0.00000000E+00  0.00000000E+00
  0.00000000E+00  0.00000000E+00  0.00000000E+00
  0.00000000E+00  0.00000000E+00  0.00000000E+00
  0.00000000E+00  0.00000000E+00  0.00000000E+00
  0.00000000E+00  0.00000000E+00  0.00000000E+00
  0.00000000E+00  0.00000000E+00  0.00000000E+00
  0.00000000E+00  0.00000000E+00  0.00000000E+00
  0.00000000E+00  0.00000000E+00  0.00000000E+00
  0.00000000E+00  0.00000000E+00  0.00000000E+00
  0.00000000E+00  0.00000000E+00  0.00000000E+00
  0.00000000E+00  0.00000000E+00  0.00000000E+00
  0.00000000E+00  0.00000000E+00  0.00000000E+00
  0.00000000E+00  0.00000000E+00  0.00000000E+00
  0.00000000E+00  0.00000000E+00  0.00000000E+00
  0.00000000E+00  0.00000000E+00  0.00000000E+00
  0.00000000E+00  0.00000000E+00  0.00000000E+00
  0.00000000E+00  0.00000000E+00  0.00000000E+00
  0.00000000E+00  0.00000000E+00  0.00000000E+00
  0.00000000E+00  0.00000000E+00  0.00000000E+00
  0.00000000E+00  0.00000000E+00  0.00000000E+00
  0.00000000E+00  0.00000000E+00  0.00000000E+00
  0.00000000E+00  0.00000000E+00  0.00000000E+00
  0.00000000E+00  0.00000000E+00  0.00000000E+00
  0.00000000E+00  0.00000000E+00  0.00000000E+00
  0.00000000E+00  0.00000000E+00  0.00000000E+00
  0.00000000E+00  0.00000000E+00  0.00000000E+00
  0.00000000E+00  0.00000000E+00  0.00000000E+00
  0.00000000E+00  0.00000000E+00  0.00000000E+00
  0.00000000E+00  0.00000000E+00  0.00000000E+00
  0.00000000E+00  0.00000000E+00  0.00000000E+00
  0.00000000E+00  0.00000000E+00  0.00000000E+00
  0.00000000E+00  0.00000000E+00  0.00000000E+00
  0.00000000E+00  0.00000000E+00  0.00000000E+00
  0.00000000E+00  0.00000000E+00  0.00000000E+00
  0.00000000E+00  0.00000000E+00  0.00000000E+00
  0.00000000E+00  0.00000000E+00  0.00000000E+00
  0.00000000E+00  0.00000000E+00  0.00000000E+00
  0.00000000E+00  0.00000000E+00  0.00000000E+00
  0.00000000E+00  0.00000000E+00  0.00000000E+00
  0.00000000E+00  0.00000000E+00  0.00000000E+00
  0.00000000E+00  0.00000000E+00  0.00000000E+00
  0.00000000E+00  0.00000000E+00  0.00000000E+00
  0.00000000E+00  0.00000000E+00  0.00000000E+00
  0.00000000E+00  0.00000000E+00  0.00000000E+00
  0.00000000E+00  0.00000000E+00  0.00000000E+00
  0.00000000E+00  0.00000000E+00  0.00000000E+00
  0.00000000E+00  0.00000000E+00  0.00000000E+00
  0.00000000E+00  0.00000000E+00  0.00000000E+00
  0.00000000E+00  0.00000000E+00  0.00000000E+00
  0.00000000E+00  0.00000000E+00  0.00000000E+00
  0.00000000E+00  0.00000000E+00  0.00000000E+00
  0.00000000E+00  0.00000000E+00  0.00000000E+00
  0.00000000E+00  0.00000000E+00  0.00000000E+00
  0.00000000E+00  0.00000000E+00  0.00000000E+00
  0.00000000E+00  0.00000000E+00  0.00000000E+00
  0.00000000E+00  0.00000000E+00  0.00000000E+00
  0.00000000E+00  0.00000000E+00  0.00000000E+00
  0.00000000E+00  0.00000000E+00  0.00000000E+00
  0.00000000E+00  0.00000000E+00  0.00000000E+00
  0.00000000E+00  0.00000000E+00  0.00000000E+00
  0.00000000E+00  0.00000000E+00  0.00000000E+00
  0.00000000E+00  0.00000000E+00  0.00000000E+00
  0.00000000E+00  0.00000000E+00  0.00000000E+00
  0.00000000E+00  0.00000000E+00  0.00000000E+00
  0.00000000E+00  0.00000000E+00  0.00000000E+00
  0.00000000E+00  0.00000000E+00  0.00000000E+00
  0.00000000E+00  0.00000000E+00  0.00000000E+00
  0.00000000E+00  0.00000000E+00  0.00000000E+00
  0.00000000E+00  0.00000000E+00  0.00000000E+00
  0.00000000E+00  0.00000000E+00  0.00000000E+00
  0.00000000E+00  0.00000000E+00  0.00000000E+00
  0.00000000E+00  0.00000000E+00  0.00000000E+00
  0.00000000E+00  0.00000000E+00  0.00000000E+00
  0.00000000E+00  0.00000000E+00  0.00000000E+00
  0.00000000E+00  0.00000000E+00  0.00000000E+00
  0.00000000E+00  0.00000000E+00  0.00000000E+00
  0.00000000E+00  0.00000000E+00  0.00000000E+00
  0.00000000E+00  0.00000000E+00  0.00000000E+00
  0.00000000E+00  0.00000000E+00  0.00000000E+00
  0.00000000E+00  0.00000000E+00  0.00000000E+00
  0.00000000E+00  0.00000000E+00  0.00000000E+00
  0.00000000E+00  0.00000000E+00  0.00000000E+00
  0.00000000E+00  0.00000000E+00  0.00000000E+00
  0.00000000E+00  0.00000000E+00  0.00000000E+00
  0.00000000E+00  0.00000000E+00  0.00000000E+00
  0.00000000E+00  0.00000000E+00  0.00000000E+00
  0.00000000E+00  0.00000000E+00  0.00000000E+00
  0.00000000E+00  0.00000000E+00  0.00000000E+00
  0.00000000E+00  0.00000000E+00  0.00000000E+00
  0.00000000E+00  0.00000000E+00  0.00000000E+00
  0.00000000E+00  0.00000000E+00  0.00000000E+00
  0.00000000E+00  0.00000000E+00  0.00000000E+00
  0.00000000E+00  0.00000000E+00  0.00000000E+00
  0.00000000E+00  0.00000000E+00  0.00000000E+00
  0.00000000E+00  0.00000000E+00  0.00000000E+00
  0.00000000E+00  0.00000000E+00  0.00000000E+00
  0.00000000E+00  0.00000000E+00  0.00000000E+00
  0.00000000E+00  0.00000000E+00  0.00000000E+00
  0.00000000E+00  0.00000000E+00  0.00000000E+00
  0.00000000E+00  0.00000000E+00  0.00000000E+00
  0.00000000E+00  0.00000000E+00  0.00000000E+00
  0.00000000E+00  0.00000000E+00  0.00000000E+00
  0.00000000E+00  0.00000000E+00  0.00000000E+00
  0.00000000E+00  0.00000000E+00  0.00000000E+00
  0.00000000E+00  0.00000000E+00  0.00000000E+00
  0.00000000E+00  0.00000000E+00  0.00000000E+00
  0.00000000E+00  0.00000000E+00  0.00000000E+00
  0.00000000E+00  0.00000000E+00  0.00000000E+00
  0.00000000E+00  0.00000000E+00  0.00000000E+00
  0.00000000E+00  0.00000000E+00  0.00000000E+00
  0.00000000E+00  0.00000000E+00  0.00000000E+00
  0.00000000E+00  0.00000000E+00  0.00000000E+00
  0.00000000E+00  0.00000000E+00  0.00000000E+00
  0.00000000E+00  0.00000000E+00  0.00000000E+00
  0.00000000E+00  0.00000000E+00  0.00000000E+00
  0.00000000E+00  0.00000000E+00  0.00000000E+00
  0.00000000E+00  0.00000000E+00  0.00000000E+00
  0.00000000E+00  0.00000000E+00  0.00000000E+00
  0.00000000E+00  0.00000000E+00  0.00000000E+00
  0.00000000E+00  0.00000000E+00  0.00000000E+00
  0.00000000E+00  0.00000000E+00  0.00000000E+00
  0.00000000E+00  0.00000000E+00  0.00000000E+00
  0.00000000E+00  0.00000000E+00  0.00000000E+00
  0.00000000E+00  0.00000000E+00  0.00000000E+00
  0.00000000E+00  0.00000000E+00  0.00000000E+00
  0.00000000E+00  0.00000000E+00  0.00000000E+00
  0.00000000E+00  0.00000000E+00  0.00000000E+00
  0.00000000E+00  0.00000000E+00  0.00000000E+00
  0.00000000E+00  0.00000000E+00  0.00000000E+00
  0.00000000E+00  0.00000000E+00  0.00000000E+00
  0.00000000E+00  0.00000000E+00  0.00000000E+00
  0.00000000E+00  0.00000000E+00  0.00000000E+00
  0.00000000E+00  0.00000000E+00  0.00000000E+00
  0.00000000E+00  0.00000000E+00  0.00000000E+00
  0.00000000E+00  0.00000000E+00  0.00000000E+00
  0.00000000E+00  0.00000000E+00  0.00000000E+00
  0.00000000E+00  0.00000000E+00  0.00000000E+00
  0.00000000E+00  0.00000000E+00  0.00000000E+00
  0.00000000E+00  0.00000000E+00  0.00000000E+00
  0.00000000E+00  0.00000000E+00  0.00000000E+00
  0.00000000E+00  0.00000000E+00  0.00000000E+00
  0.00000000E+00  0.00000000E+00  0.00000000E+00
  0.00000000E+00  0.00000000E+00  0.00000000E+00
  0.00000000E+00  0.00000000E+00  0.00000000E+00
  0.00000000E+00  0.00000000E+00  0.00000000E+00
  0.00000000E+00  0.00000000E+00  0.00000000E+00
  0.00000000E+00  0.00000000E+00  0.00000000E+00
  0.00000000E+00  0.00000000E+00  0.00000000E+00
  0.00000000E+00  0.00000000E+00  0.00000000E+00
  0.00000000E+00  0.00000000E+00  0.00000000E+00
  0.00000000E+00  0.00000000E+00  0.00000000E+00
