Li1                                     
   1.00000000000000     
    -2.1062530000000002    1.7134090000000000    1.7134090000000000
     2.1062530000000002   -1.7134090000000000    1.7134090000000000
     1.3205650000000000    1.7134090000000000   -1.7134090000000000
   Li
     1
Direct
  0.0000000000000000  0.0000000000000000  0.0000000000000000
 
  0.00000000E+00  0.00000000E+00  0.00000000E+00
