Li71 P24 N1 O94                         
   1.00000000000000     
    14.6937208039881817   -0.0029888215350477    0.0069942567402646
    -0.0021375278129585   10.5656950886655707   -0.0044601649207558
     0.0058527546561646   -0.0052050135385526   12.3184021215892088
   Li   P    N    O 
    71    24     1    94
Direct
  0.1669161098971195  0.4203300857193860 -0.0097912253497402
  0.1697170588315261  0.4230571824682575  0.5050197417564715
  0.1688223398701979  0.9312467078330828  0.0069811644912809
  0.1710024443260156  0.9219870383014678  0.5002483086678873
  0.5035081045559867  0.4214289935512712 -0.0005392987521634
  0.5033977791722303  0.4219704804161020  0.5003511509697502
  0.5040487517489841  0.9233073759031554 -0.0001359734773129
  0.5027790886304803  0.9228184629655959  0.4998262387515700
  0.8368073800836999  0.4228585233602706 -0.0009110778747101
  0.8346778977452129  0.4223864757920678  0.5010407206305799
  0.8358423352495454  0.9201984109126086 -0.0013310591974433
  0.8363250933585100  0.9224348980216820  0.4999869518388277
  0.0084847045907432  0.0754580440270602  0.2465726477747170
  0.0037802588368371  0.0769786823636277  0.7516317285801200
 -0.0053676163604413  0.6101372530207626  0.2495716907310637
  0.0035109744640272  0.5786542481234007  0.7503856671416630
  0.3322734514118095  0.0777922072682320  0.2448478344300530
  0.3362440600814750  0.0778390134111296  0.7519953804590226
  0.3396489004183846  0.5795709607351088  0.2501715210163766
  0.3367011071005901  0.5777293733140281  0.7506427111831150
  0.6706821393008932  0.0770260923159566  0.2492506273643700
  0.6697650705006710  0.0769279807811445  0.7498776953844200
  0.6691380685694817  0.5772877032023926  0.2497566876078607
  0.6690910119673666  0.5782335172475891  0.7501707572055839
  0.1698888271299294  0.1627366279877829  0.6271960451506555
  0.1702236634181267  0.6645819586564298  0.1247757692840942
  0.1703451377319987  0.6643411629389127  0.6274179065776316
  0.5024244205132009  0.1621922586001300  0.1260236742143368
  0.5027189832561019  0.1630419189066591  0.6267106541986176
  0.5025226098811038  0.6636239600872408  0.1259039657895792
  0.5027698192161290  0.6637222639004153  0.6265843787934688
  0.8409476680884086  0.1617916443772212  0.1250505683075453
  0.8362194456004242  0.1629663132441464  0.6261763916752475
  0.8341598857169568  0.6641781463874125  0.1252510723879703
  0.8357151306980533  0.6636314836677278  0.6267751020717066
  0.0075486717699842  0.3304086463760418  0.1113853495180334
  0.0025562449409939  0.3361910271000709  0.6255669390306270
  0.0041101960665582  0.8399344531615481  0.1221119842504179
  0.0030297608277280  0.8368482648201028  0.6244053783175428
  0.3381415183464511  0.3327093447275691  0.1203882947135126
  0.3367144323601055  0.3359887072685416  0.6241733207735863
  0.3365825622976746  0.8383408812530030  0.1223280403891131
  0.3361918565551382  0.8373720510724696  0.6239338055645108
  0.6700768420591081  0.3359078292360329  0.1236087885468267
  0.6690805043264623  0.3366883126289351  0.6237651042257882
  0.6693335576410891  0.8370556013099840  0.1237836489678714
  0.6693512967692682  0.8371233295720781  0.6232436791067192
 -0.0007845915690640  0.3289168190509427  0.3896181683641723
  0.0018384773236762  0.3352078753349167  0.8741101593898498
  0.0033819163347395  0.8394653511545628  0.3782172776828208
  0.0033880523284040  0.8382892839510682  0.8766423125155759
  0.3392766920398056  0.3352410186464276  0.3776489038677588
  0.3369013537452085  0.3340566252422715  0.8764420930512425
  0.3355199522160212  0.8372663701867362  0.3758851987757865
  0.3359116143289181  0.8383975412684034  0.8776305927488514
  0.6694711636058673  0.3365769780646631  0.3754557067555889
  0.6698246329039379  0.3367315686700903  0.8760881812547991
  0.6690488714334049  0.8371580678476078  0.3761592619408973
  0.6695812904988281  0.8370463814120082  0.8760384500411890
  0.1702913263792146  0.1574251370870703  0.3718460254668978
  0.1685297408644788  0.1624265202061724  0.8786916305736014
  0.1684096956816951  0.6655318871385220  0.3793283130535959
  0.1703014453735857  0.6648480286733303  0.8741461488303801
  0.5024484789023927  0.1623204759377123  0.3730231419722704
  0.5041654974595571  0.1628986198262042  0.8739269652673469
  0.5029349907723198  0.6638438570546854  0.3739378582537228
  0.5024393413978461  0.6636490898273072  0.8738157775534817
  0.8365826539084453  0.1617923986408244  0.3724069285107838
  0.8355547985647935  0.1622692404250715  0.8715803215742907
  0.8341494018883746  0.6641772128821891  0.3755109641235048
  0.8359160098000354  0.6638317364916221  0.8727758272416056
  0.1669052326203653  0.4155331309526580  0.2567200537471712
  0.1671534265560450  0.4123491892290415  0.7490247577438892
  0.1681953155021406  0.9092895611977218  0.2528312506786575
  0.1670374219442362  0.9123405330729588  0.7504890169503564
  0.5000944246373339  0.4118844317445115  0.2498144347019995
  0.5005407318046436  0.4125115350396354  0.7499354405208944
  0.5006132062884999  0.9121389271225457  0.2500283806834001
  0.5007050855982242  0.9119653633119653  0.7496928490803439
  0.8367518594541198  0.4134978197052537  0.2495788597187482
  0.8335070841852688  0.4128194314187529  0.7495379492925760
  0.8345101778841257  0.9111505359050374  0.2502994843000420
  0.8340037521816234  0.9116572480076066  0.7488745706591591
 -0.0031004194460534  0.0874109790397953  0.0003604518421255
  0.0005719899328914  0.0873537634720177  0.5005605360054389
 -0.0005439738927095  0.5884126848222448 -0.0006886663920544
 -0.0005943818951499  0.5873118785792781  0.4999246694212001
  0.3349076870711600  0.0869409727052566 -0.0016382230260884
  0.3336342370969506  0.0878888740953529  0.5002913953433188
  0.3337236594927099  0.5865791942962811 -0.0000973830560326
  0.3339511583043567  0.5874159418607797  0.5005665194959864
  0.6683664279063796  0.0880839101603828  0.0000158519622512
  0.6673777706827879  0.0883931302951357  0.4997506531089878
  0.6670198723655999  0.5876490137025905  0.0001121077900998
  0.6666574945702236  0.5876569772405871  0.4998470298112791
  0.1965130935176798  0.3556605672642238  0.1402702668140765
  0.0361733147306481  0.1562520080767994  0.3964273889087850
  0.0337933098468713  0.1576837320342183  0.8973764843685774
  0.0344191664265933  0.6560150774245016  0.3954914428082069
  0.0356241006731603  0.6580507590045858  0.8965632981452419
  0.3687677659097705  0.1574122066333090  0.3965145598914213
  0.3727532949648542  0.1568105328649686  0.8951213711987629
  0.3690375421526261  0.6563017598371227  0.3965574852676255
  0.3684540339268049  0.6569396430282489  0.8964121709145585
  0.7031284674311260  0.1576191718815523  0.3959794221351635
  0.7026981042446909  0.1568288158192937  0.8953956042052928
  0.7018075742267602  0.6566010692478809  0.3957284227303446
  0.7026021221583161  0.6569666895378564  0.8965075540637608
  0.2029264707328059  0.0460662199070161  0.2580429076031235
  0.1999370504049267  0.0525496420846869  0.7500214920365161
  0.1991296897314024  0.5564602515203521  0.2549700396843952
  0.2006909762303963  0.5524559824502397  0.7498215292225348
  0.5353013358656736  0.0517546795182816  0.2500407324154206
  0.5349744174922735  0.0517392583152396  0.7495839801368740
  0.5334749644122284  0.5521884240796390  0.2500433245535398
  0.5341058277924678  0.5527183154679023  0.7498227733608378
  0.8684718178852303  0.0507076388167818  0.2504776518253390
  0.8679218710194592  0.0514897697004449  0.7482803087021004
  0.8693145562378164  0.5544052947739556  0.2508529280533456
  0.8678786672513138  0.5525858189858542  0.7496597107624116
  0.0610098774505396  0.4102050116008034  0.7493741303552912
  0.0616156899959917  0.9048704087436631  0.2510942667539959
  0.0608614457923666  0.9088623350404922  0.7499144303797658
  0.3939431530788111  0.4086672319359595  0.2496807678517935
  0.3945840118971802  0.4095865118989141  0.7501663890202092
  0.3948029795604357  0.9093901563949087  0.2499091538282070
  0.3947863446884884  0.9091106792844996  0.7499628999314865
  0.7309494306476029  0.4092359248047869  0.2495944348576758
  0.7276017616424419  0.4105686741840817  0.7494017483168145
  0.7285136240948373  0.9082302691696483  0.2501931147120251
  0.7280276514478371  0.9089712767888422  0.7493478455548216
  0.2308046975327517  0.0868968020983755 -0.0055580864229893
  0.2276877426189587  0.0905543383392028  0.5011198102730137
  0.2275361535478682  0.5880174347337181 -0.0001508997767201
  0.2278374833185937  0.5894212152570093  0.5012662887506109
  0.5625309846564757  0.0914022257219607  0.0008238246917583
  0.5614568141262494  0.0913371880633429  0.4996738216514519
  0.5611126741689861  0.5902206570250946 -0.0000723935368793
  0.5607963541426493  0.5903554857239461  0.5000949580753743
  0.8905539187894163  0.0858224491081096 -0.0053093798618480
  0.8946055970506355  0.0907795293984316  0.4995443888378258
  0.8936210651178621  0.5924451360147119 -0.0000923553633689
  0.8936600910860821  0.5895645304104377  0.5003233553778005
  0.2021050215512201  0.3436827313308141  0.6448051972146779
  0.2032296892620552  0.8406622757381256  0.1480996632491870
  0.2023323597547536  0.8431782633679280  0.6461780827534278
  0.5361238200300575  0.3430145257757363  0.1462521643188289
  0.5357248097445902  0.3433825433936464  0.6458437788524172
  0.5363165993542777  0.8424278759293683  0.1464572618208498
  0.5358402745238904  0.8429102414581067  0.6454432878319959
  0.8742066664892021  0.3462150513874757  0.1461597598592559
  0.8688943951679617  0.3435048104497690  0.6455561611769133
  0.8700091103119665  0.8411183986833974  0.1467648434252004
  0.8690761750673398  0.8423689241872945  0.6447390582863223
  0.0241069237040060  0.1564803013024553  0.1057610564985514
  0.0354263260931579  0.1575631800466961  0.6040316024800977
  0.0355568665949491  0.6551895628091774  0.1043971709436641
  0.0356530578517499  0.6561664989569318  0.6030084077274015
  0.3707131182447940  0.1565234838708925  0.1023444449015284
  0.3691710110624836  0.1567769650474531  0.6042921187316388
  0.3683288046053568  0.6558477167935606  0.1041471323369890
  0.3690676495799378  0.6567079055089734  0.6042626640196327
  0.7047758157280003  0.1573382575310453  0.1034547697145984
  0.7027013853289458  0.1573752755717704  0.6037493154925143
  0.7020222459775212  0.6566519733636060  0.1043353957743385
  0.7023635802987572  0.6568073356124300  0.6034517529925842
  0.0321502158037867  0.4481712531782150 -0.0024884771799486
  0.0339080518779369  0.4473038682680834  0.4988451659029577
  0.0328457685105157  0.9482355779867152  0.0000253214662390
  0.0344181186962457  0.9477363566069414  0.5009872887801549
  0.3686125200354795  0.4472934917296796 -0.0007632820959490
  0.3676644238368653  0.4473516619718862  0.5001747354902101
  0.3714198316350708  0.9473297296298242 -0.0002618432466217
  0.3674512693986991  0.9479065714617037  0.4998390482714998
  0.7012120386164102  0.4477774628130169  0.0002765904524840
  0.7005186669219314  0.4475932162153736  0.4993790190057459
  0.7012372255037423  0.9475670603518634 -0.0001011730322970
  0.7011653860216065  0.9483745598736365  0.4995694056592339
  0.1991445005833269  0.3421379714686486  0.3594053827227382
  0.2025361414955529  0.3421759676230485  0.8516848068812456
  0.2014054024019911  0.8365009443974728  0.3566728673604123
  0.2021055859128929  0.8429779960940984  0.8539249465486902
  0.5354468163493892  0.3431173599399192  0.3537812517151338
  0.5365012801199694  0.3437107544226404  0.8534258107879044
  0.5357439236683885  0.8430225915731885  0.3541415823075444
  0.5364290875061117  0.8426044425524295  0.8531505614624024
  0.8725579785899659  0.3443031099871300  0.3533926686676830
  0.8684940594803543  0.3434112549805648  0.8531961335114224
  0.8696302557498000  0.8416489721938484  0.3543150338317760
  0.8693510666475548  0.8419909162139134  0.8522450478777904
 
  0.00000000E+00  0.00000000E+00  0.00000000E+00
  0.00000000E+00  0.00000000E+00  0.00000000E+00
  0.00000000E+00  0.00000000E+00  0.00000000E+00
  0.00000000E+00  0.00000000E+00  0.00000000E+00
  0.00000000E+00  0.00000000E+00  0.00000000E+00
  0.00000000E+00  0.00000000E+00  0.00000000E+00
  0.00000000E+00  0.00000000E+00  0.00000000E+00
  0.00000000E+00  0.00000000E+00  0.00000000E+00
  0.00000000E+00  0.00000000E+00  0.00000000E+00
  0.00000000E+00  0.00000000E+00  0.00000000E+00
  0.00000000E+00  0.00000000E+00  0.00000000E+00
  0.00000000E+00  0.00000000E+00  0.00000000E+00
  0.00000000E+00  0.00000000E+00  0.00000000E+00
  0.00000000E+00  0.00000000E+00  0.00000000E+00
  0.00000000E+00  0.00000000E+00  0.00000000E+00
  0.00000000E+00  0.00000000E+00  0.00000000E+00
  0.00000000E+00  0.00000000E+00  0.00000000E+00
  0.00000000E+00  0.00000000E+00  0.00000000E+00
  0.00000000E+00  0.00000000E+00  0.00000000E+00
  0.00000000E+00  0.00000000E+00  0.00000000E+00
  0.00000000E+00  0.00000000E+00  0.00000000E+00
  0.00000000E+00  0.00000000E+00  0.00000000E+00
  0.00000000E+00  0.00000000E+00  0.00000000E+00
  0.00000000E+00  0.00000000E+00  0.00000000E+00
  0.00000000E+00  0.00000000E+00  0.00000000E+00
  0.00000000E+00  0.00000000E+00  0.00000000E+00
  0.00000000E+00  0.00000000E+00  0.00000000E+00
  0.00000000E+00  0.00000000E+00  0.00000000E+00
  0.00000000E+00  0.00000000E+00  0.00000000E+00
  0.00000000E+00  0.00000000E+00  0.00000000E+00
  0.00000000E+00  0.00000000E+00  0.00000000E+00
  0.00000000E+00  0.00000000E+00  0.00000000E+00
  0.00000000E+00  0.00000000E+00  0.00000000E+00
  0.00000000E+00  0.00000000E+00  0.00000000E+00
  0.00000000E+00  0.00000000E+00  0.00000000E+00
  0.00000000E+00  0.00000000E+00  0.00000000E+00
  0.00000000E+00  0.00000000E+00  0.00000000E+00
  0.00000000E+00  0.00000000E+00  0.00000000E+00
  0.00000000E+00  0.00000000E+00  0.00000000E+00
  0.00000000E+00  0.00000000E+00  0.00000000E+00
  0.00000000E+00  0.00000000E+00  0.00000000E+00
  0.00000000E+00  0.00000000E+00  0.00000000E+00
  0.00000000E+00  0.00000000E+00  0.00000000E+00
  0.00000000E+00  0.00000000E+00  0.00000000E+00
  0.00000000E+00  0.00000000E+00  0.00000000E+00
  0.00000000E+00  0.00000000E+00  0.00000000E+00
  0.00000000E+00  0.00000000E+00  0.00000000E+00
  0.00000000E+00  0.00000000E+00  0.00000000E+00
  0.00000000E+00  0.00000000E+00  0.00000000E+00
  0.00000000E+00  0.00000000E+00  0.00000000E+00
  0.00000000E+00  0.00000000E+00  0.00000000E+00
  0.00000000E+00  0.00000000E+00  0.00000000E+00
  0.00000000E+00  0.00000000E+00  0.00000000E+00
  0.00000000E+00  0.00000000E+00  0.00000000E+00
  0.00000000E+00  0.00000000E+00  0.00000000E+00
  0.00000000E+00  0.00000000E+00  0.00000000E+00
  0.00000000E+00  0.00000000E+00  0.00000000E+00
  0.00000000E+00  0.00000000E+00  0.00000000E+00
  0.00000000E+00  0.00000000E+00  0.00000000E+00
  0.00000000E+00  0.00000000E+00  0.00000000E+00
  0.00000000E+00  0.00000000E+00  0.00000000E+00
  0.00000000E+00  0.00000000E+00  0.00000000E+00
  0.00000000E+00  0.00000000E+00  0.00000000E+00
  0.00000000E+00  0.00000000E+00  0.00000000E+00
  0.00000000E+00  0.00000000E+00  0.00000000E+00
  0.00000000E+00  0.00000000E+00  0.00000000E+00
  0.00000000E+00  0.00000000E+00  0.00000000E+00
  0.00000000E+00  0.00000000E+00  0.00000000E+00
  0.00000000E+00  0.00000000E+00  0.00000000E+00
  0.00000000E+00  0.00000000E+00  0.00000000E+00
  0.00000000E+00  0.00000000E+00  0.00000000E+00
  0.00000000E+00  0.00000000E+00  0.00000000E+00
  0.00000000E+00  0.00000000E+00  0.00000000E+00
  0.00000000E+00  0.00000000E+00  0.00000000E+00
  0.00000000E+00  0.00000000E+00  0.00000000E+00
  0.00000000E+00  0.00000000E+00  0.00000000E+00
  0.00000000E+00  0.00000000E+00  0.00000000E+00
  0.00000000E+00  0.00000000E+00  0.00000000E+00
  0.00000000E+00  0.00000000E+00  0.00000000E+00
  0.00000000E+00  0.00000000E+00  0.00000000E+00
  0.00000000E+00  0.00000000E+00  0.00000000E+00
  0.00000000E+00  0.00000000E+00  0.00000000E+00
  0.00000000E+00  0.00000000E+00  0.00000000E+00
  0.00000000E+00  0.00000000E+00  0.00000000E+00
  0.00000000E+00  0.00000000E+00  0.00000000E+00
  0.00000000E+00  0.00000000E+00  0.00000000E+00
  0.00000000E+00  0.00000000E+00  0.00000000E+00
  0.00000000E+00  0.00000000E+00  0.00000000E+00
  0.00000000E+00  0.00000000E+00  0.00000000E+00
  0.00000000E+00  0.00000000E+00  0.00000000E+00
  0.00000000E+00  0.00000000E+00  0.00000000E+00
  0.00000000E+00  0.00000000E+00  0.00000000E+00
  0.00000000E+00  0.00000000E+00  0.00000000E+00
  0.00000000E+00  0.00000000E+00  0.00000000E+00
  0.00000000E+00  0.00000000E+00  0.00000000E+00
  0.00000000E+00  0.00000000E+00  0.00000000E+00
  0.00000000E+00  0.00000000E+00  0.00000000E+00
  0.00000000E+00  0.00000000E+00  0.00000000E+00
  0.00000000E+00  0.00000000E+00  0.00000000E+00
  0.00000000E+00  0.00000000E+00  0.00000000E+00
  0.00000000E+00  0.00000000E+00  0.00000000E+00
  0.00000000E+00  0.00000000E+00  0.00000000E+00
  0.00000000E+00  0.00000000E+00  0.00000000E+00
  0.00000000E+00  0.00000000E+00  0.00000000E+00
  0.00000000E+00  0.00000000E+00  0.00000000E+00
  0.00000000E+00  0.00000000E+00  0.00000000E+00
  0.00000000E+00  0.00000000E+00  0.00000000E+00
  0.00000000E+00  0.00000000E+00  0.00000000E+00
  0.00000000E+00  0.00000000E+00  0.00000000E+00
  0.00000000E+00  0.00000000E+00  0.00000000E+00
  0.00000000E+00  0.00000000E+00  0.00000000E+00
  0.00000000E+00  0.00000000E+00  0.00000000E+00
  0.00000000E+00  0.00000000E+00  0.00000000E+00
  0.00000000E+00  0.00000000E+00  0.00000000E+00
  0.00000000E+00  0.00000000E+00  0.00000000E+00
  0.00000000E+00  0.00000000E+00  0.00000000E+00
  0.00000000E+00  0.00000000E+00  0.00000000E+00
  0.00000000E+00  0.00000000E+00  0.00000000E+00
  0.00000000E+00  0.00000000E+00  0.00000000E+00
  0.00000000E+00  0.00000000E+00  0.00000000E+00
  0.00000000E+00  0.00000000E+00  0.00000000E+00
  0.00000000E+00  0.00000000E+00  0.00000000E+00
  0.00000000E+00  0.00000000E+00  0.00000000E+00
  0.00000000E+00  0.00000000E+00  0.00000000E+00
  0.00000000E+00  0.00000000E+00  0.00000000E+00
  0.00000000E+00  0.00000000E+00  0.00000000E+00
  0.00000000E+00  0.00000000E+00  0.00000000E+00
  0.00000000E+00  0.00000000E+00  0.00000000E+00
  0.00000000E+00  0.00000000E+00  0.00000000E+00
  0.00000000E+00  0.00000000E+00  0.00000000E+00
  0.00000000E+00  0.00000000E+00  0.00000000E+00
  0.00000000E+00  0.00000000E+00  0.00000000E+00
  0.00000000E+00  0.00000000E+00  0.00000000E+00
  0.00000000E+00  0.00000000E+00  0.00000000E+00
  0.00000000E+00  0.00000000E+00  0.00000000E+00
  0.00000000E+00  0.00000000E+00  0.00000000E+00
  0.00000000E+00  0.00000000E+00  0.00000000E+00
  0.00000000E+00  0.00000000E+00  0.00000000E+00
  0.00000000E+00  0.00000000E+00  0.00000000E+00
  0.00000000E+00  0.00000000E+00  0.00000000E+00
  0.00000000E+00  0.00000000E+00  0.00000000E+00
  0.00000000E+00  0.00000000E+00  0.00000000E+00
  0.00000000E+00  0.00000000E+00  0.00000000E+00
  0.00000000E+00  0.00000000E+00  0.00000000E+00
  0.00000000E+00  0.00000000E+00  0.00000000E+00
  0.00000000E+00  0.00000000E+00  0.00000000E+00
  0.00000000E+00  0.00000000E+00  0.00000000E+00
  0.00000000E+00  0.00000000E+00  0.00000000E+00
  0.00000000E+00  0.00000000E+00  0.00000000E+00
  0.00000000E+00  0.00000000E+00  0.00000000E+00
  0.00000000E+00  0.00000000E+00  0.00000000E+00
  0.00000000E+00  0.00000000E+00  0.00000000E+00
  0.00000000E+00  0.00000000E+00  0.00000000E+00
  0.00000000E+00  0.00000000E+00  0.00000000E+00
  0.00000000E+00  0.00000000E+00  0.00000000E+00
  0.00000000E+00  0.00000000E+00  0.00000000E+00
  0.00000000E+00  0.00000000E+00  0.00000000E+00
  0.00000000E+00  0.00000000E+00  0.00000000E+00
  0.00000000E+00  0.00000000E+00  0.00000000E+00
  0.00000000E+00  0.00000000E+00  0.00000000E+00
  0.00000000E+00  0.00000000E+00  0.00000000E+00
  0.00000000E+00  0.00000000E+00  0.00000000E+00
  0.00000000E+00  0.00000000E+00  0.00000000E+00
  0.00000000E+00  0.00000000E+00  0.00000000E+00
  0.00000000E+00  0.00000000E+00  0.00000000E+00
  0.00000000E+00  0.00000000E+00  0.00000000E+00
  0.00000000E+00  0.00000000E+00  0.00000000E+00
  0.00000000E+00  0.00000000E+00  0.00000000E+00
  0.00000000E+00  0.00000000E+00  0.00000000E+00
  0.00000000E+00  0.00000000E+00  0.00000000E+00
  0.00000000E+00  0.00000000E+00  0.00000000E+00
  0.00000000E+00  0.00000000E+00  0.00000000E+00
  0.00000000E+00  0.00000000E+00  0.00000000E+00
  0.00000000E+00  0.00000000E+00  0.00000000E+00
  0.00000000E+00  0.00000000E+00  0.00000000E+00
  0.00000000E+00  0.00000000E+00  0.00000000E+00
  0.00000000E+00  0.00000000E+00  0.00000000E+00
  0.00000000E+00  0.00000000E+00  0.00000000E+00
  0.00000000E+00  0.00000000E+00  0.00000000E+00
  0.00000000E+00  0.00000000E+00  0.00000000E+00
  0.00000000E+00  0.00000000E+00  0.00000000E+00
  0.00000000E+00  0.00000000E+00  0.00000000E+00
  0.00000000E+00  0.00000000E+00  0.00000000E+00
  0.00000000E+00  0.00000000E+00  0.00000000E+00
  0.00000000E+00  0.00000000E+00  0.00000000E+00
  0.00000000E+00  0.00000000E+00  0.00000000E+00
  0.00000000E+00  0.00000000E+00  0.00000000E+00
  0.00000000E+00  0.00000000E+00  0.00000000E+00
  0.00000000E+00  0.00000000E+00  0.00000000E+00
  0.00000000E+00  0.00000000E+00  0.00000000E+00
