P56 O140
1.0
8.166914 0.000000 -0.000000
0.000000 8.741067 -0.283502
0.000000 0.000000 57.922765
P O
56 140
direct
0.923152 0.878270 0.984797 P5+
0.076848 0.154881 0.998628 P5+
0.826848 0.378270 0.984797 P5+
0.173152 0.745790 0.953173 P5+
0.423152 0.969179 0.939343 P5+
0.576848 0.245790 0.953173 P5+
0.326848 0.469179 0.939343 P5+
0.673152 0.654881 0.998628 P5+
0.923152 0.060088 0.893888 P5+
0.076848 0.336699 0.907719 P5+
0.826848 0.560088 0.893888 P5+
0.173152 0.927608 0.862264 P5+
0.423152 0.150997 0.848434 P5+
0.576848 0.427608 0.862264 P5+
0.326848 0.650997 0.848434 P5+
0.673152 0.836699 0.907719 P5+
0.923152 0.241906 0.802979 P5+
0.076848 0.518517 0.816810 P5+
0.826848 0.741906 0.802979 P5+
0.173152 0.109426 0.771355 P5+
0.423152 0.332815 0.757524 P5+
0.576848 0.609426 0.771355 P5+
0.326848 0.832815 0.757524 P5+
0.673152 0.018517 0.816810 P5+
0.923152 0.423724 0.712070 P5+
0.076848 0.700335 0.725900 P5+
0.826848 0.923724 0.712070 P5+
0.173152 0.291244 0.680446 P5+
0.423152 0.514633 0.666615 P5+
0.576848 0.791244 0.680446 P5+
0.326848 0.014633 0.666615 P5+
0.673152 0.200335 0.725900 P5+
0.923152 0.605542 0.621161 P5+
0.076848 0.882153 0.634991 P5+
0.826848 0.105542 0.621161 P5+
0.173152 0.473062 0.589537 P5+
0.423152 0.696451 0.575706 P5+
0.576848 0.973062 0.589537 P5+
0.326848 0.196451 0.575706 P5+
0.673152 0.382153 0.634991 P5+
0.923152 0.787361 0.530252 P5+
0.076848 0.063971 0.544082 P5+
0.826848 0.287361 0.530252 P5+
0.173152 0.654881 0.498628 P5+
0.423152 0.878270 0.484797 P5+
0.576848 0.154881 0.498628 P5+
0.326848 0.378270 0.484797 P5+
0.673152 0.563971 0.544082 P5+
0.923152 0.969179 0.439343 P5+
0.076848 0.245790 0.453173 P5+
0.826848 0.469179 0.439343 P5+
0.173152 0.836699 0.407719 P5+
0.423152 0.060088 0.393888 P5+
0.576848 0.336699 0.407719 P5+
0.326848 0.560088 0.393888 P5+
0.673152 0.745790 0.453173 P5+
0.833418 0.950608 0.966323 O2-
0.166582 0.162873 0.976936 O2-
0.416582 0.541517 0.920869 O2-
0.083418 0.753782 0.931482 O2-
0.250000 0.582306 0.958847 O2-
0.000000 0.173215 0.913393 O2-
0.079208 0.777144 0.976915 O2-
0.920791 0.448099 0.910463 O2-
0.170792 0.368053 0.931461 O2-
0.329208 0.857190 0.955918 O2-
0.333418 0.041517 0.920869 O2-
0.666582 0.253782 0.931482 O2-
0.916582 0.450608 0.966323 O2-
0.583418 0.662873 0.976936 O2-
0.750000 0.673215 0.913393 O2-
0.500000 0.082306 0.958847 O2-
0.579208 0.868053 0.931461 O2-
0.420792 0.357190 0.955918 O2-
0.670792 0.277144 0.976915 O2-
0.829208 0.948099 0.910463 O2-
0.833418 0.132426 0.875414 O2-
0.166582 0.344691 0.886027 O2-
0.416582 0.723335 0.829960 O2-
0.083418 0.935600 0.840573 O2-
0.250000 0.764124 0.867938 O2-
0.000000 0.355033 0.822484 O2-
0.079208 0.958962 0.886006 O2-
0.920791 0.629917 0.819554 O2-
0.170792 0.549871 0.840552 O2-
0.329208 0.039008 0.865009 O2-
0.333418 0.223335 0.829960 O2-
0.666582 0.435600 0.840573 O2-
0.916582 0.632426 0.875414 O2-
0.583418 0.844691 0.886027 O2-
0.750000 0.855033 0.822484 O2-
0.500000 0.264124 0.867938 O2-
0.579208 0.049871 0.840552 O2-
0.420792 0.539008 0.865009 O2-
0.670792 0.458962 0.886006 O2-
0.829208 0.129917 0.819554 O2-
0.833418 0.314244 0.784505 O2-
0.166582 0.526509 0.795118 O2-
0.416582 0.905153 0.739050 O2-
0.083418 0.117419 0.749664 O2-
0.250000 0.945942 0.777029 O2-
0.000000 0.536851 0.731574 O2-
0.079208 0.140780 0.795097 O2-
0.920791 0.811735 0.728645 O2-
0.170792 0.731690 0.749643 O2-
0.329208 0.220826 0.774100 O2-
0.333418 0.405153 0.739050 O2-
0.666582 0.617419 0.749664 O2-
0.916582 0.814244 0.784505 O2-
0.583418 0.026509 0.795118 O2-
0.750000 0.036851 0.731574 O2-
0.500000 0.445942 0.777029 O2-
0.579208 0.231690 0.749643 O2-
0.420792 0.720826 0.774100 O2-
0.670792 0.640780 0.795097 O2-
0.829208 0.311735 0.728645 O2-
0.833418 0.496062 0.693596 O2-
0.166582 0.708328 0.704209 O2-
0.416582 0.086971 0.648141 O2-
0.083418 0.299237 0.658755 O2-
0.250000 0.127760 0.686120 O2-
0.000000 0.718669 0.640665 O2-
0.079208 0.322599 0.704188 O2-
0.920791 0.993553 0.637736 O2-
0.170792 0.913508 0.658734 O2-
0.329208 0.402644 0.683190 O2-
0.333418 0.586971 0.648141 O2-
0.666582 0.799237 0.658755 O2-
0.916582 0.996062 0.693596 O2-
0.583418 0.208328 0.704209 O2-
0.750000 0.218669 0.640665 O2-
0.500000 0.627760 0.686120 O2-
0.579208 0.413508 0.658734 O2-
0.420792 0.902644 0.683190 O2-
0.670792 0.822599 0.704188 O2-
0.829208 0.493553 0.637736 O2-
0.833418 0.677880 0.602687 O2-
0.166582 0.890146 0.613300 O2-
0.416582 0.268789 0.557232 O2-
0.083418 0.481055 0.567846 O2-
0.250000 0.309578 0.595211 O2-
0.000000 0.900488 0.549756 O2-
0.079208 0.504417 0.613279 O2-
0.920791 0.175371 0.546827 O2-
0.170792 0.095326 0.567825 O2-
0.329208 0.584462 0.592281 O2-
0.333418 0.768789 0.557232 O2-
0.666582 0.981055 0.567846 O2-
0.916582 0.177880 0.602687 O2-
0.583418 0.390146 0.613300 O2-
0.750000 0.400488 0.549756 O2-
0.500000 0.809578 0.595211 O2-
0.579208 0.595326 0.567825 O2-
0.420792 0.084462 0.592281 O2-
0.670792 0.004417 0.613279 O2-
0.829208 0.675371 0.546827 O2-
0.833418 0.859699 0.511778 O2-
0.166582 0.071964 0.522391 O2-
0.416582 0.450608 0.466323 O2-
0.083418 0.662873 0.476936 O2-
0.250000 0.491397 0.504302 O2-
0.000000 0.082306 0.458847 O2-
0.079208 0.686235 0.522370 O2-
0.920791 0.357190 0.455918 O2-
0.170792 0.277144 0.476915 O2-
0.329208 0.766280 0.501372 O2-
0.333418 0.950608 0.466323 O2-
0.666582 0.162873 0.476936 O2-
0.916582 0.359699 0.511778 O2-
0.583418 0.571964 0.522391 O2-
0.750000 0.582306 0.458847 O2-
0.500000 0.991397 0.504302 O2-
0.579208 0.777144 0.476915 O2-
0.420792 0.266280 0.501372 O2-
0.670792 0.186235 0.522370 O2-
0.829208 0.857190 0.455918 O2-
0.833418 0.041517 0.420869 O2-
0.166582 0.253782 0.431482 O2-
0.416582 0.632426 0.375414 O2-
0.083418 0.844691 0.386027 O2-
0.250000 0.673215 0.413393 O2-
0.000000 0.264124 0.367938 O2-
0.079208 0.868053 0.431461 O2-
0.920791 0.539008 0.365009 O2-
0.170792 0.458962 0.386006 O2-
0.329208 0.948099 0.410463 O2-
0.333418 0.132426 0.375414 O2-
0.666582 0.344691 0.386027 O2-
0.916582 0.541517 0.420869 O2-
0.583418 0.753782 0.431482 O2-
0.750000 0.764124 0.367938 O2-
0.500000 0.173215 0.413393 O2-
0.579208 0.958962 0.386006 O2-
0.420792 0.448099 0.410463 O2-
0.670792 0.368053 0.431461 O2-
0.829208 0.039008 0.365009 O2-
