Li71 P24 N1 O94                         
   1.00000000000000     
    14.7536734444299391   -0.0017670060597670   -0.0048901143922611
    -0.0012536757125522   10.5578109944347958   -0.0042268795635508
    -0.0040951927819277   -0.0049428336050983   12.3349933910117020
   Li   P    N    O 
    71    24     1    94
Direct
  0.1684790785798640  0.4231792634382460 -0.0020135662643721
  0.1680898294599996  0.4246904996964123  0.5019500113751100
  0.1651564603839689  0.9198150254782749  0.0025809867342831
  0.1684204176999050  0.9231788431310195  0.5029047233403545
  0.5037297688462514  0.4215264801263037 -0.0011010402029187
  0.5033581529824578  0.4220264495032196  0.5005159435341436
  0.5079346304359871  0.9208633641252280 -0.0019532783515468
  0.5041444044653162  0.9223637908202399  0.5007252500180008
  0.8362674941691786  0.4229611159143313 -0.0003624288147009
  0.8366649243014490  0.4231264514145856  0.4998553591251282
  0.8354574100514295  0.9239814474579759  0.0003322239246665
  0.8362126845161008  0.9250344154291706  0.4992708343839377
  0.0000167925388019  0.0740590719040046  0.7504001039952481
  0.0016125147383320  0.5815781812221227  0.2504714736138169
  0.0022571832402753  0.5790743010813549  0.7497628524833181
  0.3724910776321316  0.0828951408683445  0.2503967640485213
  0.3375038062591472  0.0762084497574205  0.7498189803647189
  0.3374955131657237  0.5774522513501285  0.2496432377822238
  0.3368469646619035  0.5766866411649740  0.7498725136403850
  0.6809291371033993  0.0755937437868982  0.2500178876434240
  0.6710003552969078  0.0758458128283849  0.7493245634249927
  0.6697816438103901  0.5794825263097538  0.2499605160934659
  0.6694591156924081  0.5776584200042040  0.7498422427681032
  0.1563541306140661  0.1817097857898262  0.1107538903326541
  0.1684446497294566  0.1619873199483398  0.6295158955940582
  0.1682748240644449  0.6581566488097568  0.1242952717175838
  0.1692911932508142  0.6645647193555444  0.6269011161699807
  0.5109626897045044  0.1646796143716559  0.1243712075038076
  0.5034101804301337  0.1629830669411735  0.6268565515460433
  0.5035620863348310  0.6617696535104525  0.1253110157236851
  0.5031267323013505  0.6624431007033224  0.6262154813499805
  0.8402421582901767  0.1631205488228509  0.1277355305065118
  0.8362558637871398  0.1639050255780859  0.6263533369450894
  0.8354211328748801  0.6646566134909317  0.1260369185504054
  0.8356154828410910  0.6638032457690367  0.6261526111148883
 -0.0006235847160897  0.3377622538685802  0.1257555929144946
  0.0022898006439918  0.3357200195138111  0.6244415537391237
 -0.0035798152828800  0.8427316136543587  0.1233344534472982
  0.0026078540954830  0.8377082060624658  0.6243125174648742
  0.3357677826365996  0.3363702381377635  0.1227745808368548
  0.3358118668389777  0.3366774937824125  0.6239242448295229
  0.3398078411069912  0.8352574359029641  0.1210334074214447
  0.3368977418836339  0.8362491568026004  0.6240086183391872
  0.6712943581022488  0.3373128453387795  0.1234072662814384
  0.6697609559851186  0.3364417663532663  0.6240299854482615
  0.6692429775288227  0.8338933139721353  0.1216732812401534
  0.6694515347165078  0.8357879338721468  0.6231840151481837
  0.0007557222470001  0.3358586420831913  0.3748554114952400
  0.0013599601604455  0.3366597002416568  0.8752324851928566
 -0.0025975384518345  0.8428911550147166  0.3779042401136778
  0.0016164917165078  0.8372980138225403  0.8769669614934407
  0.3368011505168400  0.3377728557253712  0.3762257874832672
  0.3357390787754547  0.3343913644286292  0.8758136764128334
  0.3391820898244955  0.8349602173584243  0.3772216983808181
  0.3377991259983349  0.8353470736158793  0.8761912890037592
  0.6706152144128178  0.3372475497764671  0.3763254752467279
  0.6700402898746544  0.3364134021765441  0.8751840509125043
  0.6686031386871015  0.8342527850327081  0.3785491296517575
  0.6702447438077033  0.8354021627919717  0.8752734413381615
  0.1632960025163603  0.1779795141507935  0.3898395166472717
  0.1635843765568104  0.1680165837586146  0.8718837399016743
  0.1680759200505385  0.6597919113844826  0.3762978474651831
  0.1693330737493153  0.6628123876370297  0.8736171776919475
  0.5080793829582338  0.1651935991624932  0.3764280563053775
  0.5062124400398709  0.1624557317054910  0.8713286825342262
  0.5034605345320639  0.6617934057693937  0.3743406586626963
  0.5030776238309365  0.6622775758933654  0.8731016045143968
  0.8400256430995967  0.1630742790334788  0.3724524287263996
  0.8358394442701633  0.1639538460564618  0.8724160434113266
  0.8353003439007231  0.6652060268673139  0.3741889775961214
  0.8357847355760032  0.6634535168469822  0.8734579255541385
  0.1667873964414774  0.4142336444599919  0.2506974501095433
  0.1666697670014903  0.4131801119382312  0.7492803652536985
  0.1651472799458445  0.8973286970191943  0.2506950005625760
  0.1679551424350736  0.9119149119984979  0.7523442209596881
  0.5007822563001949  0.4121669637605503  0.2496501951775593
  0.5003083632299571  0.4116741646528606  0.7497145352371830
  0.5009602123136389  0.9093205085977556  0.2499288499996471
  0.5011823595228126  0.9110829796468570  0.7491356172101804
  0.8326324861415897  0.4144623652641064  0.2501426015447333
  0.8332910111064378  0.4132503985675416  0.7496098714591953
  0.8274330665641434  0.9119851633700816  0.2502128451119197
  0.8328178949755132  0.9114203332157201  0.7494527350516783
 -0.0018771499695611  0.0904890795709715 -0.0041691607223587
  0.0012396150618649  0.0905062437325077  0.5049695868833736
  0.0000334085978431  0.5888249972482602 -0.0004529349086163
  0.0000257020272367  0.5891266887786156  0.5006277758995109
  0.3391455664405486  0.0847598275985292 -0.0013475744615691
  0.3346616953601319  0.0874247411090911  0.4993796198993505
  0.3343328287585941  0.5857913882200211 -0.0007442262283253
  0.3341582296081310  0.5870971740929577  0.5004590237750912
  0.6675726003533832  0.0877277467241519 -0.0014121790571327
  0.6670655432640580  0.0878983989450930  0.5008869944030956
  0.6668337269658511  0.5865299480516705 -0.0010493744092548
  0.6667298078229179  0.5865746250690762  0.5007221589382052
  0.2292752711641062  0.0904838387659093  0.0035440456981440
  0.0398391488902595  0.1673345807755569  0.4093771663591771
  0.0312863634085649  0.1542699742003101  0.8880580720425691
  0.0352959904854303  0.6590586463475960  0.3973291001012914
  0.0355586223617877  0.6575813805021524  0.8956926463631943
  0.3701542361739301  0.1565462737249786  0.3954037505671052
  0.3737625191042110  0.1547503803057427  0.8951267987596552
  0.3696646159911000  0.6554730069462883  0.3965650123820103
  0.3694126994016002  0.6550703644719060  0.8956561676049470
  0.7011964951373832  0.1576314691420646  0.3973655335182119
  0.7023191689596808  0.1563372764342310  0.8945477065414544
  0.7016718509859936  0.6556310556546697  0.3971464765288403
  0.7019943280618747  0.6559450600948430  0.8954414454302003
  0.2021817758903983  0.0521438906670107  0.7534614943586939
  0.2016138819633031  0.5537777591537489  0.2505828579719176
  0.2014360023275330  0.5527588788097422  0.7491829242570985
  0.5287527905622476  0.0525355713433723  0.2500918263599522
  0.5350780746418923  0.0510080560653718  0.7489750507609700
  0.5334630001056950  0.5526283838864527  0.2497726570042109
  0.5335993035235813  0.5519116551190256  0.7496522068930825
  0.8487260907075899  0.0544905356060393  0.2501142074010088
  0.8650843623348846  0.0518655737833391  0.7494904745301885
  0.8664919863901417  0.5546334789395015  0.2502535742857802
  0.8670445452168730  0.5533371014046137  0.7496899157284327
  0.0615980925682914  0.4124569479383058  0.2505615383199862
  0.0612393079300973  0.4113455652023092  0.7496440412626098
  0.0619040875038587  0.8884915952604897  0.2502854201256539
  0.0625984843970404  0.9077615499930697  0.7515100491658325
  0.3950612418050984  0.4077047082985124  0.2492532239252454
  0.3946499395515737  0.4081623118032742  0.7500257044088336
  0.3950464022798635  0.9040853879956651  0.2494849935742104
  0.3955047386300229  0.9085752198113227  0.7497075756428715
  0.7269729271409934  0.4116283017222174  0.2502895396742985
  0.7276747034243695  0.4102802538658472  0.7495086630823482
  0.7218794403135317  0.8969449038567272  0.2502967462916379
  0.7272348760449723  0.9069135814954905  0.7492063780273446
  0.2288399030946927  0.0906108300918151  0.4985304716796922
  0.2286613573983121  0.5889710377130448 -0.0005453686113306
  0.2285062421484160  0.5905961516189183  0.5007168799809713
  0.5618327329408670  0.0903210005055299 -0.0019854588313462
  0.5612381885597351  0.0901220969415842  0.5014591394592904
  0.5611386560204674  0.5896421838546640 -0.0010185103258273
  0.5610273479347646  0.5893980389039580  0.5004708106199962
  0.8924861411624947  0.0909406215921453 -0.0024415854820915
  0.8955696986128895  0.0920192501206313  0.5014711470639238
  0.8944446648920097  0.5917055466395400 -0.0004496085751327
  0.8944559186125095  0.5919316291434538  0.5004186057943861
  0.2024326472634388  0.3445455152305245  0.1471896915944713
  0.2016951707575407  0.3429124748842243  0.6457376114915414
  0.2073711345661615  0.8384776290900539  0.1462799998929459
  0.2037834458816937  0.8442537808905859  0.6479413236103568
  0.5365358298042705  0.3434726754938507  0.1459593930442422
  0.5354576801668450  0.3426351463747870  0.6458944310403552
  0.5367272171554672  0.8419677631795043  0.1462060222833345
  0.5356099212714636  0.8420532908003213  0.6449964831749301
  0.8671882403098760  0.3459804254522409  0.1459637108265621
  0.8685666286062159  0.3440900639965043  0.6459684867372775
  0.8653461269729245  0.8448748651823669  0.1464257158621192
  0.8688457323306766  0.8430608525478448  0.6457351899976947
  0.0342889629926667  0.1679868087739347  0.0924598525375688
  0.0339733638146694  0.1534530626069077  0.6133943452209432
  0.0353002595381961  0.6588723500760169  0.1029372144742428
  0.0356426398849721  0.6581324768617656  0.6044916729327667
  0.3714200288534292  0.1547910070727724  0.1043499224566421
  0.3691752128037462  0.1569333668332324  0.6030714786400179
  0.3699987170128610  0.6547188200484872  0.1029394633708499
  0.3694958598341078  0.6564142093946536  0.6040163073541504
  0.7015485621087255  0.1573880538004696  0.1023470329931997
  0.7021931733131280  0.1567065365831375  0.6048111069208401
  0.7018673664715710  0.6552913514678876  0.1027588932233516
  0.7016979693469428  0.6561271636299588  0.6044137047849103
  0.0338142950067312  0.4487531949812899 -0.0001178436430073
  0.0338193298787107  0.4491041772461976  0.5003655023206431
  0.0320790637621776  0.9500383250105239 -0.0000603275527082
  0.0348788040049359  0.9498304511055730  0.5014263362267428
  0.3676956828402840  0.4455371868359875 -0.0008111793480454
  0.3675176505007624  0.4468455571132835  0.5004698651601039
  0.3758136858167980  0.9460766856824629 -0.0013420885473520
  0.3683177869930260  0.9476140899497996  0.4996518552735666
  0.7003589040316403  0.4465025321268588 -0.0012985541309618
  0.7004531902226965  0.4466555390803049  0.5008274148244182
  0.7002237176473824  0.9471945461865076 -0.0010675769046649
  0.7004674134534771  0.9477587788547939  0.5004997432573683
  0.2029438655926411  0.3447909880794668  0.3540843567199760
  0.2018762320230238  0.3438672831037975  0.8529956718426618
  0.2067888675126500  0.8419015549089166  0.3568602129793020
  0.2035262282690323  0.8426501288481760  0.8559346115388089
  0.5360217620288009  0.3436757528529629  0.3536363780323540
  0.5360880246500065  0.3427314791075169  0.8531958930735742
  0.5357651736865969  0.8424757586762543  0.3544105793767212
  0.5368156965553246  0.8414058219467104  0.8522860608208566
  0.8678704892287317  0.3454714889930031  0.3537729906689347
  0.8682343556848829  0.3443240553481527  0.8534775467453054
  0.8658890452395028  0.8452562741491003  0.3538855729626921
  0.8683450308388421  0.8428140438961838  0.8532756138652219
 
  0.00000000E+00  0.00000000E+00  0.00000000E+00
  0.00000000E+00  0.00000000E+00  0.00000000E+00
  0.00000000E+00  0.00000000E+00  0.00000000E+00
  0.00000000E+00  0.00000000E+00  0.00000000E+00
  0.00000000E+00  0.00000000E+00  0.00000000E+00
  0.00000000E+00  0.00000000E+00  0.00000000E+00
  0.00000000E+00  0.00000000E+00  0.00000000E+00
  0.00000000E+00  0.00000000E+00  0.00000000E+00
  0.00000000E+00  0.00000000E+00  0.00000000E+00
  0.00000000E+00  0.00000000E+00  0.00000000E+00
  0.00000000E+00  0.00000000E+00  0.00000000E+00
  0.00000000E+00  0.00000000E+00  0.00000000E+00
  0.00000000E+00  0.00000000E+00  0.00000000E+00
  0.00000000E+00  0.00000000E+00  0.00000000E+00
  0.00000000E+00  0.00000000E+00  0.00000000E+00
  0.00000000E+00  0.00000000E+00  0.00000000E+00
  0.00000000E+00  0.00000000E+00  0.00000000E+00
  0.00000000E+00  0.00000000E+00  0.00000000E+00
  0.00000000E+00  0.00000000E+00  0.00000000E+00
  0.00000000E+00  0.00000000E+00  0.00000000E+00
  0.00000000E+00  0.00000000E+00  0.00000000E+00
  0.00000000E+00  0.00000000E+00  0.00000000E+00
  0.00000000E+00  0.00000000E+00  0.00000000E+00
  0.00000000E+00  0.00000000E+00  0.00000000E+00
  0.00000000E+00  0.00000000E+00  0.00000000E+00
  0.00000000E+00  0.00000000E+00  0.00000000E+00
  0.00000000E+00  0.00000000E+00  0.00000000E+00
  0.00000000E+00  0.00000000E+00  0.00000000E+00
  0.00000000E+00  0.00000000E+00  0.00000000E+00
  0.00000000E+00  0.00000000E+00  0.00000000E+00
  0.00000000E+00  0.00000000E+00  0.00000000E+00
  0.00000000E+00  0.00000000E+00  0.00000000E+00
  0.00000000E+00  0.00000000E+00  0.00000000E+00
  0.00000000E+00  0.00000000E+00  0.00000000E+00
  0.00000000E+00  0.00000000E+00  0.00000000E+00
  0.00000000E+00  0.00000000E+00  0.00000000E+00
  0.00000000E+00  0.00000000E+00  0.00000000E+00
  0.00000000E+00  0.00000000E+00  0.00000000E+00
  0.00000000E+00  0.00000000E+00  0.00000000E+00
  0.00000000E+00  0.00000000E+00  0.00000000E+00
  0.00000000E+00  0.00000000E+00  0.00000000E+00
  0.00000000E+00  0.00000000E+00  0.00000000E+00
  0.00000000E+00  0.00000000E+00  0.00000000E+00
  0.00000000E+00  0.00000000E+00  0.00000000E+00
  0.00000000E+00  0.00000000E+00  0.00000000E+00
  0.00000000E+00  0.00000000E+00  0.00000000E+00
  0.00000000E+00  0.00000000E+00  0.00000000E+00
  0.00000000E+00  0.00000000E+00  0.00000000E+00
  0.00000000E+00  0.00000000E+00  0.00000000E+00
  0.00000000E+00  0.00000000E+00  0.00000000E+00
  0.00000000E+00  0.00000000E+00  0.00000000E+00
  0.00000000E+00  0.00000000E+00  0.00000000E+00
  0.00000000E+00  0.00000000E+00  0.00000000E+00
  0.00000000E+00  0.00000000E+00  0.00000000E+00
  0.00000000E+00  0.00000000E+00  0.00000000E+00
  0.00000000E+00  0.00000000E+00  0.00000000E+00
  0.00000000E+00  0.00000000E+00  0.00000000E+00
  0.00000000E+00  0.00000000E+00  0.00000000E+00
  0.00000000E+00  0.00000000E+00  0.00000000E+00
  0.00000000E+00  0.00000000E+00  0.00000000E+00
  0.00000000E+00  0.00000000E+00  0.00000000E+00
  0.00000000E+00  0.00000000E+00  0.00000000E+00
  0.00000000E+00  0.00000000E+00  0.00000000E+00
  0.00000000E+00  0.00000000E+00  0.00000000E+00
  0.00000000E+00  0.00000000E+00  0.00000000E+00
  0.00000000E+00  0.00000000E+00  0.00000000E+00
  0.00000000E+00  0.00000000E+00  0.00000000E+00
  0.00000000E+00  0.00000000E+00  0.00000000E+00
  0.00000000E+00  0.00000000E+00  0.00000000E+00
  0.00000000E+00  0.00000000E+00  0.00000000E+00
  0.00000000E+00  0.00000000E+00  0.00000000E+00
  0.00000000E+00  0.00000000E+00  0.00000000E+00
  0.00000000E+00  0.00000000E+00  0.00000000E+00
  0.00000000E+00  0.00000000E+00  0.00000000E+00
  0.00000000E+00  0.00000000E+00  0.00000000E+00
  0.00000000E+00  0.00000000E+00  0.00000000E+00
  0.00000000E+00  0.00000000E+00  0.00000000E+00
  0.00000000E+00  0.00000000E+00  0.00000000E+00
  0.00000000E+00  0.00000000E+00  0.00000000E+00
  0.00000000E+00  0.00000000E+00  0.00000000E+00
  0.00000000E+00  0.00000000E+00  0.00000000E+00
  0.00000000E+00  0.00000000E+00  0.00000000E+00
  0.00000000E+00  0.00000000E+00  0.00000000E+00
  0.00000000E+00  0.00000000E+00  0.00000000E+00
  0.00000000E+00  0.00000000E+00  0.00000000E+00
  0.00000000E+00  0.00000000E+00  0.00000000E+00
  0.00000000E+00  0.00000000E+00  0.00000000E+00
  0.00000000E+00  0.00000000E+00  0.00000000E+00
  0.00000000E+00  0.00000000E+00  0.00000000E+00
  0.00000000E+00  0.00000000E+00  0.00000000E+00
  0.00000000E+00  0.00000000E+00  0.00000000E+00
  0.00000000E+00  0.00000000E+00  0.00000000E+00
  0.00000000E+00  0.00000000E+00  0.00000000E+00
  0.00000000E+00  0.00000000E+00  0.00000000E+00
  0.00000000E+00  0.00000000E+00  0.00000000E+00
  0.00000000E+00  0.00000000E+00  0.00000000E+00
  0.00000000E+00  0.00000000E+00  0.00000000E+00
  0.00000000E+00  0.00000000E+00  0.00000000E+00
  0.00000000E+00  0.00000000E+00  0.00000000E+00
  0.00000000E+00  0.00000000E+00  0.00000000E+00
  0.00000000E+00  0.00000000E+00  0.00000000E+00
  0.00000000E+00  0.00000000E+00  0.00000000E+00
  0.00000000E+00  0.00000000E+00  0.00000000E+00
  0.00000000E+00  0.00000000E+00  0.00000000E+00
  0.00000000E+00  0.00000000E+00  0.00000000E+00
  0.00000000E+00  0.00000000E+00  0.00000000E+00
  0.00000000E+00  0.00000000E+00  0.00000000E+00
  0.00000000E+00  0.00000000E+00  0.00000000E+00
  0.00000000E+00  0.00000000E+00  0.00000000E+00
  0.00000000E+00  0.00000000E+00  0.00000000E+00
  0.00000000E+00  0.00000000E+00  0.00000000E+00
  0.00000000E+00  0.00000000E+00  0.00000000E+00
  0.00000000E+00  0.00000000E+00  0.00000000E+00
  0.00000000E+00  0.00000000E+00  0.00000000E+00
  0.00000000E+00  0.00000000E+00  0.00000000E+00
  0.00000000E+00  0.00000000E+00  0.00000000E+00
  0.00000000E+00  0.00000000E+00  0.00000000E+00
  0.00000000E+00  0.00000000E+00  0.00000000E+00
  0.00000000E+00  0.00000000E+00  0.00000000E+00
  0.00000000E+00  0.00000000E+00  0.00000000E+00
  0.00000000E+00  0.00000000E+00  0.00000000E+00
  0.00000000E+00  0.00000000E+00  0.00000000E+00
  0.00000000E+00  0.00000000E+00  0.00000000E+00
  0.00000000E+00  0.00000000E+00  0.00000000E+00
  0.00000000E+00  0.00000000E+00  0.00000000E+00
  0.00000000E+00  0.00000000E+00  0.00000000E+00
  0.00000000E+00  0.00000000E+00  0.00000000E+00
  0.00000000E+00  0.00000000E+00  0.00000000E+00
  0.00000000E+00  0.00000000E+00  0.00000000E+00
  0.00000000E+00  0.00000000E+00  0.00000000E+00
  0.00000000E+00  0.00000000E+00  0.00000000E+00
  0.00000000E+00  0.00000000E+00  0.00000000E+00
  0.00000000E+00  0.00000000E+00  0.00000000E+00
  0.00000000E+00  0.00000000E+00  0.00000000E+00
  0.00000000E+00  0.00000000E+00  0.00000000E+00
  0.00000000E+00  0.00000000E+00  0.00000000E+00
  0.00000000E+00  0.00000000E+00  0.00000000E+00
  0.00000000E+00  0.00000000E+00  0.00000000E+00
  0.00000000E+00  0.00000000E+00  0.00000000E+00
  0.00000000E+00  0.00000000E+00  0.00000000E+00
  0.00000000E+00  0.00000000E+00  0.00000000E+00
  0.00000000E+00  0.00000000E+00  0.00000000E+00
  0.00000000E+00  0.00000000E+00  0.00000000E+00
  0.00000000E+00  0.00000000E+00  0.00000000E+00
  0.00000000E+00  0.00000000E+00  0.00000000E+00
  0.00000000E+00  0.00000000E+00  0.00000000E+00
  0.00000000E+00  0.00000000E+00  0.00000000E+00
  0.00000000E+00  0.00000000E+00  0.00000000E+00
  0.00000000E+00  0.00000000E+00  0.00000000E+00
  0.00000000E+00  0.00000000E+00  0.00000000E+00
  0.00000000E+00  0.00000000E+00  0.00000000E+00
  0.00000000E+00  0.00000000E+00  0.00000000E+00
  0.00000000E+00  0.00000000E+00  0.00000000E+00
  0.00000000E+00  0.00000000E+00  0.00000000E+00
  0.00000000E+00  0.00000000E+00  0.00000000E+00
  0.00000000E+00  0.00000000E+00  0.00000000E+00
  0.00000000E+00  0.00000000E+00  0.00000000E+00
  0.00000000E+00  0.00000000E+00  0.00000000E+00
  0.00000000E+00  0.00000000E+00  0.00000000E+00
  0.00000000E+00  0.00000000E+00  0.00000000E+00
  0.00000000E+00  0.00000000E+00  0.00000000E+00
  0.00000000E+00  0.00000000E+00  0.00000000E+00
  0.00000000E+00  0.00000000E+00  0.00000000E+00
  0.00000000E+00  0.00000000E+00  0.00000000E+00
  0.00000000E+00  0.00000000E+00  0.00000000E+00
  0.00000000E+00  0.00000000E+00  0.00000000E+00
  0.00000000E+00  0.00000000E+00  0.00000000E+00
  0.00000000E+00  0.00000000E+00  0.00000000E+00
  0.00000000E+00  0.00000000E+00  0.00000000E+00
  0.00000000E+00  0.00000000E+00  0.00000000E+00
  0.00000000E+00  0.00000000E+00  0.00000000E+00
  0.00000000E+00  0.00000000E+00  0.00000000E+00
  0.00000000E+00  0.00000000E+00  0.00000000E+00
  0.00000000E+00  0.00000000E+00  0.00000000E+00
  0.00000000E+00  0.00000000E+00  0.00000000E+00
  0.00000000E+00  0.00000000E+00  0.00000000E+00
  0.00000000E+00  0.00000000E+00  0.00000000E+00
  0.00000000E+00  0.00000000E+00  0.00000000E+00
  0.00000000E+00  0.00000000E+00  0.00000000E+00
  0.00000000E+00  0.00000000E+00  0.00000000E+00
  0.00000000E+00  0.00000000E+00  0.00000000E+00
  0.00000000E+00  0.00000000E+00  0.00000000E+00
  0.00000000E+00  0.00000000E+00  0.00000000E+00
  0.00000000E+00  0.00000000E+00  0.00000000E+00
  0.00000000E+00  0.00000000E+00  0.00000000E+00
  0.00000000E+00  0.00000000E+00  0.00000000E+00
  0.00000000E+00  0.00000000E+00  0.00000000E+00
  0.00000000E+00  0.00000000E+00  0.00000000E+00
  0.00000000E+00  0.00000000E+00  0.00000000E+00
  0.00000000E+00  0.00000000E+00  0.00000000E+00
