Li1
1.0
-1.763342 1.763342 1.763342
1.763342 -1.763342 1.763342
1.763342 1.763342 -1.763342
Li
1
direct
0.000000 0.000000 0.000000 Li
