Li5 P2 N1 O6                            
   1.00000000000000     
    -0.1922340780320896    1.1018907543068566    4.8263821265937210
     7.0606877522096383    0.7446944605231006   -0.0795270720751495
     0.8880934537821702    4.6830304588953720    1.2684226210449725
   Li   P    N    O 
     5     2     1     6
Direct
  0.6051276758980684  0.0815419971948028  0.9317867363677825
  0.7999754171484130  0.3682037112089644  0.1692718218456442
  0.3748659987145209  0.6748392996396549  0.2990899611464130
  0.2531498225415306  0.8785866442505194  0.7265171899437728
  0.1127817254462534  0.3004634069445720  0.5398804088850034
  0.5019906578048080  0.5047328014960768  0.7592342842707630
  0.8944915065845488  0.9293692458681768  0.3717551254424036
  0.6248327798145445  0.7360312424647693  0.5303434149343582
 -0.0460203015458048 -0.0106663207486064  0.6247282340253791
  0.2117622740630881  0.8956157504836745  0.1219225313245478
  0.7077357221710578  0.3596469041416600  0.6121638489143332
  0.4554786741339300  0.4686633725685895  0.1055387706430237
  0.1859938969932857  0.4655554652401318  0.7699598879903183
  0.7651451502317816  0.0945434792470208  0.2148817842662634
 
  0.00000000E+00  0.00000000E+00  0.00000000E+00
  0.00000000E+00  0.00000000E+00  0.00000000E+00
  0.00000000E+00  0.00000000E+00  0.00000000E+00
  0.00000000E+00  0.00000000E+00  0.00000000E+00
  0.00000000E+00  0.00000000E+00  0.00000000E+00
  0.00000000E+00  0.00000000E+00  0.00000000E+00
  0.00000000E+00  0.00000000E+00  0.00000000E+00
  0.00000000E+00  0.00000000E+00  0.00000000E+00
  0.00000000E+00  0.00000000E+00  0.00000000E+00
  0.00000000E+00  0.00000000E+00  0.00000000E+00
  0.00000000E+00  0.00000000E+00  0.00000000E+00
  0.00000000E+00  0.00000000E+00  0.00000000E+00
  0.00000000E+00  0.00000000E+00  0.00000000E+00
  0.00000000E+00  0.00000000E+00  0.00000000E+00
