(1, 1, 0)                               
   1.00000000000000     
     3.2314345690076238   -0.0000000051878903    0.0000000013610417
    -0.0000000098538703    4.6510383813742209    0.0000001526251137
     0.0000000367977244    0.0000014967582755   45.9968929205796258
   Li   O 
    28    14
Selective dynamics
Direct
  0.2499999813768994  0.2739998986922499  0.0187811582345252   T   T   T
  0.7500000000000000  0.2500000000000000  0.0535709999999980   F   F   F
  0.7500000000000000  0.7500000000000000  0.0535709999999980   F   F   F
  0.2500000167651066  0.7260002350744312  0.0187809617900534   T   T   T
  0.2500000000000000  0.2500000000000000  0.0892860000000013   F   F   F
  0.7500000000000000  0.2500000000000000  0.1250000000000000   F   F   F
  0.7500000000000000  0.7500000000000000  0.1250000000000000   F   F   F
  0.2500000000000000  0.7500000000000000  0.0892860000000013   F   F   F
  0.2500000000000000  0.2500000000000000  0.1607139999999987   F   F   F
  0.7500000000000000  0.2500000000000000  0.1964290000000020   F   F   F
  0.7500000000000000  0.7500000000000000  0.1964290000000020   F   F   F
  0.2500000000000000  0.7500000000000000  0.1607139999999987   F   F   F
  0.2500000000000000  0.2500000000000000  0.2321430000000007   F   F   F
  0.7500000000000000  0.2500000000000000  0.2678569999999993   F   F   F
  0.7500000000000000  0.7500000000000000  0.2678569999999993   F   F   F
  0.2500000000000000  0.7500000000000000  0.2321430000000007   F   F   F
  0.2500000000000000  0.2500000000000000  0.3035709999999980   F   F   F
  0.7500000000000000  0.2500000000000000  0.3392860000000013   F   F   F
  0.7500000000000000  0.7500000000000000  0.3392860000000013   F   F   F
  0.2500000000000000  0.7500000000000000  0.3035709999999980   F   F   F
  0.2500000000000000  0.2500000000000000  0.3750000000000000   F   F   F
  0.7500000000000000  0.2500000000000000  0.4107139999999987   F   F   F
  0.7500000000000000  0.7500000000000000  0.4107139999999987   F   F   F
  0.2500000000000000  0.7500000000000000  0.3750000000000000   F   F   F
  0.2500000000000000  0.2500000000000000  0.4464290000000020   F   F   F
  0.7499999719593533  0.2259999700552633  0.4812188871847627   T   T   T
  0.7500000329392044  0.7739999579209229  0.4812190065942460   T   T   T
  0.2500000000000000  0.7500000000000000  0.4464290000000020   F   F   F
  0.2500000000000000  0.0000000000000000  0.0535709999999980   F   F   F
  0.7500000072583132  0.5000000492586761  0.0200964375047143   T   T   T
  0.2500000000000000  0.0000000000000000  0.1250000000000000   F   F   F
  0.7500000000000000  0.5000000000000000  0.0892860000000013   F   F   F
  0.2500000000000000  0.0000000000000000  0.1964290000000020   F   F   F
  0.7500000000000000  0.5000000000000000  0.1607139999999987   F   F   F
  0.2500000000000000  0.0000000000000000  0.2678569999999993   F   F   F
  0.7500000000000000  0.5000000000000000  0.2321430000000007   F   F   F
  0.2500000000000000  0.0000000000000000  0.3392860000000013   F   F   F
  0.7500000000000000  0.5000000000000000  0.3035709999999980   F   F   F
  0.2500000000000000  0.0000000000000000  0.4107139999999987   F   F   F
  0.7500000000000000  0.5000000000000000  0.3750000000000000   F   F   F
  0.2499999963386350 -0.0000000065663849  0.4799035585443248   T   T   T
  0.7500000000000000  0.5000000000000000  0.4464290000000020   F   F   F
 
  0.00000000E+00  0.00000000E+00  0.00000000E+00
  0.00000000E+00  0.00000000E+00  0.00000000E+00
  0.00000000E+00  0.00000000E+00  0.00000000E+00
  0.00000000E+00  0.00000000E+00  0.00000000E+00
  0.00000000E+00  0.00000000E+00  0.00000000E+00
  0.00000000E+00  0.00000000E+00  0.00000000E+00
  0.00000000E+00  0.00000000E+00  0.00000000E+00
  0.00000000E+00  0.00000000E+00  0.00000000E+00
  0.00000000E+00  0.00000000E+00  0.00000000E+00
  0.00000000E+00  0.00000000E+00  0.00000000E+00
  0.00000000E+00  0.00000000E+00  0.00000000E+00
  0.00000000E+00  0.00000000E+00  0.00000000E+00
  0.00000000E+00  0.00000000E+00  0.00000000E+00
  0.00000000E+00  0.00000000E+00  0.00000000E+00
  0.00000000E+00  0.00000000E+00  0.00000000E+00
  0.00000000E+00  0.00000000E+00  0.00000000E+00
  0.00000000E+00  0.00000000E+00  0.00000000E+00
  0.00000000E+00  0.00000000E+00  0.00000000E+00
  0.00000000E+00  0.00000000E+00  0.00000000E+00
  0.00000000E+00  0.00000000E+00  0.00000000E+00
  0.00000000E+00  0.00000000E+00  0.00000000E+00
  0.00000000E+00  0.00000000E+00  0.00000000E+00
  0.00000000E+00  0.00000000E+00  0.00000000E+00
  0.00000000E+00  0.00000000E+00  0.00000000E+00
  0.00000000E+00  0.00000000E+00  0.00000000E+00
  0.00000000E+00  0.00000000E+00  0.00000000E+00
  0.00000000E+00  0.00000000E+00  0.00000000E+00
  0.00000000E+00  0.00000000E+00  0.00000000E+00
  0.00000000E+00  0.00000000E+00  0.00000000E+00
  0.00000000E+00  0.00000000E+00  0.00000000E+00
  0.00000000E+00  0.00000000E+00  0.00000000E+00
  0.00000000E+00  0.00000000E+00  0.00000000E+00
  0.00000000E+00  0.00000000E+00  0.00000000E+00
  0.00000000E+00  0.00000000E+00  0.00000000E+00
  0.00000000E+00  0.00000000E+00  0.00000000E+00
  0.00000000E+00  0.00000000E+00  0.00000000E+00
  0.00000000E+00  0.00000000E+00  0.00000000E+00
  0.00000000E+00  0.00000000E+00  0.00000000E+00
  0.00000000E+00  0.00000000E+00  0.00000000E+00
  0.00000000E+00  0.00000000E+00  0.00000000E+00
  0.00000000E+00  0.00000000E+00  0.00000000E+00
  0.00000000E+00  0.00000000E+00  0.00000000E+00
