(1, 1, 0)
1.0
3.294299 0.000000 -0.000000
0.000000 4.658842 0.000000
0.000000 0.000000 46.120183
Li O
28 14
Selective dynamics
direct
0.250000 0.250000 0.017857 T T T Li+
0.750000 0.250000 0.053571 F F F Li+
0.750000 0.750000 0.053571 F F F Li+
0.250000 0.750000 0.017857 T T T Li+
0.250000 0.250000 0.089286 F F F Li+
0.750000 0.250000 0.125000 F F F Li+
0.750000 0.750000 0.125000 F F F Li+
0.250000 0.750000 0.089286 F F F Li+
0.250000 0.250000 0.160714 F F F Li+
0.750000 0.250000 0.196429 F F F Li+
0.750000 0.750000 0.196429 F F F Li+
0.250000 0.750000 0.160714 F F F Li+
0.250000 0.250000 0.232143 F F F Li+
0.750000 0.250000 0.267857 F F F Li+
0.750000 0.750000 0.267857 F F F Li+
0.250000 0.750000 0.232143 F F F Li+
0.250000 0.250000 0.303571 F F F Li+
0.750000 0.250000 0.339286 F F F Li+
0.750000 0.750000 0.339286 F F F Li+
0.250000 0.750000 0.303571 F F F Li+
0.250000 0.250000 0.375000 F F F Li+
0.750000 0.250000 0.410714 F F F Li+
0.750000 0.750000 0.410714 F F F Li+
0.250000 0.750000 0.375000 F F F Li+
0.250000 0.250000 0.446429 F F F Li+
0.750000 0.250000 0.482143 T T T Li+
0.750000 0.750000 0.482143 T T T Li+
0.250000 0.750000 0.446429 F F F Li+
0.250000 0.000000 0.053571 F F F O2-
0.750000 0.500000 0.017857 T T T O2-
0.250000 0.000000 0.125000 F F F O2-
0.750000 0.500000 0.089286 F F F O2-
0.250000 0.000000 0.196429 F F F O2-
0.750000 0.500000 0.160714 F F F O2-
0.250000 0.000000 0.267857 F F F O2-
0.750000 0.500000 0.232143 F F F O2-
0.250000 0.000000 0.339286 F F F O2-
0.750000 0.500000 0.303571 F F F O2-
0.250000 0.000000 0.410714 F F F O2-
0.750000 0.500000 0.375000 F F F O2-
0.250000 0.000000 0.482143 T T T O2-
0.750000 0.500000 0.446429 F F F O2-
