P14 N14 O14
1.0
4.827920 0.000000 -0.217257
-0.310161 4.817947 -0.217257
0.000000 0.000000 46.333216
P N O
14 14 14
direct
0.362209 0.083175 0.996099 P5+
0.833175 0.112209 0.960385 P5+
0.862209 0.583175 0.924670 P5+
0.333175 0.612209 0.888956 P5+
0.362209 0.083175 0.853242 P5+
0.833175 0.112209 0.817527 P5+
0.862209 0.583175 0.781813 P5+
0.333175 0.612209 0.746099 P5+
0.362209 0.083175 0.710385 P5+
0.833175 0.112209 0.674670 P5+
0.862209 0.583175 0.638956 P5+
0.333175 0.612209 0.603242 P5+
0.362209 0.083175 0.567527 P5+
0.833175 0.112209 0.531813 P5+
0.777308 0.277308 0.932473 N3-
0.668077 0.168077 0.988297 N3-
0.277308 0.777308 0.861044 N3-
0.168077 0.668077 0.916868 N3-
0.777308 0.277308 0.789615 N3-
0.668077 0.168077 0.845440 N3-
0.277308 0.777308 0.718187 N3-
0.168077 0.668077 0.774011 N3-
0.777308 0.277308 0.646758 N3-
0.668077 0.168077 0.702582 N3-
0.277308 0.777308 0.575330 N3-
0.168077 0.668077 0.631154 N3-
0.777308 0.277308 0.503901 N3-
0.668077 0.168077 0.559725 N3-
0.159192 0.159192 0.969456 O2-
0.786192 0.786192 0.951313 O2-
0.659192 0.659192 0.898027 O2-
0.286192 0.286192 0.879885 O2-
0.159192 0.159192 0.826599 O2-
0.786192 0.786192 0.808456 O2-
0.659192 0.659192 0.755170 O2-
0.286192 0.286192 0.737027 O2-
0.159192 0.159192 0.683742 O2-
0.786192 0.786192 0.665599 O2-
0.659192 0.659192 0.612313 O2-
0.286192 0.286192 0.594170 O2-
0.159192 0.159192 0.540885 O2-
0.786192 0.786192 0.522742 O2-
