Li140 P140 O420
1.0
13.312980 0.000000 0.000000
-10.635230 16.540545 -5.521558
0.000000 0.000000 60.737138
Li P O
140 140 420
Selective dynamics
direct
0.126478 0.181780 0.036216 F F F Li
0.126478 0.681780 0.080690 F F F Li
0.888830 0.065996 0.026616 T T T Li
0.888830 0.565996 0.069238 F F F Li
0.652957 0.950543 0.014178 T T T Li
0.652957 0.450543 0.060684 F F F Li
0.418297 0.835452 0.003584 T T T Li
0.418297 0.335452 0.050352 F F F Li
0.270894 0.758434 0.043350 T T T Li
0.270894 0.258434 0.087492 F F F Li
0.624263 0.681714 0.079247 F F F Li
0.624263 0.181714 0.037646 F F F Li
0.387725 0.566270 0.072832 F F F Li
0.387725 0.066270 0.023071 T T T Li
0.151818 0.449547 0.057045 F F F Li
0.151818 0.949547 0.017636 T T T Li
0.915480 0.332984 0.051495 F F F Li
0.915480 0.832984 0.001993 T T T Li
0.766829 0.256366 0.000607 T T T Li
0.766829 0.756366 0.038950 F F F Li
0.126478 0.181780 0.127125 F F F Li
0.126478 0.681780 0.171599 F F F Li
0.888830 0.065996 0.117525 F F F Li
0.888830 0.565996 0.160147 F F F Li
0.652957 0.950543 0.105087 F F F Li
0.652957 0.450543 0.151593 F F F Li
0.418297 0.835452 0.094493 F F F Li
0.418297 0.335452 0.141261 F F F Li
0.270894 0.758434 0.134259 F F F Li
0.270894 0.258434 0.178401 F F F Li
0.624263 0.681714 0.170156 F F F Li
0.624263 0.181714 0.128555 F F F Li
0.387725 0.566270 0.163742 F F F Li
0.387725 0.066270 0.113980 F F F Li
0.151818 0.449547 0.147954 F F F Li
0.151818 0.949547 0.108545 F F F Li
0.915480 0.332984 0.142404 F F F Li
0.915480 0.832984 0.092902 F F F Li
0.766829 0.256366 0.091516 F F F Li
0.766829 0.756366 0.129859 F F F Li
0.126478 0.181780 0.218034 F F F Li
0.126478 0.681780 0.262508 F F F Li
0.888830 0.065996 0.208434 F F F Li
0.888830 0.565996 0.251056 F F F Li
0.652957 0.950543 0.195996 F F F Li
0.652957 0.450543 0.242502 F F F Li
0.418297 0.835452 0.185402 F F F Li
0.418297 0.335452 0.232171 F F F Li
0.270894 0.758434 0.225168 F F F Li
0.270894 0.258434 0.269311 F F F Li
0.624263 0.681714 0.261065 F F F Li
0.624263 0.181714 0.219464 F F F Li
0.387725 0.566270 0.254651 F F F Li
0.387725 0.066270 0.204889 F F F Li
0.151818 0.449547 0.238863 F F F Li
0.151818 0.949547 0.199454 F F F Li
0.915480 0.332984 0.233313 F F F Li
0.915480 0.832984 0.183811 F F F Li
0.766829 0.256366 0.182425 F F F Li
0.766829 0.756366 0.220769 F F F Li
0.126478 0.181780 0.308943 F F F Li
0.126478 0.681780 0.353417 F F F Li
0.888830 0.065996 0.299343 F F F Li
0.888830 0.565996 0.341965 F F F Li
0.652957 0.950543 0.286905 F F F Li
0.652957 0.450543 0.333411 F F F Li
0.418297 0.835452 0.276312 F F F Li
0.418297 0.335452 0.323080 F F F Li
0.270894 0.758434 0.316077 F F F Li
0.270894 0.258434 0.360220 F F F Li
0.624263 0.681714 0.351974 F F F Li
0.624263 0.181714 0.310373 F F F Li
0.387725 0.566270 0.345560 F F F Li
0.387725 0.066270 0.295798 F F F Li
0.151818 0.449547 0.329772 F F F Li
0.151818 0.949547 0.290363 F F F Li
0.915480 0.332984 0.324222 F F F Li
0.915480 0.832984 0.274720 F F F Li
0.766829 0.256366 0.273334 F F F Li
0.766829 0.756366 0.311678 F F F Li
0.126478 0.181780 0.399852 F F F Li
0.126478 0.681780 0.444326 F F F Li
0.888830 0.065996 0.390252 F F F Li
0.888830 0.565996 0.432874 F F F Li
0.652957 0.950543 0.377814 F F F Li
0.652957 0.450543 0.424321 F F F Li
0.418297 0.835452 0.367221 F F F Li
0.418297 0.335452 0.413989 F F F Li
0.270894 0.758434 0.406986 F F F Li
0.270894 0.258434 0.451129 F F F Li
0.624263 0.681714 0.442884 F F F Li
0.624263 0.181714 0.401282 F F F Li
0.387725 0.566270 0.436469 F F F Li
0.387725 0.066270 0.386708 F F F Li
0.151818 0.449547 0.420682 F F F Li
0.151818 0.949547 0.381272 F F F Li
0.915480 0.332984 0.415131 F F F Li
0.915480 0.832984 0.365629 F F F Li
0.766829 0.256366 0.364243 F F F Li
0.766829 0.756366 0.402587 F F F Li
0.126478 0.181780 0.490761 F F F Li
0.126478 0.681780 0.535235 F F F Li
0.888830 0.065996 0.481161 F F F Li
0.888830 0.565996 0.523783 F F F Li
0.652957 0.950543 0.468723 F F F Li
0.652957 0.450543 0.515230 F F F Li
0.418297 0.835452 0.458130 F F F Li
0.418297 0.335452 0.504898 F F F Li
0.270894 0.758434 0.497895 F F F Li
0.270894 0.258434 0.542038 F F F Li
0.624263 0.681714 0.533793 F F F Li
0.624263 0.181714 0.492192 F F F Li
0.387725 0.566270 0.527378 F F F Li
0.387725 0.066270 0.477617 F F F Li
0.151818 0.449547 0.511591 F F F Li
0.151818 0.949547 0.472181 F F F Li
0.915480 0.332984 0.506041 F F F Li
0.915480 0.832984 0.456538 F F F Li
0.766829 0.256366 0.455152 F F F Li
0.766829 0.756366 0.493496 F F F Li
0.126478 0.181780 0.581670 F F F Li
0.126478 0.681780 0.626144 T T T Li
0.888830 0.065996 0.572071 F F F Li
0.888830 0.565996 0.614692 T T T Li
0.652957 0.950543 0.559633 F F F Li
0.652957 0.450543 0.606139 T T T Li
0.418297 0.835452 0.549039 F F F Li
0.418297 0.335452 0.595807 F F F Li
0.270894 0.758434 0.588805 F F F Li
0.270894 0.258434 0.632947 F F F Li
0.624263 0.681714 0.624702 T T T Li
0.624263 0.181714 0.583101 F F F Li
0.387725 0.566270 0.618287 T T T Li
0.387725 0.066270 0.568526 F F F Li
0.151818 0.449547 0.602500 F F F Li
0.151818 0.949547 0.563091 F F F Li
0.915480 0.332984 0.596950 T T T Li
0.915480 0.832984 0.547447 F F F Li
0.766829 0.256366 0.546061 F F F Li
0.766829 0.756366 0.584405 F F F Li
0.000779 0.999587 0.047764 F F F P
0.000779 0.499587 0.036015 F F F P
0.794387 0.906720 0.070418 F F F P
0.794387 0.406720 0.087385 F F F P
0.598863 0.802939 0.029609 T T T P
0.598863 0.302939 0.018417 F F F P
0.408395 0.691689 0.052174 F F F P
0.408395 0.191689 0.066533 F F F P
0.208401 0.591751 0.013019 T T T P
0.208401 0.091751 0.087517 F F F P
0.334920 0.425433 0.026609 F F F P
0.334920 0.925433 0.043688 F F F P
0.134548 0.325562 0.078404 F F F P
0.134548 0.825562 0.064644 F F F P
0.943677 0.213545 0.010224 T T T P
0.943677 0.713545 0.021548 T T T P
0.747866 0.110144 0.060858 F F F P
0.747866 0.610144 0.043022 F F F P
0.541580 0.017155 0.083499 F F F P
0.541580 0.517155 0.003475 T T T P
0.000779 0.999587 0.138674 F F F P
0.000779 0.499587 0.126924 F F F P
0.794387 0.906720 0.161327 F F F P
0.794387 0.406720 0.178294 F F F P
0.598863 0.802939 0.120518 F F F P
0.598863 0.302939 0.109326 F F F P
0.408395 0.691689 0.143083 F F F P
0.408395 0.191689 0.157442 F F F P
0.208401 0.591751 0.103928 F F F P
0.208401 0.091751 0.178426 F F F P
0.334920 0.425433 0.117518 F F F P
0.334920 0.925433 0.134597 F F F P
0.134548 0.325562 0.169313 F F F P
0.134548 0.825562 0.155553 F F F P
0.943677 0.213545 0.101133 F F F P
0.943677 0.713545 0.112457 F F F P
0.747866 0.110144 0.151768 F F F P
0.747866 0.610144 0.133931 F F F P
0.541580 0.017155 0.174408 F F F P
0.541580 0.517155 0.094384 F F F P
0.000779 0.999587 0.229583 F F F P
0.000779 0.499587 0.217833 F F F P
0.794387 0.906720 0.252237 F F F P
0.794387 0.406720 0.269203 F F F P
0.598863 0.802939 0.211427 F F F P
0.598863 0.302939 0.200235 F F F P
0.408395 0.691689 0.233992 F F F P
0.408395 0.191689 0.248351 F F F P
0.208401 0.591751 0.194837 F F F P
0.208401 0.091751 0.269335 F F F P
0.334920 0.425433 0.208427 F F F P
0.334920 0.925433 0.225506 F F F P
0.134548 0.325562 0.260222 F F F P
0.134548 0.825562 0.246462 F F F P
0.943677 0.213545 0.192042 F F F P
0.943677 0.713545 0.203366 F F F P
0.747866 0.110144 0.242677 F F F P
0.747866 0.610144 0.224840 F F F P
0.541580 0.017155 0.265317 F F F P
0.541580 0.517155 0.185293 F F F P
0.000779 0.999587 0.320492 F F F P
0.000779 0.499587 0.308742 F F F P
0.794387 0.906720 0.343146 F F F P
0.794387 0.406720 0.360112 F F F P
0.598863 0.802939 0.302336 F F F P
0.598863 0.302939 0.291144 F F F P
0.408395 0.691689 0.324901 F F F P
0.408395 0.191689 0.339260 F F F P
0.208401 0.591751 0.285747 F F F P
0.208401 0.091751 0.360244 F F F P
0.334920 0.425433 0.299337 F F F P
0.334920 0.925433 0.316415 F F F P
0.134548 0.325562 0.351131 F F F P
0.134548 0.825562 0.337371 F F F P
0.943677 0.213545 0.282951 F F F P
0.943677 0.713545 0.294275 F F F P
0.747866 0.110144 0.333586 F F F P
0.747866 0.610144 0.315749 F F F P
0.541580 0.017155 0.356226 F F F P
0.541580 0.517155 0.276202 F F F P
0.000779 0.999587 0.411401 F F F P
0.000779 0.499587 0.399651 F F F P
0.794387 0.906720 0.434055 F F F P
0.794387 0.406720 0.451021 F F F P
0.598863 0.802939 0.393245 F F F P
0.598863 0.302939 0.382053 F F F P
0.408395 0.691689 0.415810 F F F P
0.408395 0.191689 0.430170 F F F P
0.208401 0.591751 0.376656 F F F P
0.208401 0.091751 0.451154 F F F P
0.334920 0.425433 0.390246 F F F P
0.334920 0.925433 0.407324 F F F P
0.134548 0.325562 0.442040 F F F P
0.134548 0.825562 0.428280 F F F P
0.943677 0.213545 0.373861 F F F P
0.943677 0.713545 0.385184 F F F P
0.747866 0.110144 0.424495 F F F P
0.747866 0.610144 0.406659 F F F P
0.541580 0.017155 0.447135 F F F P
0.541580 0.517155 0.367111 F F F P
0.000779 0.999587 0.502310 F F F P
0.000779 0.499587 0.490560 F F F P
0.794387 0.906720 0.524964 F F F P
0.794387 0.406720 0.541931 F F F P
0.598863 0.802939 0.484154 F F F P
0.598863 0.302939 0.472962 F F F P
0.408395 0.691689 0.506719 F F F P
0.408395 0.191689 0.521079 F F F P
0.208401 0.591751 0.467565 F F F P
0.208401 0.091751 0.542063 F F F P
0.334920 0.425433 0.481155 F F F P
0.334920 0.925433 0.498233 F F F P
0.134548 0.325562 0.532949 F F F P
0.134548 0.825562 0.519189 F F F P
0.943677 0.213545 0.464770 F F F P
0.943677 0.713545 0.476093 F F F P
0.747866 0.110144 0.515404 F F F P
0.747866 0.610144 0.497568 F F F P
0.541580 0.017155 0.538044 F F F P
0.541580 0.517155 0.458020 F F F P
0.000779 0.999587 0.593219 F F F P
0.000779 0.499587 0.581469 F F F P
0.794387 0.906720 0.615873 T T T P
0.794387 0.406720 0.632840 T T T P
0.598863 0.802939 0.575063 F F F P
0.598863 0.302939 0.563871 F F F P
0.408395 0.691689 0.597628 F F F P
0.408395 0.191689 0.611988 T T T P
0.208401 0.591751 0.558474 F F F P
0.208401 0.091751 0.632972 T T T P
0.334920 0.425433 0.572064 F F F P
0.334920 0.925433 0.589142 F F F P
0.134548 0.325562 0.623858 T T T P
0.134548 0.825562 0.610098 T T T P
0.943677 0.213545 0.555679 F F F P
0.943677 0.713545 0.567002 F F F P
0.747866 0.110144 0.606313 T T T P
0.747866 0.610144 0.588477 T T T P
0.541580 0.017155 0.628953 T T T P
0.541580 0.517155 0.548929 F F F P
0.870015 0.964587 0.055162 F F F O
0.870015 0.464587 0.022253 F F F O
0.659821 0.859372 0.056317 F F F O
0.659821 0.359372 0.001969 F F F O
0.481350 0.724144 0.032302 F F F O
0.481350 0.224144 0.001397 F F F O
0.293096 0.607741 0.035660 F F F O
0.293096 0.107741 0.067784 F F F O
0.080152 0.021852 0.071912 F F F O
0.080152 0.521852 0.015916 T T T O
0.250064 0.409378 0.003982 F F F O
0.250064 0.909378 0.063396 F F F O
0.063226 0.290596 0.007269 T T T O
0.063226 0.790596 0.038512 F F F O
0.883201 0.156445 0.074398 F F F O
0.883201 0.656445 0.037901 F F F O
0.674568 0.056520 0.077176 F F F O
0.674568 0.556520 0.016955 T T T O
0.463629 0.495673 0.023835 T T T O
0.463629 0.995673 0.059233 F F F O
0.029173 0.073889 0.042027 F F F O
0.029173 0.573889 0.055262 F F F O
0.005091 0.933926 0.030110 F F F O
0.005091 0.433926 0.041731 F F F O
0.795375 0.958651 0.002389 F F F O
0.795375 0.458651 0.073948 F F F O
0.828944 0.846743 0.069331 F F F O
0.828944 0.346743 0.077568 F F F O
0.560342 0.845353 0.018598 T T T O
0.560342 0.345353 0.037139 F F F O
0.677417 0.775410 0.018621 F F F O
0.677417 0.275410 0.024399 F F F O
0.369330 0.747295 0.064268 F F F O
0.369330 0.247295 0.064549 F F F O
0.472480 0.669352 0.065842 F F F O
0.472480 0.169352 0.048804 F F F O
0.209416 0.667159 0.014840 T T T O
0.209416 0.167159 0.008498 F F F O
0.238895 0.553292 0.082610 F F F O
0.238895 0.053292 0.010934 F F F O
0.302391 0.463335 0.047695 F F F O
0.302391 0.963335 0.029493 F F F O
0.334913 0.350606 0.025074 F F F O
0.334913 0.850606 0.031618 F F F O
0.068594 0.348215 0.065329 F F F O
0.068594 0.848215 0.081837 F F F O
0.175312 0.271458 0.065874 F F F O
0.175312 0.771458 0.067337 F F F O
0.864720 0.241625 0.020645 T T T O
0.864720 0.741625 0.016233 F F F O
0.980120 0.171199 0.021768 T T T O
0.980120 0.671199 0.002304 T T T O
0.713620 0.170027 0.061450 F F F O
0.713620 0.670027 0.053318 F F F O
0.742996 0.055640 0.038140 F F F O
0.742996 0.555640 0.055830 F F F O
0.532819 0.080441 0.010379 F F F O
0.532819 0.580441 0.088101 F F F O
0.515310 0.942366 0.088605 F F F O
0.515310 0.442366 0.075680 F F F O
0.870015 0.964587 0.146071 F F F O
0.870015 0.464587 0.113162 F F F O
0.659821 0.859372 0.147226 F F F O
0.659821 0.359372 0.092878 F F F O
0.481350 0.724144 0.123211 F F F O
0.481350 0.224144 0.092306 F F F O
0.293096 0.607741 0.126569 F F F O
0.293096 0.107741 0.158693 F F F O
0.080152 0.021852 0.162821 F F F O
0.080152 0.521852 0.106825 F F F O
0.250064 0.409378 0.094891 F F F O
0.250064 0.909378 0.154305 F F F O
0.063226 0.290596 0.098178 F F F O
0.063226 0.790596 0.129421 F F F O
0.883201 0.156445 0.165307 F F F O
0.883201 0.656445 0.128810 F F F O
0.674568 0.056520 0.168085 F F F O
0.674568 0.556520 0.107864 F F F O
0.463629 0.495673 0.114744 F F F O
0.463629 0.995673 0.150142 F F F O
0.029173 0.073889 0.132936 F F F O
0.029173 0.573889 0.146171 F F F O
0.005091 0.933926 0.121019 F F F O
0.005091 0.433926 0.132640 F F F O
0.795375 0.958651 0.093298 F F F O
0.795375 0.458651 0.164857 F F F O
0.828944 0.846743 0.160240 F F F O
0.828944 0.346743 0.168477 F F F O
0.560342 0.845353 0.109507 F F F O
0.560342 0.345353 0.128048 F F F O
0.677417 0.775410 0.109530 F F F O
0.677417 0.275410 0.115308 F F F O
0.369330 0.747295 0.155177 F F F O
0.369330 0.247295 0.155458 F F F O
0.472480 0.669352 0.156751 F F F O
0.472480 0.169352 0.139713 F F F O
0.209416 0.667159 0.105749 F F F O
0.209416 0.167159 0.099407 F F F O
0.238895 0.553292 0.173519 F F F O
0.238895 0.053292 0.101843 F F F O
0.302391 0.463335 0.138604 F F F O
0.302391 0.963335 0.120402 F F F O
0.334913 0.350606 0.115983 F F F O
0.334913 0.850606 0.122527 F F F O
0.068594 0.348215 0.156238 F F F O
0.068594 0.848215 0.172746 F F F O
0.175312 0.271458 0.156783 F F F O
0.175312 0.771458 0.158246 F F F O
0.864720 0.241625 0.111554 F F F O
0.864720 0.741625 0.107142 F F F O
0.980120 0.171199 0.112677 F F F O
0.980120 0.671199 0.093214 F F F O
0.713620 0.170027 0.152360 F F F O
0.713620 0.670027 0.144227 F F F O
0.742996 0.055640 0.129049 F F F O
0.742996 0.555640 0.146740 F F F O
0.532819 0.080441 0.101288 F F F O
0.532819 0.580441 0.179010 F F F O
0.515310 0.942366 0.179514 F F F O
0.515310 0.442366 0.166589 F F F O
0.870015 0.964587 0.236981 F F F O
0.870015 0.464587 0.204071 F F F O
0.659821 0.859372 0.238135 F F F O
0.659821 0.359372 0.183787 F F F O
0.481350 0.724144 0.214120 F F F O
0.481350 0.224144 0.183215 F F F O
0.293096 0.607741 0.217478 F F F O
0.293096 0.107741 0.249602 F F F O
0.080152 0.021852 0.253730 F F F O
0.080152 0.521852 0.197734 F F F O
0.250064 0.409378 0.185800 F F F O
0.250064 0.909378 0.245214 F F F O
0.063226 0.290596 0.189087 F F F O
0.063226 0.790596 0.220331 F F F O
0.883201 0.156445 0.256216 F F F O
0.883201 0.656445 0.219719 F F F O
0.674568 0.056520 0.258994 F F F O
0.674568 0.556520 0.198773 F F F O
0.463629 0.495673 0.205653 F F F O
0.463629 0.995673 0.241051 F F F O
0.029173 0.073889 0.223845 F F F O
0.029173 0.573889 0.237080 F F F O
0.005091 0.933926 0.211928 F F F O
0.005091 0.433926 0.223549 F F F O
0.795375 0.958651 0.184207 F F F O
0.795375 0.458651 0.255766 F F F O
0.828944 0.846743 0.251149 F F F O
0.828944 0.346743 0.259386 F F F O
0.560342 0.845353 0.200416 F F F O
0.560342 0.345353 0.218957 F F F O
0.677417 0.775410 0.200439 F F F O
0.677417 0.275410 0.206217 F F F O
0.369330 0.747295 0.246086 F F F O
0.369330 0.247295 0.246367 F F F O
0.472480 0.669352 0.247660 F F F O
0.472480 0.169352 0.230622 F F F O
0.209416 0.667159 0.196658 F F F O
0.209416 0.167159 0.190316 F F F O
0.238895 0.553292 0.264429 F F F O
0.238895 0.053292 0.192752 F F F O
0.302391 0.463335 0.229513 F F F O
0.302391 0.963335 0.211311 F F F O
0.334913 0.350606 0.206892 F F F O
0.334913 0.850606 0.213437 F F F O
0.068594 0.348215 0.247147 F F F O
0.068594 0.848215 0.263655 F F F O
0.175312 0.271458 0.247692 F F F O
0.175312 0.771458 0.249155 F F F O
0.864720 0.241625 0.202463 F F F O
0.864720 0.741625 0.198051 F F F O
0.980120 0.171199 0.203586 F F F O
0.980120 0.671199 0.184123 F F F O
0.713620 0.170027 0.243269 F F F O
0.713620 0.670027 0.235136 F F F O
0.742996 0.055640 0.219959 F F F O
0.742996 0.555640 0.237649 F F F O
0.532819 0.080441 0.192197 F F F O
0.532819 0.580441 0.269919 F F F O
0.515310 0.942366 0.270423 F F F O
0.515310 0.442366 0.257498 F F F O
0.870015 0.964587 0.327890 F F F O
0.870015 0.464587 0.294981 F F F O
0.659821 0.859372 0.329044 F F F O
0.659821 0.359372 0.274696 F F F O
0.481350 0.724144 0.305030 F F F O
0.481350 0.224144 0.274124 F F F O
0.293096 0.607741 0.308387 F F F O
0.293096 0.107741 0.340511 F F F O
0.080152 0.021852 0.344639 F F F O
0.080152 0.521852 0.288643 F F F O
0.250064 0.409378 0.276709 F F F O
0.250064 0.909378 0.336124 F F F O
0.063226 0.290596 0.279996 F F F O
0.063226 0.790596 0.311240 F F F O
0.883201 0.156445 0.347125 F F F O
0.883201 0.656445 0.310628 F F F O
0.674568 0.056520 0.349903 F F F O
0.674568 0.556520 0.289682 F F F O
0.463629 0.495673 0.296562 F F F O
0.463629 0.995673 0.331960 F F F O
0.029173 0.073889 0.314754 F F F O
0.029173 0.573889 0.327989 F F F O
0.005091 0.933926 0.302837 F F F O
0.005091 0.433926 0.314458 F F F O
0.795375 0.958651 0.275116 F F F O
0.795375 0.458651 0.346675 F F F O
0.828944 0.846743 0.342058 F F F O
0.828944 0.346743 0.350295 F F F O
0.560342 0.845353 0.291325 F F F O
0.560342 0.345353 0.309866 F F F O
0.677417 0.775410 0.291348 F F F O
0.677417 0.275410 0.297126 F F F O
0.369330 0.747295 0.336995 F F F O
0.369330 0.247295 0.337276 F F F O
0.472480 0.669352 0.338569 F F F O
0.472480 0.169352 0.321531 F F F O
0.209416 0.667159 0.287567 F F F O
0.209416 0.167159 0.281225 F F F O
0.238895 0.553292 0.355338 F F F O
0.238895 0.053292 0.283661 F F F O
0.302391 0.463335 0.320422 F F F O
0.302391 0.963335 0.302220 F F F O
0.334913 0.350606 0.297801 F F F O
0.334913 0.850606 0.304346 F F F O
0.068594 0.348215 0.338056 F F F O
0.068594 0.848215 0.354564 F F F O
0.175312 0.271458 0.338601 F F F O
0.175312 0.771458 0.340064 F F F O
0.864720 0.241625 0.293372 F F F O
0.864720 0.741625 0.288960 F F F O
0.980120 0.171199 0.294495 F F F O
0.980120 0.671199 0.275032 F F F O
0.713620 0.170027 0.334178 F F F O
0.713620 0.670027 0.326045 F F F O
0.742996 0.055640 0.310868 F F F O
0.742996 0.555640 0.328558 F F F O
0.532819 0.080441 0.283106 F F F O
0.532819 0.580441 0.360828 F F F O
0.515310 0.942366 0.361332 F F F O
0.515310 0.442366 0.348407 F F F O
0.870015 0.964587 0.418799 F F F O
0.870015 0.464587 0.385890 F F F O
0.659821 0.859372 0.419953 F F F O
0.659821 0.359372 0.365605 F F F O
0.481350 0.724144 0.395939 F F F O
0.481350 0.224144 0.365033 F F F O
0.293096 0.607741 0.399296 F F F O
0.293096 0.107741 0.431420 F F F O
0.080152 0.021852 0.435548 F F F O
0.080152 0.521852 0.379552 F F F O
0.250064 0.409378 0.367618 F F F O
0.250064 0.909378 0.427033 F F F O
0.063226 0.290596 0.370905 F F F O
0.063226 0.790596 0.402149 F F F O
0.883201 0.156445 0.438034 F F F O
0.883201 0.656445 0.401537 F F F O
0.674568 0.056520 0.440812 F F F O
0.674568 0.556520 0.380592 F F F O
0.463629 0.495673 0.387471 F F F O
0.463629 0.995673 0.422869 F F F O
0.029173 0.073889 0.405663 F F F O
0.029173 0.573889 0.418899 F F F O
0.005091 0.933926 0.393746 F F F O
0.005091 0.433926 0.405368 F F F O
0.795375 0.958651 0.366025 F F F O
0.795375 0.458651 0.437584 F F F O
0.828944 0.846743 0.432967 F F F O
0.828944 0.346743 0.441204 F F F O
0.560342 0.845353 0.382234 F F F O
0.560342 0.345353 0.400775 F F F O
0.677417 0.775410 0.382257 F F F O
0.677417 0.275410 0.388035 F F F O
0.369330 0.747295 0.427904 F F F O
0.369330 0.247295 0.428185 F F F O
0.472480 0.669352 0.429478 F F F O
0.472480 0.169352 0.412440 F F F O
0.209416 0.667159 0.378476 F F F O
0.209416 0.167159 0.372135 F F F O
0.238895 0.553292 0.446247 F F F O
0.238895 0.053292 0.374570 F F F O
0.302391 0.463335 0.411331 F F F O
0.302391 0.963335 0.393130 F F F O
0.334913 0.350606 0.388710 F F F O
0.334913 0.850606 0.395255 F F F O
0.068594 0.348215 0.428966 F F F O
0.068594 0.848215 0.445473 F F F O
0.175312 0.271458 0.429510 F F F O
0.175312 0.771458 0.430973 F F F O
0.864720 0.241625 0.384281 F F F O
0.864720 0.741625 0.379869 F F F O
0.980120 0.171199 0.385404 F F F O
0.980120 0.671199 0.365941 F F F O
0.713620 0.170027 0.425087 F F F O
0.713620 0.670027 0.416954 F F F O
0.742996 0.055640 0.401777 F F F O
0.742996 0.555640 0.419467 F F F O
0.532819 0.080441 0.374016 F F F O
0.532819 0.580441 0.451737 F F F O
0.515310 0.942366 0.452241 F F F O
0.515310 0.442366 0.439316 F F F O
0.870015 0.964587 0.509708 F F F O
0.870015 0.464587 0.476799 F F F O
0.659821 0.859372 0.510862 F F F O
0.659821 0.359372 0.456514 F F F O
0.481350 0.724144 0.486848 F F F O
0.481350 0.224144 0.455942 F F F O
0.293096 0.607741 0.490205 F F F O
0.293096 0.107741 0.522329 F F F O
0.080152 0.021852 0.526457 F F F O
0.080152 0.521852 0.470461 F F F O
0.250064 0.409378 0.458527 F F F O
0.250064 0.909378 0.517942 F F F O
0.063226 0.290596 0.461814 F F F O
0.063226 0.790596 0.493058 F F F O
0.883201 0.156445 0.528944 F F F O
0.883201 0.656445 0.492446 F F F O
0.674568 0.056520 0.531721 F F F O
0.674568 0.556520 0.471501 F F F O
0.463629 0.495673 0.478380 F F F O
0.463629 0.995673 0.513779 F F F O
0.029173 0.073889 0.496572 F F F O
0.029173 0.573889 0.509808 F F F O
0.005091 0.933926 0.484655 F F F O
0.005091 0.433926 0.496277 F F F O
0.795375 0.958651 0.456934 F F F O
0.795375 0.458651 0.528493 F F F O
0.828944 0.846743 0.523876 F F F O
0.828944 0.346743 0.532113 F F F O
0.560342 0.845353 0.473143 F F F O
0.560342 0.345353 0.491684 F F F O
0.677417 0.775410 0.473166 F F F O
0.677417 0.275410 0.478945 F F F O
0.369330 0.747295 0.518814 F F F O
0.369330 0.247295 0.519095 F F F O
0.472480 0.669352 0.520387 F F F O
0.472480 0.169352 0.503349 F F F O
0.209416 0.667159 0.469385 F F F O
0.209416 0.167159 0.463044 F F F O
0.238895 0.553292 0.537156 F F F O
0.238895 0.053292 0.465479 F F F O
0.302391 0.463335 0.502240 F F F O
0.302391 0.963335 0.484039 F F F O
0.334913 0.350606 0.479619 F F F O
0.334913 0.850606 0.486164 F F F O
0.068594 0.348215 0.519875 F F F O
0.068594 0.848215 0.536382 F F F O
0.175312 0.271458 0.520419 F F F O
0.175312 0.771458 0.521882 F F F O
0.864720 0.241625 0.475190 F F F O
0.864720 0.741625 0.470778 F F F O
0.980120 0.171199 0.476314 F F F O
0.980120 0.671199 0.456850 F F F O
0.713620 0.170027 0.515996 F F F O
0.713620 0.670027 0.507864 F F F O
0.742996 0.055640 0.492686 F F F O
0.742996 0.555640 0.510376 F F F O
0.532819 0.080441 0.464925 F F F O
0.532819 0.580441 0.542646 F F F O
0.515310 0.942366 0.543150 F F F O
0.515310 0.442366 0.530225 F F F O
0.870015 0.964587 0.600617 F F F O
0.870015 0.464587 0.567708 F F F O
0.659821 0.859372 0.601771 F F F O
0.659821 0.359372 0.547423 F F F O
0.481350 0.724144 0.577757 F F F O
0.481350 0.224144 0.546851 F F F O
0.293096 0.607741 0.581114 F F F O
0.293096 0.107741 0.613238 T T T O
0.080152 0.021852 0.617366 T T T O
0.080152 0.521852 0.561370 F F F O
0.250064 0.409378 0.549436 F F F O
0.250064 0.909378 0.608851 F F F O
0.063226 0.290596 0.552723 F F F O
0.063226 0.790596 0.583967 F F F O
0.883201 0.156445 0.619853 F F F O
0.883201 0.656445 0.583355 F F F O
0.674568 0.056520 0.622630 T T T O
0.674568 0.556520 0.562410 F F F O
0.463629 0.495673 0.569289 F F F O
0.463629 0.995673 0.604688 F F F O
0.029173 0.073889 0.587481 F F F O
0.029173 0.573889 0.600717 F F F O
0.005091 0.933926 0.575564 F F F O
0.005091 0.433926 0.587186 F F F O
0.795375 0.958651 0.547843 F F F O
0.795375 0.458651 0.619402 T T T O
0.828944 0.846743 0.614785 T T T O
0.828944 0.346743 0.623022 T T T O
0.560342 0.845353 0.564053 F F F O
0.560342 0.345353 0.582593 F F F O
0.677417 0.775410 0.564075 F F F O
0.677417 0.275410 0.569854 F F F O
0.369330 0.747295 0.609723 F F F O
0.369330 0.247295 0.610004 T T T O
0.472480 0.669352 0.611296 F F F O
0.472480 0.169352 0.594258 T T T O
0.209416 0.667159 0.560294 F F F O
0.209416 0.167159 0.553953 F F F O
0.238895 0.553292 0.628065 F F F O
0.238895 0.053292 0.556388 F F F O
0.302391 0.463335 0.593149 F F F O
0.302391 0.963335 0.574948 F F F O
0.334913 0.350606 0.570528 F F F O
0.334913 0.850606 0.577073 F F F O
0.068594 0.348215 0.610784 T T T O
0.068594 0.848215 0.627292 T T T O
0.175312 0.271458 0.611328 T T T O
0.175312 0.771458 0.612791 F F F O
0.864720 0.241625 0.566099 F F F O
0.864720 0.741625 0.561687 F F F O
0.980120 0.171199 0.567223 F F F O
0.980120 0.671199 0.547759 F F F O
0.713620 0.170027 0.606905 T T T O
0.713620 0.670027 0.598773 T T T O
0.742996 0.055640 0.583595 F F F O
0.742996 0.555640 0.601285 F F F O
0.532819 0.080441 0.555834 F F F O
0.532819 0.580441 0.633555 T T T O
0.515310 0.942366 0.634059 T T T O
0.515310 0.442366 0.621134 F F F O
