Li1 N3                                  
   1.00000000000000     
     1.7203640000000000    2.9153910000000001    0.0003840000000000
    -1.7203640000000000    2.9153910000000001    0.0003840000000000
     0.0000000000000000    1.5194510000000001    4.8872900000000001
   Li   N 
     1     3
Direct
  0.0000000000000000  0.0000000000000000  0.0000000000000000
  0.6058760000000021  0.6058760000000021  0.2565329999999975
  0.3941239999999979  0.3941239999999979  0.7434670000000025
  0.5000000000000000  0.5000000000000000  0.5000000000000000
 
  0.00000000E+00  0.00000000E+00  0.00000000E+00
  0.00000000E+00  0.00000000E+00  0.00000000E+00
  0.00000000E+00  0.00000000E+00  0.00000000E+00
  0.00000000E+00  0.00000000E+00  0.00000000E+00
