Li1 N3
1.0
1.720364 2.915391 0.000384
-1.720364 2.915391 0.000384
0.000000 1.519451 4.887290
Li N
1 3
direct
-0.000000 -0.000000 -0.000000 Li
0.605876 0.605876 0.256533 N
0.394124 0.394124 0.743467 N
0.500000 0.500000 0.500000 N
