Li140 P140 O420
1.0
13.312980 0.000000 0.000000
-10.635230 16.540545 -5.521558
0.000000 0.000000 60.737138
Li P O
140 140 420
direct
0.126478 0.181780 0.079600 Li+
0.126478 0.681780 0.033165 Li+
0.888830 0.065996 0.070001 Li+
0.888830 0.565996 0.021713 Li+
0.652957 0.950543 0.057563 Li+
0.652957 0.450543 0.013160 Li+
0.418297 0.835452 0.046969 Li+
0.418297 0.335452 0.002828 Li+
0.270894 0.758434 0.086734 Li+
0.270894 0.258434 0.039968 Li+
0.624263 0.681714 0.031723 Li+
0.624263 0.181714 0.081031 Li+
0.387725 0.566270 0.025308 Li+
0.387725 0.066270 0.066456 Li+
0.151818 0.449547 0.009521 Li+
0.151818 0.949547 0.061021 Li+
0.915480 0.332984 0.003971 Li+
0.915480 0.832984 0.045377 Li+
0.766829 0.256366 0.043991 Li+
0.766829 0.756366 0.082335 Li+
0.126478 0.181780 0.170509 Li+
0.126478 0.681780 0.124074 Li+
0.888830 0.065996 0.160910 Li+
0.888830 0.565996 0.112622 Li+
0.652957 0.950543 0.148472 Li+
0.652957 0.450543 0.104069 Li+
0.418297 0.835452 0.137878 Li+
0.418297 0.335452 0.093737 Li+
0.270894 0.758434 0.177644 Li+
0.270894 0.258434 0.130877 Li+
0.624263 0.681714 0.122632 Li+
0.624263 0.181714 0.171940 Li+
0.387725 0.566270 0.116217 Li+
0.387725 0.066270 0.157365 Li+
0.151818 0.449547 0.100430 Li+
0.151818 0.949547 0.151930 Li+
0.915480 0.332984 0.094880 Li+
0.915480 0.832984 0.136286 Li+
0.766829 0.256366 0.134901 Li+
0.766829 0.756366 0.173244 Li+
0.126478 0.181780 0.261418 Li+
0.126478 0.681780 0.214983 Li+
0.888830 0.065996 0.251819 Li+
0.888830 0.565996 0.203531 Li+
0.652957 0.950543 0.239381 Li+
0.652957 0.450543 0.194978 Li+
0.418297 0.835452 0.228787 Li+
0.418297 0.335452 0.184646 Li+
0.270894 0.758434 0.268553 Li+
0.270894 0.258434 0.221786 Li+
0.624263 0.681714 0.213541 Li+
0.624263 0.181714 0.262849 Li+
0.387725 0.566270 0.207126 Li+
0.387725 0.066270 0.248274 Li+
0.151818 0.449547 0.191339 Li+
0.151818 0.949547 0.242839 Li+
0.915480 0.332984 0.185789 Li+
0.915480 0.832984 0.227195 Li+
0.766829 0.256366 0.225810 Li+
0.766829 0.756366 0.264153 Li+
0.126478 0.181780 0.352327 Li+
0.126478 0.681780 0.305892 Li+
0.888830 0.065996 0.342728 Li+
0.888830 0.565996 0.294440 Li+
0.652957 0.950543 0.330290 Li+
0.652957 0.450543 0.285887 Li+
0.418297 0.835452 0.319696 Li+
0.418297 0.335452 0.275555 Li+
0.270894 0.758434 0.359462 Li+
0.270894 0.258434 0.312695 Li+
0.624263 0.681714 0.304450 Li+
0.624263 0.181714 0.353758 Li+
0.387725 0.566270 0.298035 Li+
0.387725 0.066270 0.339183 Li+
0.151818 0.449547 0.282248 Li+
0.151818 0.949547 0.333748 Li+
0.915480 0.332984 0.276698 Li+
0.915480 0.832984 0.318105 Li+
0.766829 0.256366 0.316719 Li+
0.766829 0.756366 0.355062 Li+
0.126478 0.181780 0.443237 Li+
0.126478 0.681780 0.396801 Li+
0.888830 0.065996 0.433637 Li+
0.888830 0.565996 0.385349 Li+
0.652957 0.950543 0.421199 Li+
0.652957 0.450543 0.376796 Li+
0.418297 0.835452 0.410605 Li+
0.418297 0.335452 0.366464 Li+
0.270894 0.758434 0.450371 Li+
0.270894 0.258434 0.403604 Li+
0.624263 0.681714 0.395359 Li+
0.624263 0.181714 0.444667 Li+
0.387725 0.566270 0.388944 Li+
0.387725 0.066270 0.430092 Li+
0.151818 0.449547 0.373157 Li+
0.151818 0.949547 0.424657 Li+
0.915480 0.332984 0.367607 Li+
0.915480 0.832984 0.409014 Li+
0.766829 0.256366 0.407628 Li+
0.766829 0.756366 0.445971 Li+
0.126478 0.181780 0.534146 Li+
0.126478 0.681780 0.487710 Li+
0.888830 0.065996 0.524546 Li+
0.888830 0.565996 0.476258 Li+
0.652957 0.950543 0.512108 Li+
0.652957 0.450543 0.467705 Li+
0.418297 0.835452 0.501514 Li+
0.418297 0.335452 0.457373 Li+
0.270894 0.758434 0.541280 Li+
0.270894 0.258434 0.494513 Li+
0.624263 0.681714 0.486268 Li+
0.624263 0.181714 0.535576 Li+
0.387725 0.566270 0.479853 Li+
0.387725 0.066270 0.521001 Li+
0.151818 0.449547 0.464066 Li+
0.151818 0.949547 0.515566 Li+
0.915480 0.332984 0.458516 Li+
0.915480 0.832984 0.499923 Li+
0.766829 0.256366 0.498537 Li+
0.766829 0.756366 0.536880 Li+
0.126478 0.181780 0.625055 Li+
0.126478 0.681780 0.578620 Li+
0.888830 0.065996 0.615455 Li+
0.888830 0.565996 0.567168 Li+
0.652957 0.950543 0.603017 Li+
0.652957 0.450543 0.558614 Li+
0.418297 0.835452 0.592423 Li+
0.418297 0.335452 0.548282 Li+
0.270894 0.758434 0.632189 Li+
0.270894 0.258434 0.585422 Li+
0.624263 0.681714 0.577177 Li+
0.624263 0.181714 0.626485 Li+
0.387725 0.566270 0.570762 Li+
0.387725 0.066270 0.611910 Li+
0.151818 0.449547 0.554975 Li+
0.151818 0.949547 0.606475 Li+
0.915480 0.332984 0.549425 Li+
0.915480 0.832984 0.590832 Li+
0.766829 0.256366 0.589446 Li+
0.766829 0.756366 0.627789 Li+
0.000779 0.999587 0.000240 P5+
0.000779 0.499587 0.079399 P5+
0.794387 0.906720 0.022894 P5+
0.794387 0.406720 0.039860 P5+
0.598863 0.802939 0.072993 P5+
0.598863 0.302939 0.061801 P5+
0.408395 0.691689 0.004649 P5+
0.408395 0.191689 0.019009 P5+
0.208401 0.591751 0.056404 P5+
0.208401 0.091751 0.039993 P5+
0.334920 0.425433 0.069994 P5+
0.334920 0.925433 0.087072 P5+
0.134548 0.325562 0.030879 P5+
0.134548 0.825562 0.017119 P5+
0.943677 0.213545 0.053609 P5+
0.943677 0.713545 0.064932 P5+
0.747866 0.110144 0.013334 P5+
0.747866 0.610144 0.086407 P5+
0.541580 0.017155 0.035974 P5+
0.541580 0.517155 0.046859 P5+
0.000779 0.999587 0.091149 P5+
0.000779 0.499587 0.170308 P5+
0.794387 0.906720 0.113803 P5+
0.794387 0.406720 0.130770 P5+
0.598863 0.802939 0.163902 P5+
0.598863 0.302939 0.152710 P5+
0.408395 0.691689 0.095558 P5+
0.408395 0.191689 0.109918 P5+
0.208401 0.591751 0.147313 P5+
0.208401 0.091751 0.130902 P5+
0.334920 0.425433 0.160903 P5+
0.334920 0.925433 0.177981 P5+
0.134548 0.325562 0.121788 P5+
0.134548 0.825562 0.108028 P5+
0.943677 0.213545 0.144518 P5+
0.943677 0.713545 0.155841 P5+
0.747866 0.110144 0.104243 P5+
0.747866 0.610144 0.177316 P5+
0.541580 0.017155 0.126883 P5+
0.541580 0.517155 0.137768 P5+
0.000779 0.999587 0.182058 P5+
0.000779 0.499587 0.261217 P5+
0.794387 0.906720 0.204712 P5+
0.794387 0.406720 0.221679 P5+
0.598863 0.802939 0.254811 P5+
0.598863 0.302939 0.243619 P5+
0.408395 0.691689 0.186467 P5+
0.408395 0.191689 0.200827 P5+
0.208401 0.591751 0.238222 P5+
0.208401 0.091751 0.221811 P5+
0.334920 0.425433 0.251812 P5+
0.334920 0.925433 0.268890 P5+
0.134548 0.325562 0.212697 P5+
0.134548 0.825562 0.198937 P5+
0.943677 0.213545 0.235427 P5+
0.943677 0.713545 0.246750 P5+
0.747866 0.110144 0.195152 P5+
0.747866 0.610144 0.268225 P5+
0.541580 0.017155 0.217792 P5+
0.541580 0.517155 0.228677 P5+
0.000779 0.999587 0.272967 P5+
0.000779 0.499587 0.352127 P5+
0.794387 0.906720 0.295621 P5+
0.794387 0.406720 0.312588 P5+
0.598863 0.802939 0.345720 P5+
0.598863 0.302939 0.334528 P5+
0.408395 0.691689 0.277376 P5+
0.408395 0.191689 0.291736 P5+
0.208401 0.591751 0.329131 P5+
0.208401 0.091751 0.312720 P5+
0.334920 0.425433 0.342721 P5+
0.334920 0.925433 0.359799 P5+
0.134548 0.325562 0.303606 P5+
0.134548 0.825562 0.289847 P5+
0.943677 0.213545 0.326336 P5+
0.943677 0.713545 0.337659 P5+
0.747866 0.110144 0.286061 P5+
0.747866 0.610144 0.359134 P5+
0.541580 0.017155 0.308701 P5+
0.541580 0.517155 0.319586 P5+
0.000779 0.999587 0.363876 P5+
0.000779 0.499587 0.443036 P5+
0.794387 0.906720 0.386530 P5+
0.794387 0.406720 0.403497 P5+
0.598863 0.802939 0.436629 P5+
0.598863 0.302939 0.425437 P5+
0.408395 0.691689 0.368286 P5+
0.408395 0.191689 0.382645 P5+
0.208401 0.591751 0.420040 P5+
0.208401 0.091751 0.403629 P5+
0.334920 0.425433 0.433630 P5+
0.334920 0.925433 0.450708 P5+
0.134548 0.325562 0.394515 P5+
0.134548 0.825562 0.380756 P5+
0.943677 0.213545 0.417245 P5+
0.943677 0.713545 0.428568 P5+
0.747866 0.110144 0.376970 P5+
0.747866 0.610144 0.450043 P5+
0.541580 0.017155 0.399611 P5+
0.541580 0.517155 0.410496 P5+
0.000779 0.999587 0.454785 P5+
0.000779 0.499587 0.533945 P5+
0.794387 0.906720 0.477439 P5+
0.794387 0.406720 0.494406 P5+
0.598863 0.802939 0.527539 P5+
0.598863 0.302939 0.516346 P5+
0.408395 0.691689 0.459195 P5+
0.408395 0.191689 0.473554 P5+
0.208401 0.591751 0.510949 P5+
0.208401 0.091751 0.494538 P5+
0.334920 0.425433 0.524539 P5+
0.334920 0.925433 0.541617 P5+
0.134548 0.325562 0.485424 P5+
0.134548 0.825562 0.471665 P5+
0.943677 0.213545 0.508154 P5+
0.943677 0.713545 0.519477 P5+
0.747866 0.110144 0.467879 P5+
0.747866 0.610144 0.540952 P5+
0.541580 0.017155 0.490520 P5+
0.541580 0.517155 0.501405 P5+
0.000779 0.999587 0.545694 P5+
0.000779 0.499587 0.624854 P5+
0.794387 0.906720 0.568348 P5+
0.794387 0.406720 0.585315 P5+
0.598863 0.802939 0.618448 P5+
0.598863 0.302939 0.607256 P5+
0.408395 0.691689 0.550104 P5+
0.408395 0.191689 0.564463 P5+
0.208401 0.591751 0.601858 P5+
0.208401 0.091751 0.585447 P5+
0.334920 0.425433 0.615448 P5+
0.334920 0.925433 0.632526 P5+
0.134548 0.325562 0.576333 P5+
0.134548 0.825562 0.562574 P5+
0.943677 0.213545 0.599063 P5+
0.943677 0.713545 0.610386 P5+
0.747866 0.110144 0.558788 P5+
0.747866 0.610144 0.631861 P5+
0.541580 0.017155 0.581429 P5+
0.541580 0.517155 0.592314 P5+
0.870015 0.964587 0.007638 O2-
0.870015 0.464587 0.065638 O2-
0.659821 0.859372 0.008792 O2-
0.659821 0.359372 0.045353 O2-
0.481350 0.724144 0.075687 O2-
0.481350 0.224144 0.044781 O2-
0.293096 0.607741 0.079044 O2-
0.293096 0.107741 0.020259 O2-
0.080152 0.021852 0.024387 O2-
0.080152 0.521852 0.059300 O2-
0.250064 0.409378 0.047366 O2-
0.250064 0.909378 0.015872 O2-
0.063226 0.290596 0.050653 O2-
0.063226 0.790596 0.081897 O2-
0.883201 0.156445 0.026874 O2-
0.883201 0.656445 0.081285 O2-
0.674568 0.056520 0.029651 O2-
0.674568 0.556520 0.060340 O2-
0.463629 0.495673 0.067219 O2-
0.463629 0.995673 0.011708 O2-
0.029173 0.073889 0.085411 O2-
0.029173 0.573889 0.007738 O2-
0.005091 0.933926 0.073494 O2-
0.005091 0.433926 0.085116 O2-
0.795375 0.958651 0.045773 O2-
0.795375 0.458651 0.026423 O2-
0.828944 0.846743 0.021806 O2-
0.828944 0.346743 0.030043 O2-
0.560342 0.845353 0.061983 O2-
0.560342 0.345353 0.080523 O2-
0.677417 0.775410 0.062005 O2-
0.677417 0.275410 0.067784 O2-
0.369330 0.747295 0.016743 O2-
0.369330 0.247295 0.017025 O2-
0.472480 0.669352 0.018317 O2-
0.472480 0.169352 0.001279 O2-
0.209416 0.667159 0.058224 O2-
0.209416 0.167159 0.051883 O2-
0.238895 0.553292 0.035086 O2-
0.238895 0.053292 0.054318 O2-
0.302391 0.463335 0.000170 O2-
0.302391 0.963335 0.072878 O2-
0.334913 0.350606 0.068458 O2-
0.334913 0.850606 0.075003 O2-
0.068594 0.348215 0.017805 O2-
0.068594 0.848215 0.034312 O2-
0.175312 0.271458 0.018349 O2-
0.175312 0.771458 0.019812 O2-
0.864720 0.241625 0.064029 O2-
0.864720 0.741625 0.059617 O2-
0.980120 0.171199 0.065153 O2-
0.980120 0.671199 0.045689 O2-
0.713620 0.170027 0.013926 O2-
0.713620 0.670027 0.005793 O2-
0.742996 0.055640 0.081525 O2-
0.742996 0.555640 0.008306 O2-
0.532819 0.080441 0.053764 O2-
0.532819 0.580441 0.040576 O2-
0.515310 0.942366 0.041080 O2-
0.515310 0.442366 0.028155 O2-
0.870015 0.964587 0.098547 O2-
0.870015 0.464587 0.156547 O2-
0.659821 0.859372 0.099701 O2-
0.659821 0.359372 0.136263 O2-
0.481350 0.724144 0.166596 O2-
0.481350 0.224144 0.135690 O2-
0.293096 0.607741 0.169954 O2-
0.293096 0.107741 0.111168 O2-
0.080152 0.021852 0.115296 O2-
0.080152 0.521852 0.150209 O2-
0.250064 0.409378 0.138275 O2-
0.250064 0.909378 0.106781 O2-
0.063226 0.290596 0.141562 O2-
0.063226 0.790596 0.172806 O2-
0.883201 0.156445 0.117783 O2-
0.883201 0.656445 0.172194 O2-
0.674568 0.056520 0.120560 O2-
0.674568 0.556520 0.151249 O2-
0.463629 0.495673 0.158128 O2-
0.463629 0.995673 0.102618 O2-
0.029173 0.073889 0.176320 O2-
0.029173 0.573889 0.098647 O2-
0.005091 0.933926 0.164403 O2-
0.005091 0.433926 0.176025 O2-
0.795375 0.958651 0.136682 O2-
0.795375 0.458651 0.117332 O2-
0.828944 0.846743 0.112715 O2-
0.828944 0.346743 0.120952 O2-
0.560342 0.845353 0.152892 O2-
0.560342 0.345353 0.171432 O2-
0.677417 0.775410 0.152914 O2-
0.677417 0.275410 0.158693 O2-
0.369330 0.747295 0.107652 O2-
0.369330 0.247295 0.107934 O2-
0.472480 0.669352 0.109226 O2-
0.472480 0.169352 0.092188 O2-
0.209416 0.667159 0.149133 O2-
0.209416 0.167159 0.142792 O2-
0.238895 0.553292 0.125995 O2-
0.238895 0.053292 0.145227 O2-
0.302391 0.463335 0.091079 O2-
0.302391 0.963335 0.163787 O2-
0.334913 0.350606 0.159367 O2-
0.334913 0.850606 0.165912 O2-
0.068594 0.348215 0.108714 O2-
0.068594 0.848215 0.125222 O2-
0.175312 0.271458 0.109258 O2-
0.175312 0.771458 0.110721 O2-
0.864720 0.241625 0.154938 O2-
0.864720 0.741625 0.150526 O2-
0.980120 0.171199 0.156062 O2-
0.980120 0.671199 0.136598 O2-
0.713620 0.170027 0.104835 O2-
0.713620 0.670027 0.096703 O2-
0.742996 0.055640 0.172434 O2-
0.742996 0.555640 0.099215 O2-
0.532819 0.080441 0.144673 O2-
0.532819 0.580441 0.131485 O2-
0.515310 0.942366 0.131989 O2-
0.515310 0.442366 0.119064 O2-
0.870015 0.964587 0.189456 O2-
0.870015 0.464587 0.247456 O2-
0.659821 0.859372 0.190610 O2-
0.659821 0.359372 0.227172 O2-
0.481350 0.724144 0.257505 O2-
0.481350 0.224144 0.226599 O2-
0.293096 0.607741 0.260863 O2-
0.293096 0.107741 0.202077 O2-
0.080152 0.021852 0.206205 O2-
0.080152 0.521852 0.241118 O2-
0.250064 0.409378 0.229184 O2-
0.250064 0.909378 0.197690 O2-
0.063226 0.290596 0.232471 O2-
0.063226 0.790596 0.263715 O2-
0.883201 0.156445 0.208692 O2-
0.883201 0.656445 0.263103 O2-
0.674568 0.056520 0.211469 O2-
0.674568 0.556520 0.242158 O2-
0.463629 0.495673 0.249037 O2-
0.463629 0.995673 0.193527 O2-
0.029173 0.073889 0.267229 O2-
0.029173 0.573889 0.189556 O2-
0.005091 0.933926 0.255312 O2-
0.005091 0.433926 0.266934 O2-
0.795375 0.958651 0.227591 O2-
0.795375 0.458651 0.208241 O2-
0.828944 0.846743 0.203624 O2-
0.828944 0.346743 0.211862 O2-
0.560342 0.845353 0.243801 O2-
0.560342 0.345353 0.262341 O2-
0.677417 0.775410 0.243823 O2-
0.677417 0.275410 0.249602 O2-
0.369330 0.747295 0.198562 O2-
0.369330 0.247295 0.198843 O2-
0.472480 0.669352 0.200136 O2-
0.472480 0.169352 0.183097 O2-
0.209416 0.667159 0.240042 O2-
0.209416 0.167159 0.233701 O2-
0.238895 0.553292 0.216904 O2-
0.238895 0.053292 0.236136 O2-
0.302391 0.463335 0.181988 O2-
0.302391 0.963335 0.254696 O2-
0.334913 0.350606 0.250276 O2-
0.334913 0.850606 0.256821 O2-
0.068594 0.348215 0.199623 O2-
0.068594 0.848215 0.216131 O2-
0.175312 0.271458 0.200167 O2-
0.175312 0.771458 0.201630 O2-
0.864720 0.241625 0.245847 O2-
0.864720 0.741625 0.241435 O2-
0.980120 0.171199 0.246971 O2-
0.980120 0.671199 0.227507 O2-
0.713620 0.170027 0.195744 O2-
0.713620 0.670027 0.187612 O2-
0.742996 0.055640 0.263343 O2-
0.742996 0.555640 0.190124 O2-
0.532819 0.080441 0.235582 O2-
0.532819 0.580441 0.222395 O2-
0.515310 0.942366 0.222898 O2-
0.515310 0.442366 0.209974 O2-
0.870015 0.964587 0.280365 O2-
0.870015 0.464587 0.338365 O2-
0.659821 0.859372 0.281519 O2-
0.659821 0.359372 0.318081 O2-
0.481350 0.724144 0.348414 O2-
0.481350 0.224144 0.317508 O2-
0.293096 0.607741 0.351772 O2-
0.293096 0.107741 0.292986 O2-
0.080152 0.021852 0.297114 O2-
0.080152 0.521852 0.332027 O2-
0.250064 0.409378 0.320093 O2-
0.250064 0.909378 0.288599 O2-
0.063226 0.290596 0.323380 O2-
0.063226 0.790596 0.354624 O2-
0.883201 0.156445 0.299601 O2-
0.883201 0.656445 0.354013 O2-
0.674568 0.056520 0.302378 O2-
0.674568 0.556520 0.333067 O2-
0.463629 0.495673 0.339946 O2-
0.463629 0.995673 0.284436 O2-
0.029173 0.073889 0.358138 O2-
0.029173 0.573889 0.280465 O2-
0.005091 0.933926 0.346221 O2-
0.005091 0.433926 0.357843 O2-
0.795375 0.958651 0.318500 O2-
0.795375 0.458651 0.299150 O2-
0.828944 0.846743 0.294533 O2-
0.828944 0.346743 0.302771 O2-
0.560342 0.845353 0.334710 O2-
0.560342 0.345353 0.353250 O2-
0.677417 0.775410 0.334732 O2-
0.677417 0.275410 0.340511 O2-
0.369330 0.747295 0.289471 O2-
0.369330 0.247295 0.289752 O2-
0.472480 0.669352 0.291045 O2-
0.472480 0.169352 0.274006 O2-
0.209416 0.667159 0.330951 O2-
0.209416 0.167159 0.324610 O2-
0.238895 0.553292 0.307813 O2-
0.238895 0.053292 0.327045 O2-
0.302391 0.463335 0.272898 O2-
0.302391 0.963335 0.345605 O2-
0.334913 0.350606 0.341185 O2-
0.334913 0.850606 0.347730 O2-
0.068594 0.348215 0.290532 O2-
0.068594 0.848215 0.307040 O2-
0.175312 0.271458 0.291077 O2-
0.175312 0.771458 0.292539 O2-
0.864720 0.241625 0.336756 O2-
0.864720 0.741625 0.332344 O2-
0.980120 0.171199 0.337880 O2-
0.980120 0.671199 0.318416 O2-
0.713620 0.170027 0.286653 O2-
0.713620 0.670027 0.278521 O2-
0.742996 0.055640 0.354252 O2-
0.742996 0.555640 0.281033 O2-
0.532819 0.080441 0.326491 O2-
0.532819 0.580441 0.313304 O2-
0.515310 0.942366 0.313807 O2-
0.515310 0.442366 0.300883 O2-
0.870015 0.964587 0.371274 O2-
0.870015 0.464587 0.429274 O2-
0.659821 0.859372 0.372428 O2-
0.659821 0.359372 0.408990 O2-
0.481350 0.724144 0.439323 O2-
0.481350 0.224144 0.408417 O2-
0.293096 0.607741 0.442681 O2-
0.293096 0.107741 0.383896 O2-
0.080152 0.021852 0.388024 O2-
0.080152 0.521852 0.422937 O2-
0.250064 0.409378 0.411002 O2-
0.250064 0.909378 0.379508 O2-
0.063226 0.290596 0.414289 O2-
0.063226 0.790596 0.445533 O2-
0.883201 0.156445 0.390510 O2-
0.883201 0.656445 0.444922 O2-
0.674568 0.056520 0.393287 O2-
0.674568 0.556520 0.423976 O2-
0.463629 0.495673 0.430856 O2-
0.463629 0.995673 0.375345 O2-
0.029173 0.073889 0.449048 O2-
0.029173 0.573889 0.371374 O2-
0.005091 0.933926 0.437131 O2-
0.005091 0.433926 0.448752 O2-
0.795375 0.958651 0.409409 O2-
0.795375 0.458651 0.390060 O2-
0.828944 0.846743 0.385442 O2-
0.828944 0.346743 0.393680 O2-
0.560342 0.845353 0.425619 O2-
0.560342 0.345353 0.444160 O2-
0.677417 0.775410 0.425642 O2-
0.677417 0.275410 0.431420 O2-
0.369330 0.747295 0.380380 O2-
0.369330 0.247295 0.380661 O2-
0.472480 0.669352 0.381954 O2-
0.472480 0.169352 0.364916 O2-
0.209416 0.667159 0.421861 O2-
0.209416 0.167159 0.415519 O2-
0.238895 0.553292 0.398722 O2-
0.238895 0.053292 0.417954 O2-
0.302391 0.463335 0.363807 O2-
0.302391 0.963335 0.436514 O2-
0.334913 0.350606 0.432094 O2-
0.334913 0.850606 0.438639 O2-
0.068594 0.348215 0.381441 O2-
0.068594 0.848215 0.397949 O2-
0.175312 0.271458 0.381986 O2-
0.175312 0.771458 0.383448 O2-
0.864720 0.241625 0.427665 O2-
0.864720 0.741625 0.423253 O2-
0.980120 0.171199 0.428789 O2-
0.980120 0.671199 0.409325 O2-
0.713620 0.170027 0.377562 O2-
0.713620 0.670027 0.369430 O2-
0.742996 0.055640 0.445161 O2-
0.742996 0.555640 0.371942 O2-
0.532819 0.080441 0.417400 O2-
0.532819 0.580441 0.404213 O2-
0.515310 0.942366 0.404716 O2-
0.515310 0.442366 0.391792 O2-
0.870015 0.964587 0.462183 O2-
0.870015 0.464587 0.520183 O2-
0.659821 0.859372 0.463338 O2-
0.659821 0.359372 0.499899 O2-
0.481350 0.724144 0.530232 O2-
0.481350 0.224144 0.499326 O2-
0.293096 0.607741 0.533590 O2-
0.293096 0.107741 0.474805 O2-
0.080152 0.021852 0.478933 O2-
0.080152 0.521852 0.513846 O2-
0.250064 0.409378 0.501911 O2-
0.250064 0.909378 0.470417 O2-
0.063226 0.290596 0.505198 O2-
0.063226 0.790596 0.536442 O2-
0.883201 0.156445 0.481419 O2-
0.883201 0.656445 0.535831 O2-
0.674568 0.056520 0.484196 O2-
0.674568 0.556520 0.514885 O2-
0.463629 0.495673 0.521765 O2-
0.463629 0.995673 0.466254 O2-
0.029173 0.073889 0.539957 O2-
0.029173 0.573889 0.462283 O2-
0.005091 0.933926 0.528040 O2-
0.005091 0.433926 0.539661 O2-
0.795375 0.958651 0.500318 O2-
0.795375 0.458651 0.480969 O2-
0.828944 0.846743 0.476351 O2-
0.828944 0.346743 0.484589 O2-
0.560342 0.845353 0.516528 O2-
0.560342 0.345353 0.535069 O2-
0.677417 0.775410 0.516551 O2-
0.677417 0.275410 0.522329 O2-
0.369330 0.747295 0.471289 O2-
0.369330 0.247295 0.471570 O2-
0.472480 0.669352 0.472863 O2-
0.472480 0.169352 0.455825 O2-
0.209416 0.667159 0.512770 O2-
0.209416 0.167159 0.506428 O2-
0.238895 0.553292 0.489631 O2-
0.238895 0.053292 0.508863 O2-
0.302391 0.463335 0.454716 O2-
0.302391 0.963335 0.527423 O2-
0.334913 0.350606 0.523003 O2-
0.334913 0.850606 0.529548 O2-
0.068594 0.348215 0.472350 O2-
0.068594 0.848215 0.488858 O2-
0.175312 0.271458 0.472895 O2-
0.175312 0.771458 0.474357 O2-
0.864720 0.241625 0.518574 O2-
0.864720 0.741625 0.514162 O2-
0.980120 0.171199 0.519698 O2-
0.980120 0.671199 0.500234 O2-
0.713620 0.170027 0.468471 O2-
0.713620 0.670027 0.460339 O2-
0.742996 0.055640 0.536070 O2-
0.742996 0.555640 0.462851 O2-
0.532819 0.080441 0.508309 O2-
0.532819 0.580441 0.495122 O2-
0.515310 0.942366 0.495625 O2-
0.515310 0.442366 0.482701 O2-
0.870015 0.964587 0.553092 O2-
0.870015 0.464587 0.611092 O2-
0.659821 0.859372 0.554247 O2-
0.659821 0.359372 0.590808 O2-
0.481350 0.724144 0.621141 O2-
0.481350 0.224144 0.590236 O2-
0.293096 0.607741 0.624499 O2-
0.293096 0.107741 0.565714 O2-
0.080152 0.021852 0.569842 O2-
0.080152 0.521852 0.604755 O2-
0.250064 0.409378 0.592820 O2-
0.250064 0.909378 0.561326 O2-
0.063226 0.290596 0.596108 O2-
0.063226 0.790596 0.627351 O2-
0.883201 0.156445 0.572328 O2-
0.883201 0.656445 0.626740 O2-
0.674568 0.056520 0.575106 O2-
0.674568 0.556520 0.605794 O2-
0.463629 0.495673 0.612674 O2-
0.463629 0.995673 0.557163 O2-
0.029173 0.073889 0.630866 O2-
0.029173 0.573889 0.553192 O2-
0.005091 0.933926 0.618949 O2-
0.005091 0.433926 0.630570 O2-
0.795375 0.958651 0.591228 O2-
0.795375 0.458651 0.571878 O2-
0.828944 0.846743 0.567261 O2-
0.828944 0.346743 0.575498 O2-
0.560342 0.845353 0.607437 O2-
0.560342 0.345353 0.625978 O2-
0.677417 0.775410 0.607460 O2-
0.677417 0.275410 0.613238 O2-
0.369330 0.747295 0.562198 O2-
0.369330 0.247295 0.562479 O2-
0.472480 0.669352 0.563772 O2-
0.472480 0.169352 0.546734 O2-
0.209416 0.667159 0.603679 O2-
0.209416 0.167159 0.597337 O2-
0.238895 0.553292 0.580540 O2-
0.238895 0.053292 0.599772 O2-
0.302391 0.463335 0.545625 O2-
0.302391 0.963335 0.618332 O2-
0.334913 0.350606 0.613913 O2-
0.334913 0.850606 0.620457 O2-
0.068594 0.348215 0.563259 O2-
0.068594 0.848215 0.579767 O2-
0.175312 0.271458 0.563804 O2-
0.175312 0.771458 0.565266 O2-
0.864720 0.241625 0.609484 O2-
0.864720 0.741625 0.605072 O2-
0.980120 0.171199 0.610607 O2-
0.980120 0.671199 0.591143 O2-
0.713620 0.170027 0.559380 O2-
0.713620 0.670027 0.551248 O2-
0.742996 0.055640 0.626979 O2-
0.742996 0.555640 0.553760 O2-
0.532819 0.080441 0.599218 O2-
0.532819 0.580441 0.586031 O2-
0.515310 0.942366 0.586535 O2-
0.515310 0.442366 0.573610 O2-
