Li71 P24 N1 O94                         
   1.00000000000000     
    14.7120908975176938   -0.0076496125027104   -0.0026676121491209
    -0.0054887941571226   10.5783780775810836    0.0003481322747305
    -0.0022002527393309    0.0003825433215912   12.3324473374626074
   Li   P    N    O 
    71    24     1    94
Direct
  0.1691541776181175  0.4205487995871886 -0.0035035855712210
  0.1631752471266026  0.4333235388495449  0.5215698414135014
  0.1681761915764897  0.9322311873708801  0.0070199635070007
  0.1692648265330901  0.9220693086002263  0.5009661073621254
  0.5029849934855036  0.4219802333301028 -0.0008980669402823
  0.5070503828413261  0.4254487818257458  0.5046621455605251
  0.5041396977953851  0.9227234428256280 -0.0006043123969306
  0.5032002743930947  0.9218751025172049  0.4996810055757419
  0.8362302815683631  0.4226373424531453 -0.0001544025683313
  0.8339006093487326  0.4219646718492270  0.5001752144075609
  0.8355517016444745  0.9198658467997494 -0.0011981093376662
  0.8361344947605699  0.9198027124764322  0.5001373138015356
  0.0097707634418001  0.0783238448634220  0.2383772820422246
  0.0024377236964147  0.0751932199995187  0.7542564423337249
 -0.0003689609842387  0.5839256220714608  0.2496735755607679
  0.0029869312347833  0.5771443322233878  0.7514147459102890
  0.3347621679990247  0.0772144842169936  0.2420704389430753
  0.3364762837863878  0.0777429395068082  0.7523820456166026
  0.3371636859194617  0.5801378548417938  0.2483233926753246
  0.3364201901482174  0.5772001767412547  0.7515664531268338
  0.6712519411686713  0.0771166588836911  0.2482347018353300
  0.6697850488395151  0.0759629198441474  0.7499330468326166
  0.6698973720619370  0.5791674311235717  0.2491826193126479
  0.6691974563897725  0.5776257834689634  0.7503932247521083
  0.1700765472968934  0.1619584298552048  0.6282325649855961
  0.1693966849176344  0.6672043473999041  0.1229920926847321
  0.1701218824955791  0.6662058466912255  0.6283828510711846
  0.5030973193770337  0.1620905443449301  0.1248353669609961
  0.5036315130993465  0.1627133834588458  0.6268286110627845
  0.5031835988676854  0.6640517086261190  0.1250670974548209
  0.5021937688962693  0.6643882724833040  0.6271592577230578
  0.8403644562984338  0.1618398395374175  0.1244272241862268
  0.8349575480188833  0.1620808980786360  0.6267090315454086
  0.8358840410646686  0.6641562832426678  0.1259379309846761
  0.8353433946325572  0.6621797695216816  0.6272394465325669
  0.0024030642657171  0.3345600737662458  0.1219424202299979
  0.0002075284229737  0.3356745901213274  0.6248188564241118
  0.0038359777542902  0.8384219749885881  0.1238103703667349
  0.0018456060269111  0.8353659566542820  0.6258345739089648
  0.3348616734486016  0.3327166209845951  0.1202608305071750
  0.3366042886462656  0.3357069219498639  0.6253226745043656
  0.3367280095386490  0.8381694754515729  0.1216894625353489
  0.3359557129678150  0.8378891617473885  0.6238642550048634
  0.6708906738048047  0.3356663987178012  0.1223754268661367
  0.6695138919395179  0.3362074761806380  0.6242739161892000
  0.6702830008298976  0.8371083324719399  0.1235370319807369
  0.6691310062380785  0.8365903597505950  0.6232621590477798
 -0.0022739314423278  0.3431546515499017  0.3745136540392258
  0.0018202587383192  0.3352279912221314  0.8769170283309374
  0.0033983393031899  0.8385833736558199  0.3765961477063802
  0.0031039272762398  0.8376403775894028  0.8780240908013403
  0.3719334036970292  0.3352128957873311  0.3815921539682829
  0.3371218667116562  0.3342315375495088  0.8771109137301523
  0.3352151988305080  0.8375616513756556  0.3753245301152963
  0.3361122690145985  0.8385220590318260  0.8774968044552317
  0.6680479137079109  0.3366223889144322  0.3758825554385186
  0.6698789884985722  0.3361538321860916  0.8763555222983384
  0.6698523607064794  0.8374602194422548  0.3756635135623480
  0.6693481053439422  0.8362698684973600  0.8758742107323284
  0.1708157262368786  0.1434931439649331  0.3687317366152432
  0.1677496002607108  0.1622862155542891  0.8793123987641234
  0.1674959180731081  0.6639594503145319  0.3771792842900319
  0.1697456188817160  0.6649727238425587  0.8746281764377059
  0.5052055943074653  0.1582304827167822  0.3719195103051695
  0.5042286647184991  0.1626080821212358  0.8735688362675940
  0.5027422900456585  0.6642311674052273  0.3735151873812375
  0.5025285439960860  0.6636674481441360  0.8737337136304432
  0.8376636790971772  0.1631818376170866  0.3736040537180822
  0.8349157625128496  0.1615608642977930  0.8708100096400112
  0.8355979757688117  0.6637512666275864  0.3742713007603103
  0.8362015633897319  0.6626117818014802  0.8732931581105212
  0.1659631112348137  0.4208671254936566  0.2409825018810015
  0.1666029506641389  0.4116781270830012  0.7519126280761634
  0.1693108515166172  0.9089595936021091  0.2520229914970796
  0.1669843498494574  0.9123896847024626  0.7509021837616491
  0.5002096042319480  0.4135628148842730  0.2478043142344838
  0.5004799633631712  0.4124346591782238  0.7504316084307631
  0.5012145686808089  0.9114599411094466  0.2494471960883898
  0.5005151146800408  0.9119685979338773  0.7494464018344982
  0.8314892687450812  0.4136430884934876  0.2496876232765948
  0.8330558069447970  0.4118263963670115  0.7499446985010954
  0.8350046361039182  0.9121650671852746  0.2504747610761904
  0.8332881701526852  0.9103800552667543  0.7492029205032992
 -0.0041497206705402  0.0881687543259249 -0.0008971078158765
 -0.0004835913932010  0.0863198994792844  0.5037856646670419
  0.0001849455798422  0.5880042338360667 -0.0000018968228105
 -0.0008611969507283  0.5884508719767876  0.5007611996360124
  0.3353522241076549  0.0869804790900419 -0.0022855034564328
  0.3344055789173084  0.0886190035408537  0.4997766437679105
  0.3340535976094506  0.5876717680171978 -0.0006122736767937
  0.3336953718869925  0.5869885815678551  0.5003342615349239
  0.6679575115847791  0.0871106147970757 -0.0006142639440657
  0.6670351402182946  0.0876801171692190  0.4995522459452289
  0.6671268149465964  0.5876739891583748 -0.0004675522726049
  0.6663185116516055  0.5885807248983892  0.5001552519200203
  0.0403718932972906  0.1677147548100789  0.4026088843723634
  0.0327810147675199  0.1565700526939600  0.8953563359894440
  0.0337453909420535  0.6572939512685058  0.3968281971139174
  0.0356397763097482  0.6571433025045760  0.8964287546630584
  0.3695717549776066  0.1575496767591148  0.3955589908359566
  0.3729202090226453  0.1568005318006082  0.8943625313710730
  0.3684644369576981  0.6559210495995176  0.3966705411567056
  0.3688669730756545  0.6572891809340540  0.8956211995892760
  0.7018584407362592  0.1573123056053320  0.3957569566465798
  0.7021077262442992  0.1560037541920272  0.8949125599561308
  0.7019934762890981  0.6572847372653554  0.3965728721837301
  0.7023365666665258  0.6565561900419894  0.8956750694831526
  0.2071170556885134  0.0441981699213273  0.2553415685436946
  0.2001677701602580  0.0523861726278299  0.7502006937152009
  0.2009475007854984  0.5592987312449511  0.2534531760192590
  0.2001018775509276  0.5516788926396631  0.7502805047867052
  0.5356004538967308  0.0511809942325169  0.2491519428671624
  0.5349316156169366  0.0515028237094755  0.7492686815247966
  0.5348426714960834  0.5526005062967865  0.2498271367336863
  0.5337702558553813  0.5525376225233688  0.7497470196817787
  0.8696281450580018  0.0516011619325731  0.2509851884509772
  0.8670655988449553  0.0501692482138451  0.7481964094722706
  0.8654218584739064  0.5536295355832133  0.2502631500757826
  0.8675881950049954  0.5512997201597075  0.7498736400325128
  0.0606048520527123  0.4148166475652640  0.2490653456943474
  0.0607598004437137  0.4087131608452651  0.7502348037640059
  0.0628859651349037  0.9092901169274746  0.2508745310705131
  0.0609972377997935  0.9084903006177228  0.7507498397033109
  0.3941359504648176  0.4119186213220715  0.2457513085853920
  0.3946199360259949  0.4092374592898618  0.7503029745884141
  0.3955197257968784  0.9086738496461448  0.2494029077835276
  0.3946919214969860  0.9094725022912177  0.7495366214009296
  0.7256179588426852  0.4106346006001544  0.2498809144626779
  0.7272086647309332  0.4098455410311066  0.7498273353658708
  0.7290132290414958  0.9098629849019084  0.2500248860570961
  0.7274001141252076  0.9080209152136545  0.7493723989209837
  0.2314044965548930  0.0867195113597489 -0.0061027799265470
  0.2284703932261692  0.0929282972811663  0.5001096692943335
  0.2281231486530120  0.5902025872142195 -0.0003452839491134
  0.2275225914762461  0.5867299033124512  0.5007328460016005
  0.5622068334018715  0.0904455688893177  0.0000037689329197
  0.5610878287563570  0.0901589267332934  0.4997642000604545
  0.5612549186423427  0.5901990010806651 -0.0003921492091094
  0.5604232900876025  0.5928034801689455  0.5002971554828731
  0.8896296467184379  0.0853288459524319 -0.0065921019698444
  0.8934699476589175  0.0868988384007909  0.5017952045566787
  0.8943261343195194  0.5910584740031104  0.0000335476633683
  0.8934551919051865  0.5895015257584074  0.5010589091395571
  0.2045156923997867  0.3550579104203465  0.1408168593910603
  0.2022936875657408  0.3423885289513071  0.6480120521672292
  0.2033299852172591  0.8396799766895722  0.1476905498398900
  0.2021444442473312  0.8439672235084982  0.6462288245058825
  0.5372503802034231  0.3429354597983844  0.1464967675730304
  0.5358273916430276  0.3433548046759175  0.6465599342399598
  0.5370302473554610  0.8420678083878005  0.1462698636814758
  0.5352908466712551  0.8429662903067070  0.6452662067652437
  0.8670989158759885  0.3451739156137900  0.1462473247761177
  0.8675721472941773  0.3424673708406821  0.6458207894180718
  0.8699036615880740  0.8426665450193339  0.1468459103098023
  0.8681331753326171  0.8407127841500767  0.6455511000270444
  0.0227347868574176  0.1599434032013814  0.1027440106100330
  0.0350326860763392  0.1560257920328744  0.6075142569184667
  0.0355706919478112  0.6569624092337913  0.1039617445564668
  0.0355427504139369  0.6563641296235864  0.6044054774311488
  0.3717035134745778  0.1569250067757266  0.1011422905183255
  0.3699993305543025  0.1575622210908743  0.6033236678344531
  0.3695272639956537  0.6569317713754957  0.1030561076104689
  0.3678039130788694  0.6564742867869379  0.6041345007391913
  0.7040827075625191  0.1561562819680336  0.1027928352937998
  0.7020101709961212  0.1568630743244674  0.6034254228700765
  0.7024389528783963  0.6570756321838854  0.1031675607363166
  0.7020723872108777  0.6564149299964387  0.6041086913495576
  0.0336056714950868  0.4481532314831730 -0.0002091646293021
  0.0338079344217673  0.4485229390544614  0.5005980741893162
  0.0322745786211347  0.9492084949855523  0.0008451838229816
  0.0325361873799455  0.9458445959070600  0.5034970339162229
  0.3682369209673111  0.4481702300373521 -0.0012122134417223
  0.3684523839146248  0.4472996535933127  0.5009138717300696
  0.3717857304830711  0.9475115974008042 -0.0006310887739562
  0.3673096168136381  0.9486467179250256  0.4993167576854044
  0.7009448889377715  0.4479228984288985 -0.0004064045415865
  0.6982827866009408  0.4478130285794609  0.4997297824576322
  0.7006933601711460  0.9468031558102147 -0.0007036901553974
  0.7007761970629912  0.9479711679512133  0.4995221861135761
  0.2020692273122499  0.3428132127745178  0.8548587975199213
  0.2011817887728611  0.8365619673258017  0.3565922377386487
  0.2024747139455709  0.8428414144676217  0.8538388500564306
  0.5297794731887144  0.3435099248805918  0.3546555057168227
  0.5363009618943095  0.3437432938667802  0.8538343944153199
  0.5362102751639350  0.8429638595478008  0.3538038941230462
  0.5361090839784685  0.8424295363447853  0.8527062374668295
  0.8662308842803457  0.3451152395469399  0.3539442340299578
  0.8681380960703261  0.3424743941655716  0.8534146321993114
  0.8694113970833792  0.8423658103496492  0.3543755266522461
  0.8687587833519492  0.8412569489898908  0.8526622275504424
 
  0.00000000E+00  0.00000000E+00  0.00000000E+00
  0.00000000E+00  0.00000000E+00  0.00000000E+00
  0.00000000E+00  0.00000000E+00  0.00000000E+00
  0.00000000E+00  0.00000000E+00  0.00000000E+00
  0.00000000E+00  0.00000000E+00  0.00000000E+00
  0.00000000E+00  0.00000000E+00  0.00000000E+00
  0.00000000E+00  0.00000000E+00  0.00000000E+00
  0.00000000E+00  0.00000000E+00  0.00000000E+00
  0.00000000E+00  0.00000000E+00  0.00000000E+00
  0.00000000E+00  0.00000000E+00  0.00000000E+00
  0.00000000E+00  0.00000000E+00  0.00000000E+00
  0.00000000E+00  0.00000000E+00  0.00000000E+00
  0.00000000E+00  0.00000000E+00  0.00000000E+00
  0.00000000E+00  0.00000000E+00  0.00000000E+00
  0.00000000E+00  0.00000000E+00  0.00000000E+00
  0.00000000E+00  0.00000000E+00  0.00000000E+00
  0.00000000E+00  0.00000000E+00  0.00000000E+00
  0.00000000E+00  0.00000000E+00  0.00000000E+00
  0.00000000E+00  0.00000000E+00  0.00000000E+00
  0.00000000E+00  0.00000000E+00  0.00000000E+00
  0.00000000E+00  0.00000000E+00  0.00000000E+00
  0.00000000E+00  0.00000000E+00  0.00000000E+00
  0.00000000E+00  0.00000000E+00  0.00000000E+00
  0.00000000E+00  0.00000000E+00  0.00000000E+00
  0.00000000E+00  0.00000000E+00  0.00000000E+00
  0.00000000E+00  0.00000000E+00  0.00000000E+00
  0.00000000E+00  0.00000000E+00  0.00000000E+00
  0.00000000E+00  0.00000000E+00  0.00000000E+00
  0.00000000E+00  0.00000000E+00  0.00000000E+00
  0.00000000E+00  0.00000000E+00  0.00000000E+00
  0.00000000E+00  0.00000000E+00  0.00000000E+00
  0.00000000E+00  0.00000000E+00  0.00000000E+00
  0.00000000E+00  0.00000000E+00  0.00000000E+00
  0.00000000E+00  0.00000000E+00  0.00000000E+00
  0.00000000E+00  0.00000000E+00  0.00000000E+00
  0.00000000E+00  0.00000000E+00  0.00000000E+00
  0.00000000E+00  0.00000000E+00  0.00000000E+00
  0.00000000E+00  0.00000000E+00  0.00000000E+00
  0.00000000E+00  0.00000000E+00  0.00000000E+00
  0.00000000E+00  0.00000000E+00  0.00000000E+00
  0.00000000E+00  0.00000000E+00  0.00000000E+00
  0.00000000E+00  0.00000000E+00  0.00000000E+00
  0.00000000E+00  0.00000000E+00  0.00000000E+00
  0.00000000E+00  0.00000000E+00  0.00000000E+00
  0.00000000E+00  0.00000000E+00  0.00000000E+00
  0.00000000E+00  0.00000000E+00  0.00000000E+00
  0.00000000E+00  0.00000000E+00  0.00000000E+00
  0.00000000E+00  0.00000000E+00  0.00000000E+00
  0.00000000E+00  0.00000000E+00  0.00000000E+00
  0.00000000E+00  0.00000000E+00  0.00000000E+00
  0.00000000E+00  0.00000000E+00  0.00000000E+00
  0.00000000E+00  0.00000000E+00  0.00000000E+00
  0.00000000E+00  0.00000000E+00  0.00000000E+00
  0.00000000E+00  0.00000000E+00  0.00000000E+00
  0.00000000E+00  0.00000000E+00  0.00000000E+00
  0.00000000E+00  0.00000000E+00  0.00000000E+00
  0.00000000E+00  0.00000000E+00  0.00000000E+00
  0.00000000E+00  0.00000000E+00  0.00000000E+00
  0.00000000E+00  0.00000000E+00  0.00000000E+00
  0.00000000E+00  0.00000000E+00  0.00000000E+00
  0.00000000E+00  0.00000000E+00  0.00000000E+00
  0.00000000E+00  0.00000000E+00  0.00000000E+00
  0.00000000E+00  0.00000000E+00  0.00000000E+00
  0.00000000E+00  0.00000000E+00  0.00000000E+00
  0.00000000E+00  0.00000000E+00  0.00000000E+00
  0.00000000E+00  0.00000000E+00  0.00000000E+00
  0.00000000E+00  0.00000000E+00  0.00000000E+00
  0.00000000E+00  0.00000000E+00  0.00000000E+00
  0.00000000E+00  0.00000000E+00  0.00000000E+00
  0.00000000E+00  0.00000000E+00  0.00000000E+00
  0.00000000E+00  0.00000000E+00  0.00000000E+00
  0.00000000E+00  0.00000000E+00  0.00000000E+00
  0.00000000E+00  0.00000000E+00  0.00000000E+00
  0.00000000E+00  0.00000000E+00  0.00000000E+00
  0.00000000E+00  0.00000000E+00  0.00000000E+00
  0.00000000E+00  0.00000000E+00  0.00000000E+00
  0.00000000E+00  0.00000000E+00  0.00000000E+00
  0.00000000E+00  0.00000000E+00  0.00000000E+00
  0.00000000E+00  0.00000000E+00  0.00000000E+00
  0.00000000E+00  0.00000000E+00  0.00000000E+00
  0.00000000E+00  0.00000000E+00  0.00000000E+00
  0.00000000E+00  0.00000000E+00  0.00000000E+00
  0.00000000E+00  0.00000000E+00  0.00000000E+00
  0.00000000E+00  0.00000000E+00  0.00000000E+00
  0.00000000E+00  0.00000000E+00  0.00000000E+00
  0.00000000E+00  0.00000000E+00  0.00000000E+00
  0.00000000E+00  0.00000000E+00  0.00000000E+00
  0.00000000E+00  0.00000000E+00  0.00000000E+00
  0.00000000E+00  0.00000000E+00  0.00000000E+00
  0.00000000E+00  0.00000000E+00  0.00000000E+00
  0.00000000E+00  0.00000000E+00  0.00000000E+00
  0.00000000E+00  0.00000000E+00  0.00000000E+00
  0.00000000E+00  0.00000000E+00  0.00000000E+00
  0.00000000E+00  0.00000000E+00  0.00000000E+00
  0.00000000E+00  0.00000000E+00  0.00000000E+00
  0.00000000E+00  0.00000000E+00  0.00000000E+00
  0.00000000E+00  0.00000000E+00  0.00000000E+00
  0.00000000E+00  0.00000000E+00  0.00000000E+00
  0.00000000E+00  0.00000000E+00  0.00000000E+00
  0.00000000E+00  0.00000000E+00  0.00000000E+00
  0.00000000E+00  0.00000000E+00  0.00000000E+00
  0.00000000E+00  0.00000000E+00  0.00000000E+00
  0.00000000E+00  0.00000000E+00  0.00000000E+00
  0.00000000E+00  0.00000000E+00  0.00000000E+00
  0.00000000E+00  0.00000000E+00  0.00000000E+00
  0.00000000E+00  0.00000000E+00  0.00000000E+00
  0.00000000E+00  0.00000000E+00  0.00000000E+00
  0.00000000E+00  0.00000000E+00  0.00000000E+00
  0.00000000E+00  0.00000000E+00  0.00000000E+00
  0.00000000E+00  0.00000000E+00  0.00000000E+00
  0.00000000E+00  0.00000000E+00  0.00000000E+00
  0.00000000E+00  0.00000000E+00  0.00000000E+00
  0.00000000E+00  0.00000000E+00  0.00000000E+00
  0.00000000E+00  0.00000000E+00  0.00000000E+00
  0.00000000E+00  0.00000000E+00  0.00000000E+00
  0.00000000E+00  0.00000000E+00  0.00000000E+00
  0.00000000E+00  0.00000000E+00  0.00000000E+00
  0.00000000E+00  0.00000000E+00  0.00000000E+00
  0.00000000E+00  0.00000000E+00  0.00000000E+00
  0.00000000E+00  0.00000000E+00  0.00000000E+00
  0.00000000E+00  0.00000000E+00  0.00000000E+00
  0.00000000E+00  0.00000000E+00  0.00000000E+00
  0.00000000E+00  0.00000000E+00  0.00000000E+00
  0.00000000E+00  0.00000000E+00  0.00000000E+00
  0.00000000E+00  0.00000000E+00  0.00000000E+00
  0.00000000E+00  0.00000000E+00  0.00000000E+00
  0.00000000E+00  0.00000000E+00  0.00000000E+00
  0.00000000E+00  0.00000000E+00  0.00000000E+00
  0.00000000E+00  0.00000000E+00  0.00000000E+00
  0.00000000E+00  0.00000000E+00  0.00000000E+00
  0.00000000E+00  0.00000000E+00  0.00000000E+00
  0.00000000E+00  0.00000000E+00  0.00000000E+00
  0.00000000E+00  0.00000000E+00  0.00000000E+00
  0.00000000E+00  0.00000000E+00  0.00000000E+00
  0.00000000E+00  0.00000000E+00  0.00000000E+00
  0.00000000E+00  0.00000000E+00  0.00000000E+00
  0.00000000E+00  0.00000000E+00  0.00000000E+00
  0.00000000E+00  0.00000000E+00  0.00000000E+00
  0.00000000E+00  0.00000000E+00  0.00000000E+00
  0.00000000E+00  0.00000000E+00  0.00000000E+00
  0.00000000E+00  0.00000000E+00  0.00000000E+00
  0.00000000E+00  0.00000000E+00  0.00000000E+00
  0.00000000E+00  0.00000000E+00  0.00000000E+00
  0.00000000E+00  0.00000000E+00  0.00000000E+00
  0.00000000E+00  0.00000000E+00  0.00000000E+00
  0.00000000E+00  0.00000000E+00  0.00000000E+00
  0.00000000E+00  0.00000000E+00  0.00000000E+00
  0.00000000E+00  0.00000000E+00  0.00000000E+00
  0.00000000E+00  0.00000000E+00  0.00000000E+00
  0.00000000E+00  0.00000000E+00  0.00000000E+00
  0.00000000E+00  0.00000000E+00  0.00000000E+00
  0.00000000E+00  0.00000000E+00  0.00000000E+00
  0.00000000E+00  0.00000000E+00  0.00000000E+00
  0.00000000E+00  0.00000000E+00  0.00000000E+00
  0.00000000E+00  0.00000000E+00  0.00000000E+00
  0.00000000E+00  0.00000000E+00  0.00000000E+00
  0.00000000E+00  0.00000000E+00  0.00000000E+00
  0.00000000E+00  0.00000000E+00  0.00000000E+00
  0.00000000E+00  0.00000000E+00  0.00000000E+00
  0.00000000E+00  0.00000000E+00  0.00000000E+00
  0.00000000E+00  0.00000000E+00  0.00000000E+00
  0.00000000E+00  0.00000000E+00  0.00000000E+00
  0.00000000E+00  0.00000000E+00  0.00000000E+00
  0.00000000E+00  0.00000000E+00  0.00000000E+00
  0.00000000E+00  0.00000000E+00  0.00000000E+00
  0.00000000E+00  0.00000000E+00  0.00000000E+00
  0.00000000E+00  0.00000000E+00  0.00000000E+00
  0.00000000E+00  0.00000000E+00  0.00000000E+00
  0.00000000E+00  0.00000000E+00  0.00000000E+00
  0.00000000E+00  0.00000000E+00  0.00000000E+00
  0.00000000E+00  0.00000000E+00  0.00000000E+00
  0.00000000E+00  0.00000000E+00  0.00000000E+00
  0.00000000E+00  0.00000000E+00  0.00000000E+00
  0.00000000E+00  0.00000000E+00  0.00000000E+00
  0.00000000E+00  0.00000000E+00  0.00000000E+00
  0.00000000E+00  0.00000000E+00  0.00000000E+00
  0.00000000E+00  0.00000000E+00  0.00000000E+00
  0.00000000E+00  0.00000000E+00  0.00000000E+00
  0.00000000E+00  0.00000000E+00  0.00000000E+00
  0.00000000E+00  0.00000000E+00  0.00000000E+00
  0.00000000E+00  0.00000000E+00  0.00000000E+00
  0.00000000E+00  0.00000000E+00  0.00000000E+00
  0.00000000E+00  0.00000000E+00  0.00000000E+00
  0.00000000E+00  0.00000000E+00  0.00000000E+00
  0.00000000E+00  0.00000000E+00  0.00000000E+00
  0.00000000E+00  0.00000000E+00  0.00000000E+00
  0.00000000E+00  0.00000000E+00  0.00000000E+00
  0.00000000E+00  0.00000000E+00  0.00000000E+00
  0.00000000E+00  0.00000000E+00  0.00000000E+00
  0.00000000E+00  0.00000000E+00  0.00000000E+00
