Li71 P24 N1 O94                         
   1.00000000000000     
    14.7027140040171389    0.0008166490230224   -0.0055800957530119
     0.0005715514171120   10.5726543654579466    0.0018998176375346
    -0.0046728671402010    0.0022329089473847   12.3151097438811252
   Li   P    N    O 
    71    24     1    94
Direct
  0.1722917428471282  0.4193495052895608  0.0010087470585960
  0.1706139277236476  0.4236064137429359  0.4996086035187043
  0.1735019583030035  0.9251325738452817  0.0022806719420257
  0.1704096670736761  0.9253052443449222  0.4983195928968143
  0.5017201230290312  0.4220866447418771  0.0006241227212723
  0.5026793248494140  0.4225865492111470  0.4993614689791383
  0.5022918366337021  0.9224551224363314  0.0004742410921165
  0.5022095671471148  0.9225807233754055  0.4994177452014171
  0.8356314379243688  0.4221075169658992 -0.0009346689455472
  0.8362051956836395  0.4223734914260291  0.5004892118933649
  0.8338894309698198  0.9182946730071850  0.0003582713450708
  0.8364074970869102  0.9219201112541184  0.5006096025964727
  0.0065519176654476  0.0631039736131675  0.2706388032707659
  0.0035328288404971  0.0758783742799266  0.7456548653762965
  0.0053494040856405  0.5798682293993781  0.2517922756471130
  0.0036343513984307  0.5770372531453490  0.7489440675587712
  0.3369889451842240  0.0805940994962233  0.2460089042402396
  0.3366617971610409  0.0772329311471451  0.7506877540804049
  0.3345678051702893  0.5774957328404906  0.2496228018968347
  0.3368163075582474  0.5777335930788097  0.7501970645090367
  0.6684651213414310  0.0783113738486167  0.2503052848752603
  0.6685371750329331  0.0774560618794084  0.7497936473717043
  0.6691482001545987  0.5767512375571084  0.2497802299588651
  0.6690513875807483  0.5777976935041507  0.7497664316608647
  0.1706313780930750  0.1641023979005611  0.6264061573279966
  0.1694273724751282  0.6607710681702892  0.1253563721089310
  0.1699126545406563  0.6639783686428596  0.6266063798493333
  0.5020311184296796  0.1633651732481787  0.1255054244853968
  0.5022935036429262  0.1631087673832226  0.6262515907845776
  0.5020234586630102  0.6634889341997162  0.1263845432204447
  0.5028425470469893  0.6634048351126669  0.6260604321009627
  0.8341985667826870  0.1632228727763034  0.1286363629227229
  0.8355037065201050  0.1637011025926254  0.6269057805427598
  0.8364136104857574  0.6618257663278975  0.1261469903695790
  0.8360040023032891  0.6635719163296397  0.6265105791307940
  0.0026099487178212  0.3558180603889515  0.1254328451999468
  0.0032605824359769  0.3367768593741505  0.6239256801132466
  0.0022911248121585  0.8319541594807398  0.1232397913320340
  0.0037136408025733  0.8364024548611194  0.6232278712659153
  0.3318221552850978  0.3323872355672762  0.1238124556382987
  0.3364818302816586  0.3365905531974822  0.6233823708634140
  0.3353115846940052  0.8378796564283367  0.1236930756977145
  0.3359436608936457  0.8372024496923474  0.6229759368598720
  0.6686678974133968  0.3368969505927275  0.1232139802589095
  0.6690320449056936  0.3369649931938737  0.6233359327350563
  0.6696964471596211  0.8369203141886293  0.1242969242197498
  0.6692534475307685  0.8368969843254360  0.6236314045257084
  0.0034781783197227  0.3384396223600109  0.3773230395454056
  0.0027425645391914  0.3392985363327640  0.8739502755428334
  0.0034189876485004  0.8328224851489653  0.3778229447992923
  0.0031289325708940  0.8322199019983686  0.8725337431466541
  0.3358088662381108  0.3371570192771419  0.3755173307486609
  0.3370840721878671  0.3352866093513688  0.8767701242286620
  0.3351832644343111  0.8379717744567241  0.3749814771469695
  0.3365735507624502  0.8369928386466362  0.8771182251416644
  0.6694988242392259  0.3368510800781678  0.3759952181410856
  0.6685898491512230  0.3373822409687752  0.8762400217261889
  0.6699243592958415  0.8372185865631547  0.3761461588275015
  0.6686970770401198  0.8366885312952635  0.8762666898016451
  0.1693832989417493  0.1722511366416603  0.3721386269708399
  0.1739571340806694  0.1636991409482404  0.8757333545501843
  0.1688002977553600  0.6616842760045499  0.3761052387053079
  0.1703909253818316  0.6630537083297724  0.8733256704039108
  0.5028759034265692  0.1635121243935543  0.3734193309474518
  0.5018323845191383  0.1629160621803922  0.8737312406714041
  0.5023266067202860  0.6636273280735722  0.3731587667496531
  0.5023934039385539  0.6630926476746580  0.8738286954344731
  0.8365665527197520  0.1631156357915575  0.3746519495237347
  0.8335873596367722  0.1657045974573924  0.8710280667241478
  0.8365188779395147  0.6623869705441079  0.3735301221128594
  0.8355634564852280  0.6629212830195514  0.8730583546264086
  0.1672541880826229  0.4161275985228722  0.2493874369521880
  0.1674667294229645  0.4124553567136583  0.7494701290374093
  0.1659698092486576  0.9074684828864669  0.2494300035736380
  0.1670603494835059  0.9125033590135229  0.7496596904909161
  0.5002228114565290  0.4122098813768146  0.2495963386162965
  0.5003533461016288  0.4122301891703943  0.7498948404457064
  0.5011292435861708  0.9119164674763109  0.2499244846850543
  0.5003440374624811  0.9118297997960388  0.7497786671720391
  0.8348970318359457  0.4112539138247637  0.2503364780483285
  0.8335923233926913  0.4125015915643713  0.7497193272833446
  0.8351385665294178  0.9121414679117928  0.2496031812279449
  0.8340255460447705  0.9125179169945001  0.7506558018913964
 -0.0008556881362000  0.0842429704173977 -0.0067756608175307
 -0.0002394358559407  0.0884117539241271  0.5022495492821266
 -0.0001199050921371  0.5869539442971463 -0.0016675749357106
 -0.0001267560421638  0.5872350906336467  0.5011997163880549
  0.3334671076400894  0.0868514110998654 -0.0008277689726993
  0.3338423966621175  0.0890920064877923  0.4996772896867400
  0.3335383617115333  0.5873831251207162 -0.0002419613091605
  0.3339203582972005  0.5883686278346492  0.5003378236436865
  0.6672724756277699  0.0879329220650951 -0.0001619498388705
  0.6673866742505613  0.0877832365720260  0.5001512491942186
  0.6671648241482708  0.5879339124923758  0.0001411980683128
  0.6673058127318495  0.5880679431231921  0.4995693235166459
  0.2037577949810370  0.0504764765469298  0.2596354379439870
  0.0343719062843368  0.1596755310117584  0.3994032487003252
  0.0360171985913924  0.1579756962767456  0.8935565354677040
  0.0349624229767921  0.6561296401638202  0.3974134091484586
  0.0352217736225859  0.6559342108135594  0.8946923261144250
  0.3708405191159221  0.1588622981638166  0.3973711486484433
  0.3697285170473514  0.1558233279872748  0.8946095807962871
  0.3687553142342410  0.6575301128157810  0.3963391712079150
  0.3691499478889361  0.6567158208862276  0.8959627853872849
  0.7029651091845432  0.1570027983827904  0.3962903129155909
  0.7025879646432132  0.1572795668475784  0.8959482026544305
  0.7029449084513870  0.6568843366051633  0.3955735983310250
  0.7024707924184148  0.6572170519719882  0.8962249586886535
  0.2001817661252203  0.0524652246974260  0.7495304089282543
  0.1977530044178376  0.5580412449447327  0.2528350766266450
  0.2008252796810315  0.5524553236319700  0.7496277149645280
  0.5347472211933992  0.0520628371879722  0.2497947029675104
  0.5342209721576812  0.0517701647242885  0.7498445498577424
  0.5342588487195451  0.5521700962865956  0.2497434525901501
  0.5343296974674465  0.5521397251790908  0.7498665451295229
  0.8717811341733324  0.0513729181531501  0.2495514193372555
  0.8681619580803619  0.0524524057935720  0.7512193108729478
  0.8688698306657113  0.5509438669831759  0.2494733992108797
  0.8676405776545799  0.5521822101566107  0.7499653162249361
  0.0604769532539354  0.4106155161308322  0.2512433174053931
  0.0613301334428019  0.4097312429591475  0.7494195291142898
  0.0588422148928725  0.9005715756594445  0.2483157286087811
  0.0607357736531972  0.9096287621025964  0.7499577902448835
  0.3944922048722463  0.4092925461671670  0.2493761735471846
  0.3945236399693536  0.4095702617532505  0.7498319798895462
  0.3955789327776704  0.9083654602062864  0.2496696933378032
  0.3945208413856602  0.9086765519497149  0.7495883527135957
  0.7291249060209857  0.4082723555609478  0.2486495881642679
  0.7277541526317707  0.4096820565290580  0.7499177986332531
  0.7293688149001063  0.9123947671135495  0.2499396178805920
  0.7282381521301163  0.9098164935344445  0.7504707524260344
  0.2288457143070236  0.0869115187651509 -0.0031722355983857
  0.2278370898750961  0.0933713389132563  0.4992594697079633
  0.2276446132646034  0.5904022920820718 -0.0011735581771864
  0.2280054034153102  0.5910996058915907  0.5014186734801989
  0.5617136651256168  0.0905030339829316 -0.0001852090322154
  0.5615922070487446  0.0903665287363163  0.4999671332598823
  0.5613845894252324  0.5904767911494840  0.0002354201675172
  0.5614832181715659  0.5908756842743922  0.4995194085529917
  0.8937208767598296  0.0916345019583533  0.0000297789339216
  0.8938074419988007  0.0901729731904453  0.5018015354981702
  0.8939270965555944  0.5895342877321325 -0.0012217010642307
  0.8939135691491783  0.5902308155988432  0.5007772838201756
  0.2022436080152194  0.3540865628737220  0.1446873474344186
  0.2022951046767749  0.3437118931865008  0.6453273893601270
  0.1999526773181207  0.8384333754044044  0.1446291077995711
  0.2015400247343540  0.8439646694118643  0.6452234668219343
  0.5362424507331914  0.3432107178105568  0.1459872851525456
  0.5357292161259103  0.3430913419544904  0.6460131994037377
  0.5371950301910576  0.8427985298652398  0.1463305866090286
  0.5359294689258071  0.8430411306320327  0.6458214850724048
  0.8717642024592932  0.3409824080151978  0.1469234856398346
  0.8689866267845731  0.3430456944368681  0.6461699966106909
  0.8689239669383538  0.8424377108139913  0.1452387930131001
  0.8696393865520877  0.8434700222814807  0.6470556202340639
  0.0352178826068237  0.1564540295718964  0.6062276128127704
  0.0349313737366968  0.6547319048881410  0.1025640838350907
  0.0352001853682613  0.6569225527267236  0.6047406984154494
  0.3710770842800284  0.1568092115744695  0.1014530210932158
  0.3688160202188245  0.1565146156192296  0.6047955456538339
  0.3684889056454348  0.6567337591885724  0.1037492410609868
  0.3694957049425153  0.6574790710805944  0.6041678058724492
  0.7030287610784830  0.1571067832034607  0.1036635433352055
  0.7025359303335083  0.1570311385574966  0.6041765518309901
  0.7029313149257468  0.6568750961570079  0.1040112535197649
  0.7026758703472038  0.6572625859237703  0.6034921645796898
  0.0335386936481274  0.4468206034566625 -0.0021254367625817
  0.0337366168101110  0.4475820264597568  0.5013891875194633
  0.0341326747827823  0.9461799436815684 -0.0009254004998864
  0.0337018378780636  0.9486663203340410  0.4997071395371285
  0.3673376397510095  0.4475626934447336 -0.0002289477919019
  0.3677283667362422  0.4484530112592446  0.5001517715972369
  0.3690475346642039  0.9467905587955548 -0.0000525217850615
  0.3665188949078623  0.9484802241191100  0.4993785471346131
  0.7012913044664856  0.4480314448350958 -0.0000522776439303
  0.7011433667635879  0.4480788257589793  0.4996830478824671
  0.7014908843212200  0.9481169644598255 -0.0001239153104506
  0.7016309926536032  0.9480243273205401  0.5002404560169879
  0.2025999041328204  0.3486365704055026  0.3542332491470827
  0.2026699949997513  0.3430546899290708  0.8530462209853437
  0.2001711237438281  0.8386858916038028  0.3548522110032961
  0.2019778740629445  0.8427046334636293  0.8531813954220103
  0.5361101006358463  0.3433174874113026  0.3535607462012587
  0.5357168898174021  0.3431495099891714  0.8538639919867040
  0.5368740432213647  0.8432705292362317  0.3540797985835633
  0.5359214584006434  0.8427347459906389  0.8536378303880927
  0.8692910261756667  0.3425844453822753  0.3546877310822544
  0.8690221279417516  0.3430537425939232  0.8536777218847891
  0.8698521820488330  0.8425351527916451  0.3534722727634439
  0.8694648347701541  0.8435318996852001  0.8548640594218336
 
  0.00000000E+00  0.00000000E+00  0.00000000E+00
  0.00000000E+00  0.00000000E+00  0.00000000E+00
  0.00000000E+00  0.00000000E+00  0.00000000E+00
  0.00000000E+00  0.00000000E+00  0.00000000E+00
  0.00000000E+00  0.00000000E+00  0.00000000E+00
  0.00000000E+00  0.00000000E+00  0.00000000E+00
  0.00000000E+00  0.00000000E+00  0.00000000E+00
  0.00000000E+00  0.00000000E+00  0.00000000E+00
  0.00000000E+00  0.00000000E+00  0.00000000E+00
  0.00000000E+00  0.00000000E+00  0.00000000E+00
  0.00000000E+00  0.00000000E+00  0.00000000E+00
  0.00000000E+00  0.00000000E+00  0.00000000E+00
  0.00000000E+00  0.00000000E+00  0.00000000E+00
  0.00000000E+00  0.00000000E+00  0.00000000E+00
  0.00000000E+00  0.00000000E+00  0.00000000E+00
  0.00000000E+00  0.00000000E+00  0.00000000E+00
  0.00000000E+00  0.00000000E+00  0.00000000E+00
  0.00000000E+00  0.00000000E+00  0.00000000E+00
  0.00000000E+00  0.00000000E+00  0.00000000E+00
  0.00000000E+00  0.00000000E+00  0.00000000E+00
  0.00000000E+00  0.00000000E+00  0.00000000E+00
  0.00000000E+00  0.00000000E+00  0.00000000E+00
  0.00000000E+00  0.00000000E+00  0.00000000E+00
  0.00000000E+00  0.00000000E+00  0.00000000E+00
  0.00000000E+00  0.00000000E+00  0.00000000E+00
  0.00000000E+00  0.00000000E+00  0.00000000E+00
  0.00000000E+00  0.00000000E+00  0.00000000E+00
  0.00000000E+00  0.00000000E+00  0.00000000E+00
  0.00000000E+00  0.00000000E+00  0.00000000E+00
  0.00000000E+00  0.00000000E+00  0.00000000E+00
  0.00000000E+00  0.00000000E+00  0.00000000E+00
  0.00000000E+00  0.00000000E+00  0.00000000E+00
  0.00000000E+00  0.00000000E+00  0.00000000E+00
  0.00000000E+00  0.00000000E+00  0.00000000E+00
  0.00000000E+00  0.00000000E+00  0.00000000E+00
  0.00000000E+00  0.00000000E+00  0.00000000E+00
  0.00000000E+00  0.00000000E+00  0.00000000E+00
  0.00000000E+00  0.00000000E+00  0.00000000E+00
  0.00000000E+00  0.00000000E+00  0.00000000E+00
  0.00000000E+00  0.00000000E+00  0.00000000E+00
  0.00000000E+00  0.00000000E+00  0.00000000E+00
  0.00000000E+00  0.00000000E+00  0.00000000E+00
  0.00000000E+00  0.00000000E+00  0.00000000E+00
  0.00000000E+00  0.00000000E+00  0.00000000E+00
  0.00000000E+00  0.00000000E+00  0.00000000E+00
  0.00000000E+00  0.00000000E+00  0.00000000E+00
  0.00000000E+00  0.00000000E+00  0.00000000E+00
  0.00000000E+00  0.00000000E+00  0.00000000E+00
  0.00000000E+00  0.00000000E+00  0.00000000E+00
  0.00000000E+00  0.00000000E+00  0.00000000E+00
  0.00000000E+00  0.00000000E+00  0.00000000E+00
  0.00000000E+00  0.00000000E+00  0.00000000E+00
  0.00000000E+00  0.00000000E+00  0.00000000E+00
  0.00000000E+00  0.00000000E+00  0.00000000E+00
  0.00000000E+00  0.00000000E+00  0.00000000E+00
  0.00000000E+00  0.00000000E+00  0.00000000E+00
  0.00000000E+00  0.00000000E+00  0.00000000E+00
  0.00000000E+00  0.00000000E+00  0.00000000E+00
  0.00000000E+00  0.00000000E+00  0.00000000E+00
  0.00000000E+00  0.00000000E+00  0.00000000E+00
  0.00000000E+00  0.00000000E+00  0.00000000E+00
  0.00000000E+00  0.00000000E+00  0.00000000E+00
  0.00000000E+00  0.00000000E+00  0.00000000E+00
  0.00000000E+00  0.00000000E+00  0.00000000E+00
  0.00000000E+00  0.00000000E+00  0.00000000E+00
  0.00000000E+00  0.00000000E+00  0.00000000E+00
  0.00000000E+00  0.00000000E+00  0.00000000E+00
  0.00000000E+00  0.00000000E+00  0.00000000E+00
  0.00000000E+00  0.00000000E+00  0.00000000E+00
  0.00000000E+00  0.00000000E+00  0.00000000E+00
  0.00000000E+00  0.00000000E+00  0.00000000E+00
  0.00000000E+00  0.00000000E+00  0.00000000E+00
  0.00000000E+00  0.00000000E+00  0.00000000E+00
  0.00000000E+00  0.00000000E+00  0.00000000E+00
  0.00000000E+00  0.00000000E+00  0.00000000E+00
  0.00000000E+00  0.00000000E+00  0.00000000E+00
  0.00000000E+00  0.00000000E+00  0.00000000E+00
  0.00000000E+00  0.00000000E+00  0.00000000E+00
  0.00000000E+00  0.00000000E+00  0.00000000E+00
  0.00000000E+00  0.00000000E+00  0.00000000E+00
  0.00000000E+00  0.00000000E+00  0.00000000E+00
  0.00000000E+00  0.00000000E+00  0.00000000E+00
  0.00000000E+00  0.00000000E+00  0.00000000E+00
  0.00000000E+00  0.00000000E+00  0.00000000E+00
  0.00000000E+00  0.00000000E+00  0.00000000E+00
  0.00000000E+00  0.00000000E+00  0.00000000E+00
  0.00000000E+00  0.00000000E+00  0.00000000E+00
  0.00000000E+00  0.00000000E+00  0.00000000E+00
  0.00000000E+00  0.00000000E+00  0.00000000E+00
  0.00000000E+00  0.00000000E+00  0.00000000E+00
  0.00000000E+00  0.00000000E+00  0.00000000E+00
  0.00000000E+00  0.00000000E+00  0.00000000E+00
  0.00000000E+00  0.00000000E+00  0.00000000E+00
  0.00000000E+00  0.00000000E+00  0.00000000E+00
  0.00000000E+00  0.00000000E+00  0.00000000E+00
  0.00000000E+00  0.00000000E+00  0.00000000E+00
  0.00000000E+00  0.00000000E+00  0.00000000E+00
  0.00000000E+00  0.00000000E+00  0.00000000E+00
  0.00000000E+00  0.00000000E+00  0.00000000E+00
  0.00000000E+00  0.00000000E+00  0.00000000E+00
  0.00000000E+00  0.00000000E+00  0.00000000E+00
  0.00000000E+00  0.00000000E+00  0.00000000E+00
  0.00000000E+00  0.00000000E+00  0.00000000E+00
  0.00000000E+00  0.00000000E+00  0.00000000E+00
  0.00000000E+00  0.00000000E+00  0.00000000E+00
  0.00000000E+00  0.00000000E+00  0.00000000E+00
  0.00000000E+00  0.00000000E+00  0.00000000E+00
  0.00000000E+00  0.00000000E+00  0.00000000E+00
  0.00000000E+00  0.00000000E+00  0.00000000E+00
  0.00000000E+00  0.00000000E+00  0.00000000E+00
  0.00000000E+00  0.00000000E+00  0.00000000E+00
  0.00000000E+00  0.00000000E+00  0.00000000E+00
  0.00000000E+00  0.00000000E+00  0.00000000E+00
  0.00000000E+00  0.00000000E+00  0.00000000E+00
  0.00000000E+00  0.00000000E+00  0.00000000E+00
  0.00000000E+00  0.00000000E+00  0.00000000E+00
  0.00000000E+00  0.00000000E+00  0.00000000E+00
  0.00000000E+00  0.00000000E+00  0.00000000E+00
  0.00000000E+00  0.00000000E+00  0.00000000E+00
  0.00000000E+00  0.00000000E+00  0.00000000E+00
  0.00000000E+00  0.00000000E+00  0.00000000E+00
  0.00000000E+00  0.00000000E+00  0.00000000E+00
  0.00000000E+00  0.00000000E+00  0.00000000E+00
  0.00000000E+00  0.00000000E+00  0.00000000E+00
  0.00000000E+00  0.00000000E+00  0.00000000E+00
  0.00000000E+00  0.00000000E+00  0.00000000E+00
  0.00000000E+00  0.00000000E+00  0.00000000E+00
  0.00000000E+00  0.00000000E+00  0.00000000E+00
  0.00000000E+00  0.00000000E+00  0.00000000E+00
  0.00000000E+00  0.00000000E+00  0.00000000E+00
  0.00000000E+00  0.00000000E+00  0.00000000E+00
  0.00000000E+00  0.00000000E+00  0.00000000E+00
  0.00000000E+00  0.00000000E+00  0.00000000E+00
  0.00000000E+00  0.00000000E+00  0.00000000E+00
  0.00000000E+00  0.00000000E+00  0.00000000E+00
  0.00000000E+00  0.00000000E+00  0.00000000E+00
  0.00000000E+00  0.00000000E+00  0.00000000E+00
  0.00000000E+00  0.00000000E+00  0.00000000E+00
  0.00000000E+00  0.00000000E+00  0.00000000E+00
  0.00000000E+00  0.00000000E+00  0.00000000E+00
  0.00000000E+00  0.00000000E+00  0.00000000E+00
  0.00000000E+00  0.00000000E+00  0.00000000E+00
  0.00000000E+00  0.00000000E+00  0.00000000E+00
  0.00000000E+00  0.00000000E+00  0.00000000E+00
  0.00000000E+00  0.00000000E+00  0.00000000E+00
  0.00000000E+00  0.00000000E+00  0.00000000E+00
  0.00000000E+00  0.00000000E+00  0.00000000E+00
  0.00000000E+00  0.00000000E+00  0.00000000E+00
  0.00000000E+00  0.00000000E+00  0.00000000E+00
  0.00000000E+00  0.00000000E+00  0.00000000E+00
  0.00000000E+00  0.00000000E+00  0.00000000E+00
  0.00000000E+00  0.00000000E+00  0.00000000E+00
  0.00000000E+00  0.00000000E+00  0.00000000E+00
  0.00000000E+00  0.00000000E+00  0.00000000E+00
  0.00000000E+00  0.00000000E+00  0.00000000E+00
  0.00000000E+00  0.00000000E+00  0.00000000E+00
  0.00000000E+00  0.00000000E+00  0.00000000E+00
  0.00000000E+00  0.00000000E+00  0.00000000E+00
  0.00000000E+00  0.00000000E+00  0.00000000E+00
  0.00000000E+00  0.00000000E+00  0.00000000E+00
  0.00000000E+00  0.00000000E+00  0.00000000E+00
  0.00000000E+00  0.00000000E+00  0.00000000E+00
  0.00000000E+00  0.00000000E+00  0.00000000E+00
  0.00000000E+00  0.00000000E+00  0.00000000E+00
  0.00000000E+00  0.00000000E+00  0.00000000E+00
  0.00000000E+00  0.00000000E+00  0.00000000E+00
  0.00000000E+00  0.00000000E+00  0.00000000E+00
  0.00000000E+00  0.00000000E+00  0.00000000E+00
  0.00000000E+00  0.00000000E+00  0.00000000E+00
  0.00000000E+00  0.00000000E+00  0.00000000E+00
  0.00000000E+00  0.00000000E+00  0.00000000E+00
  0.00000000E+00  0.00000000E+00  0.00000000E+00
  0.00000000E+00  0.00000000E+00  0.00000000E+00
  0.00000000E+00  0.00000000E+00  0.00000000E+00
  0.00000000E+00  0.00000000E+00  0.00000000E+00
  0.00000000E+00  0.00000000E+00  0.00000000E+00
  0.00000000E+00  0.00000000E+00  0.00000000E+00
  0.00000000E+00  0.00000000E+00  0.00000000E+00
  0.00000000E+00  0.00000000E+00  0.00000000E+00
  0.00000000E+00  0.00000000E+00  0.00000000E+00
  0.00000000E+00  0.00000000E+00  0.00000000E+00
  0.00000000E+00  0.00000000E+00  0.00000000E+00
  0.00000000E+00  0.00000000E+00  0.00000000E+00
  0.00000000E+00  0.00000000E+00  0.00000000E+00
  0.00000000E+00  0.00000000E+00  0.00000000E+00
  0.00000000E+00  0.00000000E+00  0.00000000E+00
  0.00000000E+00  0.00000000E+00  0.00000000E+00
  0.00000000E+00  0.00000000E+00  0.00000000E+00
  0.00000000E+00  0.00000000E+00  0.00000000E+00
  0.00000000E+00  0.00000000E+00  0.00000000E+00
