Li56 P28 O98
1.0
6.730959 0.000000 -7.860032
-2.035903 8.419349 -5.257546
0.000000 0.000000 73.647588
Li P O
56 28 98
Selective dynamics
direct
0.144977 0.012029 0.067114 T T T Li+
0.855023 0.987971 0.008180 T T T Li+
0.588727 0.248347 0.069175 T T T Li+
0.411273 0.751653 0.006119 T T T Li+
0.327738 0.208724 0.002554 T T T Li+
0.672262 0.791276 0.001312 T T T Li+
0.241886 0.549204 0.018657 T T T Li+
0.758114 0.450796 0.056637 T T T Li+
0.144977 0.012029 0.138543 F F F Li+
0.855023 0.987971 0.079608 T T T Li+
0.588727 0.248347 0.140604 F F F Li+
0.411273 0.751653 0.077547 T T T Li+
0.327738 0.208724 0.073982 T T T Li+
0.672262 0.791276 0.072740 T T T Li+
0.241886 0.549204 0.090085 T T T Li+
0.758114 0.450796 0.128066 F F F Li+
0.144977 0.012029 0.209971 F F F Li+
0.855023 0.987971 0.151037 F F F Li+
0.588727 0.248347 0.212032 F F F Li+
0.411273 0.751653 0.148976 F F F Li+
0.327738 0.208724 0.145411 F F F Li+
0.672262 0.791276 0.144169 F F F Li+
0.241886 0.549204 0.161514 F F F Li+
0.758114 0.450796 0.199494 F F F Li+
0.144977 0.012029 0.281400 F F F Li+
0.855023 0.987971 0.222465 F F F Li+
0.588727 0.248347 0.283461 F F F Li+
0.411273 0.751653 0.220404 F F F Li+
0.327738 0.208724 0.216839 F F F Li+
0.672262 0.791276 0.215597 F F F Li+
0.241886 0.549204 0.232942 F F F Li+
0.758114 0.450796 0.270923 F F F Li+
0.144977 0.012029 0.352829 F F F Li+
0.855023 0.987971 0.293894 F F F Li+
0.588727 0.248347 0.354890 F F F Li+
0.411273 0.751653 0.291833 F F F Li+
0.327738 0.208724 0.288268 F F F Li+
0.672262 0.791276 0.287026 F F F Li+
0.241886 0.549204 0.304371 F F F Li+
0.758114 0.450796 0.342351 F F F Li+
0.144977 0.012029 0.424257 T T T Li+
0.855023 0.987971 0.365322 F F F Li+
0.588727 0.248347 0.426318 T T T Li+
0.411273 0.751653 0.363261 F F F Li+
0.327738 0.208724 0.359696 F F F Li+
0.672262 0.791276 0.358455 F F F Li+
0.241886 0.549204 0.375800 F F F Li+
0.758114 0.450796 0.413780 T T T Li+
0.144977 0.012029 0.495686 T T T Li+
0.855023 0.987971 0.436751 T T T Li+
0.588727 0.248347 0.497747 T T T Li+
0.411273 0.751653 0.434690 T T T Li+
0.327738 0.208724 0.431125 T T T Li+
0.672262 0.791276 0.429883 T T T Li+
0.241886 0.549204 0.447228 T T T Li+
0.758114 0.450796 0.485208 T T T Li+
0.213298 0.368044 0.038172 T T T P5+
0.786702 0.631956 0.037122 T T T P5+
0.779241 0.154498 0.048323 T T T P5+
0.220759 0.845502 0.026971 T T T P5+
0.213298 0.368044 0.109601 F F F P5+
0.786702 0.631956 0.108550 T T T P5+
0.779241 0.154498 0.119752 F F F P5+
0.220759 0.845502 0.098399 T T T P5+
0.213298 0.368044 0.181029 F F F P5+
0.786702 0.631956 0.179979 F F F P5+
0.779241 0.154498 0.191180 F F F P5+
0.220759 0.845502 0.169828 F F F P5+
0.213298 0.368044 0.252458 F F F P5+
0.786702 0.631956 0.251408 F F F P5+
0.779241 0.154498 0.262609 F F F P5+
0.220759 0.845502 0.241256 F F F P5+
0.213298 0.368044 0.323886 F F F P5+
0.786702 0.631956 0.322836 F F F P5+
0.779241 0.154498 0.334037 F F F P5+
0.220759 0.845502 0.312685 F F F P5+
0.213298 0.368044 0.395315 T T T P5+
0.786702 0.631956 0.394265 F F F P5+
0.779241 0.154498 0.405466 T T T P5+
0.220759 0.845502 0.384114 F F F P5+
0.213298 0.368044 0.466743 T T T P5+
0.786702 0.631956 0.465693 T T T P5+
0.779241 0.154498 0.476895 T T T P5+
0.220759 0.845502 0.455542 T T T P5+
0.741759 0.125660 0.062469 T T T O2-
0.605720 0.209316 0.023997 T T T O2-
0.394280 0.790684 0.051296 T T T O2-
0.848591 0.018024 0.036483 T T T O2-
0.743350 0.623545 0.011528 T T T O2-
0.256650 0.376455 0.063766 T T T O2-
0.732189 0.473810 0.029872 T T T O2-
0.267811 0.526190 0.045422 T T T O2-
0.702403 0.763496 0.046767 T T T O2-
0.297597 0.236504 0.028527 T T T O2-
0.962384 0.316106 0.005177 T T T O2-
0.037616 0.683894 0.070117 T T T O2-
0.151409 0.981976 0.038811 T T T O2-
0.258241 0.874340 0.012825 T T T O2-
0.741759 0.125660 0.133897 F F F O2-
0.605720 0.209316 0.095426 F F F O2-
0.394280 0.790684 0.122725 F F F O2-
0.848591 0.018024 0.107911 F F F O2-
0.743350 0.623545 0.082956 T T T O2-
0.256650 0.376455 0.135194 F F F O2-
0.732189 0.473810 0.101301 F F F O2-
0.267811 0.526190 0.116850 F F F O2-
0.702403 0.763496 0.118195 F F F O2-
0.297597 0.236504 0.099956 F F F O2-
0.962384 0.316106 0.076606 T T T O2-
0.037616 0.683894 0.141545 F F F O2-
0.151409 0.981976 0.110240 F F F O2-
0.258241 0.874340 0.084254 T T T O2-
0.741759 0.125660 0.205326 F F F O2-
0.605720 0.209316 0.166854 F F F O2-
0.394280 0.790684 0.194154 F F F O2-
0.848591 0.018024 0.179340 F F F O2-
0.743350 0.623545 0.154385 F F F O2-
0.256650 0.376455 0.206623 F F F O2-
0.732189 0.473810 0.172729 F F F O2-
0.267811 0.526190 0.188279 F F F O2-
0.702403 0.763496 0.189624 F F F O2-
0.297597 0.236504 0.171384 F F F O2-
0.962384 0.316106 0.148034 F F F O2-
0.037616 0.683894 0.212974 F F F O2-
0.151409 0.981976 0.181668 F F F O2-
0.258241 0.874340 0.155682 F F F O2-
0.741759 0.125660 0.276755 F F F O2-
0.605720 0.209316 0.238283 F F F O2-
0.394280 0.790684 0.265582 F F F O2-
0.848591 0.018024 0.250769 F F F O2-
0.743350 0.623545 0.225814 F F F O2-
0.256650 0.376455 0.278052 F F F O2-
0.732189 0.473810 0.244158 F F F O2-
0.267811 0.526190 0.259707 F F F O2-
0.702403 0.763496 0.261052 F F F O2-
0.297597 0.236504 0.242813 F F F O2-
0.962384 0.316106 0.219463 F F F O2-
0.037616 0.683894 0.284403 F F F O2-
0.151409 0.981976 0.253097 F F F O2-
0.258241 0.874340 0.227111 F F F O2-
0.741759 0.125660 0.348183 F F F O2-
0.605720 0.209316 0.309712 F F F O2-
0.394280 0.790684 0.337011 F F F O2-
0.848591 0.018024 0.322197 F F F O2-
0.743350 0.623545 0.297242 F F F O2-
0.256650 0.376455 0.349480 F F F O2-
0.732189 0.473810 0.315587 F F F O2-
0.267811 0.526190 0.331136 F F F O2-
0.702403 0.763496 0.332481 F F F O2-
0.297597 0.236504 0.314241 F F F O2-
0.962384 0.316106 0.290891 F F F O2-
0.037616 0.683894 0.355831 F F F O2-
0.151409 0.981976 0.324525 F F F O2-
0.258241 0.874340 0.298539 F F F O2-
0.741759 0.125660 0.419612 T T T O2-
0.605720 0.209316 0.381140 F F F O2-
0.394280 0.790684 0.408439 F F F O2-
0.848591 0.018024 0.393626 T T T O2-
0.743350 0.623545 0.368671 F F F O2-
0.256650 0.376455 0.420909 T T T O2-
0.732189 0.473810 0.387015 F F F O2-
0.267811 0.526190 0.402564 F F F O2-
0.702403 0.763496 0.403910 F F F O2-
0.297597 0.236504 0.385670 F F F O2-
0.962384 0.316106 0.362320 F F F O2-
0.037616 0.683894 0.427260 T T T O2-
0.151409 0.981976 0.395954 T T T O2-
0.258241 0.874340 0.369968 T T T O2-
0.741759 0.125660 0.491040 T T T O2-
0.605720 0.209316 0.452569 T T T O2-
0.394280 0.790684 0.479868 T T T O2-
0.848591 0.018024 0.465054 T T T O2-
0.743350 0.623545 0.440099 T T T O2-
0.256650 0.376455 0.492337 T T T O2-
0.732189 0.473810 0.458444 T T T O2-
0.267811 0.526190 0.473993 T T T O2-
0.702403 0.763496 0.475338 T T T O2-
0.297597 0.236504 0.457099 T T T O2-
0.962384 0.316106 0.433748 T T T O2-
0.037616 0.683894 0.498688 T T T O2-
0.151409 0.981976 0.467382 T T T O2-
0.258241 0.874340 0.441396 T T T O2-
