Li61 P7 N32                             
   1.00000000000000     
    -0.0557102772598147    9.5974479235068166   -0.0373860557739884
    -0.1372070676168966   -0.0363622615963520    9.5919805086478611
     9.6320313421254102   -0.0545128831812070   -0.1368080835048236
   Li   P    N 
    61     7    32
Direct
  0.5027691843471748  0.9591346205385497  0.5025145734362371
  0.0075208750834389  0.4927329138850787  0.0010905504730650
  0.5038478178665570  0.9931951962422852  0.0060919266892740
  0.9971496723358795  0.0035932489046652  0.4990301107224068
  0.5063838031300327  0.4951844639776676  0.9977615318832028
  0.0069587619402386  0.5006727748773209  0.4931297536275056
  0.7567854555386963  0.0163444614636338  0.5148796674339557
  0.2494695528653351  0.0127257157932836  0.5091019171930912
  0.5998490931970653  0.5798516548131338  0.4356062974585821
  0.2404917588821849  0.5278393048267118  0.5208782783872251
  0.2658013406376382  0.9922070109288564  0.0169723875207073
  0.7403523059546611  0.0087711209969557  0.0138110691869016
  0.4340985215326755  0.4357485677922904  0.4536044321329755
  0.5073401668026882  0.2426517930866931  0.0074602770824012
  0.5212438914073725  0.7496221662865228  0.0343242225566029
  0.0110133277542922  0.5038156181855448  0.2458679153481710
  0.0193414776432947  0.5059175411825511  0.7520520571111284
  0.2059458859852699  0.2257436492954874  0.2381117716546797
  0.2014807302979460  0.7317058805237503  0.7833092276411949
  0.2827987192099954  0.2209958671505183  0.7301528548669372
  0.2350811382493279  0.7113900872223458  0.2849261375620606
  0.6509936972564013  0.1816610373463376  0.3686531759907384
  0.6755823013481445  0.8052687045259070  0.6610626625911720
  0.7825068295022545  0.2081087146249479  0.7010388002147683
  0.7439192822008296  0.7779422851068557  0.2090613511960648
  0.9521059103713549  0.2608518179537102  0.2446291421995194
  0.9542505669081378  0.7520233024460871  0.7588075694043847
  0.2510602860644521  0.2685997230929645  0.5032309496263700
  0.2573296047668646  0.7690716647535515  0.5211710475052330
  0.7927175467984720  0.3480901551807530  0.4431919363280589
  0.7530768005483812  0.7920123731660041  0.4399636201901549
  0.7674112963166726  0.5263909497818600  0.2626291431900796
  0.8149206845709667  0.6007934045178948  0.5723991444149903
  0.2576040968952036  0.4824692160707328  0.2654907471772456
  0.2799342225287666  0.4593504228765279  0.7618601495294611
  0.4745459445533916  0.7613498548225449  0.2993316430188440
  0.5245945458215647  0.2489393609484518  0.7695519550536449
  0.2506123656290428  0.9681007734324316  0.2657619879840931
  0.2521100959819725  0.9764318707726203  0.7772466830400534
  0.2633136776025691  0.2334015527807022  0.9828505868841316
  0.2740896738155865  0.7501703774580241  0.0406601214349188
  0.7677286706549835  0.9820851376489147  0.7783181312806748
  0.7751280504248446  0.0237012411973163  0.2506813010453636
  0.7819446252898647  0.7657904246861871  0.9866256397694863
  0.7869241783947487  0.2492287763132074  0.9677993972947498
  0.0352185437176569  0.2620880805533162  0.7645810003652176
  0.9977278959218447  0.7647788377857812  0.2429330443733155
  0.4605353294501696  0.2628863957167220  0.2521382820587961
  0.4515380144046244  0.7382558699947771  0.7994717000158910
  0.0203389298748223  0.2553773489386345  0.0071471449692589
  0.0210330374895654  0.7289619675798540  0.0034073612957117
  0.4802308755668591  0.1959603710552562  0.5346414634439578
  0.4643472475544377  0.6922558962783550  0.5659659096879394
  0.4982084489699782  0.5083275120294461  0.2339259162491542
  0.5025668649975543  0.4933693136069132  0.7517241210511263
  0.0100801930952656  0.0088879815569497  0.2634360840367150
  0.0102389019342356  0.0029113574432859  0.7374727872830077
  0.6030687571145674  0.4101223274254126  0.5734043125419008
  0.7773323096965100  0.4595527374390165  0.7487771231601718
  0.6884274671809386  0.3088087695071731  0.1863146291425827
  0.6768498086112142  0.6570823781178772  0.8243217932026304
  0.0052251452160335  0.9950901147243799  0.0019677140173027
  0.7632968964008480  0.4992094703419165  0.0019463592159483
  0.2526924882599002  0.4925685296820306  0.0083583594057620
 -0.0000944077154688  0.7589556030801478  0.4984272702701977
  0.0025678789735644  0.2481061445542788  0.5044415516405220
  0.5056114095034069  0.0002637237193104  0.2504157799905485
  0.5040236433380491  0.9855074030147457  0.7612436565262671
  0.6315540972838747  0.6086520062581818  0.6378233192939318
  0.6158110106518069  0.3845889146999361  0.3630900056992292
  0.9007370985064808  0.8988230156555455  0.1046590911273398
  0.9056075624170019  0.0959871629845337  0.8992890833665836
  0.1040893256727675  0.8893725621155479  0.9004411176604799
  0.1087626482406198  0.0974526078414699  0.1059158837295581
  0.3756730071082219  0.6179073948952021  0.3931827980861670
  0.3961476739056025  0.3536225346167198  0.6317321026873561
  0.0944944577888754  0.3447022767345952  0.3900980508042560
  0.0877263415429677  0.6602813482762452  0.6107347102648273
  0.1085624695715216  0.1489912657074221  0.6000996207549721
  0.1074383264154118  0.8575755187136607  0.4022319512045864
  0.8845410827533813  0.1514529414236894  0.4081966096390895
  0.8853745025252482  0.8590042292157793  0.5919323014374054
  0.8606538423820613  0.3990063394447529  0.1064335326666301
  0.8658688352025053  0.5941111661382752  0.8958642669884878
  0.1540430428219600  0.5936225929923414  0.1149627200871617
  0.1520511990206071  0.3898075940072849  0.9003197530727639
  0.4058485553995774  0.8901352438642739  0.1515189634010403
  0.4060830639701662  0.0940979340645507  0.8610201741824344
  0.4017150324435416  0.0885943247464809  0.3620008915462906
  0.3945305898871013  0.8823527793715658  0.6627906436751637
  0.3558553065756825  0.3865128158925677  0.1026161463820820
  0.3498030360326387  0.6002678953118226  0.9091726080601921
  0.6147629898192722  0.0737352839955604  0.6616577779955838
  0.6249761488706825  0.9087564092397862  0.3409740007414376
  0.6661043006991759  0.6135677815732314  0.0923340858597767
  0.6582109215898057  0.3901468238156025  0.9036315982462290
  0.9120251152303914  0.3560996712301399  0.6145715960844879
  0.9022499602092541  0.6553181272358377  0.3865291309403862
  0.5990481767288574  0.1129414451780535  0.1559450401480889
  0.6052811642691249  0.8787860591353978  0.8626922138895562
 
  0.00000000E+00  0.00000000E+00  0.00000000E+00
  0.00000000E+00  0.00000000E+00  0.00000000E+00
  0.00000000E+00  0.00000000E+00  0.00000000E+00
  0.00000000E+00  0.00000000E+00  0.00000000E+00
  0.00000000E+00  0.00000000E+00  0.00000000E+00
  0.00000000E+00  0.00000000E+00  0.00000000E+00
  0.00000000E+00  0.00000000E+00  0.00000000E+00
  0.00000000E+00  0.00000000E+00  0.00000000E+00
  0.00000000E+00  0.00000000E+00  0.00000000E+00
  0.00000000E+00  0.00000000E+00  0.00000000E+00
  0.00000000E+00  0.00000000E+00  0.00000000E+00
  0.00000000E+00  0.00000000E+00  0.00000000E+00
  0.00000000E+00  0.00000000E+00  0.00000000E+00
  0.00000000E+00  0.00000000E+00  0.00000000E+00
  0.00000000E+00  0.00000000E+00  0.00000000E+00
  0.00000000E+00  0.00000000E+00  0.00000000E+00
  0.00000000E+00  0.00000000E+00  0.00000000E+00
  0.00000000E+00  0.00000000E+00  0.00000000E+00
  0.00000000E+00  0.00000000E+00  0.00000000E+00
  0.00000000E+00  0.00000000E+00  0.00000000E+00
  0.00000000E+00  0.00000000E+00  0.00000000E+00
  0.00000000E+00  0.00000000E+00  0.00000000E+00
  0.00000000E+00  0.00000000E+00  0.00000000E+00
  0.00000000E+00  0.00000000E+00  0.00000000E+00
  0.00000000E+00  0.00000000E+00  0.00000000E+00
  0.00000000E+00  0.00000000E+00  0.00000000E+00
  0.00000000E+00  0.00000000E+00  0.00000000E+00
  0.00000000E+00  0.00000000E+00  0.00000000E+00
  0.00000000E+00  0.00000000E+00  0.00000000E+00
  0.00000000E+00  0.00000000E+00  0.00000000E+00
  0.00000000E+00  0.00000000E+00  0.00000000E+00
  0.00000000E+00  0.00000000E+00  0.00000000E+00
  0.00000000E+00  0.00000000E+00  0.00000000E+00
  0.00000000E+00  0.00000000E+00  0.00000000E+00
  0.00000000E+00  0.00000000E+00  0.00000000E+00
  0.00000000E+00  0.00000000E+00  0.00000000E+00
  0.00000000E+00  0.00000000E+00  0.00000000E+00
  0.00000000E+00  0.00000000E+00  0.00000000E+00
  0.00000000E+00  0.00000000E+00  0.00000000E+00
  0.00000000E+00  0.00000000E+00  0.00000000E+00
  0.00000000E+00  0.00000000E+00  0.00000000E+00
  0.00000000E+00  0.00000000E+00  0.00000000E+00
  0.00000000E+00  0.00000000E+00  0.00000000E+00
  0.00000000E+00  0.00000000E+00  0.00000000E+00
  0.00000000E+00  0.00000000E+00  0.00000000E+00
  0.00000000E+00  0.00000000E+00  0.00000000E+00
  0.00000000E+00  0.00000000E+00  0.00000000E+00
  0.00000000E+00  0.00000000E+00  0.00000000E+00
  0.00000000E+00  0.00000000E+00  0.00000000E+00
  0.00000000E+00  0.00000000E+00  0.00000000E+00
  0.00000000E+00  0.00000000E+00  0.00000000E+00
  0.00000000E+00  0.00000000E+00  0.00000000E+00
  0.00000000E+00  0.00000000E+00  0.00000000E+00
  0.00000000E+00  0.00000000E+00  0.00000000E+00
  0.00000000E+00  0.00000000E+00  0.00000000E+00
  0.00000000E+00  0.00000000E+00  0.00000000E+00
  0.00000000E+00  0.00000000E+00  0.00000000E+00
  0.00000000E+00  0.00000000E+00  0.00000000E+00
  0.00000000E+00  0.00000000E+00  0.00000000E+00
  0.00000000E+00  0.00000000E+00  0.00000000E+00
  0.00000000E+00  0.00000000E+00  0.00000000E+00
  0.00000000E+00  0.00000000E+00  0.00000000E+00
  0.00000000E+00  0.00000000E+00  0.00000000E+00
  0.00000000E+00  0.00000000E+00  0.00000000E+00
  0.00000000E+00  0.00000000E+00  0.00000000E+00
  0.00000000E+00  0.00000000E+00  0.00000000E+00
  0.00000000E+00  0.00000000E+00  0.00000000E+00
  0.00000000E+00  0.00000000E+00  0.00000000E+00
  0.00000000E+00  0.00000000E+00  0.00000000E+00
  0.00000000E+00  0.00000000E+00  0.00000000E+00
  0.00000000E+00  0.00000000E+00  0.00000000E+00
  0.00000000E+00  0.00000000E+00  0.00000000E+00
  0.00000000E+00  0.00000000E+00  0.00000000E+00
  0.00000000E+00  0.00000000E+00  0.00000000E+00
  0.00000000E+00  0.00000000E+00  0.00000000E+00
  0.00000000E+00  0.00000000E+00  0.00000000E+00
  0.00000000E+00  0.00000000E+00  0.00000000E+00
  0.00000000E+00  0.00000000E+00  0.00000000E+00
  0.00000000E+00  0.00000000E+00  0.00000000E+00
  0.00000000E+00  0.00000000E+00  0.00000000E+00
  0.00000000E+00  0.00000000E+00  0.00000000E+00
  0.00000000E+00  0.00000000E+00  0.00000000E+00
  0.00000000E+00  0.00000000E+00  0.00000000E+00
  0.00000000E+00  0.00000000E+00  0.00000000E+00
  0.00000000E+00  0.00000000E+00  0.00000000E+00
  0.00000000E+00  0.00000000E+00  0.00000000E+00
  0.00000000E+00  0.00000000E+00  0.00000000E+00
  0.00000000E+00  0.00000000E+00  0.00000000E+00
  0.00000000E+00  0.00000000E+00  0.00000000E+00
  0.00000000E+00  0.00000000E+00  0.00000000E+00
  0.00000000E+00  0.00000000E+00  0.00000000E+00
  0.00000000E+00  0.00000000E+00  0.00000000E+00
  0.00000000E+00  0.00000000E+00  0.00000000E+00
  0.00000000E+00  0.00000000E+00  0.00000000E+00
  0.00000000E+00  0.00000000E+00  0.00000000E+00
  0.00000000E+00  0.00000000E+00  0.00000000E+00
  0.00000000E+00  0.00000000E+00  0.00000000E+00
  0.00000000E+00  0.00000000E+00  0.00000000E+00
  0.00000000E+00  0.00000000E+00  0.00000000E+00
  0.00000000E+00  0.00000000E+00  0.00000000E+00
