Li61 P7 N32                             
   1.00000000000000     
    -0.0517835257007521    9.5850478268065231   -0.0372619435553045
    -0.1255683475435522   -0.0362387537872236    9.5773128227793300
     9.6184738015117688   -0.0505301101369042   -0.1250775098099501
   Li   P    N 
    61     7    32
Direct
  0.5024822417628634 -0.0408509065503533  0.5030797955106611
  0.0073261652513058  0.4934886266826279  0.0020480613938252
  0.5039332971072430 -0.0063034840271397  0.0067271361406177
 -0.0025643124292901  0.0038278830612981  0.4980625701539507
  0.5061298002591043  0.4949873759900049 -0.0028732216242142
  0.0056172176265155  0.5010747568362564  0.4947473157335619
  0.7579832069983765  0.0196196024433839  0.5176866780755321
  0.2494229276378234  0.0123738878014336  0.5076244164523530
  0.5982889436105382  0.5802006622837397  0.4362200759570031
  0.2394798992351561  0.5253678324335793  0.5200138947167211
  0.2659804401772386 -0.0079336836412041  0.0158368469843004
  0.7397914475057753  0.0069075111158310  0.0126045164255077
  0.4334959241643237  0.4342043059496394  0.4515871120277199
  0.5069570295914267  0.2427761666881190  0.0056558352488252
  0.5225908663105928  0.7506670769670504  0.0344623504886128
  0.0109084061182763  0.5055319785549384  0.2475657578315843
  0.0193184408841181  0.5054448788162937  0.7526127413487114
  0.2060623609639331  0.2277044569275028  0.2361609114552339
  0.2034184893828009  0.7313550694251935  0.7822306998517491
  0.2830353852129023  0.2194146569384907  0.7287828416606380
  0.2365274145345568  0.7125856411469720  0.2838988258313387
  0.6565578501945956  0.1813653916905702  0.3662129106515218
  0.6690916488623986  0.8070920134145475  0.6584864984025904
  0.7839557926937745  0.2087541648030854  0.7153020786473577
  0.7457342215076114  0.7765100739702601  0.2093981028721647
  0.9521099990923185  0.2632551645664847  0.2457831181814197
  0.9554875963551779  0.7521149293416109  0.7587705033649966
  0.2517950353884615  0.2668798165200088  0.5022841085907480
  0.2568354669807052  0.7679886446954731  0.5201593336532149
  0.7921279557926244  0.3485151344729299  0.4462283013969755
  0.7537730644392517  0.7942210209306425  0.4395516989990100
  0.7667536572937264  0.5260726433275125  0.2635257827091894
  0.8137676122107678  0.6051294748956425  0.5736189060118978
  0.2567458089828579  0.4829623902007056  0.2654898568197887
  0.2794348935731236  0.4580975492195764  0.7614218984499235
  0.4751662233971766  0.7615821785993236  0.2998769224216043
  0.5231053183685899  0.2472518513079250  0.7670593394014859
  0.2510879223295194  0.9694808379983509  0.2642600219894554
  0.2517498231885871 -0.0241182108199090  0.7763463388327217
  0.2618180551951019  0.2328799691313954  0.9827129338730198
  0.2747446434360333  0.7497451020454016  0.0395083041053874
  0.7692625131827190  0.9780749755457393  0.7768645228036193
  0.7763208340765294  0.0224886027837789  0.2494904141685736
  0.7813588627436931  0.7656967092857927  0.9863451050156484
  0.7837284333251445  0.2465185100120767 -0.0248296233467623
  0.0361179646520372  0.2616872569606304  0.7649001706114072
 -0.0010492498522171  0.7648577633893725  0.2423434096412038
  0.4612509409297726  0.2620347827126669  0.2512191532120681
  0.4531432360599009  0.7367511426806022  0.8001028940990582
  0.0184991255586381  0.2564574965632876  0.0072183836393072
  0.0209143079799049  0.7296920436432919  0.0029326306954520
  0.4828087252174258  0.1969615363545233  0.5311873123824969
  0.4613045946207664  0.6891177254117795  0.5674517448482412
  0.4976551877322268  0.5089946974795921  0.2333482409213055
  0.5021450307625102  0.4927667260104093  0.7519914318386928
  0.0106590817661819  0.0093360556394436  0.2624653569682882
  0.0104652542148934  0.0038375026110192  0.7364180873052647
  0.6022913743245411  0.4104388942897702  0.5737705098379616
  0.7770085036664873  0.4596445191563559  0.7485297769791783
  0.6868455951717652  0.3113860904303646  0.1865033591479527
  0.6787311005991862  0.6589403514666570  0.8230644920447880
  0.0050037608692460 -0.0043909219716493  0.0010447956521694
  0.7632879200060392  0.4988483358396863  0.0019044533635421
  0.2522112433664957  0.4923858738722434  0.0080920076650756
  0.0000479240347192  0.7593893685161858  0.4981581477969202
  0.0029382188736271  0.2482497214241351  0.5050276808042801
  0.5062481709064360  0.0006365223109420  0.2503810663251738
  0.5039815443187031 -0.0152332581509070  0.7622198428700997
  0.6302635561898068  0.6087385216335056  0.6384413475798708
  0.6156954258109737  0.3841794118263523  0.3636969815473048
  0.9007837824620784  0.8988080369938753  0.1042534723987136
  0.9045338324349499  0.0968042004729740  0.8984286050136404
  0.1037282375187494  0.8899550833615012  0.8993940366304108
  0.1088493980279152  0.0979323983248614  0.1046746201352039
  0.3755596664506022  0.6175620530522831  0.3928224498418019
  0.3962316625032699  0.3528582135154008  0.6309350960187953
  0.0952051725674658  0.3463179973824618  0.3909758692044835
  0.0877466418047586  0.6603624418976962  0.6105180098347160
  0.1092103050603287  0.1482431161093409  0.5999876431719469
  0.1077399353683764  0.8579209039804503  0.4016107155149291
  0.8852195845348353  0.1521578748205933  0.4075479350539244
  0.8855577996398485  0.8593556624759888  0.5920537669540843
  0.8605847692586815  0.3992710191064537  0.1074999687157596
  0.8657346403684474  0.5940797385920461  0.8954980597503838
  0.1539457695819369  0.5943116074255144  0.1148413422531557
  0.1510354774431668  0.3900856526836627  0.9005756319387126
  0.4064564818253945  0.8902340930776198  0.1516074132056100
  0.4054193748544901  0.0933549671588900  0.8610710985831732
  0.4014869499143012  0.0886241127327874  0.3615415906386935
  0.3951215478172531  0.8808405161249908  0.6638162899821396
  0.3552228896934328  0.3859243172583864  0.1027670131512169
  0.3496259722357201  0.5994728040393985  0.9081853865983326
  0.6148938524199064  0.0727690173437428  0.6626647088363280
  0.6254942839596342  0.9093159810639873  0.3409993587842512
  0.6656807810683872  0.6128319300403803  0.0923027717380766
  0.6587314215133789  0.3883356476555846  0.9041225444469493
  0.9122988203453708  0.3549947007120089  0.6161550640619289
  0.9019315192436409  0.6562402113202483  0.3866183510637763
  0.6001493262687566  0.1136535258260223  0.1552248994591343
  0.6054777415187890  0.8779497815680110  0.8639094695628378
 
  0.00000000E+00  0.00000000E+00  0.00000000E+00
  0.00000000E+00  0.00000000E+00  0.00000000E+00
  0.00000000E+00  0.00000000E+00  0.00000000E+00
  0.00000000E+00  0.00000000E+00  0.00000000E+00
  0.00000000E+00  0.00000000E+00  0.00000000E+00
  0.00000000E+00  0.00000000E+00  0.00000000E+00
  0.00000000E+00  0.00000000E+00  0.00000000E+00
  0.00000000E+00  0.00000000E+00  0.00000000E+00
  0.00000000E+00  0.00000000E+00  0.00000000E+00
  0.00000000E+00  0.00000000E+00  0.00000000E+00
  0.00000000E+00  0.00000000E+00  0.00000000E+00
  0.00000000E+00  0.00000000E+00  0.00000000E+00
  0.00000000E+00  0.00000000E+00  0.00000000E+00
  0.00000000E+00  0.00000000E+00  0.00000000E+00
  0.00000000E+00  0.00000000E+00  0.00000000E+00
  0.00000000E+00  0.00000000E+00  0.00000000E+00
  0.00000000E+00  0.00000000E+00  0.00000000E+00
  0.00000000E+00  0.00000000E+00  0.00000000E+00
  0.00000000E+00  0.00000000E+00  0.00000000E+00
  0.00000000E+00  0.00000000E+00  0.00000000E+00
  0.00000000E+00  0.00000000E+00  0.00000000E+00
  0.00000000E+00  0.00000000E+00  0.00000000E+00
  0.00000000E+00  0.00000000E+00  0.00000000E+00
  0.00000000E+00  0.00000000E+00  0.00000000E+00
  0.00000000E+00  0.00000000E+00  0.00000000E+00
  0.00000000E+00  0.00000000E+00  0.00000000E+00
  0.00000000E+00  0.00000000E+00  0.00000000E+00
  0.00000000E+00  0.00000000E+00  0.00000000E+00
  0.00000000E+00  0.00000000E+00  0.00000000E+00
  0.00000000E+00  0.00000000E+00  0.00000000E+00
  0.00000000E+00  0.00000000E+00  0.00000000E+00
  0.00000000E+00  0.00000000E+00  0.00000000E+00
  0.00000000E+00  0.00000000E+00  0.00000000E+00
  0.00000000E+00  0.00000000E+00  0.00000000E+00
  0.00000000E+00  0.00000000E+00  0.00000000E+00
  0.00000000E+00  0.00000000E+00  0.00000000E+00
  0.00000000E+00  0.00000000E+00  0.00000000E+00
  0.00000000E+00  0.00000000E+00  0.00000000E+00
  0.00000000E+00  0.00000000E+00  0.00000000E+00
  0.00000000E+00  0.00000000E+00  0.00000000E+00
  0.00000000E+00  0.00000000E+00  0.00000000E+00
  0.00000000E+00  0.00000000E+00  0.00000000E+00
  0.00000000E+00  0.00000000E+00  0.00000000E+00
  0.00000000E+00  0.00000000E+00  0.00000000E+00
  0.00000000E+00  0.00000000E+00  0.00000000E+00
  0.00000000E+00  0.00000000E+00  0.00000000E+00
  0.00000000E+00  0.00000000E+00  0.00000000E+00
  0.00000000E+00  0.00000000E+00  0.00000000E+00
  0.00000000E+00  0.00000000E+00  0.00000000E+00
  0.00000000E+00  0.00000000E+00  0.00000000E+00
  0.00000000E+00  0.00000000E+00  0.00000000E+00
  0.00000000E+00  0.00000000E+00  0.00000000E+00
  0.00000000E+00  0.00000000E+00  0.00000000E+00
  0.00000000E+00  0.00000000E+00  0.00000000E+00
  0.00000000E+00  0.00000000E+00  0.00000000E+00
  0.00000000E+00  0.00000000E+00  0.00000000E+00
  0.00000000E+00  0.00000000E+00  0.00000000E+00
  0.00000000E+00  0.00000000E+00  0.00000000E+00
  0.00000000E+00  0.00000000E+00  0.00000000E+00
  0.00000000E+00  0.00000000E+00  0.00000000E+00
  0.00000000E+00  0.00000000E+00  0.00000000E+00
  0.00000000E+00  0.00000000E+00  0.00000000E+00
  0.00000000E+00  0.00000000E+00  0.00000000E+00
  0.00000000E+00  0.00000000E+00  0.00000000E+00
  0.00000000E+00  0.00000000E+00  0.00000000E+00
  0.00000000E+00  0.00000000E+00  0.00000000E+00
  0.00000000E+00  0.00000000E+00  0.00000000E+00
  0.00000000E+00  0.00000000E+00  0.00000000E+00
  0.00000000E+00  0.00000000E+00  0.00000000E+00
  0.00000000E+00  0.00000000E+00  0.00000000E+00
  0.00000000E+00  0.00000000E+00  0.00000000E+00
  0.00000000E+00  0.00000000E+00  0.00000000E+00
  0.00000000E+00  0.00000000E+00  0.00000000E+00
  0.00000000E+00  0.00000000E+00  0.00000000E+00
  0.00000000E+00  0.00000000E+00  0.00000000E+00
  0.00000000E+00  0.00000000E+00  0.00000000E+00
  0.00000000E+00  0.00000000E+00  0.00000000E+00
  0.00000000E+00  0.00000000E+00  0.00000000E+00
  0.00000000E+00  0.00000000E+00  0.00000000E+00
  0.00000000E+00  0.00000000E+00  0.00000000E+00
  0.00000000E+00  0.00000000E+00  0.00000000E+00
  0.00000000E+00  0.00000000E+00  0.00000000E+00
  0.00000000E+00  0.00000000E+00  0.00000000E+00
  0.00000000E+00  0.00000000E+00  0.00000000E+00
  0.00000000E+00  0.00000000E+00  0.00000000E+00
  0.00000000E+00  0.00000000E+00  0.00000000E+00
  0.00000000E+00  0.00000000E+00  0.00000000E+00
  0.00000000E+00  0.00000000E+00  0.00000000E+00
  0.00000000E+00  0.00000000E+00  0.00000000E+00
  0.00000000E+00  0.00000000E+00  0.00000000E+00
  0.00000000E+00  0.00000000E+00  0.00000000E+00
  0.00000000E+00  0.00000000E+00  0.00000000E+00
  0.00000000E+00  0.00000000E+00  0.00000000E+00
  0.00000000E+00  0.00000000E+00  0.00000000E+00
  0.00000000E+00  0.00000000E+00  0.00000000E+00
  0.00000000E+00  0.00000000E+00  0.00000000E+00
  0.00000000E+00  0.00000000E+00  0.00000000E+00
  0.00000000E+00  0.00000000E+00  0.00000000E+00
  0.00000000E+00  0.00000000E+00  0.00000000E+00
  0.00000000E+00  0.00000000E+00  0.00000000E+00
