Li7 P2 N1 O7                            
   1.00000000000000     
     4.9711031568547996    0.0847504684997388   -0.0010050704960888
     0.0834960116031954    5.3361935006796415   -0.0207365744828518
     0.0012652750114686   -0.0257255490490994    6.1828683701364708
   Li   P    N    O 
     7     2     1     7
Direct
  0.9697916916657644  0.6811946754214968  0.2813603637400091
  0.9808814954308983  0.6824632919097726  0.7509021572236790
  0.5142650716695683  0.3156378908031242  0.7420712656632158
  0.5281988801400090  0.9012183686564001  0.9995753821753321
  0.0187096448683227  0.1707928310134383  0.5127612694557343
  0.5263298056186400  0.3077441240911712  0.2817968703481606
  0.2945869391884900  0.5584465180798908  0.0362908720843587
  0.4804051961961672  0.8218801734414332  0.5075739265749966
  0.0105238370625754  0.1892834768064743  0.0246650567836665
  0.1168702349698844  0.3291872039500123  0.2312604557562343
  0.1197972026319575  0.3240786171144596  0.8101594861477153
  0.6004008303523517  0.0869941042339611  0.5159986580209466
  0.1693819345184978  0.8306080198520616  0.5156147076827997
  0.6913274347705138  0.2018900977829779  0.0018468084065386
  0.5760577429347650  0.6897902475753502  0.2915118302190162
  0.0979200409729371  0.8957301733087933  0.0040048391966611
  0.5882520170086887  0.6746201859591913  0.7114260505209294
 
  0.00000000E+00  0.00000000E+00  0.00000000E+00
  0.00000000E+00  0.00000000E+00  0.00000000E+00
  0.00000000E+00  0.00000000E+00  0.00000000E+00
  0.00000000E+00  0.00000000E+00  0.00000000E+00
  0.00000000E+00  0.00000000E+00  0.00000000E+00
  0.00000000E+00  0.00000000E+00  0.00000000E+00
  0.00000000E+00  0.00000000E+00  0.00000000E+00
  0.00000000E+00  0.00000000E+00  0.00000000E+00
  0.00000000E+00  0.00000000E+00  0.00000000E+00
  0.00000000E+00  0.00000000E+00  0.00000000E+00
  0.00000000E+00  0.00000000E+00  0.00000000E+00
  0.00000000E+00  0.00000000E+00  0.00000000E+00
  0.00000000E+00  0.00000000E+00  0.00000000E+00
  0.00000000E+00  0.00000000E+00  0.00000000E+00
  0.00000000E+00  0.00000000E+00  0.00000000E+00
  0.00000000E+00  0.00000000E+00  0.00000000E+00
  0.00000000E+00  0.00000000E+00  0.00000000E+00
