Li7 P2 N1 O7                            
   1.00000000000000     
     4.9699021558000362    0.0797660308235381   -0.0039080321649098
     0.0781186353508685    5.3373890749312594   -0.0207540583026233
    -0.0023217514324380   -0.0257255208901594    6.1757390659493510
   Li   P    N    O 
     7     2     1     7
Direct
 -0.0311393530443248  0.6808215606440465  0.2813284635581303
 -0.0192437605728894  0.6817862283056354  0.7508778042083090
  0.5140708165863195  0.3164764417030117  0.7423290378262712
  0.5302517416260235  0.9005884983235763 -0.0028826277813651
  0.0198426101060087  0.1707372219440268  0.5128323869788554
  0.5257184264887559  0.3074843622389566  0.2818706280153209
  0.2955426542300117  0.5585325810854873  0.0375462866100762
  0.4798910709581919  0.8220044429097839  0.5076627445073056
  0.0108166495977796  0.1892423814436064  0.0245427326615558
  0.1169836639781371  0.3294236484104119  0.2313968124039724
  0.1197216660338392  0.3246285529182133  0.8099544336747859
  0.5996384242096524  0.0874022688683983  0.5162024604401110
  0.1687781497082334  0.8294283799236331  0.5157152167182185
  0.6913518522125680  0.2023234912442843  0.0022433766567992
  0.5762549722558379  0.6899729327222994  0.2917057183950397
  0.0971881305060632  0.8956857398552711  0.0037138801740859
  0.5880322851198254  0.6750212674593579  0.7117806449525277
 
  0.00000000E+00  0.00000000E+00  0.00000000E+00
  0.00000000E+00  0.00000000E+00  0.00000000E+00
  0.00000000E+00  0.00000000E+00  0.00000000E+00
  0.00000000E+00  0.00000000E+00  0.00000000E+00
  0.00000000E+00  0.00000000E+00  0.00000000E+00
  0.00000000E+00  0.00000000E+00  0.00000000E+00
  0.00000000E+00  0.00000000E+00  0.00000000E+00
  0.00000000E+00  0.00000000E+00  0.00000000E+00
  0.00000000E+00  0.00000000E+00  0.00000000E+00
  0.00000000E+00  0.00000000E+00  0.00000000E+00
  0.00000000E+00  0.00000000E+00  0.00000000E+00
  0.00000000E+00  0.00000000E+00  0.00000000E+00
  0.00000000E+00  0.00000000E+00  0.00000000E+00
  0.00000000E+00  0.00000000E+00  0.00000000E+00
  0.00000000E+00  0.00000000E+00  0.00000000E+00
  0.00000000E+00  0.00000000E+00  0.00000000E+00
  0.00000000E+00  0.00000000E+00  0.00000000E+00
