Li5 P2 N1 O6                            
   1.00000000000000     
     0.2241239613933768   -0.1096155121906564    4.9027765036548994
     6.4775221936401897    0.2031421998922295    0.2649669974443429
     0.1878961965134370    5.4602457426194908   -0.1237918360964097
   Li   P    N    O 
     5     2     1     6
Direct
  0.4941083718376554  0.0243498310108120  0.8308566387966878
  0.0015462702694526  0.4499528549784408  0.1263324439001476
  0.5641499790001592  0.7285200712567418  0.3303734678976273
 -0.0398408843368454  0.7629457108213494  0.7572814062963568
  0.0003480344004014  0.2696236547907764  0.6442010591268327
  0.5013953179862818  0.5071191080908297  0.8405091337067317
 -0.0213346103075408  0.0537059752742188  0.1280287210272458
  0.0967763420421958  0.1863241395385657  0.3175610882241254
  0.5889315583846485  0.6969915882242264  0.6744077675638664
  0.6297234904293093  0.2977905982878830  0.7569736043673447
  0.6028307913244701  0.5298901988500170  0.1078933710800122
  0.1127237973646304  0.0074241851634090  0.8820791359116935
  0.1804577414951981  0.5115145316926690  0.8210319093166015
  0.7306108001100057 -0.0718874479799393  0.1425272527847246
 
  0.00000000E+00  0.00000000E+00  0.00000000E+00
  0.00000000E+00  0.00000000E+00  0.00000000E+00
  0.00000000E+00  0.00000000E+00  0.00000000E+00
  0.00000000E+00  0.00000000E+00  0.00000000E+00
  0.00000000E+00  0.00000000E+00  0.00000000E+00
  0.00000000E+00  0.00000000E+00  0.00000000E+00
  0.00000000E+00  0.00000000E+00  0.00000000E+00
  0.00000000E+00  0.00000000E+00  0.00000000E+00
  0.00000000E+00  0.00000000E+00  0.00000000E+00
  0.00000000E+00  0.00000000E+00  0.00000000E+00
  0.00000000E+00  0.00000000E+00  0.00000000E+00
  0.00000000E+00  0.00000000E+00  0.00000000E+00
  0.00000000E+00  0.00000000E+00  0.00000000E+00
  0.00000000E+00  0.00000000E+00  0.00000000E+00
