Li5 P2 N1 O6                            
   1.00000000000000     
    -0.0376567191699878    0.0203132340978908    4.9482928544564544
     6.0697861101974366    0.0324734719032453   -0.0873845253454564
    -0.0094961095806882    5.6060532026391945   -0.0027969711943365
   Li   P    N    O 
     5     2     1     6
Direct
  0.5640613861581232 -0.0003733944472081  0.8248927759630013
 -0.0423352214970378  0.4934719039595617  0.1501558487462699
  0.4378438585687394  0.6586851854568376  0.3763221051648865
 -0.0200022036379852  0.7503041275152438  0.6982367190826666
 -0.0226845798308613  0.2564728224721431  0.6980650143570838
  0.4751342656200462  0.5114978336753955  0.8460347685801223
  0.0373966353865160  0.0046143174137851  0.1945908403799949
  0.0084144296435124 -0.0012722569420651 -0.0761880144666965
  0.0229984483079425  0.2121088333035549  0.3465849812874556
  0.5755879058405381  0.7096168855304780  0.6832772005774246
  0.0856275385524533  0.7966388678933034  0.3479198187074574
  0.5835264225195483  0.2963258588090438  0.7419942291179675
  0.5818496883589241  0.5530730139040996  0.1017884329241892
  0.1598924260095704  0.5059630014558248  0.8433992795781737
 
  0.00000000E+00  0.00000000E+00  0.00000000E+00
  0.00000000E+00  0.00000000E+00  0.00000000E+00
  0.00000000E+00  0.00000000E+00  0.00000000E+00
  0.00000000E+00  0.00000000E+00  0.00000000E+00
  0.00000000E+00  0.00000000E+00  0.00000000E+00
  0.00000000E+00  0.00000000E+00  0.00000000E+00
  0.00000000E+00  0.00000000E+00  0.00000000E+00
  0.00000000E+00  0.00000000E+00  0.00000000E+00
  0.00000000E+00  0.00000000E+00  0.00000000E+00
  0.00000000E+00  0.00000000E+00  0.00000000E+00
  0.00000000E+00  0.00000000E+00  0.00000000E+00
  0.00000000E+00  0.00000000E+00  0.00000000E+00
  0.00000000E+00  0.00000000E+00  0.00000000E+00
  0.00000000E+00  0.00000000E+00  0.00000000E+00
