Li42 P14 O56
1.0
4.922448 0.000000 0.000000
-0.000000 6.176136 -5.296402
0.000000 0.000000 63.556824
Li P O
42 14 56
Selective dynamics
direct
0.490583 0.000000 0.033790 T T T Li+
0.990583 0.500000 0.049543 T T T Li+
0.491637 0.252873 0.014703 T T T Li+
0.991637 0.247127 0.068630 T T T Li+
0.991637 0.752873 0.027442 T T T Li+
0.491637 0.747127 0.055891 T T T Li+
0.490583 0.000000 0.117123 F F F Li+
0.990583 0.500000 0.132877 F F F Li+
0.491637 0.252873 0.098037 F F F Li+
0.991637 0.247127 0.151963 F F F Li+
0.991637 0.752873 0.110776 F F F Li+
0.491637 0.747127 0.139224 F F F Li+
0.490583 0.000000 0.200457 F F F Li+
0.990583 0.500000 0.216210 F F F Li+
0.491637 0.252873 0.181370 F F F Li+
0.991637 0.247127 0.235297 F F F Li+
0.991637 0.752873 0.194109 F F F Li+
0.491637 0.747127 0.222558 F F F Li+
0.490583 0.000000 0.283790 F F F Li+
0.990583 0.500000 0.299543 F F F Li+
0.491637 0.252873 0.264703 F F F Li+
0.991637 0.247127 0.318630 F F F Li+
0.991637 0.752873 0.277442 F F F Li+
0.491637 0.747127 0.305891 F F F Li+
0.490583 0.000000 0.367123 F F F Li+
0.990583 0.500000 0.382877 F F F Li+
0.491637 0.252873 0.348037 F F F Li+
0.991637 0.247127 0.401963 F F F Li+
0.991637 0.752873 0.360776 F F F Li+
0.491637 0.747127 0.389224 F F F Li+
0.490583 0.000000 0.450457 F F F Li+
0.990583 0.500000 0.466210 F F F Li+
0.491637 0.252873 0.431370 F F F Li+
0.991637 0.247127 0.485297 T T T Li+
0.991637 0.752873 0.444109 F F F Li+
0.491637 0.747127 0.472558 F F F Li+
0.490583 0.000000 0.533790 T T T Li+
0.990583 0.500000 0.549543 T T T Li+
0.491637 0.252873 0.514703 T T T Li+
0.991637 0.247127 0.568630 T T T Li+
0.991637 0.752873 0.527442 T T T Li+
0.491637 0.747127 0.555891 T T T Li+
0.498580 0.500000 0.077145 T T T P5+
0.998580 0.000000 0.006188 T T T P5+
0.498580 0.500000 0.160478 F F F P5+
0.998580 0.000000 0.089522 F F F P5+
0.498580 0.500000 0.243812 F F F P5+
0.998580 0.000000 0.172855 F F F P5+
0.498580 0.500000 0.327145 F F F P5+
0.998580 0.000000 0.256188 F F F P5+
0.498580 0.500000 0.410478 F F F P5+
0.998580 0.000000 0.339522 F F F P5+
0.498580 0.500000 0.493812 T T T P5+
0.998580 0.000000 0.422855 F F F P5+
0.498580 0.500000 0.577145 T T T P5+
0.998580 0.000000 0.506188 T T T P5+
0.892990 0.792862 0.060779 T T T O2-
0.397874 0.500000 0.053874 T T T O2-
0.814809 0.500000 0.077634 T T T O2-
0.314809 0.000000 0.005700 T T T O2-
0.392990 0.292862 0.071364 T T T O2-
0.892990 0.207138 0.011969 T T T O2-
0.897874 0.000000 0.029459 T T T O2-
0.392990 0.707138 0.022554 T T T O2-
0.892990 0.792862 0.144113 F F F O2-
0.397874 0.500000 0.137208 F F F O2-
0.814809 0.500000 0.160967 F F F O2-
0.314809 0.000000 0.089033 F F F O2-
0.392990 0.292862 0.154698 F F F O2-
0.892990 0.207138 0.095302 F F F O2-
0.897874 0.000000 0.112792 F F F O2-
0.392990 0.707138 0.105887 F F F O2-
0.892990 0.792862 0.227446 F F F O2-
0.397874 0.500000 0.220541 F F F O2-
0.814809 0.500000 0.244300 F F F O2-
0.314809 0.000000 0.172366 F F F O2-
0.392990 0.292862 0.238031 F F F O2-
0.892990 0.207138 0.178636 F F F O2-
0.897874 0.000000 0.196126 F F F O2-
0.392990 0.707138 0.189221 F F F O2-
0.892990 0.792862 0.310779 F F F O2-
0.397874 0.500000 0.303874 F F F O2-
0.814809 0.500000 0.327634 F F F O2-
0.314809 0.000000 0.255700 F F F O2-
0.392990 0.292862 0.321364 F F F O2-
0.892990 0.207138 0.261969 F F F O2-
0.897874 0.000000 0.279459 F F F O2-
0.392990 0.707138 0.272554 F F F O2-
0.892990 0.792862 0.394113 F F F O2-
0.397874 0.500000 0.387208 F F F O2-
0.814809 0.500000 0.410967 F F F O2-
0.314809 0.000000 0.339033 F F F O2-
0.392990 0.292862 0.404698 F F F O2-
0.892990 0.207138 0.345302 F F F O2-
0.897874 0.000000 0.362792 F F F O2-
0.392990 0.707138 0.355887 F F F O2-
0.892990 0.792862 0.477446 F F F O2-
0.397874 0.500000 0.470541 F F F O2-
0.814809 0.500000 0.494300 T T T O2-
0.314809 0.000000 0.422366 F F F O2-
0.392990 0.292862 0.488031 T T T O2-
0.892990 0.207138 0.428636 F F F O2-
0.897874 0.000000 0.446126 F F F O2-
0.392990 0.707138 0.439221 F F F O2-
0.892990 0.792862 0.560779 T T T O2-
0.397874 0.500000 0.553874 T T T O2-
0.814809 0.500000 0.577634 T T T O2-
0.314809 0.000000 0.505700 F F F O2-
0.392990 0.292862 0.571364 T T T O2-
0.892990 0.207138 0.511969 T T T O2-
0.897874 0.000000 0.529459 T T T O2-
0.392990 0.707138 0.522554 T T T O2-
