Li71 P24 N1 O94                         
   1.00000000000000     
    14.7343955276125698   -0.0034680388480139   -0.0061645783479825
    -0.0024545872499802   10.5638993853162120    0.0010251274603270
    -0.0051692710883267    0.0012183707718224   12.3030917858695776
   Li   P    N    O 
    71    24     1    94
Direct
  0.1680814983865508  0.4189230327524549 -0.0044873524869073
  0.1687681629689211  0.4259392672348477  0.5026388720274523
  0.1673039678705064  0.9288688975871566  0.0005011209030903
  0.1683173012909598  0.9223620935518642  0.5033176396842798
  0.5044267493958635  0.4224923359947392 -0.0007756863439165
  0.5032164158940796  0.4225651936334789  0.5001141645544477
  0.5047306181318648  0.9224300780349428 -0.0012487235396716
  0.5034066686049953  0.9224727741258862  0.5006358124399227
  0.8377631934301685  0.4227352447890693  0.0002686768068542
  0.8358910939843259  0.4229319128635696  0.5002797120268520
  0.8355867679522372  0.9211542133122677 -0.0014739151243082
  0.8350796419235815  0.9222969209626820  0.5003755950089125
  0.0007168385810973  0.0809553423882127  0.2472586191444311
  0.0035268573740587  0.0784014262705111  0.7523701718859864
  0.0017276468200205  0.5773019635498614  0.2501334222259266
  0.0031327947437096  0.5771572629857200  0.7508090286308174
  0.3621367162778499  0.0842195669175194  0.2459060993759853
  0.3361089434251204  0.0780698314126111  0.7518408431779576
  0.3360991983941897  0.5745948986788060  0.2487593413954973
  0.3368444762706612  0.5769007233931573  0.7506798899267028
  0.6700022939996896  0.0781354690388926  0.2492498023811205
  0.6694807885724510  0.0777994786686996  0.7498695095577157
  0.6700158671513712  0.5773165757682207  0.2497581056942089
  0.6695219582568633  0.5773685209762394  0.7501580601645288
  0.1700707534303929  0.1628356913480546  0.6283259040565442
  0.1688384946391832  0.6547161777171223  0.1234022682073454
  0.1694562726071732  0.6639728505046839  0.6280044818967297
  0.5059376083973838  0.1645599470502292  0.1228662723584472
  0.5021269715945655  0.1636292008723929  0.6265094300470840
  0.5029128766753209  0.6620212883612288  0.1259912182669633
  0.5032276543081022  0.6633907154546734  0.6266048952164457
  0.8392707832447402  0.1633667810706584  0.1244465893013210
  0.8357959566417072  0.1636455917105111  0.6263361629564314
  0.8356616622177458  0.6630198399425540  0.1265581990510834
  0.8355784428413868  0.6635425740270938  0.6267111305393276
  0.0082805157217096  0.3352905193303368  0.1239466101797608
  0.0023742245732628  0.3366351105993340  0.6242519075717986
  0.0000475940663427  0.8362642337815439  0.1205582930881905
  0.0019517796920923  0.8368201314185357  0.6250013942634622
  0.3385584372409576  0.3323107197135203  0.1207259972349442
  0.3358025038331807  0.3372007354010436  0.6235238603471517
  0.3389253909245807  0.8353881471541739  0.1205645018168100
  0.3362477674467058  0.8365789993892133  0.6241117372319950
  0.6709302594099665  0.3366742891486801  0.1232062940462569
  0.6692306593534131  0.3369094502840069  0.6237255763117849
  0.6699208322588341  0.8363279340337837  0.1231555565012369
  0.6692344381843590  0.8368243145566180  0.6239408921846838
  0.0001562078991212  0.3376181943676812  0.3775493595244802
  0.0023181953348495  0.3356895400772299  0.8766340889734084
 -0.0008246314372923  0.8359578980886365  0.3790125006615522
  0.0026868481810654  0.8380870343217578  0.8766125532538385
  0.3349381213226042  0.3379714592302381  0.3746123097251208
  0.3365408265870459  0.3345177441314782  0.8770621328486480
  0.3384328376144264  0.8346145165300640  0.3765431484182999
  0.3363546848446491  0.8373548711047004  0.8766351451668468
  0.6702399083504020  0.3373514267682769  0.3763301313903279
  0.6701305667105143  0.3368418730063098  0.8761723085445191
  0.6693733867185343  0.8363902372576427  0.3767031797632668
  0.6697455224938865  0.8369062944416751  0.8754682126917933
  0.1631338751628320  0.1797512243220972  0.3881267361721150
  0.1691925500053979  0.1631289972653375  0.8816307537461140
  0.1677710606455780  0.6601587627030964  0.3781957330228991
  0.1695403801385018  0.6631967938384792  0.8735063937552835
  0.5050255133583251  0.1652519396551888  0.3752977090132689
  0.5032486910424543  0.1631017604039476  0.8734616138067463
  0.5031685040552850  0.6621613843142415  0.3736239556064556
  0.5030447126638214  0.6635535968530044  0.8734084645231343
  0.8351716598320766  0.1635761126488139  0.3734145525463272
  0.8359530602820179  0.1628912481118079  0.8719891272514716
  0.8352089003437240  0.6630976325412754  0.3740047041030927
  0.8360298182902413  0.6635688615676979  0.8729866641174381
  0.1656010232411528  0.4150644229489394  0.2525696502219548
  0.1671710207541565  0.4113177243599240  0.7492031182654573
  0.1656479013767192  0.9028097012069425  0.2503481834954076
  0.1669968298176513  0.9127489148172481  0.7506271716169933
  0.5016595814232888  0.4118768445050512  0.2500292726436968
  0.5006088393441481  0.4119108408679552  0.7498136627589426
  0.5005198544411521  0.9106413826865044  0.2499892086780495
  0.5005198659845747  0.9124716892126149  0.7493797134746327
  0.8336216592431531  0.4125370557804547  0.2499111125019987
  0.8336118522537407  0.4123799157654704  0.7497382341014101
  0.8325098369640974  0.9121787603489828  0.2503125978303644
  0.8336680290893379  0.9123464679774813  0.7490607477470589
 -0.0026606634932473  0.0878623232277759  0.0017677222625697
 -0.0003341501530526  0.0871169904321441  0.5001660833554642
 -0.0002957987042316  0.5884561040745749 -0.0006288548664925
 -0.0004018974915226  0.5885030707476570  0.5010875980409102
  0.3355266010754749  0.0849031848653307 -0.0006293951624596
  0.3332494204165352  0.0872981463149249  0.4978854049285054
  0.3349209503229528  0.5867419404306216 -0.0012438524386796
  0.3342021823760141  0.5878117692024646  0.5004776613313119
  0.6681413778182288  0.0875604640380447 -0.0007458206468256
  0.6666673825797697  0.0879776477320908  0.5001511886586879
  0.6675056810211446  0.5880658314620034 -0.0002632359494837
  0.6668613617109724  0.5879380539628009  0.5002574295684098
  0.2073081528540806  0.3586965604473081  0.1412208637239895
  0.0350466470389341  0.1558880723316288  0.3955389973011881
  0.0346525958532329  0.1572051442112845  0.8984896519768436
  0.0349859531415152  0.6581668016779647  0.3972058714920568
  0.0354262665410167  0.6581100527029218  0.8958491464743550
  0.3683801651516860  0.1562261827548661  0.3934287939110994
  0.3713142506070571  0.1556967798727272  0.8957048807403181
  0.3691410801415538  0.6562641470883891  0.3959809849206924
  0.3698693203405550  0.6577197097995652  0.8953999421848444
  0.7014361337432112  0.1567508349550704  0.3957630557691076
  0.7029565215651594  0.1568043324472316  0.8952098038903820
  0.7019467169151800  0.6570630586673503  0.3962090418254889
  0.7025762459500844  0.6573035598247546  0.8957195495738847
  0.2006491120965778  0.0527014969133511  0.7505972822873663
  0.1990364574116744  0.5563564404646494  0.2543291506845596
  0.2008872078982179  0.5514419308661280  0.7495169977152227
  0.5309964554494647  0.0525369090171382  0.2501481972424653
  0.5342909221837027  0.0524571178184052  0.7491813265495469
  0.5349423548709149  0.5521449605556987  0.2501188302500368
  0.5342264140529455  0.5520097192307549  0.7497611279554505
  0.8661033782505465  0.0520089962851931  0.2507414926278723
  0.8678611300883498  0.0520542980380327  0.7484623717640398
  0.8670012635198576  0.5528482602614629  0.2509270289059577
  0.8675431204166459  0.5522886185296072  0.7496798594100531
  0.0595811796315408  0.4108360531855980  0.2551178531045636
  0.0614026117454206  0.4087947427982619  0.7497864507255120
  0.0604498837506505  0.9078989802107114  0.2507031542730534
  0.0612176467920792  0.9101179017381081  0.7499951656327807
  0.3961850296824829  0.4080769219781239  0.2498846838522834
  0.3949113529199370  0.4086425194781762  0.7498641860312457
  0.3945009674637939  0.9067496504018305  0.2494929003688072
  0.3948243784765980  0.9098255242362316  0.7494046104592880
  0.7278666842349897  0.4097113268986199  0.2498519287651779
  0.7278979491448527  0.4098123898385726  0.7495239960282483
  0.7268086385080084  0.9092026387494095  0.2501507056526355
  0.7279312601791580  0.9101693731648852  0.7494228459923292
  0.2314743861919215  0.0840178073926068 -0.0010264903073624
  0.2271391862432652  0.0896511949423625  0.4964396273131748
  0.2292099026840914  0.5888698145511020 -0.0021871963378112
  0.2284327710210752  0.5917222022690021  0.5017394328143641
  0.5625025360454597  0.0902894134651363 -0.0010185606127528
  0.5608900953873448  0.0907661023699372  0.5005042360256460
  0.5618120459505647  0.5909099920706314 -0.0002663360387454
  0.5611579090970207  0.5904705346367133  0.5001680980522485
  0.8912388032702313  0.0866746844575407 -0.0044308009822492
  0.8941861768667074  0.0905105842389836  0.4998745976573272
  0.8940027989854322  0.5928851472663537 -0.0001299193620519
  0.8939950196851364  0.5914041133967759  0.5004977934763940
  0.2018267373975026  0.3430348510107121  0.6443395780608993
  0.2030699898477009  0.8396979129534988  0.1457500549806506
  0.2022874234170960  0.8438900366028229  0.6461697185235824
  0.5375280097845491  0.3430703710110141  0.1462539035289841
  0.5356155266554273  0.3428864309451915  0.6455565141169929
  0.5365969189201427  0.8424746983595149  0.1465181824215885
  0.5355348531721581  0.8433774766724728  0.6451868931893544
  0.8693201123610027  0.3444556437885823  0.1461556206420111
  0.8688172693298635  0.3431409177458498  0.6457107751816389
  0.8680328900723723  0.8427905188008734  0.1467242084362803
  0.8683840074825606  0.8430110542807125  0.6448600377600417
  0.0252675803271604  0.1560725385867384  0.1074134478942946
  0.0359800205243051  0.1567125516685632  0.6032469986900042
  0.0355374170068551  0.6569550377368389  0.1037995792516525
  0.0353198258836557  0.6575759297449951  0.6048534895334564
  0.3735526416651166  0.1541698522386011  0.1026746469468779
  0.3675905091927032  0.1570713698011812  0.6016501319066385
  0.3690982634337261  0.6557831754323742  0.1036581254137055
  0.3699802442126684  0.6569551638701306  0.6041158946291341
  0.7031490637669243  0.1565088698148715  0.1035176939753562
  0.7023333822156642  0.1572841141391120  0.6037504873986825
  0.7026486353413186  0.6570913951759634  0.1038817274229895
  0.7020211385642431  0.6572133675080983  0.6042283301217197
  0.0322461146966725  0.4484781650808051 -0.0016250494888770
  0.0332327366776827  0.4485884881763721  0.5010464528854607
  0.0325143457963628  0.9478455101153741  0.0010536335554774
  0.0334169471268297  0.9471624170094696  0.4998866507107397
  0.3706790664682094  0.4481303507663607 -0.0021119675285766
  0.3674016192620855  0.4476681455822171  0.4999365075186568
  0.3721306083961348  0.9454634403318655 -0.0004524335258277
  0.3670258752359579  0.9476071480795271  0.4986372577304962
  0.7013398554639504  0.4481726664714737 -0.0003452431651003
  0.7007853018015276  0.4480954253625674  0.5002517418987077
  0.7010380971356727  0.9471979819295963 -0.0006266036103299
  0.7001108233148963  0.9479385686209494  0.5000914737565986
  0.2000954388530090  0.3465153839814785  0.3587075525629914
  0.2031202215625262  0.3414076403611200  0.8519824582477985
  0.2028342663618533  0.8412099909352903  0.3564533995872217
  0.2020283759522002  0.8428284767314611  0.8540697961342479
  0.5369909757273641  0.3431344767932250  0.3543718095979652
  0.5366000852575493  0.3429186679699849  0.8534405740083691
  0.5356295251263270  0.8430000222619947  0.3545030157491859
  0.5364167108035455  0.8431151343024034  0.8528609433404089
  0.8680284868693965  0.3432114614056667  0.3544795525443893
  0.8687358214592971  0.3431528416081201  0.8535974989102573
  0.8676388727707569  0.8430370991923846  0.3545533411019550
  0.8689390064091429  0.8425657022643666  0.8525773224522769
 
  0.00000000E+00  0.00000000E+00  0.00000000E+00
  0.00000000E+00  0.00000000E+00  0.00000000E+00
  0.00000000E+00  0.00000000E+00  0.00000000E+00
  0.00000000E+00  0.00000000E+00  0.00000000E+00
  0.00000000E+00  0.00000000E+00  0.00000000E+00
  0.00000000E+00  0.00000000E+00  0.00000000E+00
  0.00000000E+00  0.00000000E+00  0.00000000E+00
  0.00000000E+00  0.00000000E+00  0.00000000E+00
  0.00000000E+00  0.00000000E+00  0.00000000E+00
  0.00000000E+00  0.00000000E+00  0.00000000E+00
  0.00000000E+00  0.00000000E+00  0.00000000E+00
  0.00000000E+00  0.00000000E+00  0.00000000E+00
  0.00000000E+00  0.00000000E+00  0.00000000E+00
  0.00000000E+00  0.00000000E+00  0.00000000E+00
  0.00000000E+00  0.00000000E+00  0.00000000E+00
  0.00000000E+00  0.00000000E+00  0.00000000E+00
  0.00000000E+00  0.00000000E+00  0.00000000E+00
  0.00000000E+00  0.00000000E+00  0.00000000E+00
  0.00000000E+00  0.00000000E+00  0.00000000E+00
  0.00000000E+00  0.00000000E+00  0.00000000E+00
  0.00000000E+00  0.00000000E+00  0.00000000E+00
  0.00000000E+00  0.00000000E+00  0.00000000E+00
  0.00000000E+00  0.00000000E+00  0.00000000E+00
  0.00000000E+00  0.00000000E+00  0.00000000E+00
  0.00000000E+00  0.00000000E+00  0.00000000E+00
  0.00000000E+00  0.00000000E+00  0.00000000E+00
  0.00000000E+00  0.00000000E+00  0.00000000E+00
  0.00000000E+00  0.00000000E+00  0.00000000E+00
  0.00000000E+00  0.00000000E+00  0.00000000E+00
  0.00000000E+00  0.00000000E+00  0.00000000E+00
  0.00000000E+00  0.00000000E+00  0.00000000E+00
  0.00000000E+00  0.00000000E+00  0.00000000E+00
  0.00000000E+00  0.00000000E+00  0.00000000E+00
  0.00000000E+00  0.00000000E+00  0.00000000E+00
  0.00000000E+00  0.00000000E+00  0.00000000E+00
  0.00000000E+00  0.00000000E+00  0.00000000E+00
  0.00000000E+00  0.00000000E+00  0.00000000E+00
  0.00000000E+00  0.00000000E+00  0.00000000E+00
  0.00000000E+00  0.00000000E+00  0.00000000E+00
  0.00000000E+00  0.00000000E+00  0.00000000E+00
  0.00000000E+00  0.00000000E+00  0.00000000E+00
  0.00000000E+00  0.00000000E+00  0.00000000E+00
  0.00000000E+00  0.00000000E+00  0.00000000E+00
  0.00000000E+00  0.00000000E+00  0.00000000E+00
  0.00000000E+00  0.00000000E+00  0.00000000E+00
  0.00000000E+00  0.00000000E+00  0.00000000E+00
  0.00000000E+00  0.00000000E+00  0.00000000E+00
  0.00000000E+00  0.00000000E+00  0.00000000E+00
  0.00000000E+00  0.00000000E+00  0.00000000E+00
  0.00000000E+00  0.00000000E+00  0.00000000E+00
  0.00000000E+00  0.00000000E+00  0.00000000E+00
  0.00000000E+00  0.00000000E+00  0.00000000E+00
  0.00000000E+00  0.00000000E+00  0.00000000E+00
  0.00000000E+00  0.00000000E+00  0.00000000E+00
  0.00000000E+00  0.00000000E+00  0.00000000E+00
  0.00000000E+00  0.00000000E+00  0.00000000E+00
  0.00000000E+00  0.00000000E+00  0.00000000E+00
  0.00000000E+00  0.00000000E+00  0.00000000E+00
  0.00000000E+00  0.00000000E+00  0.00000000E+00
  0.00000000E+00  0.00000000E+00  0.00000000E+00
  0.00000000E+00  0.00000000E+00  0.00000000E+00
  0.00000000E+00  0.00000000E+00  0.00000000E+00
  0.00000000E+00  0.00000000E+00  0.00000000E+00
  0.00000000E+00  0.00000000E+00  0.00000000E+00
  0.00000000E+00  0.00000000E+00  0.00000000E+00
  0.00000000E+00  0.00000000E+00  0.00000000E+00
  0.00000000E+00  0.00000000E+00  0.00000000E+00
  0.00000000E+00  0.00000000E+00  0.00000000E+00
  0.00000000E+00  0.00000000E+00  0.00000000E+00
  0.00000000E+00  0.00000000E+00  0.00000000E+00
  0.00000000E+00  0.00000000E+00  0.00000000E+00
  0.00000000E+00  0.00000000E+00  0.00000000E+00
  0.00000000E+00  0.00000000E+00  0.00000000E+00
  0.00000000E+00  0.00000000E+00  0.00000000E+00
  0.00000000E+00  0.00000000E+00  0.00000000E+00
  0.00000000E+00  0.00000000E+00  0.00000000E+00
  0.00000000E+00  0.00000000E+00  0.00000000E+00
  0.00000000E+00  0.00000000E+00  0.00000000E+00
  0.00000000E+00  0.00000000E+00  0.00000000E+00
  0.00000000E+00  0.00000000E+00  0.00000000E+00
  0.00000000E+00  0.00000000E+00  0.00000000E+00
  0.00000000E+00  0.00000000E+00  0.00000000E+00
  0.00000000E+00  0.00000000E+00  0.00000000E+00
  0.00000000E+00  0.00000000E+00  0.00000000E+00
  0.00000000E+00  0.00000000E+00  0.00000000E+00
  0.00000000E+00  0.00000000E+00  0.00000000E+00
  0.00000000E+00  0.00000000E+00  0.00000000E+00
  0.00000000E+00  0.00000000E+00  0.00000000E+00
  0.00000000E+00  0.00000000E+00  0.00000000E+00
  0.00000000E+00  0.00000000E+00  0.00000000E+00
  0.00000000E+00  0.00000000E+00  0.00000000E+00
  0.00000000E+00  0.00000000E+00  0.00000000E+00
  0.00000000E+00  0.00000000E+00  0.00000000E+00
  0.00000000E+00  0.00000000E+00  0.00000000E+00
  0.00000000E+00  0.00000000E+00  0.00000000E+00
  0.00000000E+00  0.00000000E+00  0.00000000E+00
  0.00000000E+00  0.00000000E+00  0.00000000E+00
  0.00000000E+00  0.00000000E+00  0.00000000E+00
  0.00000000E+00  0.00000000E+00  0.00000000E+00
  0.00000000E+00  0.00000000E+00  0.00000000E+00
  0.00000000E+00  0.00000000E+00  0.00000000E+00
  0.00000000E+00  0.00000000E+00  0.00000000E+00
  0.00000000E+00  0.00000000E+00  0.00000000E+00
  0.00000000E+00  0.00000000E+00  0.00000000E+00
  0.00000000E+00  0.00000000E+00  0.00000000E+00
  0.00000000E+00  0.00000000E+00  0.00000000E+00
  0.00000000E+00  0.00000000E+00  0.00000000E+00
  0.00000000E+00  0.00000000E+00  0.00000000E+00
  0.00000000E+00  0.00000000E+00  0.00000000E+00
  0.00000000E+00  0.00000000E+00  0.00000000E+00
  0.00000000E+00  0.00000000E+00  0.00000000E+00
  0.00000000E+00  0.00000000E+00  0.00000000E+00
  0.00000000E+00  0.00000000E+00  0.00000000E+00
  0.00000000E+00  0.00000000E+00  0.00000000E+00
  0.00000000E+00  0.00000000E+00  0.00000000E+00
  0.00000000E+00  0.00000000E+00  0.00000000E+00
  0.00000000E+00  0.00000000E+00  0.00000000E+00
  0.00000000E+00  0.00000000E+00  0.00000000E+00
  0.00000000E+00  0.00000000E+00  0.00000000E+00
  0.00000000E+00  0.00000000E+00  0.00000000E+00
  0.00000000E+00  0.00000000E+00  0.00000000E+00
  0.00000000E+00  0.00000000E+00  0.00000000E+00
  0.00000000E+00  0.00000000E+00  0.00000000E+00
  0.00000000E+00  0.00000000E+00  0.00000000E+00
  0.00000000E+00  0.00000000E+00  0.00000000E+00
  0.00000000E+00  0.00000000E+00  0.00000000E+00
  0.00000000E+00  0.00000000E+00  0.00000000E+00
  0.00000000E+00  0.00000000E+00  0.00000000E+00
  0.00000000E+00  0.00000000E+00  0.00000000E+00
  0.00000000E+00  0.00000000E+00  0.00000000E+00
  0.00000000E+00  0.00000000E+00  0.00000000E+00
  0.00000000E+00  0.00000000E+00  0.00000000E+00
  0.00000000E+00  0.00000000E+00  0.00000000E+00
  0.00000000E+00  0.00000000E+00  0.00000000E+00
  0.00000000E+00  0.00000000E+00  0.00000000E+00
  0.00000000E+00  0.00000000E+00  0.00000000E+00
  0.00000000E+00  0.00000000E+00  0.00000000E+00
  0.00000000E+00  0.00000000E+00  0.00000000E+00
  0.00000000E+00  0.00000000E+00  0.00000000E+00
  0.00000000E+00  0.00000000E+00  0.00000000E+00
  0.00000000E+00  0.00000000E+00  0.00000000E+00
  0.00000000E+00  0.00000000E+00  0.00000000E+00
  0.00000000E+00  0.00000000E+00  0.00000000E+00
  0.00000000E+00  0.00000000E+00  0.00000000E+00
  0.00000000E+00  0.00000000E+00  0.00000000E+00
  0.00000000E+00  0.00000000E+00  0.00000000E+00
  0.00000000E+00  0.00000000E+00  0.00000000E+00
  0.00000000E+00  0.00000000E+00  0.00000000E+00
  0.00000000E+00  0.00000000E+00  0.00000000E+00
  0.00000000E+00  0.00000000E+00  0.00000000E+00
  0.00000000E+00  0.00000000E+00  0.00000000E+00
  0.00000000E+00  0.00000000E+00  0.00000000E+00
  0.00000000E+00  0.00000000E+00  0.00000000E+00
  0.00000000E+00  0.00000000E+00  0.00000000E+00
  0.00000000E+00  0.00000000E+00  0.00000000E+00
  0.00000000E+00  0.00000000E+00  0.00000000E+00
  0.00000000E+00  0.00000000E+00  0.00000000E+00
  0.00000000E+00  0.00000000E+00  0.00000000E+00
  0.00000000E+00  0.00000000E+00  0.00000000E+00
  0.00000000E+00  0.00000000E+00  0.00000000E+00
  0.00000000E+00  0.00000000E+00  0.00000000E+00
  0.00000000E+00  0.00000000E+00  0.00000000E+00
  0.00000000E+00  0.00000000E+00  0.00000000E+00
  0.00000000E+00  0.00000000E+00  0.00000000E+00
  0.00000000E+00  0.00000000E+00  0.00000000E+00
  0.00000000E+00  0.00000000E+00  0.00000000E+00
  0.00000000E+00  0.00000000E+00  0.00000000E+00
  0.00000000E+00  0.00000000E+00  0.00000000E+00
  0.00000000E+00  0.00000000E+00  0.00000000E+00
  0.00000000E+00  0.00000000E+00  0.00000000E+00
  0.00000000E+00  0.00000000E+00  0.00000000E+00
  0.00000000E+00  0.00000000E+00  0.00000000E+00
  0.00000000E+00  0.00000000E+00  0.00000000E+00
  0.00000000E+00  0.00000000E+00  0.00000000E+00
  0.00000000E+00  0.00000000E+00  0.00000000E+00
  0.00000000E+00  0.00000000E+00  0.00000000E+00
  0.00000000E+00  0.00000000E+00  0.00000000E+00
  0.00000000E+00  0.00000000E+00  0.00000000E+00
  0.00000000E+00  0.00000000E+00  0.00000000E+00
  0.00000000E+00  0.00000000E+00  0.00000000E+00
  0.00000000E+00  0.00000000E+00  0.00000000E+00
  0.00000000E+00  0.00000000E+00  0.00000000E+00
  0.00000000E+00  0.00000000E+00  0.00000000E+00
  0.00000000E+00  0.00000000E+00  0.00000000E+00
  0.00000000E+00  0.00000000E+00  0.00000000E+00
  0.00000000E+00  0.00000000E+00  0.00000000E+00
  0.00000000E+00  0.00000000E+00  0.00000000E+00
  0.00000000E+00  0.00000000E+00  0.00000000E+00
  0.00000000E+00  0.00000000E+00  0.00000000E+00
  0.00000000E+00  0.00000000E+00  0.00000000E+00
