Li71 P24 N1 O94                         
   1.00000000000000     
    14.7410686136655755   -0.0004397579089411   -0.0010103441970199
    -0.0003165235751995   10.5675827282837442    0.0024430652228236
    -0.0008453166411790    0.0028427247108261   12.2918989450066611
   Li   P    N    O 
    71    24     1    94
Direct
  0.1705344153889676  0.4160652198681315  0.0016150840059145
  0.1697847866737892  0.4257371270982328  0.5010707939923984
  0.1623831637118309  0.9246977453685028  0.0035975933843199
  0.1685391651378137  0.9231338788978823  0.5036807745464512
  0.5032135645869160  0.4220281891665133 -0.0005186824248683
  0.5032158982555528  0.4228244452332955  0.5003703962578115
  0.5074323231887350  0.9221725274624222 -0.0016056812715394
  0.5032129060081150  0.9225749852599345  0.5006119637547545
  0.8373326843000087  0.4223157645613607  0.0001940954171082
  0.8361516565963993  0.4224354474667490  0.4999364618517895
  0.8353500370869242  0.9205662097296581 -0.0014856657424915
  0.8353953155991222  0.9228488096854409  0.5002603203524424
  0.0010404094113316  0.0806299873807678  0.2467310377103498
  0.0024087920562952  0.0779400348381965  0.7517399751497114
  0.0030562511035854  0.5768340710137226  0.2497045983403285
  0.0031248963500326  0.5774748314225863  0.7504607945589201
  0.3620598719555156  0.0832896080084866  0.2470723709338143
  0.3367654589585581  0.0781949009121735  0.7521702125021372
  0.3354406836727796  0.5767533897353668  0.2493293956392088
  0.3366143405745685  0.5767747238242749  0.7507651293173334
  0.6700614557785319  0.0780228358661854  0.2492975520596933
  0.6701121104132099  0.0773003104270149  0.7495027257981642
  0.6696803435100445  0.5773416323821119  0.2497493597948001
  0.6695105907940342  0.5775233243757716  0.7500836486129333
  0.1702416213133620  0.1635500545651201  0.6282300637443238
  0.1690068201461592  0.6553014279365458  0.1250257733499696
  0.1694858160429736  0.6647563057210184  0.6277502871660486
  0.5063188065530827  0.1654857148155539  0.1234438347921972
  0.5022611038559385  0.1635724599992974  0.6265746138053685
  0.5026822074273474  0.6622760662625495  0.1257442732896003
  0.5031628150440577  0.6633363466309244  0.6264696743056493
  0.8390142995629648  0.1632483411765615  0.1248398776198870
  0.8359880319657739  0.1638090300462061  0.6259649443205098
  0.8359526150409826  0.6623046812117863  0.1263832033345687
  0.8357459988738327  0.6633581766601396  0.6262560530594723
  0.0068320355828529  0.3337225474095460  0.1240031278291195
  0.0027891089072876  0.3370824707956145  0.6236903865906573
 -0.0009674790214959  0.8358507319222160  0.1212269306065618
  0.0023478122425373  0.8370503139248248  0.6248619971325917
  0.3330845431096966  0.3348556173526314  0.1226092275183799
  0.3357877130898103  0.3373620582148643  0.6238604998886678
  0.3385730285289472  0.8365440917257188  0.1197608087677971
  0.3363026614013707  0.8367523188976084  0.6246393245792741
  0.6708878690746053  0.3368092311342646  0.1234219058464188
  0.6692692984639914  0.3369313636785663  0.6236944414871020
  0.6704280677873029  0.8359734516088875  0.1234533023213036
  0.6690759590134912  0.8365253751849763  0.6234349904232275
  0.0016770992215541  0.3384061660868116  0.3751931913089392
  0.0020571073184143  0.3365284378836595  0.8769131565971463
 -0.0006893823857918  0.8361638835517982  0.3791025808654718
  0.0018849480258745  0.8371370484791756  0.8761117107622356
  0.3362757628138332  0.3384326681557911  0.3756022832206595
  0.3361842396877520  0.3329900687120067  0.8768911900442373
  0.3382325057921787  0.8347491405646963  0.3768249305224262
  0.3370376533563980  0.8375825199622359  0.8774609988231108
  0.6696378973815345  0.3374871756488540  0.3761176531751517
  0.6702971444251969  0.3370752086599693  0.8761781785763598
  0.6693599587487848  0.8362797207487621  0.3769202225277530
  0.6701398920842095  0.8363948262618418  0.8752978573190530
  0.1642939569335433  0.1800159745811439  0.3856473123591799
  0.1637325020076821  0.1676619414301756  0.8788523475796165
  0.1678604313349415  0.6592312845547529  0.3775589469776821
  0.1696889710157341  0.6630958314246194  0.8740489869400074
  0.5050857290050768  0.1651588336659043  0.3752146205785572
  0.5061469348018507  0.1629106369229248  0.8725468669138707
  0.5031216166374206  0.6624222686921112  0.3736981208415708
  0.5027786544827487  0.6632079563146395  0.8734056289350386
  0.8353695399637048  0.1638296981476338  0.3731793436501988
  0.8358565558072033  0.1631597807715329  0.8715334484071695
  0.8355282391350559  0.6628261460965493  0.3738302533707326
  0.8363175172531632  0.6627345769711084  0.8732762258160520
  0.1677157414653129  0.4154730669916037  0.2499313415953467
  0.1669607917245901  0.4126132116481225  0.7494198494798996
  0.1656942762774622  0.9021156236886186  0.2508623161448024
  0.1670818862340656  0.9134282153253802  0.7515613273701538
  0.5007479284906318  0.4122330328222619  0.2496870129487201
  0.5006590322143289  0.4120287134998224  0.7499435536130651
  0.5006278583341152  0.9105419990473307  0.2498896650970049
  0.5009688290307197  0.9121222401953335  0.7492064044321337
  0.8337919997263112  0.4126179794979146  0.2497976253362576
  0.8336985603864758  0.4126091609708201  0.7495857340364326
  0.8323703142034202  0.9119706799442404  0.2506258702278201
  0.8334954479821873  0.9117846435045445  0.7486267904717279
 -0.0049018296489699  0.0872076337403919  0.0010035676237979
  0.0001597751822767  0.0877968521750657  0.4998205195393820
  0.0006036541391307  0.5876919236490449 -0.0002828375572725
 -0.0001029180081192  0.5883259159383147  0.5004800862032287
  0.3381841202370739  0.0859312644620734 -0.0005946004248998
  0.3333225624139501  0.0875904539180457  0.4980800525983132
  0.3340634153441555  0.5864786045375148 -0.0007665222526401
  0.3343028738025827  0.5881276230359697  0.5007977248924774
  0.6684582773191998  0.0877977741002736 -0.0004551728467939
  0.6667884547911078  0.0881177117482699  0.4999901006314070
  0.6673839833048021  0.5876389017564508 -0.0002091696817952
  0.6669816801836924  0.5877574337380554  0.5000411522414070
  0.2284410875549536  0.0854063346147438 -0.0018895320105469
  0.0358245145765576  0.1565427927974664  0.3951909654778012
  0.0311914149265324  0.1569060676880987  0.8971806588584311
  0.0348989348409322  0.6582872099778205  0.3965483695377173
  0.0357061534147070  0.6573010111601986  0.8957795831840700
  0.3688841581185930  0.1562945294627371  0.3936218861482167
  0.3757945631091276  0.1552220089627543  0.8954745739886038
  0.3694305671755321  0.6566995784034447  0.3963859059889959
  0.3692651415149746  0.6567462700145291  0.8955643502813333
  0.7013663630749507  0.1571016310724188  0.3954921029583313
  0.7028691489871813  0.1569112445212631  0.8951495462785229
  0.7020325282229443  0.6569316273370887  0.3959138965245345
  0.7026688115932137  0.6568920977449979  0.8958128646678480
  0.2006391635527597  0.0534700727484585  0.7513740369511006
  0.1992845197051519  0.5571868760742317  0.2546361890915125
  0.2006135427499706  0.5526065058633453  0.7492959162364320
  0.5307566986583770  0.0525494664477829  0.2498537735653757
  0.5352348169346904  0.0517714385689543  0.7486774869310504
  0.5342503387850910  0.5522727553903254  0.2499960726096492
  0.5341306786705980  0.5521009812528517  0.7495563294710922
  0.8662118317238473  0.0515708000847627  0.2508568758463652
  0.8673759547512452  0.0515305608618962  0.7480608777980385
  0.8674794547359777  0.5526275424483094  0.2506737667158900
  0.8675886800151446  0.5524306125404949  0.7494039639394658
  0.0618805933598813  0.4107720723042374  0.2511206938730172
  0.0612317178651622  0.4094973375644098  0.7496419432955558
  0.0605502759252711  0.9079912439723813  0.2506880382528559
  0.0613706124630168  0.9103229759354314  0.7504420897284464
  0.3952078085068497  0.4086848757433096  0.2491623124441138
  0.3950128734229097  0.4085948992129438  0.7502627015666019
  0.3946442115406560  0.9064397914413999  0.2492856622388505
  0.3953110267797923  0.9099046190901586  0.7497298183900513
  0.7280584780672322  0.4099639230907037  0.2501605195846611
  0.7280365432626238  0.4099977232141947  0.7492974787800166
  0.7267199277257222  0.9093791260444823  0.2505381511977917
  0.7278364742287218  0.9094479656450065  0.7488589668029124
  0.2273117485613093  0.0907660705741178  0.4961617713299004
  0.2284754679330854  0.5887231834821884 -0.0010327636144414
  0.2286463089949207  0.5917775896711427  0.5018225590558472
  0.5628916592816866  0.0909597501910216 -0.0003078513802773
  0.5610589028908302  0.0907778656097789  0.5004482026718362
  0.5617203767648140  0.5904215758619300 -0.0002873482043078
  0.5613275190339221  0.5903967027819894  0.5000395657339332
  0.8890280551203154  0.0863978556138500 -0.0043677940155216
  0.8947030136369107  0.0911477409254653  0.4994293061805556
  0.8948872312075244  0.5910127420793986 -0.0000851644828403
  0.8943294888956703  0.5906145407736015  0.5003042962021492
  0.2051735443633841  0.3535795947644471  0.1464139439161393
  0.2019330394686818  0.3438447175682778  0.6447431423477693
  0.2029595536085024  0.8371685384218913  0.1470402761566711
  0.2025331001850652  0.8446815879693617  0.6469831019343030
  0.5371052132194177  0.3433680348565499  0.1461385515670696
  0.5356292726098378  0.3428377764041939  0.6456447638062943
  0.5371177989914184  0.8422262725493977  0.1466742460886822
  0.5354560538946772  0.8429730474538171  0.6447200717192720
  0.8690173858914255  0.3443365658377782  0.1458188424601610
  0.8690469656306409  0.3431812781674227  0.6456534915171461
  0.8675013397490607  0.8421621671911274  0.1469837123724440
  0.8686087049239236  0.8427787179850060  0.6443957076631937
  0.0235144186923373  0.1553527054037296  0.1063367544570830
  0.0362324178586942  0.1571427811649643  0.6031531693688256
  0.0357468299204010  0.6573641236728436  0.1038367413885226
  0.0354764332929008  0.6574816675877174  0.6043112516926218
  0.3719003187775310  0.1566771209568319  0.1042252539389693
  0.3676229329479633  0.1571949615150242  0.6019571536124004
  0.3690729827031183  0.6558909735529413  0.1035039909336453
  0.3698900664262105  0.6572137590095355  0.6045404577943176
  0.7034104885300823  0.1566712134026614  0.1038328104067776
  0.7024861780970203  0.1574657903136587  0.6035509743452797
  0.7025486788592575  0.6566703668347132  0.1039494670221372
  0.7021651169954422  0.6570218676562307  0.6039748421309982
  0.0342825445188936  0.4480622827816860 -0.0001687489399227
  0.0340715477270324  0.4486299890124912  0.4998436357429676
  0.0292273915335807  0.9467839223022174  0.0004734612750745
  0.0337453758187698  0.9477846372943269  0.4998273453565982
  0.3685029570378139  0.4470559838029844 -0.0009709724426988
  0.3676261446675053  0.4480468736124244  0.5003470764666577
  0.3762759061360913  0.9469265263820174 -0.0006134361304504
  0.3668095227145430  0.9478319500253005  0.4988794838924711
  0.7013204047446240  0.4478732812443996 -0.0001935505621870
  0.7008254208017715  0.4479181737757113  0.4999899490059374
  0.7008095586083675  0.9472180122684841 -0.0005325351971766
  0.7003907878054948  0.9482381823236795  0.4999318184631658
  0.2029194379236696  0.3462406275559797  0.3551274896864577
  0.2026188594263017  0.3432095919697267  0.8526510263507382
  0.2026106341654015  0.8415791312612068  0.3575663311801015
  0.2021871890384652  0.8436588472581051  0.8551829537978518
  0.5358233482713342  0.3433644179273198  0.3541895061562855
  0.5369249521799363  0.3433950405300465  0.8536217793812980
  0.5356007359696693  0.8432961544639075  0.3546811301407609
  0.5370225010808911  0.8423820938651841  0.8524543531041469
  0.8687750757515982  0.3431211996757964  0.3540378338389218
  0.8686349620441388  0.3436411159530962  0.8537041917515854
  0.8675317194873234  0.8428724392520026  0.3549046441365041
  0.8685477389499141  0.8418100772753231  0.8521936540802404
 
  0.00000000E+00  0.00000000E+00  0.00000000E+00
  0.00000000E+00  0.00000000E+00  0.00000000E+00
  0.00000000E+00  0.00000000E+00  0.00000000E+00
  0.00000000E+00  0.00000000E+00  0.00000000E+00
  0.00000000E+00  0.00000000E+00  0.00000000E+00
  0.00000000E+00  0.00000000E+00  0.00000000E+00
  0.00000000E+00  0.00000000E+00  0.00000000E+00
  0.00000000E+00  0.00000000E+00  0.00000000E+00
  0.00000000E+00  0.00000000E+00  0.00000000E+00
  0.00000000E+00  0.00000000E+00  0.00000000E+00
  0.00000000E+00  0.00000000E+00  0.00000000E+00
  0.00000000E+00  0.00000000E+00  0.00000000E+00
  0.00000000E+00  0.00000000E+00  0.00000000E+00
  0.00000000E+00  0.00000000E+00  0.00000000E+00
  0.00000000E+00  0.00000000E+00  0.00000000E+00
  0.00000000E+00  0.00000000E+00  0.00000000E+00
  0.00000000E+00  0.00000000E+00  0.00000000E+00
  0.00000000E+00  0.00000000E+00  0.00000000E+00
  0.00000000E+00  0.00000000E+00  0.00000000E+00
  0.00000000E+00  0.00000000E+00  0.00000000E+00
  0.00000000E+00  0.00000000E+00  0.00000000E+00
  0.00000000E+00  0.00000000E+00  0.00000000E+00
  0.00000000E+00  0.00000000E+00  0.00000000E+00
  0.00000000E+00  0.00000000E+00  0.00000000E+00
  0.00000000E+00  0.00000000E+00  0.00000000E+00
  0.00000000E+00  0.00000000E+00  0.00000000E+00
  0.00000000E+00  0.00000000E+00  0.00000000E+00
  0.00000000E+00  0.00000000E+00  0.00000000E+00
  0.00000000E+00  0.00000000E+00  0.00000000E+00
  0.00000000E+00  0.00000000E+00  0.00000000E+00
  0.00000000E+00  0.00000000E+00  0.00000000E+00
  0.00000000E+00  0.00000000E+00  0.00000000E+00
  0.00000000E+00  0.00000000E+00  0.00000000E+00
  0.00000000E+00  0.00000000E+00  0.00000000E+00
  0.00000000E+00  0.00000000E+00  0.00000000E+00
  0.00000000E+00  0.00000000E+00  0.00000000E+00
  0.00000000E+00  0.00000000E+00  0.00000000E+00
  0.00000000E+00  0.00000000E+00  0.00000000E+00
  0.00000000E+00  0.00000000E+00  0.00000000E+00
  0.00000000E+00  0.00000000E+00  0.00000000E+00
  0.00000000E+00  0.00000000E+00  0.00000000E+00
  0.00000000E+00  0.00000000E+00  0.00000000E+00
  0.00000000E+00  0.00000000E+00  0.00000000E+00
  0.00000000E+00  0.00000000E+00  0.00000000E+00
  0.00000000E+00  0.00000000E+00  0.00000000E+00
  0.00000000E+00  0.00000000E+00  0.00000000E+00
  0.00000000E+00  0.00000000E+00  0.00000000E+00
  0.00000000E+00  0.00000000E+00  0.00000000E+00
  0.00000000E+00  0.00000000E+00  0.00000000E+00
  0.00000000E+00  0.00000000E+00  0.00000000E+00
  0.00000000E+00  0.00000000E+00  0.00000000E+00
  0.00000000E+00  0.00000000E+00  0.00000000E+00
  0.00000000E+00  0.00000000E+00  0.00000000E+00
  0.00000000E+00  0.00000000E+00  0.00000000E+00
  0.00000000E+00  0.00000000E+00  0.00000000E+00
  0.00000000E+00  0.00000000E+00  0.00000000E+00
  0.00000000E+00  0.00000000E+00  0.00000000E+00
  0.00000000E+00  0.00000000E+00  0.00000000E+00
  0.00000000E+00  0.00000000E+00  0.00000000E+00
  0.00000000E+00  0.00000000E+00  0.00000000E+00
  0.00000000E+00  0.00000000E+00  0.00000000E+00
  0.00000000E+00  0.00000000E+00  0.00000000E+00
  0.00000000E+00  0.00000000E+00  0.00000000E+00
  0.00000000E+00  0.00000000E+00  0.00000000E+00
  0.00000000E+00  0.00000000E+00  0.00000000E+00
  0.00000000E+00  0.00000000E+00  0.00000000E+00
  0.00000000E+00  0.00000000E+00  0.00000000E+00
  0.00000000E+00  0.00000000E+00  0.00000000E+00
  0.00000000E+00  0.00000000E+00  0.00000000E+00
  0.00000000E+00  0.00000000E+00  0.00000000E+00
  0.00000000E+00  0.00000000E+00  0.00000000E+00
  0.00000000E+00  0.00000000E+00  0.00000000E+00
  0.00000000E+00  0.00000000E+00  0.00000000E+00
  0.00000000E+00  0.00000000E+00  0.00000000E+00
  0.00000000E+00  0.00000000E+00  0.00000000E+00
  0.00000000E+00  0.00000000E+00  0.00000000E+00
  0.00000000E+00  0.00000000E+00  0.00000000E+00
  0.00000000E+00  0.00000000E+00  0.00000000E+00
  0.00000000E+00  0.00000000E+00  0.00000000E+00
  0.00000000E+00  0.00000000E+00  0.00000000E+00
  0.00000000E+00  0.00000000E+00  0.00000000E+00
  0.00000000E+00  0.00000000E+00  0.00000000E+00
  0.00000000E+00  0.00000000E+00  0.00000000E+00
  0.00000000E+00  0.00000000E+00  0.00000000E+00
  0.00000000E+00  0.00000000E+00  0.00000000E+00
  0.00000000E+00  0.00000000E+00  0.00000000E+00
  0.00000000E+00  0.00000000E+00  0.00000000E+00
  0.00000000E+00  0.00000000E+00  0.00000000E+00
  0.00000000E+00  0.00000000E+00  0.00000000E+00
  0.00000000E+00  0.00000000E+00  0.00000000E+00
  0.00000000E+00  0.00000000E+00  0.00000000E+00
  0.00000000E+00  0.00000000E+00  0.00000000E+00
  0.00000000E+00  0.00000000E+00  0.00000000E+00
  0.00000000E+00  0.00000000E+00  0.00000000E+00
  0.00000000E+00  0.00000000E+00  0.00000000E+00
  0.00000000E+00  0.00000000E+00  0.00000000E+00
  0.00000000E+00  0.00000000E+00  0.00000000E+00
  0.00000000E+00  0.00000000E+00  0.00000000E+00
  0.00000000E+00  0.00000000E+00  0.00000000E+00
  0.00000000E+00  0.00000000E+00  0.00000000E+00
  0.00000000E+00  0.00000000E+00  0.00000000E+00
  0.00000000E+00  0.00000000E+00  0.00000000E+00
  0.00000000E+00  0.00000000E+00  0.00000000E+00
  0.00000000E+00  0.00000000E+00  0.00000000E+00
  0.00000000E+00  0.00000000E+00  0.00000000E+00
  0.00000000E+00  0.00000000E+00  0.00000000E+00
  0.00000000E+00  0.00000000E+00  0.00000000E+00
  0.00000000E+00  0.00000000E+00  0.00000000E+00
  0.00000000E+00  0.00000000E+00  0.00000000E+00
  0.00000000E+00  0.00000000E+00  0.00000000E+00
  0.00000000E+00  0.00000000E+00  0.00000000E+00
  0.00000000E+00  0.00000000E+00  0.00000000E+00
  0.00000000E+00  0.00000000E+00  0.00000000E+00
  0.00000000E+00  0.00000000E+00  0.00000000E+00
  0.00000000E+00  0.00000000E+00  0.00000000E+00
  0.00000000E+00  0.00000000E+00  0.00000000E+00
  0.00000000E+00  0.00000000E+00  0.00000000E+00
  0.00000000E+00  0.00000000E+00  0.00000000E+00
  0.00000000E+00  0.00000000E+00  0.00000000E+00
  0.00000000E+00  0.00000000E+00  0.00000000E+00
  0.00000000E+00  0.00000000E+00  0.00000000E+00
  0.00000000E+00  0.00000000E+00  0.00000000E+00
  0.00000000E+00  0.00000000E+00  0.00000000E+00
  0.00000000E+00  0.00000000E+00  0.00000000E+00
  0.00000000E+00  0.00000000E+00  0.00000000E+00
  0.00000000E+00  0.00000000E+00  0.00000000E+00
  0.00000000E+00  0.00000000E+00  0.00000000E+00
  0.00000000E+00  0.00000000E+00  0.00000000E+00
  0.00000000E+00  0.00000000E+00  0.00000000E+00
  0.00000000E+00  0.00000000E+00  0.00000000E+00
  0.00000000E+00  0.00000000E+00  0.00000000E+00
  0.00000000E+00  0.00000000E+00  0.00000000E+00
  0.00000000E+00  0.00000000E+00  0.00000000E+00
  0.00000000E+00  0.00000000E+00  0.00000000E+00
  0.00000000E+00  0.00000000E+00  0.00000000E+00
  0.00000000E+00  0.00000000E+00  0.00000000E+00
  0.00000000E+00  0.00000000E+00  0.00000000E+00
  0.00000000E+00  0.00000000E+00  0.00000000E+00
  0.00000000E+00  0.00000000E+00  0.00000000E+00
  0.00000000E+00  0.00000000E+00  0.00000000E+00
  0.00000000E+00  0.00000000E+00  0.00000000E+00
  0.00000000E+00  0.00000000E+00  0.00000000E+00
  0.00000000E+00  0.00000000E+00  0.00000000E+00
  0.00000000E+00  0.00000000E+00  0.00000000E+00
  0.00000000E+00  0.00000000E+00  0.00000000E+00
  0.00000000E+00  0.00000000E+00  0.00000000E+00
  0.00000000E+00  0.00000000E+00  0.00000000E+00
  0.00000000E+00  0.00000000E+00  0.00000000E+00
  0.00000000E+00  0.00000000E+00  0.00000000E+00
  0.00000000E+00  0.00000000E+00  0.00000000E+00
  0.00000000E+00  0.00000000E+00  0.00000000E+00
  0.00000000E+00  0.00000000E+00  0.00000000E+00
  0.00000000E+00  0.00000000E+00  0.00000000E+00
  0.00000000E+00  0.00000000E+00  0.00000000E+00
  0.00000000E+00  0.00000000E+00  0.00000000E+00
  0.00000000E+00  0.00000000E+00  0.00000000E+00
  0.00000000E+00  0.00000000E+00  0.00000000E+00
  0.00000000E+00  0.00000000E+00  0.00000000E+00
  0.00000000E+00  0.00000000E+00  0.00000000E+00
  0.00000000E+00  0.00000000E+00  0.00000000E+00
  0.00000000E+00  0.00000000E+00  0.00000000E+00
  0.00000000E+00  0.00000000E+00  0.00000000E+00
  0.00000000E+00  0.00000000E+00  0.00000000E+00
  0.00000000E+00  0.00000000E+00  0.00000000E+00
  0.00000000E+00  0.00000000E+00  0.00000000E+00
  0.00000000E+00  0.00000000E+00  0.00000000E+00
  0.00000000E+00  0.00000000E+00  0.00000000E+00
  0.00000000E+00  0.00000000E+00  0.00000000E+00
  0.00000000E+00  0.00000000E+00  0.00000000E+00
  0.00000000E+00  0.00000000E+00  0.00000000E+00
  0.00000000E+00  0.00000000E+00  0.00000000E+00
  0.00000000E+00  0.00000000E+00  0.00000000E+00
  0.00000000E+00  0.00000000E+00  0.00000000E+00
  0.00000000E+00  0.00000000E+00  0.00000000E+00
  0.00000000E+00  0.00000000E+00  0.00000000E+00
  0.00000000E+00  0.00000000E+00  0.00000000E+00
  0.00000000E+00  0.00000000E+00  0.00000000E+00
  0.00000000E+00  0.00000000E+00  0.00000000E+00
  0.00000000E+00  0.00000000E+00  0.00000000E+00
  0.00000000E+00  0.00000000E+00  0.00000000E+00
  0.00000000E+00  0.00000000E+00  0.00000000E+00
  0.00000000E+00  0.00000000E+00  0.00000000E+00
  0.00000000E+00  0.00000000E+00  0.00000000E+00
  0.00000000E+00  0.00000000E+00  0.00000000E+00
  0.00000000E+00  0.00000000E+00  0.00000000E+00
  0.00000000E+00  0.00000000E+00  0.00000000E+00
  0.00000000E+00  0.00000000E+00  0.00000000E+00
  0.00000000E+00  0.00000000E+00  0.00000000E+00
  0.00000000E+00  0.00000000E+00  0.00000000E+00
  0.00000000E+00  0.00000000E+00  0.00000000E+00
