Li5 P2 N1 O6                            
   1.00000000000000     
    -0.3366424064715965    0.3952857183315410    5.7135048741942764
     5.1759151104343726    0.7924856600267850   -0.5759186645636510
     0.8303429900268383    4.9460585639539296    0.5309131851216538
   Li   P    N    O 
     5     2     1     6
Direct
  0.6828715950001457 -0.0486175042553077  0.7454477747634597
 -0.2634645747505472  0.4114150632456941  0.2870030128700515
  0.4354971433860663  0.6856189897838613  0.3033243735696612
  0.2527017875171154 -0.0011701965194023  0.5729481435713287
 -0.0136286007194045  0.4086282640225751  0.6242825068757034
  0.4139058557125224  0.3845589876982910  0.8936533317018887
 -0.0094515966377341 -0.0279723233399071  0.1785742104899147
  0.1667959183106157  0.1846986617808211  0.8794768382389077
 -0.1000043006490748  0.1262081724087780  0.3802076438588580
  0.1224054005602089  0.7638131226877242  0.3491903696914999
  0.6362136479550805  0.3160440780055329  0.7287946760058274
  0.4278108045305732  0.3392803698381660  0.2092191750972658
  0.4139648741549524  0.6869247634128348  0.7344352310492871
  0.7768090456295046 -0.1894414487696643  0.1005177122163495
 
  0.00000000E+00  0.00000000E+00  0.00000000E+00
  0.00000000E+00  0.00000000E+00  0.00000000E+00
  0.00000000E+00  0.00000000E+00  0.00000000E+00
  0.00000000E+00  0.00000000E+00  0.00000000E+00
  0.00000000E+00  0.00000000E+00  0.00000000E+00
  0.00000000E+00  0.00000000E+00  0.00000000E+00
  0.00000000E+00  0.00000000E+00  0.00000000E+00
  0.00000000E+00  0.00000000E+00  0.00000000E+00
  0.00000000E+00  0.00000000E+00  0.00000000E+00
  0.00000000E+00  0.00000000E+00  0.00000000E+00
  0.00000000E+00  0.00000000E+00  0.00000000E+00
  0.00000000E+00  0.00000000E+00  0.00000000E+00
  0.00000000E+00  0.00000000E+00  0.00000000E+00
  0.00000000E+00  0.00000000E+00  0.00000000E+00
