Li56 P28 O98
1.0
6.730959 0.000000 7.860032
2.035903 8.419349 5.263538
0.000000 0.000000 68.387046
Li P O
56 28 98
direct
0.144977 0.987971 0.030471 Li+
0.855023 0.012029 0.013315 Li+
0.588727 0.751653 0.064608 Li+
0.411273 0.248347 0.056101 Li+
0.327738 0.791276 0.053335 Li+
0.672262 0.208724 0.067373 Li+
0.241886 0.450796 0.011452 Li+
0.758114 0.549204 0.032333 Li+
0.144977 0.987971 0.107394 Li+
0.855023 0.012029 0.090238 Li+
0.588727 0.751653 0.141531 Li+
0.411273 0.248347 0.133024 Li+
0.327738 0.791276 0.130258 Li+
0.672262 0.208724 0.144296 Li+
0.241886 0.450796 0.088375 Li+
0.758114 0.549204 0.109256 Li+
0.144977 0.987971 0.184317 Li+
0.855023 0.012029 0.167161 Li+
0.588727 0.751653 0.218454 Li+
0.411273 0.248347 0.209947 Li+
0.327738 0.791276 0.207181 Li+
0.672262 0.208724 0.221219 Li+
0.241886 0.450796 0.165298 Li+
0.758114 0.549204 0.186180 Li+
0.144977 0.987971 0.261240 Li+
0.855023 0.012029 0.244084 Li+
0.588727 0.751653 0.295377 Li+
0.411273 0.248347 0.286870 Li+
0.327738 0.791276 0.284104 Li+
0.672262 0.208724 0.298142 Li+
0.241886 0.450796 0.242221 Li+
0.758114 0.549204 0.263103 Li+
0.144977 0.987971 0.338163 Li+
0.855023 0.012029 0.321007 Li+
0.588727 0.751653 0.372300 Li+
0.411273 0.248347 0.363793 Li+
0.327738 0.791276 0.361028 Li+
0.672262 0.208724 0.375065 Li+
0.241886 0.450796 0.319144 Li+
0.758114 0.549204 0.340026 Li+
0.144977 0.987971 0.415086 Li+
0.855023 0.012029 0.397930 Li+
0.588727 0.751653 0.449223 Li+
0.411273 0.248347 0.440716 Li+
0.327738 0.791276 0.437951 Li+
0.672262 0.208724 0.451988 Li+
0.241886 0.450796 0.396067 Li+
0.758114 0.549204 0.416949 Li+
0.144977 0.987971 0.492009 Li+
0.855023 0.012029 0.474853 Li+
0.588727 0.751653 0.526146 Li+
0.411273 0.248347 0.517639 Li+
0.327738 0.791276 0.514874 Li+
0.672262 0.208724 0.528911 Li+
0.241886 0.450796 0.472990 Li+
0.758114 0.549204 0.493872 Li+
0.213298 0.631956 0.039488 P5+
0.786702 0.368044 0.004297 P5+
0.779241 0.845502 0.072626 P5+
0.220759 0.154498 0.048083 P5+
0.213298 0.631956 0.116411 P5+
0.786702 0.368044 0.081221 P5+
0.779241 0.845502 0.149549 P5+
0.220759 0.154498 0.125006 P5+
0.213298 0.631956 0.193334 P5+
0.786702 0.368044 0.158144 P5+
0.779241 0.845502 0.226472 P5+
0.220759 0.154498 0.201929 P5+
0.213298 0.631956 0.270257 P5+
0.786702 0.368044 0.235067 P5+
0.779241 0.845502 0.303395 P5+
0.220759 0.154498 0.278852 P5+
0.213298 0.631956 0.347180 P5+
0.786702 0.368044 0.311990 P5+
0.779241 0.845502 0.380318 P5+
0.220759 0.154498 0.355775 P5+
0.213298 0.631956 0.424103 P5+
0.786702 0.368044 0.388913 P5+
0.779241 0.845502 0.457241 P5+
0.220759 0.154498 0.432698 P5+
0.213298 0.631956 0.501026 P5+
0.786702 0.368044 0.465836 P5+
0.779241 0.845502 0.534164 P5+
0.220759 0.154498 0.509621 P5+
0.741759 0.874340 0.052955 O2-
0.605720 0.790684 0.030333 O2-
0.394280 0.209316 0.013452 O2-
0.848591 0.981976 0.064381 O2-
0.743350 0.376455 0.030566 O2-
0.256650 0.623545 0.013219 O2-
0.732189 0.526190 0.064698 O2-
0.267811 0.473810 0.056011 O2-
0.702403 0.236504 0.014148 O2-
0.297597 0.763496 0.029638 O2-
0.962384 0.683894 0.067030 O2-
0.037616 0.316106 0.053678 O2-
0.151409 0.018024 0.056328 O2-
0.258241 0.125660 0.067753 O2-
0.741759 0.874340 0.129878 O2-
0.605720 0.790684 0.107256 O2-
0.394280 0.209316 0.090375 O2-
0.848591 0.981976 0.141304 O2-
0.743350 0.376455 0.107489 O2-
0.256650 0.623545 0.090142 O2-
0.732189 0.526190 0.141621 O2-
0.267811 0.473810 0.132934 O2-
0.702403 0.236504 0.091071 O2-
0.297597 0.763496 0.106561 O2-
0.962384 0.683894 0.143953 O2-
0.037616 0.316106 0.130601 O2-
0.151409 0.018024 0.133251 O2-
0.258241 0.125660 0.144676 O2-
0.741759 0.874340 0.206801 O2-
0.605720 0.790684 0.184179 O2-
0.394280 0.209316 0.167298 O2-
0.848591 0.981976 0.218227 O2-
0.743350 0.376455 0.184412 O2-
0.256650 0.623545 0.167065 O2-
0.732189 0.526190 0.218544 O2-
0.267811 0.473810 0.209857 O2-
0.702403 0.236504 0.167994 O2-
0.297597 0.763496 0.183484 O2-
0.962384 0.683894 0.220877 O2-
0.037616 0.316106 0.207524 O2-
0.151409 0.018024 0.210174 O2-
0.258241 0.125660 0.221599 O2-
0.741759 0.874340 0.283724 O2-
0.605720 0.790684 0.261102 O2-
0.394280 0.209316 0.244221 O2-
0.848591 0.981976 0.295150 O2-
0.743350 0.376455 0.261335 O2-
0.256650 0.623545 0.243988 O2-
0.732189 0.526190 0.295467 O2-
0.267811 0.473810 0.286780 O2-
0.702403 0.236504 0.244917 O2-
0.297597 0.763496 0.260407 O2-
0.962384 0.683894 0.297800 O2-
0.037616 0.316106 0.284447 O2-
0.151409 0.018024 0.287097 O2-
0.258241 0.125660 0.298522 O2-
0.741759 0.874340 0.360647 O2-
0.605720 0.790684 0.338025 O2-
0.394280 0.209316 0.321144 O2-
0.848591 0.981976 0.372073 O2-
0.743350 0.376455 0.338258 O2-
0.256650 0.623545 0.320911 O2-
0.732189 0.526190 0.372390 O2-
0.267811 0.473810 0.363703 O2-
0.702403 0.236504 0.321840 O2-
0.297597 0.763496 0.337330 O2-
0.962384 0.683894 0.374723 O2-
0.037616 0.316106 0.361370 O2-
0.151409 0.018024 0.364020 O2-
0.258241 0.125660 0.375445 O2-
0.741759 0.874340 0.437571 O2-
0.605720 0.790684 0.414948 O2-
0.394280 0.209316 0.398068 O2-
0.848591 0.981976 0.448996 O2-
0.743350 0.376455 0.415182 O2-
0.256650 0.623545 0.397834 O2-
0.732189 0.526190 0.449313 O2-
0.267811 0.473810 0.440626 O2-
0.702403 0.236504 0.398763 O2-
0.297597 0.763496 0.414253 O2-
0.962384 0.683894 0.451646 O2-
0.037616 0.316106 0.438293 O2-
0.151409 0.018024 0.440943 O2-
0.258241 0.125660 0.452369 O2-
0.741759 0.874340 0.514494 O2-
0.605720 0.790684 0.491872 O2-
0.394280 0.209316 0.474991 O2-
0.848591 0.981976 0.525919 O2-
0.743350 0.376455 0.492105 O2-
0.256650 0.623545 0.474757 O2-
0.732189 0.526190 0.526236 O2-
0.267811 0.473810 0.517549 O2-
0.702403 0.236504 0.475686 O2-
0.297597 0.763496 0.491176 O2-
0.962384 0.683894 0.528569 O2-
0.037616 0.316106 0.515216 O2-
0.151409 0.018024 0.517866 O2-
0.258241 0.125660 0.529292 O2-
