Li56 P56
1.0
10.250751 0.000000 0.000000
2.639560 4.931949 4.970385
0.000000 0.000000 64.615005
Li P
56 56
direct
0.670700 0.217008 0.074444 Li+
0.829300 0.782992 0.069368 Li+
0.329300 0.782992 0.013714 Li+
0.170700 0.217008 0.018789 Li+
0.970214 0.225768 0.052995 Li+
0.529786 0.774232 0.049267 Li+
0.029786 0.774232 0.035162 Li+
0.470214 0.225768 0.038890 Li+
0.670700 0.217008 0.151367 Li+
0.829300 0.782992 0.146291 Li+
0.329300 0.782992 0.090637 Li+
0.170700 0.217008 0.095712 Li+
0.970214 0.225768 0.129918 Li+
0.529786 0.774232 0.126190 Li+
0.029786 0.774232 0.112085 Li+
0.470214 0.225768 0.115813 Li+
0.670700 0.217008 0.228290 Li+
0.829300 0.782992 0.223214 Li+
0.329300 0.782992 0.167560 Li+
0.170700 0.217008 0.172636 Li+
0.970214 0.225768 0.206841 Li+
0.529786 0.774232 0.203113 Li+
0.029786 0.774232 0.189008 Li+
0.470214 0.225768 0.192736 Li+
0.670700 0.217008 0.305213 Li+
0.829300 0.782992 0.300137 Li+
0.329300 0.782992 0.244483 Li+
0.170700 0.217008 0.249559 Li+
0.970214 0.225768 0.283765 Li+
0.529786 0.774232 0.280037 Li+
0.029786 0.774232 0.265931 Li+
0.470214 0.225768 0.269659 Li+
0.670700 0.217008 0.382136 Li+
0.829300 0.782992 0.377060 Li+
0.329300 0.782992 0.321406 Li+
0.170700 0.217008 0.326482 Li+
0.970214 0.225768 0.360688 Li+
0.529786 0.774232 0.356960 Li+
0.029786 0.774232 0.342854 Li+
0.470214 0.225768 0.346582 Li+
0.670700 0.217008 0.459059 Li+
0.829300 0.782992 0.453983 Li+
0.329300 0.782992 0.398329 Li+
0.170700 0.217008 0.403405 Li+
0.970214 0.225768 0.437611 Li+
0.529786 0.774232 0.433883 Li+
0.029786 0.774232 0.419777 Li+
0.470214 0.225768 0.423505 Li+
0.670700 0.217008 0.535982 Li+
0.829300 0.782992 0.530906 Li+
0.329300 0.782992 0.475252 Li+
0.170700 0.217008 0.480328 Li+
0.970214 0.225768 0.514534 Li+
0.529786 0.774232 0.510806 Li+
0.029786 0.774232 0.496701 Li+
0.470214 0.225768 0.500429 Li+
0.707084 0.316645 0.027806 P-
0.792916 0.683355 0.038059 P-
0.292916 0.683355 0.060352 P-
0.207084 0.316645 0.050099 P-
0.888258 0.303182 0.008755 P-
0.611742 0.696818 0.016937 P-
0.111742 0.696818 0.002479 P-
0.388258 0.303182 0.071221 P-
0.707084 0.316645 0.104729 P-
0.792916 0.683355 0.114982 P-
0.292916 0.683355 0.137275 P-
0.207084 0.316645 0.127022 P-
0.888258 0.303182 0.085678 P-
0.611742 0.696818 0.093860 P-
0.111742 0.696818 0.079402 P-
0.388258 0.303182 0.148144 P-
0.707084 0.316645 0.181652 P-
0.792916 0.683355 0.191905 P-
0.292916 0.683355 0.214198 P-
0.207084 0.316645 0.203945 P-
0.888258 0.303182 0.162601 P-
0.611742 0.696818 0.170783 P-
0.111742 0.696818 0.156326 P-
0.388258 0.303182 0.225067 P-
0.707084 0.316645 0.258575 P-
0.792916 0.683355 0.268828 P-
0.292916 0.683355 0.291121 P-
0.207084 0.316645 0.280868 P-
0.888258 0.303182 0.239524 P-
0.611742 0.696818 0.247706 P-
0.111742 0.696818 0.233249 P-
0.388258 0.303182 0.301990 P-
0.707084 0.316645 0.335498 P-
0.792916 0.683355 0.345751 P-
0.292916 0.683355 0.368044 P-
0.207084 0.316645 0.357791 P-
0.888258 0.303182 0.316447 P-
0.611742 0.696818 0.324629 P-
0.111742 0.696818 0.310172 P-
0.388258 0.303182 0.378913 P-
0.707084 0.316645 0.412421 P-
0.792916 0.683355 0.422674 P-
0.292916 0.683355 0.444967 P-
0.207084 0.316645 0.434714 P-
0.888258 0.303182 0.393370 P-
0.611742 0.696818 0.401552 P-
0.111742 0.696818 0.387095 P-
0.388258 0.303182 0.455836 P-
0.707084 0.316645 0.489344 P-
0.792916 0.683355 0.499597 P-
0.292916 0.683355 0.521890 P-
0.207084 0.316645 0.511637 P-
0.888258 0.303182 0.470293 P-
0.611742 0.696818 0.478475 P-
0.111742 0.696818 0.464018 P-
0.388258 0.303182 0.532759 P-
