Li61 P7 N32                             
   1.00000000000000     
     0.0075372352705957    9.6425995075967403   -0.0862492189152919
    -0.0472049179029676   -0.0875947297513337    9.6350539181112822
     9.6648674376001473    0.0078106282076745   -0.0475805964022126
   Li   P    N 
    61     7    32
Direct
  0.4903748737177768  0.9965360570004945  0.5122389472839790
  0.0057092681182264  0.4888054453358787  0.9878559240033125
  0.4942365370569742  0.9904096352028571  0.0122393543947840
  0.9941425231150065  0.9893974954456618  0.5013050098272774
  0.5002257997663686  0.4913315170733777  0.9713569025956610
  0.9631817927616526  0.4848057439597009  0.4902814183676152
  0.7506784467315425  0.0167255315788232  0.5275581097735331
  0.2394498681895570  0.9938191742995489  0.5004740576806972
  0.6759811745637525  0.5264274156536438  0.4735514453563035
  0.2222161597503549  0.4673872266982035  0.5136328638445717
  0.2555073537689916  0.9887061292387938  0.9939430949446719
  0.7406947293782624  0.0019514161309038  0.0429795372912757
  0.4290904103892418  0.5692151134885963  0.5789908584997732
  0.5164702498977354  0.2370895609040605 -0.0064938615046818
  0.5067146184779964  0.7464724645968324  0.0140772908500604
  0.0073148964275743  0.4718825545345994  0.2315430834239502
  0.0422669630788126  0.4962489195826029  0.7414502972460237
  0.2134643902419676  0.2679796432196371  0.2206101280042906
  0.2332395101541495  0.7674120088446149  0.8132649732620898
  0.2285394503295587  0.2693609597800988  0.7137059673337410
  0.2831995074857857  0.8020768795368448  0.3195005046898073
  0.7116386946969026  0.2689031760450382  0.2121088957532180
  0.6770926817283295  0.8248662884309339  0.6798848925150595
  0.7286574823685124  0.2300809967950196  0.7128281341262114
  0.7580461183874843  0.7674847825841049  0.2130590351403311
  0.9707585088600554  0.2279909561640044  0.2437813942833044
  0.9809584309123075  0.7471857363479689  0.7628256161537470
  0.2657609026391360  0.2317368123908752  0.4778098026485167
  0.2422296081410065  0.7505214726288562  0.5540595424684273
  0.7623404264176301  0.2873961259978870  0.4516514111865513
  0.7289871759361215  0.7720127936240568  0.4547681897237099
  0.7661013039130470  0.5097829026096421  0.2537723947632028
  0.8159804379935572  0.6446600591223254  0.6431787627719096
  0.2951573897000382  0.5249933006302993  0.2402975926273415
  0.3068869399976010  0.4765960899332831  0.7689472756281345
  0.4933996530736696  0.7282388817290990  0.2734852749942255
  0.4645111366939024  0.2270448517628750  0.7309721763481194
  0.2455415900543705  0.0172780099330117  0.2291731949801453
  0.2278754985799198  0.0142993601060336  0.7504609376588943
  0.2721863924245194  0.2347723079449174  0.9682192895507243
  0.2687723533497101  0.7443313062682344  0.0671741597573249
  0.7363031847639804  0.0090659268061611  0.8071301058443536
  0.7484742471510523  0.0307626526718284  0.2890976836436371
  0.7729335599573961  0.7626357372943773  0.9729048399171839
  0.7814460229549071  0.2450785761396652  0.9709277014474076
  0.9913005608998580  0.2233330613799435  0.7581452202513759
  0.1485713040386669  0.6271239833713921  0.3750016934249126
  0.4797578075983704  0.2446913172084457  0.2493638949016324
  0.4645242671218942  0.7277938757538377  0.7676340807827675
  0.0204382736081996  0.2511582165552817  0.9989378052395431
  0.0146141082582693  0.7257973822750026  0.0001463670306684
  0.5128808286243569  0.2437799234938390  0.4906430162420390
  0.4900559528697600  0.7614705817390187  0.5063092489255326
  0.5370082942537973  0.4777468293492810  0.1975586190215527
  0.5597914259314585  0.4470123915664355  0.6990794920660518
 -0.0019044275096879  0.9878456262002108  0.2643508770584971
  0.9829760510391342  0.9840589627353664  0.7391628419399023
  0.4492727541483166  0.4491731902492542  0.4205826816578642
  0.8098695296768682  0.4403875351619717  0.7476383297538027
  0.0027203902342792  0.7492797114638210  0.2347178029303202
  0.6590969978871360  0.6261461981227152  0.8242575932185370
  0.9986260855514025  0.9903106514764152  0.0027018636596584
  0.7630304984188324  0.4931023298698167  0.9913976049402874
  0.2490000690675230  0.4944463243334324  0.0035379910292478
  0.9812449907851291  0.7484944026215454  0.4953830338714056
  0.9981347769884450  0.2329846346125558  0.5011458192833631
  0.4964217426700711  0.9916240909499998  0.2579472730736398
  0.4855498317375803  0.9838035771085102  0.7664585570258313
  0.6147697282839127  0.6364010016901918  0.6314652046552447
  0.6183930596663596  0.3769198617432360  0.3494303964220493
  0.9001421797060529  0.8846607486864516  0.1029349161997521
  0.8963895756627114  0.0918009756937194  0.9056730512193711
  0.0949188040565366  0.8917613149045607  0.8955838410246673
  0.1012290705061251  0.0945742418652964  0.1042645268516401
  0.3511522087254319  0.6306233930575380  0.4018397597813396
  0.3795778686846439  0.3684650697761297  0.6116905891103233
  0.0880357330483827  0.3370319495031811  0.3908703794886113
  0.0649970105706982  0.6392494846622527  0.5977290853630458
  0.1034761526983489  0.1361714873842610  0.6002920958896265
  0.0976882168438502  0.8422509736634609  0.4032983557452900
  0.8907672283142355  0.1312375341345898  0.4036140901257150
  0.8773258494622820  0.8464700443830121  0.5962911497277480
  0.8572584876146331  0.3920024266624544  0.0947965020158343
  0.8655362268790238  0.5913572564750482  0.8817510708047765
  0.1436734876970830  0.5821190858606531  0.1133588334852471
  0.1581020702009651  0.3918347015942435  0.8902001657844006
  0.3947180138386972  0.8848912508107029  0.1592424572372832
  0.3917531498074409  0.0927463977529272  0.8650121011305155
  0.3885532498032978  0.0886255644999594  0.3583611920119961
  0.3760238143899341  0.8884456450028940  0.6649018998565700
  0.3564362600294371  0.3900444044923025  0.0947626415733626
  0.3442607844252175  0.6147694073252828  0.9153701779009836
  0.5996860745107088  0.0766230278540771  0.6682179913653041
  0.6007672316813832  0.8950127787932207  0.3572051254948984
  0.6619132975584917  0.6050402353335403  0.0766149175951453
  0.6639496784725955  0.3876635819825308  0.8845328239767197
  0.8977563139756809  0.3270695466428935  0.6105942690535034
  0.8843871460439353  0.6517667676223963  0.3811694277845581
  0.5957644871933037  0.0961201327058643  0.1567405669854316
  0.5860521616524716  0.8793059137767689  0.8647834759102170
 
  0.00000000E+00  0.00000000E+00  0.00000000E+00
  0.00000000E+00  0.00000000E+00  0.00000000E+00
  0.00000000E+00  0.00000000E+00  0.00000000E+00
  0.00000000E+00  0.00000000E+00  0.00000000E+00
  0.00000000E+00  0.00000000E+00  0.00000000E+00
  0.00000000E+00  0.00000000E+00  0.00000000E+00
  0.00000000E+00  0.00000000E+00  0.00000000E+00
  0.00000000E+00  0.00000000E+00  0.00000000E+00
  0.00000000E+00  0.00000000E+00  0.00000000E+00
  0.00000000E+00  0.00000000E+00  0.00000000E+00
  0.00000000E+00  0.00000000E+00  0.00000000E+00
  0.00000000E+00  0.00000000E+00  0.00000000E+00
  0.00000000E+00  0.00000000E+00  0.00000000E+00
  0.00000000E+00  0.00000000E+00  0.00000000E+00
  0.00000000E+00  0.00000000E+00  0.00000000E+00
  0.00000000E+00  0.00000000E+00  0.00000000E+00
  0.00000000E+00  0.00000000E+00  0.00000000E+00
  0.00000000E+00  0.00000000E+00  0.00000000E+00
  0.00000000E+00  0.00000000E+00  0.00000000E+00
  0.00000000E+00  0.00000000E+00  0.00000000E+00
  0.00000000E+00  0.00000000E+00  0.00000000E+00
  0.00000000E+00  0.00000000E+00  0.00000000E+00
  0.00000000E+00  0.00000000E+00  0.00000000E+00
  0.00000000E+00  0.00000000E+00  0.00000000E+00
  0.00000000E+00  0.00000000E+00  0.00000000E+00
  0.00000000E+00  0.00000000E+00  0.00000000E+00
  0.00000000E+00  0.00000000E+00  0.00000000E+00
  0.00000000E+00  0.00000000E+00  0.00000000E+00
  0.00000000E+00  0.00000000E+00  0.00000000E+00
  0.00000000E+00  0.00000000E+00  0.00000000E+00
  0.00000000E+00  0.00000000E+00  0.00000000E+00
  0.00000000E+00  0.00000000E+00  0.00000000E+00
  0.00000000E+00  0.00000000E+00  0.00000000E+00
  0.00000000E+00  0.00000000E+00  0.00000000E+00
  0.00000000E+00  0.00000000E+00  0.00000000E+00
  0.00000000E+00  0.00000000E+00  0.00000000E+00
  0.00000000E+00  0.00000000E+00  0.00000000E+00
  0.00000000E+00  0.00000000E+00  0.00000000E+00
  0.00000000E+00  0.00000000E+00  0.00000000E+00
  0.00000000E+00  0.00000000E+00  0.00000000E+00
  0.00000000E+00  0.00000000E+00  0.00000000E+00
  0.00000000E+00  0.00000000E+00  0.00000000E+00
  0.00000000E+00  0.00000000E+00  0.00000000E+00
  0.00000000E+00  0.00000000E+00  0.00000000E+00
  0.00000000E+00  0.00000000E+00  0.00000000E+00
  0.00000000E+00  0.00000000E+00  0.00000000E+00
  0.00000000E+00  0.00000000E+00  0.00000000E+00
  0.00000000E+00  0.00000000E+00  0.00000000E+00
  0.00000000E+00  0.00000000E+00  0.00000000E+00
  0.00000000E+00  0.00000000E+00  0.00000000E+00
  0.00000000E+00  0.00000000E+00  0.00000000E+00
  0.00000000E+00  0.00000000E+00  0.00000000E+00
  0.00000000E+00  0.00000000E+00  0.00000000E+00
  0.00000000E+00  0.00000000E+00  0.00000000E+00
  0.00000000E+00  0.00000000E+00  0.00000000E+00
  0.00000000E+00  0.00000000E+00  0.00000000E+00
  0.00000000E+00  0.00000000E+00  0.00000000E+00
  0.00000000E+00  0.00000000E+00  0.00000000E+00
  0.00000000E+00  0.00000000E+00  0.00000000E+00
  0.00000000E+00  0.00000000E+00  0.00000000E+00
  0.00000000E+00  0.00000000E+00  0.00000000E+00
  0.00000000E+00  0.00000000E+00  0.00000000E+00
  0.00000000E+00  0.00000000E+00  0.00000000E+00
  0.00000000E+00  0.00000000E+00  0.00000000E+00
  0.00000000E+00  0.00000000E+00  0.00000000E+00
  0.00000000E+00  0.00000000E+00  0.00000000E+00
  0.00000000E+00  0.00000000E+00  0.00000000E+00
  0.00000000E+00  0.00000000E+00  0.00000000E+00
  0.00000000E+00  0.00000000E+00  0.00000000E+00
  0.00000000E+00  0.00000000E+00  0.00000000E+00
  0.00000000E+00  0.00000000E+00  0.00000000E+00
  0.00000000E+00  0.00000000E+00  0.00000000E+00
  0.00000000E+00  0.00000000E+00  0.00000000E+00
  0.00000000E+00  0.00000000E+00  0.00000000E+00
  0.00000000E+00  0.00000000E+00  0.00000000E+00
  0.00000000E+00  0.00000000E+00  0.00000000E+00
  0.00000000E+00  0.00000000E+00  0.00000000E+00
  0.00000000E+00  0.00000000E+00  0.00000000E+00
  0.00000000E+00  0.00000000E+00  0.00000000E+00
  0.00000000E+00  0.00000000E+00  0.00000000E+00
  0.00000000E+00  0.00000000E+00  0.00000000E+00
  0.00000000E+00  0.00000000E+00  0.00000000E+00
  0.00000000E+00  0.00000000E+00  0.00000000E+00
  0.00000000E+00  0.00000000E+00  0.00000000E+00
  0.00000000E+00  0.00000000E+00  0.00000000E+00
  0.00000000E+00  0.00000000E+00  0.00000000E+00
  0.00000000E+00  0.00000000E+00  0.00000000E+00
  0.00000000E+00  0.00000000E+00  0.00000000E+00
  0.00000000E+00  0.00000000E+00  0.00000000E+00
  0.00000000E+00  0.00000000E+00  0.00000000E+00
  0.00000000E+00  0.00000000E+00  0.00000000E+00
  0.00000000E+00  0.00000000E+00  0.00000000E+00
  0.00000000E+00  0.00000000E+00  0.00000000E+00
  0.00000000E+00  0.00000000E+00  0.00000000E+00
  0.00000000E+00  0.00000000E+00  0.00000000E+00
  0.00000000E+00  0.00000000E+00  0.00000000E+00
  0.00000000E+00  0.00000000E+00  0.00000000E+00
  0.00000000E+00  0.00000000E+00  0.00000000E+00
  0.00000000E+00  0.00000000E+00  0.00000000E+00
  0.00000000E+00  0.00000000E+00  0.00000000E+00
