Li61 P7 N32                             
   1.00000000000000     
     0.0165783993565308    9.6249109035604494   -0.0703354949649310
    -0.0391994101453494   -0.0715344860050089    9.6372275016617532
     9.6528448880077935    0.0168623156527656   -0.0395344002257685
   Li   P    N 
    61     7    32
Direct
  0.4914241450807258 -0.0045695928101153  0.5106438283439356
  0.0066021175692311  0.4907103071979479 -0.0120709681661985
  0.4914934968262285 -0.0070408945098837  0.0102211076983522
 -0.0068793777653562 -0.0091329521657122  0.5024272430585403
  0.5017528990244606  0.4932259714413483 -0.0284036846991435
 -0.0327308475395201  0.4841960982548940  0.4885419260657611
  0.7488035489390721  0.0190181579933592  0.5271994421427828
  0.2398745083149796 -0.0099656871120809  0.4989397964939566
  0.6616626736494966  0.5327900078394551  0.4633645795443452
  0.2224517643166125  0.4646965172991939  0.5127395232194119
  0.2512731334303718 -0.0086246179992449 -0.0103956229905971
  0.7348947249695814 -0.0034638401182877  0.0363709254692206
  0.4290421744404134  0.5697419699461996  0.5762606851264991
  0.5080180222328183  0.2403601944909865  0.0008292752253525
  0.5075154983136866  0.7472889901747550  0.0109597926155286
  0.0086164215656180  0.4759012487036656  0.2294032743973855
  0.0537277937135043  0.4934399252221162  0.7363778003424825
  0.2200237510150686  0.2822858673865144  0.2271458960757442
  0.2339568468108876  0.7707525965259875  0.8121523320675811
  0.2265990535052330  0.2718556206667966  0.7140033496149385
  0.2846026905437162  0.8052197308280440  0.3189161583972314
  0.7165197273188700  0.2656299927793289  0.2212354816715189
  0.6898544674099091  0.8127030875840064  0.6929683746847505
  0.7273296938214738  0.2328232351786637  0.7233636109462919
  0.7558939638897242  0.7680276384946052  0.2199587386036657
 -0.0261567597775531  0.2307065664257418  0.2415252228250042
  0.9720545205046707  0.7369381950474083  0.7639349014738448
  0.2679091567317244  0.2251431383190900  0.4799839442954184
  0.2451101121794258  0.7497011763885904  0.5570172975099851
  0.7625501867623347  0.2900035448996725  0.4583898153431499
  0.7267046234645006  0.7770040732564160  0.4607608525111128
  0.7663391342107819  0.5069993794962736  0.2566178966786888
  0.8164220848543953  0.6302989786270817  0.6170844524493132
  0.2955479560369414  0.5345825437301569  0.2360799867684953
  0.3147127527539464  0.4770719085364550  0.7698592644701412
  0.4945686344657843  0.7262527077069512  0.2697629726577184
  0.4618204493786195  0.2306207924223713  0.7376375113939122
  0.2481700634590364  0.0254485199261691  0.2236595833960862
  0.2256370303383043  0.0168919446431732  0.7455146137602092
  0.2638710299640159  0.2368705514139097  0.9713073314893828
  0.2673766831159658  0.7490258677728737  0.0643404494047299
  0.7338600548159170  0.0107207536705146  0.8012741467573836
  0.7531924183383600  0.0264652922605149  0.2836723930405559
  0.7671921741263741  0.7575472852249481  0.9773065515559395
  0.7722880313546382  0.2410151097711360 -0.0193541355936192
 -0.0136262113757918  0.2133200593561664  0.7541095984344613
  0.1514447961782403  0.6300761511285577  0.3796308239813387
  0.4868550410089109  0.2395261218399201  0.2574182663739723
  0.4699997779505103  0.7297945980998550  0.7658178804250232
  0.0138262353853274  0.2523206025253818 -0.0039470545224326
  0.0118416288452026  0.7281968651497972  0.0009209750200073
  0.5152036526315863  0.2377853010607844  0.4993091653904599
  0.4898282239995976  0.7638389037862642  0.5057109313785321
  0.5348304944143611  0.4747749240261362  0.2005452949399680
  0.5666595642525984  0.4398658127126092  0.6802441567364741
  0.0013008870639008 -0.0100845903560677  0.2637973254212915
 -0.0195019802009593 -0.0248067295660922  0.7428199296563019
  0.4394568942333337  0.4393940804257619  0.4183504256584687
  0.8244634509709958  0.4363165835995124  0.7566329496235292
  0.0024673027399071  0.7522533478304938  0.2372575652132382
  0.6642241226471627  0.6040077419237119  0.8138737824069870
 -0.0048316638986177 -0.0088001678856105  0.0025300933940227
  0.7630210949387126  0.4933103083880013 -0.0034256300566944
  0.2499022526240261  0.4986462570291926  0.0022587691048386
 -0.0168713744699054  0.7504860588496942  0.4967490308635034
 -0.0000722506206536  0.2338447438296384  0.5000715291552268
  0.4974864171017345 -0.0094573485966413  0.2565829677013207
  0.4842537420336168 -0.0130884600242578  0.7641591882872711
  0.6151014086246404  0.6365660495074302  0.6275692663728684
  0.6162576185687944  0.3738929512741545  0.3537238920009232
  0.8971149225440866  0.8867460596923589  0.1054692953926314
  0.8916060733016022  0.0917555803083553  0.9041855011100769
  0.0924826180020713  0.8921193605311492  0.8962286382933226
  0.0981722169374277  0.0965134220422950  0.1016537765247612
  0.3530732464786003  0.6311612130729172  0.4002184279860972
  0.3787935265103184  0.3679217775649765  0.6111997639017628
  0.0900788734997545  0.3376260207448120  0.3903339208414018
  0.0676850515026109  0.6399568795290971  0.5968087538602429
  0.1047167852463162  0.1348816841442669  0.5986383178892370
  0.0972417307652914  0.8435017762749174  0.4038605784427932
  0.8906615107754078  0.1339146428465985  0.4028650865212266
  0.8776547501785799  0.8465536301486560  0.5987843805550727
  0.8580806207254870  0.3906454625412929  0.0982075388657299
  0.8645939307406016  0.5924221216411483  0.8879817870997403
  0.1430777429638331  0.5864635313278211  0.1112209261341891
  0.1600086187237069  0.3961214596056591  0.8894470426775360
  0.3953790571871088  0.8860576319086045  0.1574810488505212
  0.3871709216935337  0.0936989988274490  0.8636796741665568
  0.3889965258749077  0.0866424520760221  0.3581707994736605
  0.3766184080926472  0.8901296997415018  0.6626573583478342
  0.3563711801145723  0.3935026381215586  0.0948603557161818
  0.3464711580296895  0.6179609322980223  0.9143554562692749
  0.5964372902807076  0.0839243416046201  0.6661161313885342
  0.6018910272534085  0.8929382957769367  0.3548332787585460
  0.6602503497231925  0.6027591417233659  0.0835152588590750
  0.6664249547708450  0.3894581802027452  0.8853753586767761
  0.9012519411538681  0.3285025872552560  0.6117110713900932
  0.8830082151061563  0.6532167711047624  0.3864843753853884
  0.5967167095704589  0.0962722397438908  0.1555268814304950
  0.5861306881309896  0.8838543988525603  0.8631691740935493
 
  0.00000000E+00  0.00000000E+00  0.00000000E+00
  0.00000000E+00  0.00000000E+00  0.00000000E+00
  0.00000000E+00  0.00000000E+00  0.00000000E+00
  0.00000000E+00  0.00000000E+00  0.00000000E+00
  0.00000000E+00  0.00000000E+00  0.00000000E+00
  0.00000000E+00  0.00000000E+00  0.00000000E+00
  0.00000000E+00  0.00000000E+00  0.00000000E+00
  0.00000000E+00  0.00000000E+00  0.00000000E+00
  0.00000000E+00  0.00000000E+00  0.00000000E+00
  0.00000000E+00  0.00000000E+00  0.00000000E+00
  0.00000000E+00  0.00000000E+00  0.00000000E+00
  0.00000000E+00  0.00000000E+00  0.00000000E+00
  0.00000000E+00  0.00000000E+00  0.00000000E+00
  0.00000000E+00  0.00000000E+00  0.00000000E+00
  0.00000000E+00  0.00000000E+00  0.00000000E+00
  0.00000000E+00  0.00000000E+00  0.00000000E+00
  0.00000000E+00  0.00000000E+00  0.00000000E+00
  0.00000000E+00  0.00000000E+00  0.00000000E+00
  0.00000000E+00  0.00000000E+00  0.00000000E+00
  0.00000000E+00  0.00000000E+00  0.00000000E+00
  0.00000000E+00  0.00000000E+00  0.00000000E+00
  0.00000000E+00  0.00000000E+00  0.00000000E+00
  0.00000000E+00  0.00000000E+00  0.00000000E+00
  0.00000000E+00  0.00000000E+00  0.00000000E+00
  0.00000000E+00  0.00000000E+00  0.00000000E+00
  0.00000000E+00  0.00000000E+00  0.00000000E+00
  0.00000000E+00  0.00000000E+00  0.00000000E+00
  0.00000000E+00  0.00000000E+00  0.00000000E+00
  0.00000000E+00  0.00000000E+00  0.00000000E+00
  0.00000000E+00  0.00000000E+00  0.00000000E+00
  0.00000000E+00  0.00000000E+00  0.00000000E+00
  0.00000000E+00  0.00000000E+00  0.00000000E+00
  0.00000000E+00  0.00000000E+00  0.00000000E+00
  0.00000000E+00  0.00000000E+00  0.00000000E+00
  0.00000000E+00  0.00000000E+00  0.00000000E+00
  0.00000000E+00  0.00000000E+00  0.00000000E+00
  0.00000000E+00  0.00000000E+00  0.00000000E+00
  0.00000000E+00  0.00000000E+00  0.00000000E+00
  0.00000000E+00  0.00000000E+00  0.00000000E+00
  0.00000000E+00  0.00000000E+00  0.00000000E+00
  0.00000000E+00  0.00000000E+00  0.00000000E+00
  0.00000000E+00  0.00000000E+00  0.00000000E+00
  0.00000000E+00  0.00000000E+00  0.00000000E+00
  0.00000000E+00  0.00000000E+00  0.00000000E+00
  0.00000000E+00  0.00000000E+00  0.00000000E+00
  0.00000000E+00  0.00000000E+00  0.00000000E+00
  0.00000000E+00  0.00000000E+00  0.00000000E+00
  0.00000000E+00  0.00000000E+00  0.00000000E+00
  0.00000000E+00  0.00000000E+00  0.00000000E+00
  0.00000000E+00  0.00000000E+00  0.00000000E+00
  0.00000000E+00  0.00000000E+00  0.00000000E+00
  0.00000000E+00  0.00000000E+00  0.00000000E+00
  0.00000000E+00  0.00000000E+00  0.00000000E+00
  0.00000000E+00  0.00000000E+00  0.00000000E+00
  0.00000000E+00  0.00000000E+00  0.00000000E+00
  0.00000000E+00  0.00000000E+00  0.00000000E+00
  0.00000000E+00  0.00000000E+00  0.00000000E+00
  0.00000000E+00  0.00000000E+00  0.00000000E+00
  0.00000000E+00  0.00000000E+00  0.00000000E+00
  0.00000000E+00  0.00000000E+00  0.00000000E+00
  0.00000000E+00  0.00000000E+00  0.00000000E+00
  0.00000000E+00  0.00000000E+00  0.00000000E+00
  0.00000000E+00  0.00000000E+00  0.00000000E+00
  0.00000000E+00  0.00000000E+00  0.00000000E+00
  0.00000000E+00  0.00000000E+00  0.00000000E+00
  0.00000000E+00  0.00000000E+00  0.00000000E+00
  0.00000000E+00  0.00000000E+00  0.00000000E+00
  0.00000000E+00  0.00000000E+00  0.00000000E+00
  0.00000000E+00  0.00000000E+00  0.00000000E+00
  0.00000000E+00  0.00000000E+00  0.00000000E+00
  0.00000000E+00  0.00000000E+00  0.00000000E+00
  0.00000000E+00  0.00000000E+00  0.00000000E+00
  0.00000000E+00  0.00000000E+00  0.00000000E+00
  0.00000000E+00  0.00000000E+00  0.00000000E+00
  0.00000000E+00  0.00000000E+00  0.00000000E+00
  0.00000000E+00  0.00000000E+00  0.00000000E+00
  0.00000000E+00  0.00000000E+00  0.00000000E+00
  0.00000000E+00  0.00000000E+00  0.00000000E+00
  0.00000000E+00  0.00000000E+00  0.00000000E+00
  0.00000000E+00  0.00000000E+00  0.00000000E+00
  0.00000000E+00  0.00000000E+00  0.00000000E+00
  0.00000000E+00  0.00000000E+00  0.00000000E+00
  0.00000000E+00  0.00000000E+00  0.00000000E+00
  0.00000000E+00  0.00000000E+00  0.00000000E+00
  0.00000000E+00  0.00000000E+00  0.00000000E+00
  0.00000000E+00  0.00000000E+00  0.00000000E+00
  0.00000000E+00  0.00000000E+00  0.00000000E+00
  0.00000000E+00  0.00000000E+00  0.00000000E+00
  0.00000000E+00  0.00000000E+00  0.00000000E+00
  0.00000000E+00  0.00000000E+00  0.00000000E+00
  0.00000000E+00  0.00000000E+00  0.00000000E+00
  0.00000000E+00  0.00000000E+00  0.00000000E+00
  0.00000000E+00  0.00000000E+00  0.00000000E+00
  0.00000000E+00  0.00000000E+00  0.00000000E+00
  0.00000000E+00  0.00000000E+00  0.00000000E+00
  0.00000000E+00  0.00000000E+00  0.00000000E+00
  0.00000000E+00  0.00000000E+00  0.00000000E+00
  0.00000000E+00  0.00000000E+00  0.00000000E+00
  0.00000000E+00  0.00000000E+00  0.00000000E+00
  0.00000000E+00  0.00000000E+00  0.00000000E+00
