Li5 P2 N1 O6                            
   1.00000000000000     
     0.0000000000000000   -0.1531485756890993    5.1201718365240225
     6.6595065955426529    0.0000000000000000    0.0000000000000000
     0.0000000000000000    5.1718980129310017   -0.1632169953087131
   Li   P    N    O 
     5     2     1     6
Direct
  0.4814521479053434 -0.0000000000000000  0.8718623771842813
  0.4890654162591944  0.8041788597313728  0.3308614316168411
  0.0091140629788279  0.7749825129100101  0.6801083375771378
  0.0091140629788279  0.2250174870899901  0.6801083375771378
  0.4890654162591944  0.1958211402686272  0.3308614316168411
  0.4728096326812142  0.5000000000000000  0.7217763193958759
  0.0041521198599987 -0.0000000000000000  0.1943223687031162
  0.6949094406177169 -0.0000000000000000  0.1857038085869762
  0.1309129384592500  0.1896728163669399  0.3398090674999462
  0.6137401206234366  0.6943258550031054  0.6826131509993477
  0.1309129384592500  0.8103271836330599  0.3398090674999462
  0.6137401206234366  0.3056741449968954  0.6826131509993477
  0.1114572420056855 -0.0000000000000000  0.9075573134464824
  0.1958113402886561  0.5000000000000000  0.7930058372967280
 
  0.00000000E+00  0.00000000E+00  0.00000000E+00
  0.00000000E+00  0.00000000E+00  0.00000000E+00
  0.00000000E+00  0.00000000E+00  0.00000000E+00
  0.00000000E+00  0.00000000E+00  0.00000000E+00
  0.00000000E+00  0.00000000E+00  0.00000000E+00
  0.00000000E+00  0.00000000E+00  0.00000000E+00
  0.00000000E+00  0.00000000E+00  0.00000000E+00
  0.00000000E+00  0.00000000E+00  0.00000000E+00
  0.00000000E+00  0.00000000E+00  0.00000000E+00
  0.00000000E+00  0.00000000E+00  0.00000000E+00
  0.00000000E+00  0.00000000E+00  0.00000000E+00
  0.00000000E+00  0.00000000E+00  0.00000000E+00
  0.00000000E+00  0.00000000E+00  0.00000000E+00
  0.00000000E+00  0.00000000E+00  0.00000000E+00
