Li56 P28 O98
1.0
6.730959 0.000000 -2.599490
-2.035903 8.419349 5.263538
0.000000 0.000000 63.126504
Li P O
56 28 98
Selective dynamics
direct
0.144977 0.012029 0.061959 T T T Li+
0.855023 0.987971 0.021374 T T T Li+
0.588727 0.248347 0.071331 T T T Li+
0.411273 0.751653 0.012002 T T T Li+
0.327738 0.208724 0.021959 T T T Li+
0.672262 0.791276 0.061374 T T T Li+
0.241886 0.549204 0.074487 T T T Li+
0.758114 0.450796 0.008846 T T T Li+
0.144977 0.012029 0.145292 T T T Li+
0.855023 0.987971 0.104708 T T T Li+
0.588727 0.248347 0.154665 T T T Li+
0.411273 0.751653 0.095335 T T T Li+
0.327738 0.208724 0.105292 T T T Li+
0.672262 0.791276 0.144708 T T T Li+
0.241886 0.549204 0.157820 T T T Li+
0.758114 0.450796 0.092180 T T T Li+
0.144977 0.012029 0.228626 F F F Li+
0.855023 0.987971 0.188041 F F F Li+
0.588727 0.248347 0.237998 F F F Li+
0.411273 0.751653 0.178669 F F F Li+
0.327738 0.208724 0.188626 F F F Li+
0.672262 0.791276 0.228041 F F F Li+
0.241886 0.549204 0.241154 F F F Li+
0.758114 0.450796 0.175513 F F F Li+
0.144977 0.012029 0.311959 F F F Li+
0.855023 0.987971 0.271374 F F F Li+
0.588727 0.248347 0.321331 F F F Li+
0.411273 0.751653 0.262002 F F F Li+
0.327738 0.208724 0.271959 F F F Li+
0.672262 0.791276 0.311374 F F F Li+
0.241886 0.549204 0.324487 F F F Li+
0.758114 0.450796 0.258846 F F F Li+
0.144977 0.012029 0.395292 F F F Li+
0.855023 0.987971 0.354708 F F F Li+
0.588727 0.248347 0.404665 F F F Li+
0.411273 0.751653 0.345335 F F F Li+
0.327738 0.208724 0.355292 F F F Li+
0.672262 0.791276 0.394708 F F F Li+
0.241886 0.549204 0.407820 F F F Li+
0.758114 0.450796 0.342180 F F F Li+
0.144977 0.012029 0.478626 T T T Li+
0.855023 0.987971 0.438041 T T T Li+
0.588727 0.248347 0.487998 T T T Li+
0.411273 0.751653 0.428669 T T T Li+
0.327738 0.208724 0.438626 T T T Li+
0.672262 0.791276 0.478041 T T T Li+
0.241886 0.549204 0.491154 T T T Li+
0.758114 0.450796 0.425513 T T T Li+
0.144977 0.012029 0.561959 T T T Li+
0.855023 0.987971 0.521374 T T T Li+
0.588727 0.248347 0.571331 T T T Li+
0.411273 0.751653 0.512002 T T T Li+
0.327738 0.208724 0.521959 T T T Li+
0.672262 0.791276 0.561374 T T T Li+
0.241886 0.549204 0.574487 T T T Li+
0.758114 0.450796 0.508846 T T T Li+
0.213298 0.368044 0.046497 T T T P5+
0.786702 0.631956 0.036836 T T T P5+
0.779241 0.154498 0.046769 T T T P5+
0.220759 0.845502 0.036564 T T T P5+
0.213298 0.368044 0.129830 T T T P5+
0.786702 0.631956 0.120169 T T T P5+
0.779241 0.154498 0.130102 T T T P5+
0.220759 0.845502 0.119897 T T T P5+
0.213298 0.368044 0.213164 F F F P5+
0.786702 0.631956 0.203503 F F F P5+
0.779241 0.154498 0.213436 F F F P5+
0.220759 0.845502 0.203231 F F F P5+
0.213298 0.368044 0.296497 F F F P5+
0.786702 0.631956 0.286836 F F F P5+
0.779241 0.154498 0.296769 F F F P5+
0.220759 0.845502 0.286564 F F F P5+
0.213298 0.368044 0.379830 F F F P5+
0.786702 0.631956 0.370169 F F F P5+
0.779241 0.154498 0.380102 F F F P5+
0.220759 0.845502 0.369897 T T T P5+
0.213298 0.368044 0.463164 T T T P5+
0.786702 0.631956 0.453503 T T T P5+
0.779241 0.154498 0.463436 T T T P5+
0.220759 0.845502 0.453231 T T T P5+
0.213298 0.368044 0.546497 T T T P5+
0.786702 0.631956 0.536836 T T T P5+
0.779241 0.154498 0.546769 T T T P5+
0.220759 0.845502 0.536564 T T T P5+
0.741759 0.125660 0.071202 T T T O2-
0.605720 0.209316 0.023713 T T T O2-
0.394280 0.790684 0.059620 T T T O2-
0.848591 0.018024 0.049922 T T T O2-
0.743350 0.623545 0.011991 T T T O2-
0.256650 0.376455 0.071342 T T T O2-
0.732189 0.473810 0.059279 T T T O2-
0.267811 0.526190 0.024054 T T T O2-
0.702403 0.763496 0.033190 T T T O2-
0.297597 0.236504 0.050143 T T T O2-
0.962384 0.316106 0.037569 T T T O2-
0.037616 0.683894 0.045765 T T T O2-
0.151409 0.981976 0.033411 T T T O2-
0.258241 0.874340 0.012131 T T T O2-
0.741759 0.125660 0.154536 T T T O2-
0.605720 0.209316 0.107046 T T T O2-
0.394280 0.790684 0.142954 T T T O2-
0.848591 0.018024 0.133255 T T T O2-
0.743350 0.623545 0.095324 T T T O2-
0.256650 0.376455 0.154675 T T T O2-
0.732189 0.473810 0.142612 T T T O2-
0.267811 0.526190 0.107388 T T T O2-
0.702403 0.763496 0.116524 T T T O2-
0.297597 0.236504 0.133476 T T T O2-
0.962384 0.316106 0.120902 T T T O2-
0.037616 0.683894 0.129098 T T T O2-
0.151409 0.981976 0.116745 T T T O2-
0.258241 0.874340 0.095464 T T T O2-
0.741759 0.125660 0.237869 F F F O2-
0.605720 0.209316 0.190379 F F F O2-
0.394280 0.790684 0.226287 F F F O2-
0.848591 0.018024 0.216589 F F F O2-
0.743350 0.623545 0.178658 F F F O2-
0.256650 0.376455 0.238009 F F F O2-
0.732189 0.473810 0.225945 F F F O2-
0.267811 0.526190 0.190721 F F F O2-
0.702403 0.763496 0.199857 F F F O2-
0.297597 0.236504 0.216810 F F F O2-
0.962384 0.316106 0.204235 F F F O2-
0.037616 0.683894 0.212431 F F F O2-
0.151409 0.981976 0.200078 F F F O2-
0.258241 0.874340 0.178798 F F F O2-
0.741759 0.125660 0.321202 F F F O2-
0.605720 0.209316 0.273713 F F F O2-
0.394280 0.790684 0.309620 F F F O2-
0.848591 0.018024 0.299922 F F F O2-
0.743350 0.623545 0.261991 F F F O2-
0.256650 0.376455 0.321342 F F F O2-
0.732189 0.473810 0.309279 F F F O2-
0.267811 0.526190 0.274054 F F F O2-
0.702403 0.763496 0.283190 F F F O2-
0.297597 0.236504 0.300143 F F F O2-
0.962384 0.316106 0.287569 F F F O2-
0.037616 0.683894 0.295765 F F F O2-
0.151409 0.981976 0.283411 F F F O2-
0.258241 0.874340 0.262131 F F F O2-
0.741759 0.125660 0.404536 F F F O2-
0.605720 0.209316 0.357046 F F F O2-
0.394280 0.790684 0.392954 F F F O2-
0.848591 0.018024 0.383255 F F F O2-
0.743350 0.623545 0.345324 F F F O2-
0.256650 0.376455 0.404675 F F F O2-
0.732189 0.473810 0.392612 F F F O2-
0.267811 0.526190 0.357388 F F F O2-
0.702403 0.763496 0.366524 F F F O2-
0.297597 0.236504 0.383476 F F F O2-
0.962384 0.316106 0.370902 F F F O2-
0.037616 0.683894 0.379098 F F F O2-
0.151409 0.981976 0.366745 F F F O2-
0.258241 0.874340 0.345464 F F F O2-
0.741759 0.125660 0.487869 T T T O2-
0.605720 0.209316 0.440379 T T T O2-
0.394280 0.790684 0.476287 T T T O2-
0.848591 0.018024 0.466589 T T T O2-
0.743350 0.623545 0.428658 T T T O2-
0.256650 0.376455 0.488009 T T T O2-
0.732189 0.473810 0.475946 T T T O2-
0.267811 0.526190 0.440721 T T T O2-
0.702403 0.763496 0.449857 T T T O2-
0.297597 0.236504 0.466810 T T T O2-
0.962384 0.316106 0.454235 T T T O2-
0.037616 0.683894 0.462431 T T T O2-
0.151409 0.981976 0.450078 T T T O2-
0.258241 0.874340 0.428798 T T T O2-
0.741759 0.125660 0.571202 T T T O2-
0.605720 0.209316 0.523713 T T T O2-
0.394280 0.790684 0.559620 T T T O2-
0.848591 0.018024 0.549922 T T T O2-
0.743350 0.623545 0.511991 T T T O2-
0.256650 0.376455 0.571342 T T T O2-
0.732189 0.473810 0.559279 T T T O2-
0.267811 0.526190 0.524054 T T T O2-
0.702403 0.763496 0.533190 T T T O2-
0.297597 0.236504 0.550143 T T T O2-
0.962384 0.316106 0.537569 T T T O2-
0.037616 0.683894 0.545765 T T T O2-
0.151409 0.981976 0.533411 T T T O2-
0.258241 0.874340 0.512131 T T T O2-
