Li5 P2 N1 O6                            
   1.00000000000000     
    -0.2213732979888631   -0.2812152730000969    5.2052347562811496
     5.7042655366652051   -0.2557801029681122   -0.3495867578724122
    -0.2695807248231205    5.6331138407699992   -0.3121335029108890
   Li   P    N    O 
     5     2     1     6
Direct
  0.3710522231509487 -0.0112948019936592  0.9286969803392801
  0.4340262551017791  0.8872897445750433  0.4336593765765883
  0.0353888865222268  0.6938596263146437  0.6285558829531480
  0.0048480054506604  0.2191640145664501  0.7406342990868803
  0.6923294225756358  0.3392353284749933  0.2684025900469741
  0.5624800716214974  0.4943014875798473  0.7643480274908590
 -0.1348837533945954 -0.1451892333829842  0.1257945201539552
  0.7684579632467662  0.4233583101678539  0.6021864237422936
  0.4186047621499884  0.7152122348996127  0.7098205509283911
  0.0683002640153522  0.8532328293171840  0.3411662328214263
  0.7273014438489236  0.5875381844092727  0.0543713648749138
 -0.0140482143035377 -0.0635894447840279  0.9064068345137193
  0.3649483667830986  0.2997592652657118  0.8355093998744479
  0.6425673032312796 -0.0000155454099414  0.1914585165971209
 
  0.00000000E+00  0.00000000E+00  0.00000000E+00
  0.00000000E+00  0.00000000E+00  0.00000000E+00
  0.00000000E+00  0.00000000E+00  0.00000000E+00
  0.00000000E+00  0.00000000E+00  0.00000000E+00
  0.00000000E+00  0.00000000E+00  0.00000000E+00
  0.00000000E+00  0.00000000E+00  0.00000000E+00
  0.00000000E+00  0.00000000E+00  0.00000000E+00
  0.00000000E+00  0.00000000E+00  0.00000000E+00
  0.00000000E+00  0.00000000E+00  0.00000000E+00
  0.00000000E+00  0.00000000E+00  0.00000000E+00
  0.00000000E+00  0.00000000E+00  0.00000000E+00
  0.00000000E+00  0.00000000E+00  0.00000000E+00
  0.00000000E+00  0.00000000E+00  0.00000000E+00
  0.00000000E+00  0.00000000E+00  0.00000000E+00
