Li42 P14 O56
1.0
5.296402 0.000000 0.000000
-0.000000 6.176136 -4.922448
0.000000 0.000000 63.991824
Li P O
42 14 56
direct
0.844520 0.000000 0.035203 Li+
0.155480 0.500000 0.035203 Li+
0.326434 0.747127 0.015671 Li+
0.673566 0.752873 0.054574 Li+
0.673566 0.247127 0.015671 Li+
0.326434 0.252873 0.054574 Li+
0.844520 0.000000 0.112126 Li+
0.155480 0.500000 0.112126 Li+
0.326434 0.747127 0.092594 Li+
0.673566 0.752873 0.131497 Li+
0.673566 0.247127 0.092594 Li+
0.326434 0.252873 0.131497 Li+
0.844520 0.000000 0.189050 Li+
0.155480 0.500000 0.189050 Li+
0.326434 0.747127 0.169517 Li+
0.673566 0.752873 0.208420 Li+
0.673566 0.247127 0.169517 Li+
0.326434 0.252873 0.208420 Li+
0.844520 0.000000 0.265973 Li+
0.155480 0.500000 0.265973 Li+
0.326434 0.747127 0.246440 Li+
0.673566 0.752873 0.285343 Li+
0.673566 0.247127 0.246440 Li+
0.326434 0.252873 0.285343 Li+
0.844520 0.000000 0.342896 Li+
0.155480 0.500000 0.342896 Li+
0.326434 0.747127 0.323363 Li+
0.673566 0.752873 0.362266 Li+
0.673566 0.247127 0.323363 Li+
0.326434 0.252873 0.362266 Li+
0.844520 0.000000 0.419819 Li+
0.155480 0.500000 0.419819 Li+
0.326434 0.747127 0.400286 Li+
0.673566 0.752873 0.439189 Li+
0.673566 0.247127 0.400286 Li+
0.326434 0.252873 0.439189 Li+
0.844520 0.000000 0.496742 Li+
0.155480 0.500000 0.496742 Li+
0.326434 0.747127 0.477209 Li+
0.673566 0.752873 0.516113 Li+
0.673566 0.247127 0.477209 Li+
0.326434 0.252873 0.516113 Li+
0.824261 0.500000 0.073050 P5+
0.175739 0.000000 0.073050 P5+
0.824261 0.500000 0.149973 P5+
0.175739 0.000000 0.149973 P5+
0.824261 0.500000 0.226896 P5+
0.175739 0.000000 0.226896 P5+
0.824261 0.500000 0.303819 P5+
0.175739 0.000000 0.303819 P5+
0.824261 0.500000 0.380742 P5+
0.175739 0.000000 0.380742 P5+
0.824261 0.500000 0.457665 P5+
0.175739 0.000000 0.457665 P5+
0.824261 0.500000 0.534588 P5+
0.175739 0.000000 0.534588 P5+
0.313509 0.207138 0.020183 O2-
0.103508 0.500000 0.003873 O2-
0.818396 0.500000 0.048724 O2-
0.181604 0.000000 0.048724 O2-
0.686491 0.707138 0.020183 O2-
0.313509 0.792862 0.065238 O2-
0.896492 0.000000 0.003873 O2-
0.686491 0.292862 0.065238 O2-
0.313509 0.207138 0.097106 O2-
0.103508 0.500000 0.080796 O2-
0.818396 0.500000 0.125648 O2-
0.181604 0.000000 0.125648 O2-
0.686491 0.707138 0.097106 O2-
0.313509 0.792862 0.142161 O2-
0.896492 0.000000 0.080796 O2-
0.686491 0.292862 0.142161 O2-
0.313509 0.207138 0.174029 O2-
0.103508 0.500000 0.157719 O2-
0.818396 0.500000 0.202571 O2-
0.181604 0.000000 0.202571 O2-
0.686491 0.707138 0.174029 O2-
0.313509 0.792862 0.219085 O2-
0.896492 0.000000 0.157719 O2-
0.686491 0.292862 0.219085 O2-
0.313509 0.207138 0.250952 O2-
0.103508 0.500000 0.234643 O2-
0.818396 0.500000 0.279494 O2-
0.181604 0.000000 0.279494 O2-
0.686491 0.707138 0.250952 O2-
0.313509 0.792862 0.296008 O2-
0.896492 0.000000 0.234643 O2-
0.686491 0.292862 0.296008 O2-
0.313509 0.207138 0.327875 O2-
0.103508 0.500000 0.311566 O2-
0.818396 0.500000 0.356417 O2-
0.181604 0.000000 0.356417 O2-
0.686491 0.707138 0.327875 O2-
0.313509 0.792862 0.372931 O2-
0.896492 0.000000 0.311566 O2-
0.686491 0.292862 0.372931 O2-
0.313509 0.207138 0.404798 O2-
0.103508 0.500000 0.388489 O2-
0.818396 0.500000 0.433340 O2-
0.181604 0.000000 0.433340 O2-
0.686491 0.707138 0.404798 O2-
0.313509 0.792862 0.449854 O2-
0.896492 0.000000 0.388489 O2-
0.686491 0.292862 0.449854 O2-
0.313509 0.207138 0.481721 O2-
0.103508 0.500000 0.465412 O2-
0.818396 0.500000 0.510263 O2-
0.181604 0.000000 0.510263 O2-
0.686491 0.707138 0.481721 O2-
0.313509 0.792862 0.526777 O2-
0.896492 0.000000 0.465412 O2-
0.686491 0.292862 0.526777 O2-
