Li5 P2 N1 O6                            
   1.00000000000000     
     0.0026920059425471   -0.0584955118952449    5.3000617768548777
     6.1970313141993145   -0.0010641473995307    0.0032678387838087
    -0.0009546977207325    5.3494543082164991   -0.0451630621771598
   Li   P    N    O 
     5     2     1     6
Direct
  0.5697110296079396  0.0001709787257102  0.7976511324346192
  0.4307796343903023  0.6767288226025748  0.3954364435660862
 -0.0001818092898560  0.7181338156337841  0.6723068558722448
  0.0002783437736479  0.2819904500806262  0.6724726436428479
  0.4313656680562767  0.3233059258427443  0.3952335106799305
  0.5161208545820856  0.5000934772114518  0.8339733824060274
  0.0852578142642319 -0.0002387246273291  0.1699647374244031
  0.5226690858769646  0.5001961447977281  0.1229598904274350
  0.0840184246172941  0.2062320329108805  0.3123969024031002
  0.6442080911022153  0.7111664533500912  0.7058346439539310
  0.0820565015901173  0.7931153539042312  0.3118401581218910
  0.6445908450978346  0.2890198226345660  0.7058032702404021
  0.0995660901117952 -0.0000575670918202  0.8886713259039923
  0.2527514262191775  0.5001430140247609  0.6783711029230933
 
  0.00000000E+00  0.00000000E+00  0.00000000E+00
  0.00000000E+00  0.00000000E+00  0.00000000E+00
  0.00000000E+00  0.00000000E+00  0.00000000E+00
  0.00000000E+00  0.00000000E+00  0.00000000E+00
  0.00000000E+00  0.00000000E+00  0.00000000E+00
  0.00000000E+00  0.00000000E+00  0.00000000E+00
  0.00000000E+00  0.00000000E+00  0.00000000E+00
  0.00000000E+00  0.00000000E+00  0.00000000E+00
  0.00000000E+00  0.00000000E+00  0.00000000E+00
  0.00000000E+00  0.00000000E+00  0.00000000E+00
  0.00000000E+00  0.00000000E+00  0.00000000E+00
  0.00000000E+00  0.00000000E+00  0.00000000E+00
  0.00000000E+00  0.00000000E+00  0.00000000E+00
  0.00000000E+00  0.00000000E+00  0.00000000E+00
