(1, 1, 0)                               
   1.00000000000000     
     7.6625743658238843   -0.0000000576174344    0.0000001020968956
    -0.0000000842552076    2.7203200884169454   -4.7128887299534314
     0.0000008466901916    0.2419670078494895   62.9782140876362320
   Li   O 
    28    28
Selective dynamics
Direct
  0.5000209196116004  0.0678760728838320  0.0317858504426764   T   T   T
 -0.0000209242969355  0.0678761456878371  0.0317858577488346   T   T   T
  0.2500000104298203  0.6291830465573982  0.0266542482853292   T   T   T
  0.7499999889569056  0.4039264097718802  0.0266459035141753   T   T   T
  0.5000000000000000  0.0000000000000000  0.0750000000000028   F   F   F
  0.0000000000000000  0.0000000000000000  0.0750000000000028   F   F   F
  0.2500000000000000  0.6666669999999968  0.0750000000000028   F   F   F
  0.7500000000000000  0.3333330000000032  0.0750000000000028   F   F   F
  0.5000000000000000  0.0000000000000000  0.1250000000000000   F   F   F
  0.0000000000000000  0.0000000000000000  0.1250000000000000   F   F   F
  0.2500000000000000  0.6666669999999968  0.1250000000000000   F   F   F
  0.7500000000000000  0.3333330000000032  0.1250000000000000   F   F   F
  0.5000000000000000  0.0000000000000000  0.1749999999999972   F   F   F
  0.0000000000000000  0.0000000000000000  0.1749999999999972   F   F   F
  0.2500000000000000  0.6666669999999968  0.1749999999999972   F   F   F
  0.7500000000000000  0.3333330000000032  0.1749999999999972   F   F   F
  0.5000000000000000  0.0000000000000000  0.2250000000000014   F   F   F
  0.0000000000000000  0.0000000000000000  0.2250000000000014   F   F   F
  0.2500000000000000  0.6666669999999968  0.2250000000000014   F   F   F
  0.7500000000000000  0.3333330000000032  0.2250000000000014   F   F   F
  0.5000000000000000  0.0000000000000000  0.2749999999999986   F   F   F
  0.0000000000000000  0.0000000000000000  0.2749999999999986   F   F   F
  0.2500000000000000  0.6666669999999968  0.2749999999999986   F   F   F
  0.7500000000000000  0.3333330000000032  0.2749999999999986   F   F   F
  0.4999790801936389 -0.0678755704670484  0.3182141613865069   T   T   T
  0.0000209214083546 -0.0678762504086339  0.3182140934847009   T   T   T
  0.2499999834653589  0.5960740756185475  0.3233541049771257   T   T   T
  0.7500000022702678  0.3708173731756808  0.3233457551709371   T   T   T
  0.8514823326022861  0.7075008464832445  0.0261042982375846   T   T   T
  0.3514761221064830  0.3147378331743147  0.0261132168758405   T   T   T
  0.1485238894560714  0.3147378094457208  0.0261132151315521   T   T   T
  0.6485176513468307  0.7075008504793485  0.0261042989365163   T   T   T
  0.8506900000000002  0.6666669999999968  0.0750000000000028   F   F   F
  0.3506900000000002  0.3333330000000032  0.0750000000000028   F   F   F
  0.1493099999999998  0.3333330000000032  0.0750000000000028   F   F   F
  0.6493099999999998  0.6666669999999968  0.0750000000000028   F   F   F
  0.8506900000000002  0.6666669999999968  0.1250000000000000   F   F   F
  0.3506900000000002  0.3333330000000032  0.1250000000000000   F   F   F
  0.1493099999999998  0.3333330000000032  0.1250000000000000   F   F   F
  0.6493099999999998  0.6666669999999968  0.1250000000000000   F   F   F
  0.8506900000000002  0.6666669999999968  0.1749999999999972   F   F   F
  0.3506900000000002  0.3333330000000032  0.1749999999999972   F   F   F
  0.1493099999999998  0.3333330000000032  0.1749999999999972   F   F   F
  0.6493099999999998  0.6666669999999968  0.1749999999999972   F   F   F
  0.8506900000000002  0.6666669999999968  0.2250000000000014   F   F   F
  0.3506900000000002  0.3333330000000032  0.2250000000000014   F   F   F
  0.1493099999999998  0.3333330000000032  0.2250000000000014   F   F   F
  0.6493099999999998  0.6666669999999968  0.2250000000000014   F   F   F
  0.8506900000000002  0.6666669999999968  0.2749999999999986   F   F   F
  0.3506900000000002  0.3333330000000032  0.2749999999999986   F   F   F
  0.1493099999999998  0.3333330000000032  0.2749999999999986   F   F   F
  0.6493099999999998  0.6666669999999968  0.2749999999999986   F   F   F
  0.8514761593355752  0.6852625377518542  0.3238867836575571   T   T   T
  0.3514823505206404  0.2924994757032423  0.3238956984675373   T   T   T
  0.1485176447448088  0.2924994200914128  0.3238956943338943   T   T   T
  0.6485238383470464  0.6852625363129118  0.3238867847847557   T   T   T
 
  0.00000000E+00  0.00000000E+00  0.00000000E+00
  0.00000000E+00  0.00000000E+00  0.00000000E+00
  0.00000000E+00  0.00000000E+00  0.00000000E+00
  0.00000000E+00  0.00000000E+00  0.00000000E+00
  0.00000000E+00  0.00000000E+00  0.00000000E+00
  0.00000000E+00  0.00000000E+00  0.00000000E+00
  0.00000000E+00  0.00000000E+00  0.00000000E+00
  0.00000000E+00  0.00000000E+00  0.00000000E+00
  0.00000000E+00  0.00000000E+00  0.00000000E+00
  0.00000000E+00  0.00000000E+00  0.00000000E+00
  0.00000000E+00  0.00000000E+00  0.00000000E+00
  0.00000000E+00  0.00000000E+00  0.00000000E+00
  0.00000000E+00  0.00000000E+00  0.00000000E+00
  0.00000000E+00  0.00000000E+00  0.00000000E+00
  0.00000000E+00  0.00000000E+00  0.00000000E+00
  0.00000000E+00  0.00000000E+00  0.00000000E+00
  0.00000000E+00  0.00000000E+00  0.00000000E+00
  0.00000000E+00  0.00000000E+00  0.00000000E+00
  0.00000000E+00  0.00000000E+00  0.00000000E+00
  0.00000000E+00  0.00000000E+00  0.00000000E+00
  0.00000000E+00  0.00000000E+00  0.00000000E+00
  0.00000000E+00  0.00000000E+00  0.00000000E+00
  0.00000000E+00  0.00000000E+00  0.00000000E+00
  0.00000000E+00  0.00000000E+00  0.00000000E+00
  0.00000000E+00  0.00000000E+00  0.00000000E+00
  0.00000000E+00  0.00000000E+00  0.00000000E+00
  0.00000000E+00  0.00000000E+00  0.00000000E+00
  0.00000000E+00  0.00000000E+00  0.00000000E+00
  0.00000000E+00  0.00000000E+00  0.00000000E+00
  0.00000000E+00  0.00000000E+00  0.00000000E+00
  0.00000000E+00  0.00000000E+00  0.00000000E+00
  0.00000000E+00  0.00000000E+00  0.00000000E+00
  0.00000000E+00  0.00000000E+00  0.00000000E+00
  0.00000000E+00  0.00000000E+00  0.00000000E+00
  0.00000000E+00  0.00000000E+00  0.00000000E+00
  0.00000000E+00  0.00000000E+00  0.00000000E+00
  0.00000000E+00  0.00000000E+00  0.00000000E+00
  0.00000000E+00  0.00000000E+00  0.00000000E+00
  0.00000000E+00  0.00000000E+00  0.00000000E+00
  0.00000000E+00  0.00000000E+00  0.00000000E+00
  0.00000000E+00  0.00000000E+00  0.00000000E+00
  0.00000000E+00  0.00000000E+00  0.00000000E+00
  0.00000000E+00  0.00000000E+00  0.00000000E+00
  0.00000000E+00  0.00000000E+00  0.00000000E+00
  0.00000000E+00  0.00000000E+00  0.00000000E+00
  0.00000000E+00  0.00000000E+00  0.00000000E+00
  0.00000000E+00  0.00000000E+00  0.00000000E+00
  0.00000000E+00  0.00000000E+00  0.00000000E+00
  0.00000000E+00  0.00000000E+00  0.00000000E+00
  0.00000000E+00  0.00000000E+00  0.00000000E+00
  0.00000000E+00  0.00000000E+00  0.00000000E+00
  0.00000000E+00  0.00000000E+00  0.00000000E+00
  0.00000000E+00  0.00000000E+00  0.00000000E+00
  0.00000000E+00  0.00000000E+00  0.00000000E+00
  0.00000000E+00  0.00000000E+00  0.00000000E+00
  0.00000000E+00  0.00000000E+00  0.00000000E+00
