Li140 P140 O420
1.0
5.521558 0.000000 0.000000
0.000000 16.540545 2.677750
0.000000 0.000000 119.816820
Li P O
140 140 420
direct
0.494607 0.818220 0.091136 Li+
0.505393 0.318220 0.035580 Li+
0.484419 0.934004 0.104676 Li+
0.515581 0.434004 0.049120 Li+
0.505784 0.049457 0.006945 Li+
0.494216 0.549457 0.062500 Li+
0.507224 0.164548 0.020230 Li+
0.492776 0.664548 0.075786 Li+
0.992783 0.241566 0.028051 Li+
0.007217 0.741566 0.083606 Li+
0.521194 0.318286 0.091374 Li+
0.478806 0.818286 0.035819 Li+
0.476313 0.433730 0.104829 Li+
0.523687 0.933730 0.049274 Li+
0.533250 0.550453 0.006961 Li+
0.466750 0.050453 0.062516 Li+
0.477737 0.667016 0.020269 Li+
0.522263 0.167016 0.075825 Li+
0.960889 0.743634 0.028273 Li+
0.039111 0.243634 0.083828 Li+
0.494607 0.818220 0.202247 Li+
0.505393 0.318220 0.146691 Li+
0.484419 0.934004 0.215787 Li+
0.515581 0.434004 0.160232 Li+
0.505784 0.049457 0.118056 Li+
0.494216 0.549457 0.173612 Li+
0.507224 0.164548 0.131341 Li+
0.492776 0.664548 0.186897 Li+
0.992783 0.241566 0.139162 Li+
0.007217 0.741566 0.194718 Li+
0.521194 0.318286 0.202485 Li+
0.478806 0.818286 0.146930 Li+
0.476313 0.433730 0.215940 Li+
0.523687 0.933730 0.160385 Li+
0.533250 0.550453 0.118072 Li+
0.466750 0.050453 0.173627 Li+
0.477737 0.667016 0.131380 Li+
0.522263 0.167016 0.186936 Li+
0.960889 0.743634 0.139384 Li+
0.039111 0.243634 0.194939 Li+
0.494607 0.818220 0.313358 Li+
0.505393 0.318220 0.257802 Li+
0.484419 0.934004 0.326898 Li+
0.515581 0.434004 0.271343 Li+
0.505784 0.049457 0.229167 Li+
0.494216 0.549457 0.284723 Li+
0.507224 0.164548 0.242453 Li+
0.492776 0.664548 0.298008 Li+
0.992783 0.241566 0.250273 Li+
0.007217 0.741566 0.305829 Li+
0.521194 0.318286 0.313597 Li+
0.478806 0.818286 0.258041 Li+
0.476313 0.433730 0.327051 Li+
0.523687 0.933730 0.271496 Li+
0.533250 0.550453 0.229183 Li+
0.466750 0.050453 0.284739 Li+
0.477737 0.667016 0.242491 Li+
0.522263 0.167016 0.298047 Li+
0.960889 0.743634 0.250495 Li+
0.039111 0.243634 0.306051 Li+
0.494607 0.818220 0.424469 Li+
0.505393 0.318220 0.368913 Li+
0.484419 0.934004 0.438009 Li+
0.515581 0.434004 0.382454 Li+
0.505784 0.049457 0.340278 Li+
0.494216 0.549457 0.395834 Li+
0.507224 0.164548 0.353564 Li+
0.492776 0.664548 0.409119 Li+
0.992783 0.241566 0.361384 Li+
0.007217 0.741566 0.416940 Li+
0.521194 0.318286 0.424708 Li+
0.478806 0.818286 0.369152 Li+
0.476313 0.433730 0.438163 Li+
0.523687 0.933730 0.382607 Li+
0.533250 0.550453 0.340294 Li+
0.466750 0.050453 0.395850 Li+
0.477737 0.667016 0.353602 Li+
0.522263 0.167016 0.409158 Li+
0.960889 0.743634 0.361606 Li+
0.039111 0.243634 0.417162 Li+
0.494607 0.818220 0.535580 Li+
0.505393 0.318220 0.480024 Li+
0.484419 0.934004 0.549120 Li+
0.515581 0.434004 0.493565 Li+
0.505784 0.049457 0.451389 Li+
0.494216 0.549457 0.506945 Li+
0.507224 0.164548 0.464675 Li+
0.492776 0.664548 0.520230 Li+
0.992783 0.241566 0.472495 Li+
0.007217 0.741566 0.528051 Li+
0.521194 0.318286 0.535819 Li+
0.478806 0.818286 0.480263 Li+
0.476313 0.433730 0.549274 Li+
0.523687 0.933730 0.493718 Li+
0.533250 0.550453 0.451405 Li+
0.466750 0.050453 0.506961 Li+
0.477737 0.667016 0.464714 Li+
0.522263 0.167016 0.520269 Li+
0.960889 0.743634 0.472717 Li+
0.039111 0.243634 0.528273 Li+
0.494607 0.818220 0.646691 Li+
0.505393 0.318220 0.591136 Li+
0.484419 0.934004 0.660232 Li+
0.515581 0.434004 0.604676 Li+
0.505784 0.049457 0.562500 Li+
0.494216 0.549457 0.618056 Li+
0.507224 0.164548 0.575786 Li+
0.492776 0.664548 0.631341 Li+
0.992783 0.241566 0.583606 Li+
0.007217 0.741566 0.639162 Li+
0.521194 0.318286 0.646930 Li+
0.478806 0.818286 0.591374 Li+
0.476313 0.433730 0.660385 Li+
0.523687 0.933730 0.604829 Li+
0.533250 0.550453 0.562516 Li+
0.466750 0.050453 0.618072 Li+
0.477737 0.667016 0.575825 Li+
0.522263 0.167016 0.631380 Li+
0.960889 0.743634 0.583828 Li+
0.039111 0.243634 0.639384 Li+
0.494607 0.818220 0.757802 Li+
0.505393 0.318220 0.702247 Li+
0.484419 0.934004 0.771343 Li+
0.515581 0.434004 0.715787 Li+
0.505784 0.049457 0.673612 Li+
0.494216 0.549457 0.729167 Li+
0.507224 0.164548 0.686897 Li+
0.492776 0.664548 0.742453 Li+
0.992783 0.241566 0.694718 Li+
0.007217 0.741566 0.750273 Li+
0.521194 0.318286 0.758041 Li+
0.478806 0.818286 0.702485 Li+
0.476313 0.433730 0.771496 Li+
0.523687 0.933730 0.715940 Li+
0.533250 0.550453 0.673627 Li+
0.466750 0.050453 0.729183 Li+
0.477737 0.667016 0.686936 Li+
0.522263 0.167016 0.742491 Li+
0.960889 0.743634 0.694939 Li+
0.039111 0.243634 0.750495 Li+
0.185377 0.000413 0.084858 P5+
0.814623 0.500413 0.029303 P5+
0.843317 0.093280 0.097472 P5+
0.156683 0.593280 0.041917 P5+
0.188444 0.197061 0.107666 P5+
0.811556 0.697061 0.052110 P5+
0.828977 0.308311 0.005357 P5+
0.171023 0.808311 0.060912 P5+
0.159739 0.408249 0.016474 P5+
0.840261 0.908249 0.072030 P5+
0.843930 0.574567 0.095048 P5+
0.156070 0.074567 0.039492 P5+
0.174322 0.674438 0.106215 P5+
0.825678 0.174438 0.050659 P5+
0.812278 0.786455 0.003865 P5+
0.187722 0.286455 0.059421 P5+
0.151901 0.889856 0.014133 P5+
0.848099 0.389856 0.069688 P5+
0.809867 0.982845 0.026721 P5+
0.190133 0.482845 0.082277 P5+
0.185377 0.000413 0.195970 P5+
0.814623 0.500413 0.140414 P5+
0.843317 0.093280 0.208583 P5+
0.156683 0.593280 0.153028 P5+
0.188444 0.197061 0.218777 P5+
0.811556 0.697061 0.163222 P5+
0.828977 0.308311 0.116468 P5+
0.171023 0.808311 0.172024 P5+
0.159739 0.408249 0.127585 P5+
0.840261 0.908249 0.183141 P5+
0.843930 0.574567 0.206159 P5+
0.156070 0.074567 0.150603 P5+
0.174322 0.674438 0.217326 P5+
0.825678 0.174438 0.161770 P5+
0.812278 0.786455 0.114976 P5+
0.187722 0.286455 0.170532 P5+
0.151901 0.889856 0.125244 P5+
0.848099 0.389856 0.180800 P5+
0.809867 0.982845 0.137833 P5+
0.190133 0.482845 0.193388 P5+
0.185377 0.000413 0.307081 P5+
0.814623 0.500413 0.251525 P5+
0.843317 0.093280 0.319695 P5+
0.156683 0.593280 0.264139 P5+
0.188444 0.197061 0.329888 P5+
0.811556 0.697061 0.274333 P5+
0.828977 0.308311 0.227579 P5+
0.171023 0.808311 0.283135 P5+
0.159739 0.408249 0.238696 P5+
0.840261 0.908249 0.294252 P5+
0.843930 0.574567 0.317270 P5+
0.156070 0.074567 0.261715 P5+
0.174322 0.674438 0.328437 P5+
0.825678 0.174438 0.272881 P5+
0.812278 0.786455 0.226087 P5+
0.187722 0.286455 0.281643 P5+
0.151901 0.889856 0.236355 P5+
0.848099 0.389856 0.291911 P5+
0.809867 0.982845 0.248944 P5+
0.190133 0.482845 0.304499 P5+
0.185377 0.000413 0.418192 P5+
0.814623 0.500413 0.362636 P5+
0.843317 0.093280 0.430806 P5+
0.156683 0.593280 0.375250 P5+
0.188444 0.197061 0.440999 P5+
0.811556 0.697061 0.385444 P5+
0.828977 0.308311 0.338690 P5+
0.171023 0.808311 0.394246 P5+
0.159739 0.408249 0.349808 P5+
0.840261 0.908249 0.405363 P5+
0.843930 0.574567 0.428381 P5+
0.156070 0.074567 0.372826 P5+
0.174322 0.674438 0.439548 P5+
0.825678 0.174438 0.383992 P5+
0.812278 0.786455 0.337198 P5+
0.187722 0.286455 0.392754 P5+
0.151901 0.889856 0.347466 P5+
0.848099 0.389856 0.403022 P5+
0.809867 0.982845 0.360055 P5+
0.190133 0.482845 0.415610 P5+
0.185377 0.000413 0.529303 P5+
0.814623 0.500413 0.473747 P5+
0.843317 0.093280 0.541917 P5+
0.156683 0.593280 0.486361 P5+
0.188444 0.197061 0.552110 P5+
0.811556 0.697061 0.496555 P5+
0.828977 0.308311 0.449801 P5+
0.171023 0.808311 0.505357 P5+
0.159739 0.408249 0.460919 P5+
0.840261 0.908249 0.516474 P5+
0.843930 0.574567 0.539492 P5+
0.156070 0.074567 0.483937 P5+
0.174322 0.674438 0.550659 P5+
0.825678 0.174438 0.495104 P5+
0.812278 0.786455 0.448310 P5+
0.187722 0.286455 0.503865 P5+
0.151901 0.889856 0.458577 P5+
0.848099 0.389856 0.514133 P5+
0.809867 0.982845 0.471166 P5+
0.190133 0.482845 0.526721 P5+
0.185377 0.000413 0.640414 P5+
0.814623 0.500413 0.584858 P5+
0.843317 0.093280 0.653028 P5+
0.156683 0.593280 0.597472 P5+
0.188444 0.197061 0.663222 P5+
0.811556 0.697061 0.607666 P5+
0.828977 0.308311 0.560912 P5+
0.171023 0.808311 0.616468 P5+
0.159739 0.408249 0.572030 P5+
0.840261 0.908249 0.627585 P5+
0.843930 0.574567 0.650603 P5+
0.156070 0.074567 0.595048 P5+
0.174322 0.674438 0.661770 P5+
0.825678 0.174438 0.606215 P5+
0.812278 0.786455 0.559421 P5+
0.187722 0.286455 0.614976 P5+
0.151901 0.889856 0.569688 P5+
0.848099 0.389856 0.625244 P5+
0.809867 0.982845 0.582277 P5+
0.190133 0.482845 0.637833 P5+
0.185377 0.000413 0.751525 P5+
0.814623 0.500413 0.695970 P5+
0.843317 0.093280 0.764139 P5+
0.156683 0.593280 0.708583 P5+
0.188444 0.197061 0.774333 P5+
0.811556 0.697061 0.718777 P5+
0.828977 0.308311 0.672024 P5+
0.171023 0.808311 0.727579 P5+
0.159739 0.408249 0.683141 P5+
0.840261 0.908249 0.738696 P5+
0.843930 0.574567 0.761715 P5+
0.156070 0.074567 0.706159 P5+
0.174322 0.674438 0.772881 P5+
0.825678 0.174438 0.717326 P5+
0.812278 0.786455 0.670532 P5+
0.187722 0.286455 0.726087 P5+
0.151901 0.889856 0.680800 P5+
0.848099 0.389856 0.736355 P5+
0.809867 0.982845 0.693388 P5+
0.190133 0.482845 0.748944 P5+
0.069000 0.035413 0.095499 O2-
0.931000 0.535413 0.039943 O2-
0.951087 0.140628 0.107163 O2-
0.048913 0.640628 0.051608 O2-
0.080018 0.275856 0.000857 O2-
0.919982 0.775856 0.056412 O2-
0.926681 0.392259 0.008840 O2-
0.073319 0.892259 0.064396 O2-
0.942022 0.978148 0.078513 O2-
0.057978 0.478148 0.022958 O2-
0.076781 0.590622 0.102692 O2-
0.923219 0.090622 0.047137 O2-
0.921841 0.709404 0.110254 O2-
0.078159 0.209404 0.054699 O2-
0.049265 0.843555 0.004240 O2-
0.950735 0.343555 0.059796 O2-
0.918787 0.943480 0.016319 O2-
0.081213 0.443480 0.071874 O2-
0.944691 0.504327 0.088551 O2-
0.055309 0.004327 0.032996 O2-
0.322795 0.926111 0.089959 O2-
0.677205 0.426111 0.034404 O2-
0.313918 0.066074 0.077084 O2-
0.686082 0.566074 0.021528 O2-
0.643576 0.041349 0.103133 O2-
0.356424 0.541349 0.047577 O2-
0.795305 0.153257 0.086969 O2-
0.204695 0.653257 0.031413 O2-
0.351974 0.154647 0.005548 O2-
0.648026 0.654647 0.061103 O2-
0.281781 0.224590 0.095879 O2-
0.718219 0.724590 0.040323 O2-
0.751546 0.252705 0.015876 O2-
0.248454 0.752705 0.071431 O2-
0.656290 0.330648 0.106866 O2-
0.343710 0.830648 0.051310 O2-
0.215121 0.332841 0.024740 O2-
0.784879 0.832841 0.080296 O2-
0.355777 0.446708 0.008813 O2-
0.644223 0.946708 0.064368 O2-
0.649890 0.536665 0.102874 O2-
0.350110 0.036665 0.047318 O2-
0.785996 0.649394 0.086735 O2-
0.214004 0.149394 0.031179 O2-
0.340793 0.651785 0.004949 O2-
0.659207 0.151785 0.060504 O2-
0.258044 0.728542 0.095674 O2-
0.741956 0.228542 0.040118 O2-
0.725734 0.758375 0.015758 O2-
0.274266 0.258375 0.071314 O2-
0.642950 0.828801 0.106222 O2-
0.357050 0.328801 0.050666 O2-
0.205272 0.829973 0.024592 O2-
0.794728 0.329973 0.080147 O2-
0.347295 0.944360 0.008618 O2-
0.652705 0.444360 0.064174 O2-
0.677470 0.919559 0.034727 O2-
0.322530 0.419559 0.090282 O2-
0.678914 0.057634 0.021330 O2-
0.321086 0.557634 0.076886 O2-
0.069000 0.035413 0.206610 O2-
0.931000 0.535413 0.151054 O2-
0.951087 0.140628 0.218274 O2-
0.048913 0.640628 0.162719 O2-
0.080018 0.275856 0.111968 O2-
0.919982 0.775856 0.167524 O2-
0.926681 0.392259 0.119951 O2-
0.073319 0.892259 0.175507 O2-
0.942022 0.978148 0.189624 O2-
0.057978 0.478148 0.134069 O2-
0.076781 0.590622 0.213804 O2-
0.923219 0.090622 0.158248 O2-
0.921841 0.709404 0.221365 O2-
0.078159 0.209404 0.165810 O2-
0.049265 0.843555 0.115351 O2-
0.950735 0.343555 0.170907 O2-
0.918787 0.943480 0.127430 O2-
0.081213 0.443480 0.182986 O2-
0.944691 0.504327 0.199662 O2-
0.055309 0.004327 0.144107 O2-
0.322795 0.926111 0.201070 O2-
0.677205 0.426111 0.145515 O2-
0.313918 0.066074 0.188195 O2-
0.686082 0.566074 0.132639 O2-
0.643576 0.041349 0.214244 O2-
0.356424 0.541349 0.158688 O2-
0.795305 0.153257 0.198080 O2-
0.204695 0.653257 0.142524 O2-
0.351974 0.154647 0.116659 O2-
0.648026 0.654647 0.172214 O2-
0.281781 0.224590 0.206990 O2-
0.718219 0.724590 0.151435 O2-
0.751546 0.252705 0.126987 O2-
0.248454 0.752705 0.182543 O2-
0.656290 0.330648 0.217977 O2-
0.343710 0.830648 0.162421 O2-
0.215121 0.332841 0.135851 O2-
0.784879 0.832841 0.191407 O2-
0.355777 0.446708 0.119924 O2-
0.644223 0.946708 0.175479 O2-
0.649890 0.536665 0.213985 O2-
0.350110 0.036665 0.158429 O2-
0.785996 0.649394 0.197846 O2-
0.214004 0.149394 0.142290 O2-
0.340793 0.651785 0.116060 O2-
0.659207 0.151785 0.171615 O2-
0.258044 0.728542 0.206785 O2-
0.741956 0.228542 0.151229 O2-
0.725734 0.758375 0.126869 O2-
0.274266 0.258375 0.182425 O2-
0.642950 0.828801 0.217333 O2-
0.357050 0.328801 0.161777 O2-
0.205272 0.829973 0.135703 O2-
0.794728 0.329973 0.191258 O2-
0.347295 0.944360 0.119729 O2-
0.652705 0.444360 0.175285 O2-
0.677470 0.919559 0.145838 O2-
0.322530 0.419559 0.201393 O2-
0.678914 0.057634 0.132442 O2-
0.321086 0.557634 0.187997 O2-
0.069000 0.035413 0.317721 O2-
0.931000 0.535413 0.262166 O2-
0.951087 0.140628 0.329385 O2-
0.048913 0.640628 0.273830 O2-
0.080018 0.275856 0.223079 O2-
0.919982 0.775856 0.278635 O2-
0.926681 0.392259 0.231063 O2-
0.073319 0.892259 0.286618 O2-
0.942022 0.978148 0.300735 O2-
0.057978 0.478148 0.245180 O2-
0.076781 0.590622 0.324915 O2-
0.923219 0.090622 0.269359 O2-
0.921841 0.709404 0.332476 O2-
0.078159 0.209404 0.276921 O2-
0.049265 0.843555 0.226462 O2-
0.950735 0.343555 0.282018 O2-
0.918787 0.943480 0.238541 O2-
0.081213 0.443480 0.294097 O2-
0.944691 0.504327 0.310774 O2-
0.055309 0.004327 0.255218 O2-
0.322795 0.926111 0.312182 O2-
0.677205 0.426111 0.256626 O2-
0.313918 0.066074 0.299306 O2-
0.686082 0.566074 0.243750 O2-
0.643576 0.041349 0.325355 O2-
0.356424 0.541349 0.269799 O2-
0.795305 0.153257 0.309191 O2-
0.204695 0.653257 0.253635 O2-
0.351974 0.154647 0.227770 O2-
0.648026 0.654647 0.283325 O2-
0.281781 0.224590 0.318101 O2-
0.718219 0.724590 0.262546 O2-
0.751546 0.252705 0.238098 O2-
0.248454 0.752705 0.293654 O2-
0.656290 0.330648 0.329088 O2-
0.343710 0.830648 0.273532 O2-
0.215121 0.332841 0.246962 O2-
0.784879 0.832841 0.302518 O2-
0.355777 0.446708 0.231035 O2-
0.644223 0.946708 0.286591 O2-
0.649890 0.536665 0.325096 O2-
0.350110 0.036665 0.269540 O2-
0.785996 0.649394 0.308957 O2-
0.214004 0.149394 0.253401 O2-
0.340793 0.651785 0.227171 O2-
0.659207 0.151785 0.282727 O2-
0.258044 0.728542 0.317896 O2-
0.741956 0.228542 0.262340 O2-
0.725734 0.758375 0.237980 O2-
0.274266 0.258375 0.293536 O2-
0.642950 0.828801 0.328444 O2-
0.357050 0.328801 0.272889 O2-
0.205272 0.829973 0.246814 O2-
0.794728 0.329973 0.302369 O2-
0.347295 0.944360 0.230840 O2-
0.652705 0.444360 0.286396 O2-
0.677470 0.919559 0.256949 O2-
0.322530 0.419559 0.312504 O2-
0.678914 0.057634 0.243553 O2-
0.321086 0.557634 0.299108 O2-
0.069000 0.035413 0.428832 O2-
0.931000 0.535413 0.373277 O2-
0.951087 0.140628 0.440497 O2-
0.048913 0.640628 0.384941 O2-
0.080018 0.275856 0.334190 O2-
0.919982 0.775856 0.389746 O2-
0.926681 0.392259 0.342174 O2-
0.073319 0.892259 0.397729 O2-
0.942022 0.978148 0.411846 O2-
0.057978 0.478148 0.356291 O2-
0.076781 0.590622 0.436026 O2-
0.923219 0.090622 0.380470 O2-
0.921841 0.709404 0.443588 O2-
0.078159 0.209404 0.388032 O2-
0.049265 0.843555 0.337574 O2-
0.950735 0.343555 0.393129 O2-
0.918787 0.943480 0.349652 O2-
0.081213 0.443480 0.405208 O2-
0.944691 0.504327 0.421885 O2-
0.055309 0.004327 0.366329 O2-
0.322795 0.926111 0.423293 O2-
0.677205 0.426111 0.367737 O2-
0.313918 0.066074 0.410417 O2-
0.686082 0.566074 0.354861 O2-
0.643576 0.041349 0.436466 O2-
0.356424 0.541349 0.380910 O2-
0.795305 0.153257 0.420302 O2-
0.204695 0.653257 0.364746 O2-
0.351974 0.154647 0.338881 O2-
0.648026 0.654647 0.394437 O2-
0.281781 0.224590 0.429212 O2-
0.718219 0.724590 0.373657 O2-
0.751546 0.252705 0.349209 O2-
0.248454 0.752705 0.404765 O2-
0.656290 0.330648 0.440199 O2-
0.343710 0.830648 0.384643 O2-
0.215121 0.332841 0.358073 O2-
0.784879 0.832841 0.413629 O2-
0.355777 0.446708 0.342146 O2-
0.644223 0.946708 0.397702 O2-
0.649890 0.536665 0.436207 O2-
0.350110 0.036665 0.380651 O2-
0.785996 0.649394 0.420068 O2-
0.214004 0.149394 0.364512 O2-
0.340793 0.651785 0.338282 O2-
0.659207 0.151785 0.393838 O2-
0.258044 0.728542 0.429007 O2-
0.741956 0.228542 0.373452 O2-
0.725734 0.758375 0.349091 O2-
0.274266 0.258375 0.404647 O2-
0.642950 0.828801 0.439555 O2-
0.357050 0.328801 0.384000 O2-
0.205272 0.829973 0.357925 O2-
0.794728 0.329973 0.413481 O2-
0.347295 0.944360 0.341951 O2-
0.652705 0.444360 0.397507 O2-
0.677470 0.919559 0.368060 O2-
0.322530 0.419559 0.423616 O2-
0.678914 0.057634 0.354664 O2-
0.321086 0.557634 0.410219 O2-
0.069000 0.035413 0.539943 O2-
0.931000 0.535413 0.484388 O2-
0.951087 0.140628 0.551608 O2-
0.048913 0.640628 0.496052 O2-
0.080018 0.275856 0.445301 O2-
0.919982 0.775856 0.500857 O2-
0.926681 0.392259 0.453285 O2-
0.073319 0.892259 0.508840 O2-
0.942022 0.978148 0.522958 O2-
0.057978 0.478148 0.467402 O2-
0.076781 0.590622 0.547137 O2-
0.923219 0.090622 0.491581 O2-
0.921841 0.709404 0.554699 O2-
0.078159 0.209404 0.499143 O2-
0.049265 0.843555 0.448685 O2-
0.950735 0.343555 0.504240 O2-
0.918787 0.943480 0.460763 O2-
0.081213 0.443480 0.516319 O2-
0.944691 0.504327 0.532996 O2-
0.055309 0.004327 0.477440 O2-
0.322795 0.926111 0.534404 O2-
0.677205 0.426111 0.478848 O2-
0.313918 0.066074 0.521528 O2-
0.686082 0.566074 0.465973 O2-
0.643576 0.041349 0.547577 O2-
0.356424 0.541349 0.492022 O2-
0.795305 0.153257 0.531413 O2-
0.204695 0.653257 0.475857 O2-
0.351974 0.154647 0.449992 O2-
0.648026 0.654647 0.505548 O2-
0.281781 0.224590 0.540323 O2-
0.718219 0.724590 0.484768 O2-
0.751546 0.252705 0.460320 O2-
0.248454 0.752705 0.515876 O2-
0.656290 0.330648 0.551310 O2-
0.343710 0.830648 0.495754 O2-
0.215121 0.332841 0.469185 O2-
0.784879 0.832841 0.524740 O2-
0.355777 0.446708 0.453257 O2-
0.644223 0.946708 0.508813 O2-
0.649890 0.536665 0.547318 O2-
0.350110 0.036665 0.491762 O2-
0.785996 0.649394 0.531179 O2-
0.214004 0.149394 0.475623 O2-
0.340793 0.651785 0.449393 O2-
0.659207 0.151785 0.504949 O2-
0.258044 0.728542 0.540118 O2-
0.741956 0.228542 0.484563 O2-
0.725734 0.758375 0.460203 O2-
0.274266 0.258375 0.515758 O2-
0.642950 0.828801 0.550666 O2-
0.357050 0.328801 0.495111 O2-
0.205272 0.829973 0.469036 O2-
0.794728 0.329973 0.524592 O2-
0.347295 0.944360 0.453062 O2-
0.652705 0.444360 0.508618 O2-
0.677470 0.919559 0.479171 O2-
0.322530 0.419559 0.534727 O2-
0.678914 0.057634 0.465775 O2-
0.321086 0.557634 0.521330 O2-
0.069000 0.035413 0.651054 O2-
0.931000 0.535413 0.595499 O2-
0.951087 0.140628 0.662719 O2-
0.048913 0.640628 0.607163 O2-
0.080018 0.275856 0.556412 O2-
0.919982 0.775856 0.611968 O2-
0.926681 0.392259 0.564396 O2-
0.073319 0.892259 0.619951 O2-
0.942022 0.978148 0.634069 O2-
0.057978 0.478148 0.578513 O2-
0.076781 0.590622 0.658248 O2-
0.923219 0.090622 0.602692 O2-
0.921841 0.709404 0.665810 O2-
0.078159 0.209404 0.610254 O2-
0.049265 0.843555 0.559796 O2-
0.950735 0.343555 0.615351 O2-
0.918787 0.943480 0.571874 O2-
0.081213 0.443480 0.627430 O2-
0.944691 0.504327 0.644107 O2-
0.055309 0.004327 0.588551 O2-
0.322795 0.926111 0.645515 O2-
0.677205 0.426111 0.589959 O2-
0.313918 0.066074 0.632639 O2-
0.686082 0.566074 0.577084 O2-
0.643576 0.041349 0.658688 O2-
0.356424 0.541349 0.603133 O2-
0.795305 0.153257 0.642524 O2-
0.204695 0.653257 0.586969 O2-
0.351974 0.154647 0.561103 O2-
0.648026 0.654647 0.616659 O2-
0.281781 0.224590 0.651435 O2-
0.718219 0.724590 0.595879 O2-
0.751546 0.252705 0.571431 O2-
0.248454 0.752705 0.626987 O2-
0.656290 0.330648 0.662421 O2-
0.343710 0.830648 0.606866 O2-
0.215121 0.332841 0.580296 O2-
0.784879 0.832841 0.635851 O2-
0.355777 0.446708 0.564368 O2-
0.644223 0.946708 0.619924 O2-
0.649890 0.536665 0.658429 O2-
0.350110 0.036665 0.602874 O2-
0.785996 0.649394 0.642290 O2-
0.214004 0.149394 0.586735 O2-
0.340793 0.651785 0.560504 O2-
0.659207 0.151785 0.616060 O2-
0.258044 0.728542 0.651229 O2-
0.741956 0.228542 0.595674 O2-
0.725734 0.758375 0.571314 O2-
0.274266 0.258375 0.626869 O2-
0.642950 0.828801 0.661777 O2-
0.357050 0.328801 0.606222 O2-
0.205272 0.829973 0.580147 O2-
0.794728 0.329973 0.635703 O2-
0.347295 0.944360 0.564174 O2-
0.652705 0.444360 0.619729 O2-
0.677470 0.919559 0.590282 O2-
0.322530 0.419559 0.645838 O2-
0.678914 0.057634 0.576886 O2-
0.321086 0.557634 0.632442 O2-
0.069000 0.035413 0.762166 O2-
0.931000 0.535413 0.706610 O2-
0.951087 0.140628 0.773830 O2-
0.048913 0.640628 0.718274 O2-
0.080018 0.275856 0.667524 O2-
0.919982 0.775856 0.723079 O2-
0.926681 0.392259 0.675507 O2-
0.073319 0.892259 0.731063 O2-
0.942022 0.978148 0.745180 O2-
0.057978 0.478148 0.689624 O2-
0.076781 0.590622 0.769359 O2-
0.923219 0.090622 0.713804 O2-
0.921841 0.709404 0.776921 O2-
0.078159 0.209404 0.721365 O2-
0.049265 0.843555 0.670907 O2-
0.950735 0.343555 0.726462 O2-
0.918787 0.943480 0.682986 O2-
0.081213 0.443480 0.738541 O2-
0.944691 0.504327 0.755218 O2-
0.055309 0.004327 0.699662 O2-
0.322795 0.926111 0.756626 O2-
0.677205 0.426111 0.701070 O2-
0.313918 0.066074 0.743750 O2-
0.686082 0.566074 0.688195 O2-
0.643576 0.041349 0.769799 O2-
0.356424 0.541349 0.714244 O2-
0.795305 0.153257 0.753635 O2-
0.204695 0.653257 0.698080 O2-
0.351974 0.154647 0.672214 O2-
0.648026 0.654647 0.727770 O2-
0.281781 0.224590 0.762546 O2-
0.718219 0.724590 0.706990 O2-
0.751546 0.252705 0.682543 O2-
0.248454 0.752705 0.738098 O2-
0.656290 0.330648 0.773532 O2-
0.343710 0.830648 0.717977 O2-
0.215121 0.332841 0.691407 O2-
0.784879 0.832841 0.746962 O2-
0.355777 0.446708 0.675479 O2-
0.644223 0.946708 0.731035 O2-
0.649890 0.536665 0.769540 O2-
0.350110 0.036665 0.713985 O2-
0.785996 0.649394 0.753401 O2-
0.214004 0.149394 0.697846 O2-
0.340793 0.651785 0.671615 O2-
0.659207 0.151785 0.727171 O2-
0.258044 0.728542 0.762340 O2-
0.741956 0.228542 0.706785 O2-
0.725734 0.758375 0.682425 O2-
0.274266 0.258375 0.737980 O2-
0.642950 0.828801 0.772889 O2-
0.357050 0.328801 0.717333 O2-
0.205272 0.829973 0.691258 O2-
0.794728 0.329973 0.746814 O2-
0.347295 0.944360 0.675285 O2-
0.652705 0.444360 0.730840 O2-
0.677470 0.919559 0.701393 O2-
0.322530 0.419559 0.756949 O2-
0.678914 0.057634 0.687997 O2-
0.321086 0.557634 0.743553 O2-
