P14 N14 O14
1.0
4.831544 0.000000 -0.000000
-2.415772 4.183227 0.143798
0.000000 0.000000 49.514522
P N O
14 14 14
direct
0.615142 0.730285 0.998835 P5+
0.962166 0.424332 0.981838 P5+
0.922835 0.345669 0.921912 P5+
0.269858 0.039716 0.904915 P5+
0.230527 0.961054 0.844989 P5+
0.577551 0.655101 0.827992 P5+
0.538219 0.576439 0.768066 P5+
0.885243 0.270486 0.751069 P5+
0.845912 0.191823 0.691143 P5+
0.192935 0.885870 0.674145 P5+
0.153604 0.807208 0.614220 P5+
0.500627 0.501255 0.597222 P5+
0.461296 0.422592 0.537297 P5+
0.808320 0.116640 0.520299 P5+
0.053033 0.106066 0.924242 N3-
0.331968 0.663935 0.979508 N3-
0.360725 0.721450 0.847319 N3-
0.639660 0.279320 0.902585 N3-
0.668418 0.336835 0.770396 N3-
0.947352 0.894705 0.825662 N3-
0.976110 0.952220 0.693473 N3-
0.255045 0.510089 0.748739 N3-
0.283802 0.567604 0.616549 N3-
0.562737 0.125474 0.671816 N3-
0.591494 0.182989 0.539626 N3-
0.870429 0.740858 0.594893 N3-
0.899187 0.798374 0.462703 N3-
0.178122 0.356243 0.517970 N3-
0.819500 0.385001 0.951875 O2-
0.911654 0.077308 0.990336 O2-
0.127193 0.000385 0.874952 O2-
0.219346 0.692693 0.913413 O2-
0.434885 0.615770 0.798029 O2-
0.527039 0.308078 0.836490 O2-
0.742577 0.231154 0.721106 O2-
0.834731 0.923462 0.759567 O2-
0.050270 0.846539 0.644183 O2-
0.142423 0.538847 0.682644 O2-
0.357962 0.461924 0.567260 O2-
0.450116 0.154231 0.605721 O2-
0.665654 0.077308 0.490336 O2-
0.757808 0.769616 0.528798 O2-
