Li56 P56
1.0
4.931949 0.000000 -2.639560
0.000000 4.970385 0.000000
0.000000 0.000000 102.507508
Li P
56 56
direct
0.217008 0.388247 0.007930 Li+
0.782992 0.888247 0.092070 Li+
0.782992 0.611753 0.042070 Li+
0.217008 0.111753 0.057930 Li+
0.225768 0.658316 0.077979 Li+
0.774232 0.158316 0.022021 Li+
0.774232 0.341684 0.072021 Li+
0.225768 0.841684 0.027979 Li+
0.217008 0.388247 0.107930 Li+
0.782992 0.888247 0.192070 Li+
0.782992 0.611753 0.142070 Li+
0.217008 0.111753 0.157930 Li+
0.225768 0.658316 0.177979 Li+
0.774232 0.158316 0.122021 Li+
0.774232 0.341684 0.172021 Li+
0.225768 0.841684 0.127979 Li+
0.217008 0.388247 0.207930 Li+
0.782992 0.888247 0.292070 Li+
0.782992 0.611753 0.242070 Li+
0.217008 0.111753 0.257930 Li+
0.225768 0.658316 0.277979 Li+
0.774232 0.158316 0.222021 Li+
0.774232 0.341684 0.272021 Li+
0.225768 0.841684 0.227979 Li+
0.217008 0.388247 0.307930 Li+
0.782992 0.888247 0.392070 Li+
0.782992 0.611753 0.342070 Li+
0.217008 0.111753 0.357930 Li+
0.225768 0.658316 0.377979 Li+
0.774232 0.158316 0.322021 Li+
0.774232 0.341684 0.372021 Li+
0.225768 0.841684 0.327979 Li+
0.217008 0.388247 0.407930 Li+
0.782992 0.888247 0.492070 Li+
0.782992 0.611753 0.442070 Li+
0.217008 0.111753 0.457930 Li+
0.225768 0.658316 0.477979 Li+
0.774232 0.158316 0.422021 Li+
0.774232 0.341684 0.472021 Li+
0.225768 0.841684 0.427979 Li+
0.217008 0.388247 0.507930 Li+
0.782992 0.888247 0.592070 Li+
0.782992 0.611753 0.542070 Li+
0.217008 0.111753 0.557930 Li+
0.225768 0.658316 0.577979 Li+
0.774232 0.158316 0.522021 Li+
0.774232 0.341684 0.572021 Li+
0.225768 0.841684 0.527979 Li+
0.217008 0.388247 0.607930 Li+
0.782992 0.888247 0.692070 Li+
0.782992 0.611753 0.642070 Li+
0.217008 0.111753 0.657930 Li+
0.225768 0.658316 0.677979 Li+
0.774232 0.158316 0.622021 Li+
0.774232 0.341684 0.672021 Li+
0.225768 0.841684 0.627979 Li+
0.316645 0.894904 0.004292 P-
0.683355 0.394904 0.095708 P-
0.683355 0.105096 0.045708 P-
0.316645 0.605096 0.054292 P-
0.303182 0.156027 0.086174 P-
0.696818 0.656027 0.013826 P-
0.696818 0.843973 0.063826 P-
0.303182 0.343973 0.036174 P-
0.316645 0.894904 0.104292 P-
0.683355 0.394904 0.195708 P-
0.683355 0.105096 0.145708 P-
0.316645 0.605096 0.154292 P-
0.303182 0.156027 0.186174 P-
0.696818 0.656027 0.113826 P-
0.696818 0.843973 0.163826 P-
0.303182 0.343973 0.136174 P-
0.316645 0.894904 0.204292 P-
0.683355 0.394904 0.295708 P-
0.683355 0.105096 0.245708 P-
0.316645 0.605096 0.254292 P-
0.303182 0.156027 0.286174 P-
0.696818 0.656027 0.213826 P-
0.696818 0.843973 0.263826 P-
0.303182 0.343973 0.236174 P-
0.316645 0.894904 0.304292 P-
0.683355 0.394904 0.395708 P-
0.683355 0.105096 0.345708 P-
0.316645 0.605096 0.354292 P-
0.303182 0.156027 0.386174 P-
0.696818 0.656027 0.313826 P-
0.696818 0.843973 0.363826 P-
0.303182 0.343973 0.336174 P-
0.316645 0.894904 0.404292 P-
0.683355 0.394904 0.495708 P-
0.683355 0.105096 0.445708 P-
0.316645 0.605096 0.454292 P-
0.303182 0.156027 0.486174 P-
0.696818 0.656027 0.413826 P-
0.696818 0.843973 0.463826 P-
0.303182 0.343973 0.436174 P-
0.316645 0.894904 0.504292 P-
0.683355 0.394904 0.595708 P-
0.683355 0.105096 0.545708 P-
0.316645 0.605096 0.554292 P-
0.303182 0.156027 0.586174 P-
0.696818 0.656027 0.513826 P-
0.696818 0.843973 0.563826 P-
0.303182 0.343973 0.536174 P-
0.316645 0.894904 0.604292 P-
0.683355 0.394904 0.695708 P-
0.683355 0.105096 0.645708 P-
0.316645 0.605096 0.654292 P-
0.303182 0.156027 0.686174 P-
0.696818 0.656027 0.613826 P-
0.696818 0.843973 0.663826 P-
0.303182 0.343973 0.636174 P-
