Li140 P140 O420
1.0
13.312980 0.000000 -5.521558
2.677750 16.540545 0.000000
0.000000 0.000000 60.737138
Li P O
140 140 420
direct
0.944698 0.181780 0.040125 Li+
0.444698 0.681780 0.084599 Li+
0.822834 0.065996 0.029973 Li+
0.322834 0.565996 0.072594 Li+
0.702414 0.950543 0.017083 Li+
0.202414 0.450543 0.063589 Li+
0.582845 0.835452 0.006082 Li+
0.082845 0.335452 0.052850 Li+
0.512460 0.758434 0.046451 Li+
0.012460 0.258434 0.090594 Li+
0.942549 0.681714 0.037513 Li+
0.442549 0.181714 0.086821 Li+
0.821455 0.566270 0.030584 Li+
0.321455 0.066270 0.071732 Li+
0.702271 0.449547 0.014573 Li+
0.202271 0.949547 0.066073 Li+
0.582496 0.332984 0.008731 Li+
0.082496 0.832984 0.050138 Li+
0.510463 0.256366 0.049169 Li+
0.010463 0.756366 0.087513 Li+
0.944698 0.181780 0.131034 Li+
0.444698 0.681780 0.175508 Li+
0.822834 0.065996 0.120882 Li+
0.322834 0.565996 0.163504 Li+
0.702414 0.950543 0.107992 Li+
0.202414 0.450543 0.154499 Li+
0.582845 0.835452 0.096992 Li+
0.082845 0.335452 0.143760 Li+
0.512460 0.758434 0.137360 Li+
0.012460 0.258434 0.181503 Li+
0.942549 0.681714 0.128422 Li+
0.442549 0.181714 0.177730 Li+
0.821455 0.566270 0.121493 Li+
0.321455 0.066270 0.162641 Li+
0.702271 0.449547 0.105482 Li+
0.202271 0.949547 0.156982 Li+
0.582496 0.332984 0.099640 Li+
0.082496 0.832984 0.141047 Li+
0.510463 0.256366 0.140078 Li+
0.010463 0.756366 0.178422 Li+
0.944698 0.181780 0.221943 Li+
0.444698 0.681780 0.266417 Li+
0.822834 0.065996 0.211791 Li+
0.322834 0.565996 0.254413 Li+
0.702414 0.950543 0.198901 Li+
0.202414 0.450543 0.245408 Li+
0.582845 0.835452 0.187901 Li+
0.082845 0.335452 0.234669 Li+
0.512460 0.758434 0.228269 Li+
0.012460 0.258434 0.272412 Li+
0.942549 0.681714 0.219331 Li+
0.442549 0.181714 0.268639 Li+
0.821455 0.566270 0.212403 Li+
0.321455 0.066270 0.253550 Li+
0.702271 0.449547 0.196392 Li+
0.202271 0.949547 0.247892 Li+
0.582496 0.332984 0.190550 Li+
0.082496 0.832984 0.231956 Li+
0.510463 0.256366 0.230987 Li+
0.010463 0.756366 0.269331 Li+
0.944698 0.181780 0.312852 Li+
0.444698 0.681780 0.357326 Li+
0.822834 0.065996 0.302700 Li+
0.322834 0.565996 0.345322 Li+
0.702414 0.950543 0.289811 Li+
0.202414 0.450543 0.336317 Li+
0.582845 0.835452 0.278810 Li+
0.082845 0.335452 0.325578 Li+
0.512460 0.758434 0.319178 Li+
0.012460 0.258434 0.363321 Li+
0.942549 0.681714 0.310240 Li+
0.442549 0.181714 0.359548 Li+
0.821455 0.566270 0.303312 Li+
0.321455 0.066270 0.344459 Li+
0.702271 0.449547 0.287301 Li+
0.202271 0.949547 0.338801 Li+
0.582496 0.332984 0.281459 Li+
0.082496 0.832984 0.322865 Li+
0.510463 0.256366 0.321896 Li+
0.010463 0.756366 0.360240 Li+
0.944698 0.181780 0.403762 Li+
0.444698 0.681780 0.448236 Li+
0.822834 0.065996 0.393609 Li+
0.322834 0.565996 0.436231 Li+
0.702414 0.950543 0.380720 Li+
0.202414 0.450543 0.427226 Li+
0.582845 0.835452 0.369719 Li+
0.082845 0.335452 0.416487 Li+
0.512460 0.758434 0.410088 Li+
0.012460 0.258434 0.454230 Li+
0.942549 0.681714 0.401149 Li+
0.442549 0.181714 0.450457 Li+
0.821455 0.566270 0.394221 Li+
0.321455 0.066270 0.435369 Li+
0.702271 0.449547 0.378210 Li+
0.202271 0.949547 0.429710 Li+
0.582496 0.332984 0.372368 Li+
0.082496 0.832984 0.413774 Li+
0.510463 0.256366 0.412805 Li+
0.010463 0.756366 0.451149 Li+
0.944698 0.181780 0.494671 Li+
0.444698 0.681780 0.539145 Li+
0.822834 0.065996 0.484518 Li+
0.322834 0.565996 0.527140 Li+
0.702414 0.950543 0.471629 Li+
0.202414 0.450543 0.518135 Li+
0.582845 0.835452 0.460628 Li+
0.082845 0.335452 0.507396 Li+
0.512460 0.758434 0.500997 Li+
0.012460 0.258434 0.545139 Li+
0.942549 0.681714 0.492058 Li+
0.442549 0.181714 0.541366 Li+
0.821455 0.566270 0.485130 Li+
0.321455 0.066270 0.526278 Li+
0.702271 0.449547 0.469119 Li+
0.202271 0.949547 0.520619 Li+
0.582496 0.332984 0.463277 Li+
0.082496 0.832984 0.504684 Li+
0.510463 0.256366 0.503715 Li+
0.010463 0.756366 0.542058 Li+
0.944698 0.181780 0.585580 Li+
0.444698 0.681780 0.630054 Li+
0.822834 0.065996 0.575427 Li+
0.322834 0.565996 0.618049 Li+
0.702414 0.950543 0.562538 Li+
0.202414 0.450543 0.609044 Li+
0.582845 0.835452 0.551537 Li+
0.082845 0.335452 0.598305 Li+
0.512460 0.758434 0.591906 Li+
0.012460 0.258434 0.636048 Li+
0.942549 0.681714 0.582967 Li+
0.442549 0.181714 0.632275 Li+
0.821455 0.566270 0.576039 Li+
0.321455 0.066270 0.617187 Li+
0.702271 0.449547 0.560028 Li+
0.202271 0.949547 0.611528 Li+
0.582496 0.332984 0.554186 Li+
0.082496 0.832984 0.595593 Li+
0.510463 0.256366 0.594624 Li+
0.010463 0.756366 0.632967 Li+
0.001192 0.999587 0.073373 P5+
0.501192 0.499587 0.061623 P5+
0.887667 0.906720 0.003240 P5+
0.387667 0.406720 0.020206 P5+
0.795924 0.802939 0.054433 P5+
0.295924 0.302939 0.043241 P5+
0.716706 0.691689 0.079910 P5+
0.216706 0.191689 0.003361 P5+
0.616650 0.591751 0.040745 P5+
0.116650 0.091751 0.024334 P5+
0.909487 0.425433 0.005168 P5+
0.409487 0.925433 0.022246 P5+
0.808986 0.325562 0.056905 P5+
0.308986 0.825562 0.043145 P5+
0.730132 0.213545 0.082649 P5+
0.230132 0.713545 0.003063 P5+
0.637722 0.110144 0.043373 P5+
0.137722 0.610144 0.025537 P5+
0.524425 0.017155 0.064168 P5+
0.024425 0.517155 0.075053 P5+
0.001192 0.999587 0.164282 P5+
0.501192 0.499587 0.152532 P5+
0.887667 0.906720 0.094149 P5+
0.387667 0.406720 0.111115 P5+
0.795924 0.802939 0.145342 P5+
0.295924 0.302939 0.134150 P5+
0.716706 0.691689 0.170820 P5+
0.216706 0.191689 0.094270 P5+
0.616650 0.591751 0.131654 P5+
0.116650 0.091751 0.115243 P5+
0.909487 0.425433 0.096077 P5+
0.409487 0.925433 0.113155 P5+
0.808986 0.325562 0.147814 P5+
0.308986 0.825562 0.134054 P5+
0.730132 0.213545 0.173558 P5+
0.230132 0.713545 0.093972 P5+
0.637722 0.110144 0.134282 P5+
0.137722 0.610144 0.116446 P5+
0.524425 0.017155 0.155077 P5+
0.024425 0.517155 0.165962 P5+
0.001192 0.999587 0.255191 P5+
0.501192 0.499587 0.243441 P5+
0.887667 0.906720 0.185058 P5+
0.387667 0.406720 0.202025 P5+
0.795924 0.802939 0.236251 P5+
0.295924 0.302939 0.225059 P5+
0.716706 0.691689 0.261729 P5+
0.216706 0.191689 0.185179 P5+
0.616650 0.591751 0.222563 P5+
0.116650 0.091751 0.206152 P5+
0.909487 0.425433 0.186986 P5+
0.409487 0.925433 0.204064 P5+
0.808986 0.325562 0.238723 P5+
0.308986 0.825562 0.224963 P5+
0.730132 0.213545 0.264467 P5+
0.230132 0.713545 0.184881 P5+
0.637722 0.110144 0.225192 P5+
0.137722 0.610144 0.207355 P5+
0.524425 0.017155 0.245986 P5+
0.024425 0.517155 0.256871 P5+
0.001192 0.999587 0.346100 P5+
0.501192 0.499587 0.334350 P5+
0.887667 0.906720 0.275967 P5+
0.387667 0.406720 0.292934 P5+
0.795924 0.802939 0.327161 P5+
0.295924 0.302939 0.315969 P5+
0.716706 0.691689 0.352638 P5+
0.216706 0.191689 0.276088 P5+
0.616650 0.591751 0.313472 P5+
0.116650 0.091751 0.297061 P5+
0.909487 0.425433 0.277895 P5+
0.409487 0.925433 0.294973 P5+
0.808986 0.325562 0.329632 P5+
0.308986 0.825562 0.315872 P5+
0.730132 0.213545 0.355376 P5+
0.230132 0.713545 0.275791 P5+
0.637722 0.110144 0.316101 P5+
0.137722 0.610144 0.298264 P5+
0.524425 0.017155 0.336895 P5+
0.024425 0.517155 0.347780 P5+
0.001192 0.999587 0.437009 P5+
0.501192 0.499587 0.425260 P5+
0.887667 0.906720 0.366876 P5+
0.387667 0.406720 0.383843 P5+
0.795924 0.802939 0.418070 P5+
0.295924 0.302939 0.406878 P5+
0.716706 0.691689 0.443547 P5+
0.216706 0.191689 0.366997 P5+
0.616650 0.591751 0.404382 P5+
0.116650 0.091751 0.387970 P5+
0.909487 0.425433 0.368804 P5+
0.409487 0.925433 0.385882 P5+
0.808986 0.325562 0.420541 P5+
0.308986 0.825562 0.406781 P5+
0.730132 0.213545 0.446285 P5+
0.230132 0.713545 0.366700 P5+
0.637722 0.110144 0.407010 P5+
0.137722 0.610144 0.389174 P5+
0.524425 0.017155 0.427804 P5+
0.024425 0.517155 0.438689 P5+
0.001192 0.999587 0.527918 P5+
0.501192 0.499587 0.516169 P5+
0.887667 0.906720 0.457785 P5+
0.387667 0.406720 0.474752 P5+
0.795924 0.802939 0.508979 P5+
0.295924 0.302939 0.497787 P5+
0.716706 0.691689 0.534456 P5+
0.216706 0.191689 0.457906 P5+
0.616650 0.591751 0.495291 P5+
0.116650 0.091751 0.478880 P5+
0.909487 0.425433 0.459713 P5+
0.409487 0.925433 0.476791 P5+
0.808986 0.325562 0.511450 P5+
0.308986 0.825562 0.497690 P5+
0.730132 0.213545 0.537195 P5+
0.230132 0.713545 0.457609 P5+
0.637722 0.110144 0.497919 P5+
0.137722 0.610144 0.480083 P5+
0.524425 0.017155 0.518713 P5+
0.024425 0.517155 0.529598 P5+
0.001192 0.999587 0.618827 P5+
0.501192 0.499587 0.607078 P5+
0.887667 0.906720 0.548694 P5+
0.387667 0.406720 0.565661 P5+
0.795924 0.802939 0.599888 P5+
0.295924 0.302939 0.588696 P5+
0.716706 0.691689 0.625365 P5+
0.216706 0.191689 0.548815 P5+
0.616650 0.591751 0.586200 P5+
0.116650 0.091751 0.569789 P5+
0.909487 0.425433 0.550622 P5+
0.409487 0.925433 0.567700 P5+
0.808986 0.325562 0.602359 P5+
0.308986 0.825562 0.588599 P5+
0.730132 0.213545 0.628104 P5+
0.230132 0.713545 0.548518 P5+
0.637722 0.110144 0.588828 P5+
0.137722 0.610144 0.570992 P5+
0.524425 0.017155 0.609622 P5+
0.024425 0.517155 0.620507 P5+
0.905428 0.964587 0.075247 O2-
0.405428 0.464587 0.042338 O2-
0.800449 0.859372 0.076423 O2-
0.300449 0.359372 0.022075 O2-
0.757206 0.724144 0.060770 O2-
0.257206 0.224144 0.029865 O2-
0.685355 0.607741 0.068178 O2-
0.185355 0.107741 0.009393 O2-
0.058300 0.021852 0.009779 O2-
0.558300 0.521852 0.044692 O2-
0.840686 0.409378 0.068654 O2-
0.340686 0.909378 0.037159 O2-
0.772630 0.290596 0.076552 O2-
0.272630 0.790596 0.016887 O2-
0.726756 0.156445 0.060798 O2-
0.226756 0.656445 0.024301 O2-
0.618048 0.056520 0.062777 O2-
0.118048 0.556520 0.002556 O2-
0.967956 0.495673 0.001323 O2-
0.467956 0.995673 0.036721 O2-
0.955284 0.073889 0.056707 O2-
0.455284 0.573889 0.069942 O2-
0.071165 0.933926 0.068048 O2-
0.571165 0.433926 0.079670 O2-
0.836724 0.958651 0.016767 O2-
0.336724 0.458651 0.088326 O2-
0.982201 0.846743 0.016198 O2-
0.482201 0.346743 0.024436 O2-
0.714989 0.845353 0.032209 O2-
0.214989 0.345353 0.050750 O2-
0.902007 0.775410 0.055592 O2-
0.402007 0.275410 0.061370 O2-
0.622035 0.747295 0.078343 O2-
0.122035 0.247295 0.078624 O2-
0.803128 0.669352 0.012557 O2-
0.303128 0.169352 0.086428 O2-
0.542257 0.667159 0.028947 O2-
0.042257 0.167159 0.022606 O2-
0.685603 0.553292 0.029192 O2-
0.185603 0.053292 0.048424 O2-
0.839056 0.463335 0.016405 O2-
0.339056 0.963335 0.089112 O2-
0.984307 0.350606 0.017236 O2-
0.484307 0.850606 0.023781 O2-
0.720379 0.348215 0.033716 O2-
0.220379 0.848215 0.050223 O2-
0.903854 0.271458 0.057918 O2-
0.403854 0.771458 0.059380 O2-
0.623095 0.241625 0.080786 O2-
0.123095 0.741625 0.076374 O2-
0.808921 0.171199 0.014296 O2-
0.308921 0.671199 0.085742 O2-
0.543593 0.170027 0.029964 O2-
0.043593 0.670027 0.021832 O2-
0.687356 0.055640 0.030122 O2-
0.187356 0.555640 0.047812 O2-
0.452378 0.080441 0.069654 O2-
0.952378 0.580441 0.056467 O2-
0.572944 0.942366 0.080483 O2-
0.072944 0.442366 0.067559 O2-
0.905428 0.964587 0.166156 O2-
0.405428 0.464587 0.133247 O2-
0.800449 0.859372 0.167332 O2-
0.300449 0.359372 0.112984 O2-
0.757206 0.724144 0.151679 O2-
0.257206 0.224144 0.120774 O2-
0.685355 0.607741 0.159087 O2-
0.185355 0.107741 0.100302 O2-
0.058300 0.021852 0.100688 O2-
0.558300 0.521852 0.135601 O2-
0.840686 0.409378 0.159563 O2-
0.340686 0.909378 0.128068 O2-
0.772630 0.290596 0.167461 O2-
0.272630 0.790596 0.107796 O2-
0.726756 0.156445 0.151707 O2-
0.226756 0.656445 0.115210 O2-
0.618048 0.056520 0.153686 O2-
0.118048 0.556520 0.093466 O2-
0.967956 0.495673 0.092232 O2-
0.467956 0.995673 0.127630 O2-
0.955284 0.073889 0.147616 O2-
0.455284 0.573889 0.160851 O2-
0.071165 0.933926 0.158958 O2-
0.571165 0.433926 0.170579 O2-
0.836724 0.958651 0.107676 O2-
0.336724 0.458651 0.179235 O2-
0.982201 0.846743 0.107107 O2-
0.482201 0.346743 0.115345 O2-
0.714989 0.845353 0.123118 O2-
0.214989 0.345353 0.141659 O2-
0.902007 0.775410 0.146501 O2-
0.402007 0.275410 0.152279 O2-
0.622035 0.747295 0.169252 O2-
0.122035 0.247295 0.169533 O2-
0.803128 0.669352 0.103466 O2-
0.303128 0.169352 0.177337 O2-
0.542257 0.667159 0.119857 O2-
0.042257 0.167159 0.113515 O2-
0.685603 0.553292 0.120101 O2-
0.185603 0.053292 0.139333 O2-
0.839056 0.463335 0.107314 O2-
0.339056 0.963335 0.180021 O2-
0.984307 0.350606 0.108145 O2-
0.484307 0.850606 0.114690 O2-
0.720379 0.348215 0.124625 O2-
0.220379 0.848215 0.141133 O2-
0.903854 0.271458 0.148827 O2-
0.403854 0.771458 0.150289 O2-
0.623095 0.241625 0.171695 O2-
0.123095 0.741625 0.167283 O2-
0.808921 0.171199 0.105205 O2-
0.308921 0.671199 0.176651 O2-
0.543593 0.170027 0.120873 O2-
0.043593 0.670027 0.112741 O2-
0.687356 0.055640 0.121032 O2-
0.187356 0.555640 0.138722 O2-
0.452378 0.080441 0.160563 O2-
0.952378 0.580441 0.147376 O2-
0.572944 0.942366 0.171392 O2-
0.072944 0.442366 0.158468 O2-
0.905428 0.964587 0.257065 O2-
0.405428 0.464587 0.224156 O2-
0.800449 0.859372 0.258241 O2-
0.300449 0.359372 0.203893 O2-
0.757206 0.724144 0.242589 O2-
0.257206 0.224144 0.211683 O2-
0.685355 0.607741 0.249996 O2-
0.185355 0.107741 0.191211 O2-
0.058300 0.021852 0.191597 O2-
0.558300 0.521852 0.226510 O2-
0.840686 0.409378 0.250472 O2-
0.340686 0.909378 0.218978 O2-
0.772630 0.290596 0.258370 O2-
0.272630 0.790596 0.198705 O2-
0.726756 0.156445 0.242616 O2-
0.226756 0.656445 0.206119 O2-
0.618048 0.056520 0.244595 O2-
0.118048 0.556520 0.184375 O2-
0.967956 0.495673 0.183141 O2-
0.467956 0.995673 0.218539 O2-
0.955284 0.073889 0.238525 O2-
0.455284 0.573889 0.251760 O2-
0.071165 0.933926 0.249867 O2-
0.571165 0.433926 0.261488 O2-
0.836724 0.958651 0.198585 O2-
0.336724 0.458651 0.270144 O2-
0.982201 0.846743 0.198017 O2-
0.482201 0.346743 0.206254 O2-
0.714989 0.845353 0.214027 O2-
0.214989 0.345353 0.232568 O2-
0.902007 0.775410 0.237410 O2-
0.402007 0.275410 0.243189 O2-
0.622035 0.747295 0.260161 O2-
0.122035 0.247295 0.260442 O2-
0.803128 0.669352 0.194375 O2-
0.303128 0.169352 0.268246 O2-
0.542257 0.667159 0.210766 O2-
0.042257 0.167159 0.204424 O2-
0.685603 0.553292 0.211010 O2-
0.185603 0.053292 0.230242 O2-
0.839056 0.463335 0.198223 O2-
0.339056 0.963335 0.270930 O2-
0.984307 0.350606 0.199054 O2-
0.484307 0.850606 0.205599 O2-
0.720379 0.348215 0.215534 O2-
0.220379 0.848215 0.232042 O2-
0.903854 0.271458 0.239736 O2-
0.403854 0.771458 0.241199 O2-
0.623095 0.241625 0.262604 O2-
0.123095 0.741625 0.258192 O2-
0.808921 0.171199 0.196114 O2-
0.308921 0.671199 0.267560 O2-
0.543593 0.170027 0.211782 O2-
0.043593 0.670027 0.203650 O2-
0.687356 0.055640 0.211941 O2-
0.187356 0.555640 0.229631 O2-
0.452378 0.080441 0.251472 O2-
0.952378 0.580441 0.238285 O2-
0.572944 0.942366 0.262301 O2-
0.072944 0.442366 0.249377 O2-
0.905428 0.964587 0.347974 O2-
0.405428 0.464587 0.315065 O2-
0.800449 0.859372 0.349150 O2-
0.300449 0.359372 0.294802 O2-
0.757206 0.724144 0.333498 O2-
0.257206 0.224144 0.302592 O2-
0.685355 0.607741 0.340905 O2-
0.185355 0.107741 0.282120 O2-
0.058300 0.021852 0.282506 O2-
0.558300 0.521852 0.317419 O2-
0.840686 0.409378 0.341381 O2-
0.340686 0.909378 0.309887 O2-
0.772630 0.290596 0.349280 O2-
0.272630 0.790596 0.289614 O2-
0.726756 0.156445 0.333525 O2-
0.226756 0.656445 0.297028 O2-
0.618048 0.056520 0.335504 O2-
0.118048 0.556520 0.275284 O2-
0.967956 0.495673 0.274050 O2-
0.467956 0.995673 0.309448 O2-
0.955284 0.073889 0.329434 O2-
0.455284 0.573889 0.342670 O2-
0.071165 0.933926 0.340776 O2-
0.571165 0.433926 0.352397 O2-
0.836724 0.958651 0.289494 O2-
0.336724 0.458651 0.361053 O2-
0.982201 0.846743 0.288926 O2-
0.482201 0.346743 0.297163 O2-
0.714989 0.845353 0.304936 O2-
0.214989 0.345353 0.323477 O2-
0.902007 0.775410 0.328319 O2-
0.402007 0.275410 0.334098 O2-
0.622035 0.747295 0.351070 O2-
0.122035 0.247295 0.351352 O2-
0.803128 0.669352 0.285284 O2-
0.303128 0.169352 0.359155 O2-
0.542257 0.667159 0.301675 O2-
0.042257 0.167159 0.295333 O2-
0.685603 0.553292 0.301919 O2-
0.185603 0.053292 0.321151 O2-
0.839056 0.463335 0.289132 O2-
0.339056 0.963335 0.361839 O2-
0.984307 0.350606 0.289963 O2-
0.484307 0.850606 0.296508 O2-
0.720379 0.348215 0.306443 O2-
0.220379 0.848215 0.322951 O2-
0.903854 0.271458 0.330645 O2-
0.403854 0.771458 0.332108 O2-
0.623095 0.241625 0.353513 O2-
0.123095 0.741625 0.349101 O2-
0.808921 0.171199 0.287023 O2-
0.308921 0.671199 0.358469 O2-
0.543593 0.170027 0.302692 O2-
0.043593 0.670027 0.294559 O2-
0.687356 0.055640 0.302850 O2-
0.187356 0.555640 0.320540 O2-
0.452378 0.080441 0.342381 O2-
0.952378 0.580441 0.329194 O2-
0.572944 0.942366 0.353211 O2-
0.072944 0.442366 0.340286 O2-
0.905428 0.964587 0.438883 O2-
0.405428 0.464587 0.405974 O2-
0.800449 0.859372 0.440059 O2-
0.300449 0.359372 0.385711 O2-
0.757206 0.724144 0.424407 O2-
0.257206 0.224144 0.393501 O2-
0.685355 0.607741 0.431815 O2-
0.185355 0.107741 0.373029 O2-
0.058300 0.021852 0.373415 O2-
0.558300 0.521852 0.408328 O2-
0.840686 0.409378 0.432290 O2-
0.340686 0.909378 0.400796 O2-
0.772630 0.290596 0.440189 O2-
0.272630 0.790596 0.380523 O2-
0.726756 0.156445 0.424434 O2-
0.226756 0.656445 0.387937 O2-
0.618048 0.056520 0.426413 O2-
0.118048 0.556520 0.366193 O2-
0.967956 0.495673 0.364959 O2-
0.467956 0.995673 0.400358 O2-
0.955284 0.073889 0.420343 O2-
0.455284 0.573889 0.433579 O2-
0.071165 0.933926 0.431685 O2-
0.571165 0.433926 0.443306 O2-
0.836724 0.958651 0.380403 O2-
0.336724 0.458651 0.451962 O2-
0.982201 0.846743 0.379835 O2-
0.482201 0.346743 0.388072 O2-
0.714989 0.845353 0.395846 O2-
0.214989 0.345353 0.414386 O2-
0.902007 0.775410 0.419228 O2-
0.402007 0.275410 0.425007 O2-
0.622035 0.747295 0.441980 O2-
0.122035 0.247295 0.442261 O2-
0.803128 0.669352 0.376193 O2-
0.303128 0.169352 0.450064 O2-
0.542257 0.667159 0.392584 O2-
0.042257 0.167159 0.386242 O2-
0.685603 0.553292 0.392828 O2-
0.185603 0.053292 0.412061 O2-
0.839056 0.463335 0.380041 O2-
0.339056 0.963335 0.452748 O2-
0.984307 0.350606 0.380872 O2-
0.484307 0.850606 0.387417 O2-
0.720379 0.348215 0.397352 O2-
0.220379 0.848215 0.413860 O2-
0.903854 0.271458 0.421554 O2-
0.403854 0.771458 0.423017 O2-
0.623095 0.241625 0.444422 O2-
0.123095 0.741625 0.440010 O2-
0.808921 0.171199 0.377932 O2-
0.308921 0.671199 0.449378 O2-
0.543593 0.170027 0.393601 O2-
0.043593 0.670027 0.385468 O2-
0.687356 0.055640 0.393759 O2-
0.187356 0.555640 0.411449 O2-
0.452378 0.080441 0.433290 O2-
0.952378 0.580441 0.420103 O2-
0.572944 0.942366 0.444120 O2-
0.072944 0.442366 0.431195 O2-
0.905428 0.964587 0.529792 O2-
0.405428 0.464587 0.496883 O2-
0.800449 0.859372 0.530968 O2-
0.300449 0.359372 0.476620 O2-
0.757206 0.724144 0.515316 O2-
0.257206 0.224144 0.484410 O2-
0.685355 0.607741 0.522724 O2-
0.185355 0.107741 0.463938 O2-
0.058300 0.021852 0.464324 O2-
0.558300 0.521852 0.499237 O2-
0.840686 0.409378 0.523199 O2-
0.340686 0.909378 0.491705 O2-
0.772630 0.290596 0.531098 O2-
0.272630 0.790596 0.471432 O2-
0.726756 0.156445 0.515343 O2-
0.226756 0.656445 0.478846 O2-
0.618048 0.056520 0.517322 O2-
0.118048 0.556520 0.457102 O2-
0.967956 0.495673 0.455868 O2-
0.467956 0.995673 0.491267 O2-
0.955284 0.073889 0.511252 O2-
0.455284 0.573889 0.524488 O2-
0.071165 0.933926 0.522594 O2-
0.571165 0.433926 0.534215 O2-
0.836724 0.958651 0.471312 O2-
0.336724 0.458651 0.542871 O2-
0.982201 0.846743 0.470744 O2-
0.482201 0.346743 0.478981 O2-
0.714989 0.845353 0.486755 O2-
0.214989 0.345353 0.505295 O2-
0.902007 0.775410 0.510137 O2-
0.402007 0.275410 0.515916 O2-
0.622035 0.747295 0.532889 O2-
0.122035 0.247295 0.533170 O2-
0.803128 0.669352 0.467102 O2-
0.303128 0.169352 0.540973 O2-
0.542257 0.667159 0.483493 O2-
0.042257 0.167159 0.477151 O2-
0.685603 0.553292 0.483737 O2-
0.185603 0.053292 0.502970 O2-
0.839056 0.463335 0.470950 O2-
0.339056 0.963335 0.543657 O2-
0.984307 0.350606 0.471782 O2-
0.484307 0.850606 0.478326 O2-
0.720379 0.348215 0.488261 O2-
0.220379 0.848215 0.504769 O2-
0.903854 0.271458 0.512463 O2-
0.403854 0.771458 0.513926 O2-
0.623095 0.241625 0.535332 O2-
0.123095 0.741625 0.530920 O2-
0.808921 0.171199 0.468842 O2-
0.308921 0.671199 0.540287 O2-
0.543593 0.170027 0.484510 O2-
0.043593 0.670027 0.476377 O2-
0.687356 0.055640 0.484668 O2-
0.187356 0.555640 0.502358 O2-
0.452378 0.080441 0.524199 O2-
0.952378 0.580441 0.511012 O2-
0.572944 0.942366 0.535029 O2-
0.072944 0.442366 0.522104 O2-
0.905428 0.964587 0.620701 O2-
0.405428 0.464587 0.587792 O2-
0.800449 0.859372 0.621877 O2-
0.300449 0.359372 0.567529 O2-
0.757206 0.724144 0.606225 O2-
0.257206 0.224144 0.575319 O2-
0.685355 0.607741 0.613633 O2-
0.185355 0.107741 0.554847 O2-
0.058300 0.021852 0.555233 O2-
0.558300 0.521852 0.590146 O2-
0.840686 0.409378 0.614108 O2-
0.340686 0.909378 0.582614 O2-
0.772630 0.290596 0.622007 O2-
0.272630 0.790596 0.562342 O2-
0.726756 0.156445 0.606252 O2-
0.226756 0.656445 0.569755 O2-
0.618048 0.056520 0.608232 O2-
0.118048 0.556520 0.548011 O2-
0.967956 0.495673 0.546777 O2-
0.467956 0.995673 0.582176 O2-
0.955284 0.073889 0.602161 O2-
0.455284 0.573889 0.615397 O2-
0.071165 0.933926 0.613503 O2-
0.571165 0.433926 0.625124 O2-
0.836724 0.958651 0.562221 O2-
0.336724 0.458651 0.633781 O2-
0.982201 0.846743 0.561653 O2-
0.482201 0.346743 0.569890 O2-
0.714989 0.845353 0.577664 O2-
0.214989 0.345353 0.596204 O2-
0.902007 0.775410 0.601047 O2-
0.402007 0.275410 0.606825 O2-
0.622035 0.747295 0.623798 O2-
0.122035 0.247295 0.624079 O2-
0.803128 0.669352 0.558011 O2-
0.303128 0.169352 0.631882 O2-
0.542257 0.667159 0.574402 O2-
0.042257 0.167159 0.568060 O2-
0.685603 0.553292 0.574647 O2-
0.185603 0.053292 0.593879 O2-
0.839056 0.463335 0.561859 O2-
0.339056 0.963335 0.634567 O2-
0.984307 0.350606 0.562691 O2-
0.484307 0.850606 0.569235 O2-
0.720379 0.348215 0.579170 O2-
0.220379 0.848215 0.595678 O2-
0.903854 0.271458 0.603372 O2-
0.403854 0.771458 0.604835 O2-
0.623095 0.241625 0.626241 O2-
0.123095 0.741625 0.621829 O2-
0.808921 0.171199 0.559751 O2-
0.308921 0.671199 0.631196 O2-
0.543593 0.170027 0.575419 O2-
0.043593 0.670027 0.567286 O2-
0.687356 0.055640 0.575577 O2-
0.187356 0.555640 0.593267 O2-
0.452378 0.080441 0.615109 O2-
0.952378 0.580441 0.601921 O2-
0.572944 0.942366 0.625938 O2-
0.072944 0.442366 0.613013 O2-
