Li1 N3
1.0
1.725658 2.924362 0.000386
-1.725658 2.924362 0.000386
0.000000 1.524126 4.902328
Li N
1 3
direct
-0.000000 -0.000000 -0.000000 Li
0.605876 0.605876 0.256533 N
0.394124 0.394124 0.743467 N
0.500000 0.500000 0.500000 N
