Li42 P14 O56
1.0
5.296402 0.000000 -4.922448
0.000000 6.176136 -4.922448
0.000000 0.000000 68.914272
Li P O
42 14 56
direct
0.844520 0.000000 0.053352 Li+
0.155480 0.500000 0.004135 Li+
0.326434 0.747127 0.069637 Li+
0.673566 0.752873 0.059128 Li+
0.673566 0.247127 0.023003 Li+
0.326434 0.252873 0.034333 Li+
0.844520 0.000000 0.124780 Li+
0.155480 0.500000 0.075563 Li+
0.326434 0.747127 0.141065 Li+
0.673566 0.752873 0.130557 Li+
0.673566 0.247127 0.094432 Li+
0.326434 0.252873 0.105761 Li+
0.844520 0.000000 0.196209 Li+
0.155480 0.500000 0.146992 Li+
0.326434 0.747127 0.212494 Li+
0.673566 0.752873 0.201985 Li+
0.673566 0.247127 0.165860 Li+
0.326434 0.252873 0.177190 Li+
0.844520 0.000000 0.267638 Li+
0.155480 0.500000 0.218420 Li+
0.326434 0.747127 0.283922 Li+
0.673566 0.752873 0.273414 Li+
0.673566 0.247127 0.237289 Li+
0.326434 0.252873 0.248619 Li+
0.844520 0.000000 0.339066 Li+
0.155480 0.500000 0.289849 Li+
0.326434 0.747127 0.355351 Li+
0.673566 0.752873 0.344842 Li+
0.673566 0.247127 0.308718 Li+
0.326434 0.252873 0.320047 Li+
0.844520 0.000000 0.410495 Li+
0.155480 0.500000 0.361278 Li+
0.326434 0.747127 0.426780 Li+
0.673566 0.752873 0.416271 Li+
0.673566 0.247127 0.380146 Li+
0.326434 0.252873 0.391476 Li+
0.844520 0.000000 0.481923 Li+
0.155480 0.500000 0.432706 Li+
0.326434 0.747127 0.498208 Li+
0.673566 0.752873 0.487699 Li+
0.673566 0.247127 0.451575 Li+
0.326434 0.252873 0.462904 Li+
0.824261 0.500000 0.015619 P5+
0.175739 0.000000 0.040725 P5+
0.824261 0.500000 0.087048 P5+
0.175739 0.000000 0.112153 P5+
0.824261 0.500000 0.158476 P5+
0.175739 0.000000 0.183582 P5+
0.824261 0.500000 0.229905 P5+
0.175739 0.000000 0.255011 P5+
0.824261 0.500000 0.301334 P5+
0.175739 0.000000 0.326439 P5+
0.824261 0.500000 0.372762 P5+
0.175739 0.000000 0.397868 P5+
0.824261 0.500000 0.444191 P5+
0.175739 0.000000 0.469296 P5+
0.313509 0.207138 0.001475 O2-
0.103508 0.500000 0.042759 O2-
0.818396 0.500000 0.064041 O2-
0.181604 0.000000 0.018556 O2-
0.686491 0.707138 0.028116 O2-
0.313509 0.792862 0.043312 O2-
0.896492 0.000000 0.027972 O2-
0.686491 0.292862 0.069954 O2-
0.313509 0.207138 0.072903 O2-
0.103508 0.500000 0.114187 O2-
0.818396 0.500000 0.135470 O2-
0.181604 0.000000 0.089985 O2-
0.686491 0.707138 0.099545 O2-
0.313509 0.792862 0.114741 O2-
0.896492 0.000000 0.099401 O2-
0.686491 0.292862 0.141382 O2-
0.313509 0.207138 0.144332 O2-
0.103508 0.500000 0.185616 O2-
0.818396 0.500000 0.206898 O2-
0.181604 0.000000 0.161413 O2-
0.686491 0.707138 0.170973 O2-
0.313509 0.792862 0.186169 O2-
0.896492 0.000000 0.170829 O2-
0.686491 0.292862 0.212811 O2-
0.313509 0.207138 0.215760 O2-
0.103508 0.500000 0.257045 O2-
0.818396 0.500000 0.278327 O2-
0.181604 0.000000 0.232842 O2-
0.686491 0.707138 0.242402 O2-
0.313509 0.792862 0.257598 O2-
0.896492 0.000000 0.242258 O2-
0.686491 0.292862 0.284239 O2-
0.313509 0.207138 0.287189 O2-
0.103508 0.500000 0.328473 O2-
0.818396 0.500000 0.349755 O2-
0.181604 0.000000 0.304270 O2-
0.686491 0.707138 0.313831 O2-
0.313509 0.792862 0.329026 O2-
0.896492 0.000000 0.313686 O2-
0.686491 0.292862 0.355668 O2-
0.313509 0.207138 0.358618 O2-
0.103508 0.500000 0.399902 O2-
0.818396 0.500000 0.421184 O2-
0.181604 0.000000 0.375699 O2-
0.686491 0.707138 0.385259 O2-
0.313509 0.792862 0.400455 O2-
0.896492 0.000000 0.385115 O2-
0.686491 0.292862 0.427097 O2-
0.313509 0.207138 0.430046 O2-
0.103508 0.500000 0.471330 O2-
0.818396 0.500000 0.492613 O2-
0.181604 0.000000 0.447127 O2-
0.686491 0.707138 0.456688 O2-
0.313509 0.792862 0.471884 O2-
0.896492 0.000000 0.456543 O2-
0.686491 0.292862 0.498525 O2-
