Li140 P140 O420
1.0
5.521558 0.000000 0.000000
0.000000 16.540545 2.677750
0.000000 0.000000 119.816820
Li P O
140 140 420
direct
0.494607 0.818220 0.096721 Li+
0.505393 0.318220 0.041166 Li+
0.484419 0.934004 0.110262 Li+
0.515581 0.434004 0.054706 Li+
0.505784 0.049457 0.012530 Li+
0.494216 0.549457 0.068086 Li+
0.507224 0.164548 0.025816 Li+
0.492776 0.664548 0.081371 Li+
0.992783 0.241566 0.033636 Li+
0.007217 0.741566 0.089192 Li+
0.521194 0.318286 0.096960 Li+
0.478806 0.818286 0.041404 Li+
0.476313 0.433730 0.110415 Li+
0.523687 0.933730 0.054859 Li+
0.533250 0.550453 0.012546 Li+
0.466750 0.050453 0.068102 Li+
0.477737 0.667016 0.025855 Li+
0.522263 0.167016 0.081410 Li+
0.960889 0.743634 0.033858 Li+
0.039111 0.243634 0.089414 Li+
0.494607 0.818220 0.207832 Li+
0.505393 0.318220 0.152277 Li+
0.484419 0.934004 0.221373 Li+
0.515581 0.434004 0.165817 Li+
0.505784 0.049457 0.123642 Li+
0.494216 0.549457 0.179197 Li+
0.507224 0.164548 0.136927 Li+
0.492776 0.664548 0.192483 Li+
0.992783 0.241566 0.144748 Li+
0.007217 0.741566 0.200303 Li+
0.521194 0.318286 0.208071 Li+
0.478806 0.818286 0.152515 Li+
0.476313 0.433730 0.221526 Li+
0.523687 0.933730 0.165970 Li+
0.533250 0.550453 0.123657 Li+
0.466750 0.050453 0.179213 Li+
0.477737 0.667016 0.136966 Li+
0.522263 0.167016 0.192521 Li+
0.960889 0.743634 0.144969 Li+
0.039111 0.243634 0.200525 Li+
0.494607 0.818220 0.318943 Li+
0.505393 0.318220 0.263388 Li+
0.484419 0.934004 0.332484 Li+
0.515581 0.434004 0.276928 Li+
0.505784 0.049457 0.234753 Li+
0.494216 0.549457 0.290308 Li+
0.507224 0.164548 0.248038 Li+
0.492776 0.664548 0.303594 Li+
0.992783 0.241566 0.255859 Li+
0.007217 0.741566 0.311414 Li+
0.521194 0.318286 0.319182 Li+
0.478806 0.818286 0.263627 Li+
0.476313 0.433730 0.332637 Li+
0.523687 0.933730 0.277081 Li+
0.533250 0.550453 0.234769 Li+
0.466750 0.050453 0.290324 Li+
0.477737 0.667016 0.248077 Li+
0.522263 0.167016 0.303632 Li+
0.960889 0.743634 0.256081 Li+
0.039111 0.243634 0.311636 Li+
0.494607 0.818220 0.430054 Li+
0.505393 0.318220 0.374499 Li+
0.484419 0.934004 0.443595 Li+
0.515581 0.434004 0.388039 Li+
0.505784 0.049457 0.345864 Li+
0.494216 0.549457 0.401419 Li+
0.507224 0.164548 0.359149 Li+
0.492776 0.664548 0.414705 Li+
0.992783 0.241566 0.366970 Li+
0.007217 0.741566 0.422525 Li+
0.521194 0.318286 0.430293 Li+
0.478806 0.818286 0.374738 Li+
0.476313 0.433730 0.443748 Li+
0.523687 0.933730 0.388193 Li+
0.533250 0.550453 0.345880 Li+
0.466750 0.050453 0.401435 Li+
0.477737 0.667016 0.359188 Li+
0.522263 0.167016 0.414744 Li+
0.960889 0.743634 0.367192 Li+
0.039111 0.243634 0.422747 Li+
0.494607 0.818220 0.541166 Li+
0.505393 0.318220 0.485610 Li+
0.484419 0.934004 0.554706 Li+
0.515581 0.434004 0.499150 Li+
0.505784 0.049457 0.456975 Li+
0.494216 0.549457 0.512530 Li+
0.507224 0.164548 0.470260 Li+
0.492776 0.664548 0.525816 Li+
0.992783 0.241566 0.478081 Li+
0.007217 0.741566 0.533636 Li+
0.521194 0.318286 0.541404 Li+
0.478806 0.818286 0.485849 Li+
0.476313 0.433730 0.554859 Li+
0.523687 0.933730 0.499304 Li+
0.533250 0.550453 0.456991 Li+
0.466750 0.050453 0.512546 Li+
0.477737 0.667016 0.470299 Li+
0.522263 0.167016 0.525855 Li+
0.960889 0.743634 0.478303 Li+
0.039111 0.243634 0.533858 Li+
0.494607 0.818220 0.652277 Li+
0.505393 0.318220 0.596721 Li+
0.484419 0.934004 0.665817 Li+
0.515581 0.434004 0.610262 Li+
0.505784 0.049457 0.568086 Li+
0.494216 0.549457 0.623642 Li+
0.507224 0.164548 0.581371 Li+
0.492776 0.664548 0.636927 Li+
0.992783 0.241566 0.589192 Li+
0.007217 0.741566 0.644748 Li+
0.521194 0.318286 0.652515 Li+
0.478806 0.818286 0.596960 Li+
0.476313 0.433730 0.665970 Li+
0.523687 0.933730 0.610415 Li+
0.533250 0.550453 0.568102 Li+
0.466750 0.050453 0.623657 Li+
0.477737 0.667016 0.581410 Li+
0.522263 0.167016 0.636966 Li+
0.960889 0.743634 0.589414 Li+
0.039111 0.243634 0.644969 Li+
0.494607 0.818220 0.763388 Li+
0.505393 0.318220 0.707832 Li+
0.484419 0.934004 0.776928 Li+
0.515581 0.434004 0.721373 Li+
0.505784 0.049457 0.679197 Li+
0.494216 0.549457 0.734753 Li+
0.507224 0.164548 0.692483 Li+
0.492776 0.664548 0.748038 Li+
0.992783 0.241566 0.700303 Li+
0.007217 0.741566 0.755859 Li+
0.521194 0.318286 0.763627 Li+
0.478806 0.818286 0.708071 Li+
0.476313 0.433730 0.777081 Li+
0.523687 0.933730 0.721526 Li+
0.533250 0.550453 0.679213 Li+
0.466750 0.050453 0.734769 Li+
0.477737 0.667016 0.692521 Li+
0.522263 0.167016 0.748077 Li+
0.960889 0.743634 0.700525 Li+
0.039111 0.243634 0.756081 Li+
0.185377 0.000413 0.090444 P5+
0.814623 0.500413 0.034888 P5+
0.843317 0.093280 0.103058 P5+
0.156683 0.593280 0.047502 P5+
0.188444 0.197061 0.002140 P5+
0.811556 0.697061 0.057696 P5+
0.828977 0.308311 0.010942 P5+
0.171023 0.808311 0.066498 P5+
0.159739 0.408249 0.022060 P5+
0.840261 0.908249 0.077615 P5+
0.843930 0.574567 0.100633 P5+
0.156070 0.074567 0.045078 P5+
0.174322 0.674438 0.000689 P5+
0.825678 0.174438 0.056245 P5+
0.812278 0.786455 0.009451 P5+
0.187722 0.286455 0.065006 P5+
0.151901 0.889856 0.019718 P5+
0.848099 0.389856 0.075274 P5+
0.809867 0.982845 0.032307 P5+
0.190133 0.482845 0.087863 P5+
0.185377 0.000413 0.201555 P5+
0.814623 0.500413 0.146000 P5+
0.843317 0.093280 0.214169 P5+
0.156683 0.593280 0.158613 P5+
0.188444 0.197061 0.113252 P5+
0.811556 0.697061 0.168807 P5+
0.828977 0.308311 0.122054 P5+
0.171023 0.808311 0.177609 P5+
0.159739 0.408249 0.133171 P5+
0.840261 0.908249 0.188726 P5+
0.843930 0.574567 0.211745 P5+
0.156070 0.074567 0.156189 P5+
0.174322 0.674438 0.111800 P5+
0.825678 0.174438 0.167356 P5+
0.812278 0.786455 0.120562 P5+
0.187722 0.286455 0.176117 P5+
0.151901 0.889856 0.130830 P5+
0.848099 0.389856 0.186385 P5+
0.809867 0.982845 0.143418 P5+
0.190133 0.482845 0.198974 P5+
0.185377 0.000413 0.312666 P5+
0.814623 0.500413 0.257111 P5+
0.843317 0.093280 0.325280 P5+
0.156683 0.593280 0.269725 P5+
0.188444 0.197061 0.224363 P5+
0.811556 0.697061 0.279918 P5+
0.828977 0.308311 0.233165 P5+
0.171023 0.808311 0.288720 P5+
0.159739 0.408249 0.244282 P5+
0.840261 0.908249 0.299838 P5+
0.843930 0.574567 0.322856 P5+
0.156070 0.074567 0.267300 P5+
0.174322 0.674438 0.222911 P5+
0.825678 0.174438 0.278467 P5+
0.812278 0.786455 0.231673 P5+
0.187722 0.286455 0.287228 P5+
0.151901 0.889856 0.241941 P5+
0.848099 0.389856 0.297496 P5+
0.809867 0.982845 0.254529 P5+
0.190133 0.482845 0.310085 P5+
0.185377 0.000413 0.423777 P5+
0.814623 0.500413 0.368222 P5+
0.843317 0.093280 0.436391 P5+
0.156683 0.593280 0.380836 P5+
0.188444 0.197061 0.335474 P5+
0.811556 0.697061 0.391029 P5+
0.828977 0.308311 0.344276 P5+
0.171023 0.808311 0.399831 P5+
0.159739 0.408249 0.355393 P5+
0.840261 0.908249 0.410949 P5+
0.843930 0.574567 0.433967 P5+
0.156070 0.074567 0.378411 P5+
0.174322 0.674438 0.334022 P5+
0.825678 0.174438 0.389578 P5+
0.812278 0.786455 0.342784 P5+
0.187722 0.286455 0.398340 P5+
0.151901 0.889856 0.353052 P5+
0.848099 0.389856 0.408607 P5+
0.809867 0.982845 0.365640 P5+
0.190133 0.482845 0.421196 P5+
0.185377 0.000413 0.534888 P5+
0.814623 0.500413 0.479333 P5+
0.843317 0.093280 0.547502 P5+
0.156683 0.593280 0.491947 P5+
0.188444 0.197061 0.446585 P5+
0.811556 0.697061 0.502140 P5+
0.828977 0.308311 0.455387 P5+
0.171023 0.808311 0.510942 P5+
0.159739 0.408249 0.466504 P5+
0.840261 0.908249 0.522060 P5+
0.843930 0.574567 0.545078 P5+
0.156070 0.074567 0.489522 P5+
0.174322 0.674438 0.445134 P5+
0.825678 0.174438 0.500689 P5+
0.812278 0.786455 0.453895 P5+
0.187722 0.286455 0.509451 P5+
0.151901 0.889856 0.464163 P5+
0.848099 0.389856 0.519718 P5+
0.809867 0.982845 0.476751 P5+
0.190133 0.482845 0.532307 P5+
0.185377 0.000413 0.646000 P5+
0.814623 0.500413 0.590444 P5+
0.843317 0.093280 0.658613 P5+
0.156683 0.593280 0.603058 P5+
0.188444 0.197061 0.557696 P5+
0.811556 0.697061 0.613252 P5+
0.828977 0.308311 0.566498 P5+
0.171023 0.808311 0.622054 P5+
0.159739 0.408249 0.577615 P5+
0.840261 0.908249 0.633171 P5+
0.843930 0.574567 0.656189 P5+
0.156070 0.074567 0.600633 P5+
0.174322 0.674438 0.556245 P5+
0.825678 0.174438 0.611800 P5+
0.812278 0.786455 0.565006 P5+
0.187722 0.286455 0.620562 P5+
0.151901 0.889856 0.575274 P5+
0.848099 0.389856 0.630830 P5+
0.809867 0.982845 0.587863 P5+
0.190133 0.482845 0.643418 P5+
0.185377 0.000413 0.757111 P5+
0.814623 0.500413 0.701555 P5+
0.843317 0.093280 0.769725 P5+
0.156683 0.593280 0.714169 P5+
0.188444 0.197061 0.668807 P5+
0.811556 0.697061 0.724363 P5+
0.828977 0.308311 0.677609 P5+
0.171023 0.808311 0.733165 P5+
0.159739 0.408249 0.688726 P5+
0.840261 0.908249 0.744282 P5+
0.843930 0.574567 0.767300 P5+
0.156070 0.074567 0.711745 P5+
0.174322 0.674438 0.667356 P5+
0.825678 0.174438 0.722911 P5+
0.812278 0.786455 0.676117 P5+
0.187722 0.286455 0.731673 P5+
0.151901 0.889856 0.686385 P5+
0.848099 0.389856 0.741941 P5+
0.809867 0.982845 0.698974 P5+
0.190133 0.482845 0.754529 P5+
0.069000 0.035413 0.101084 O2-
0.931000 0.535413 0.045529 O2-
0.951087 0.140628 0.001638 O2-
0.048913 0.640628 0.057193 O2-
0.080018 0.275856 0.006442 O2-
0.919982 0.775856 0.061998 O2-
0.926681 0.392259 0.014426 O2-
0.073319 0.892259 0.069981 O2-
0.942022 0.978148 0.084099 O2-
0.057978 0.478148 0.028543 O2-
0.076781 0.590622 0.108278 O2-
0.923219 0.090622 0.052722 O2-
0.921841 0.709404 0.004729 O2-
0.078159 0.209404 0.060284 O2-
0.049265 0.843555 0.009826 O2-
0.950735 0.343555 0.065381 O2-
0.918787 0.943480 0.021904 O2-
0.081213 0.443480 0.077460 O2-
0.944691 0.504327 0.094137 O2-
0.055309 0.004327 0.038581 O2-
0.322795 0.926111 0.095545 O2-
0.677205 0.426111 0.039989 O2-
0.313918 0.066074 0.082669 O2-
0.686082 0.566074 0.027114 O2-
0.643576 0.041349 0.108718 O2-
0.356424 0.541349 0.053163 O2-
0.795305 0.153257 0.092554 O2-
0.204695 0.653257 0.036999 O2-
0.351974 0.154647 0.011133 O2-
0.648026 0.654647 0.066689 O2-
0.281781 0.224590 0.101465 O2-
0.718219 0.724590 0.045909 O2-
0.751546 0.252705 0.021461 O2-
0.248454 0.752705 0.077017 O2-
0.656290 0.330648 0.001340 O2-
0.343710 0.830648 0.056896 O2-
0.215121 0.332841 0.030326 O2-
0.784879 0.832841 0.085881 O2-
0.355777 0.446708 0.014398 O2-
0.644223 0.946708 0.069954 O2-
0.649890 0.536665 0.108459 O2-
0.350110 0.036665 0.052904 O2-
0.785996 0.649394 0.092320 O2-
0.214004 0.149394 0.036765 O2-
0.340793 0.651785 0.010534 O2-
0.659207 0.151785 0.066090 O2-
0.258044 0.728542 0.101259 O2-
0.741956 0.228542 0.045704 O2-
0.725734 0.758375 0.021344 O2-
0.274266 0.258375 0.076899 O2-
0.642950 0.828801 0.000696 O2-
0.357050 0.328801 0.056252 O2-
0.205272 0.829973 0.030177 O2-
0.794728 0.329973 0.085733 O2-
0.347295 0.944360 0.014204 O2-
0.652705 0.444360 0.069759 O2-
0.677470 0.919559 0.040312 O2-
0.322530 0.419559 0.095868 O2-
0.678914 0.057634 0.026916 O2-
0.321086 0.557634 0.082472 O2-
0.069000 0.035413 0.212196 O2-
0.931000 0.535413 0.156640 O2-
0.951087 0.140628 0.112749 O2-
0.048913 0.640628 0.168304 O2-
0.080018 0.275856 0.117554 O2-
0.919982 0.775856 0.173109 O2-
0.926681 0.392259 0.125537 O2-
0.073319 0.892259 0.181093 O2-
0.942022 0.978148 0.195210 O2-
0.057978 0.478148 0.139654 O2-
0.076781 0.590622 0.219389 O2-
0.923219 0.090622 0.163834 O2-
0.921841 0.709404 0.115840 O2-
0.078159 0.209404 0.171395 O2-
0.049265 0.843555 0.120937 O2-
0.950735 0.343555 0.176492 O2-
0.918787 0.943480 0.133016 O2-
0.081213 0.443480 0.188571 O2-
0.944691 0.504327 0.205248 O2-
0.055309 0.004327 0.149692 O2-
0.322795 0.926111 0.206656 O2-
0.677205 0.426111 0.151100 O2-
0.313918 0.066074 0.193780 O2-
0.686082 0.566074 0.138225 O2-
0.643576 0.041349 0.219829 O2-
0.356424 0.541349 0.164274 O2-
0.795305 0.153257 0.203665 O2-
0.204695 0.653257 0.148110 O2-
0.351974 0.154647 0.122244 O2-
0.648026 0.654647 0.177800 O2-
0.281781 0.224590 0.212576 O2-
0.718219 0.724590 0.157020 O2-
0.751546 0.252705 0.132573 O2-
0.248454 0.752705 0.188128 O2-
0.656290 0.330648 0.112451 O2-
0.343710 0.830648 0.168007 O2-
0.215121 0.332841 0.141437 O2-
0.784879 0.832841 0.196992 O2-
0.355777 0.446708 0.125509 O2-
0.644223 0.946708 0.181065 O2-
0.649890 0.536665 0.219570 O2-
0.350110 0.036665 0.164015 O2-
0.785996 0.649394 0.203431 O2-
0.214004 0.149394 0.147876 O2-
0.340793 0.651785 0.121645 O2-
0.659207 0.151785 0.177201 O2-
0.258044 0.728542 0.212370 O2-
0.741956 0.228542 0.156815 O2-
0.725734 0.758375 0.132455 O2-
0.274266 0.258375 0.188010 O2-
0.642950 0.828801 0.111807 O2-
0.357050 0.328801 0.167363 O2-
0.205272 0.829973 0.141288 O2-
0.794728 0.329973 0.196844 O2-
0.347295 0.944360 0.125315 O2-
0.652705 0.444360 0.180870 O2-
0.677470 0.919559 0.151423 O2-
0.322530 0.419559 0.206979 O2-
0.678914 0.057634 0.138027 O2-
0.321086 0.557634 0.193583 O2-
0.069000 0.035413 0.323307 O2-
0.931000 0.535413 0.267751 O2-
0.951087 0.140628 0.223860 O2-
0.048913 0.640628 0.279415 O2-
0.080018 0.275856 0.228665 O2-
0.919982 0.775856 0.284220 O2-
0.926681 0.392259 0.236648 O2-
0.073319 0.892259 0.292204 O2-
0.942022 0.978148 0.306321 O2-
0.057978 0.478148 0.250765 O2-
0.076781 0.590622 0.330500 O2-
0.923219 0.090622 0.274945 O2-
0.921841 0.709404 0.226951 O2-
0.078159 0.209404 0.282506 O2-
0.049265 0.843555 0.232048 O2-
0.950735 0.343555 0.287604 O2-
0.918787 0.943480 0.244127 O2-
0.081213 0.443480 0.299682 O2-
0.944691 0.504327 0.316359 O2-
0.055309 0.004327 0.260804 O2-
0.322795 0.926111 0.317767 O2-
0.677205 0.426111 0.262212 O2-
0.313918 0.066074 0.304891 O2-
0.686082 0.566074 0.249336 O2-
0.643576 0.041349 0.330940 O2-
0.356424 0.541349 0.275385 O2-
0.795305 0.153257 0.314776 O2-
0.204695 0.653257 0.259221 O2-
0.351974 0.154647 0.233355 O2-
0.648026 0.654647 0.288911 O2-
0.281781 0.224590 0.323687 O2-
0.718219 0.724590 0.268131 O2-
0.751546 0.252705 0.243684 O2-
0.248454 0.752705 0.299239 O2-
0.656290 0.330648 0.223562 O2-
0.343710 0.830648 0.279118 O2-
0.215121 0.332841 0.252548 O2-
0.784879 0.832841 0.308103 O2-
0.355777 0.446708 0.236621 O2-
0.644223 0.946708 0.292176 O2-
0.649890 0.536665 0.330681 O2-
0.350110 0.036665 0.275126 O2-
0.785996 0.649394 0.314542 O2-
0.214004 0.149394 0.258987 O2-
0.340793 0.651785 0.232757 O2-
0.659207 0.151785 0.288312 O2-
0.258044 0.728542 0.323482 O2-
0.741956 0.228542 0.267926 O2-
0.725734 0.758375 0.243566 O2-
0.274266 0.258375 0.299121 O2-
0.642950 0.828801 0.222919 O2-
0.357050 0.328801 0.278474 O2-
0.205272 0.829973 0.252399 O2-
0.794728 0.329973 0.307955 O2-
0.347295 0.944360 0.236426 O2-
0.652705 0.444360 0.291981 O2-
0.677470 0.919559 0.262534 O2-
0.322530 0.419559 0.318090 O2-
0.678914 0.057634 0.249138 O2-
0.321086 0.557634 0.304694 O2-
0.069000 0.035413 0.434418 O2-
0.931000 0.535413 0.378862 O2-
0.951087 0.140628 0.334971 O2-
0.048913 0.640628 0.390527 O2-
0.080018 0.275856 0.339776 O2-
0.919982 0.775856 0.395331 O2-
0.926681 0.392259 0.347759 O2-
0.073319 0.892259 0.403315 O2-
0.942022 0.978148 0.417432 O2-
0.057978 0.478148 0.361876 O2-
0.076781 0.590622 0.441611 O2-
0.923219 0.090622 0.386056 O2-
0.921841 0.709404 0.338062 O2-
0.078159 0.209404 0.393618 O2-
0.049265 0.843555 0.343159 O2-
0.950735 0.343555 0.398715 O2-
0.918787 0.943480 0.355238 O2-
0.081213 0.443480 0.410793 O2-
0.944691 0.504327 0.427470 O2-
0.055309 0.004327 0.371915 O2-
0.322795 0.926111 0.428878 O2-
0.677205 0.426111 0.373323 O2-
0.313918 0.066074 0.416003 O2-
0.686082 0.566074 0.360447 O2-
0.643576 0.041349 0.442052 O2-
0.356424 0.541349 0.386496 O2-
0.795305 0.153257 0.425887 O2-
0.204695 0.653257 0.370332 O2-
0.351974 0.154647 0.344467 O2-
0.648026 0.654647 0.400022 O2-
0.281781 0.224590 0.434798 O2-
0.718219 0.724590 0.379242 O2-
0.751546 0.252705 0.354795 O2-
0.248454 0.752705 0.410350 O2-
0.656290 0.330648 0.334673 O2-
0.343710 0.830648 0.390229 O2-
0.215121 0.332841 0.363659 O2-
0.784879 0.832841 0.419215 O2-
0.355777 0.446708 0.347732 O2-
0.644223 0.946708 0.403287 O2-
0.649890 0.536665 0.441792 O2-
0.350110 0.036665 0.386237 O2-
0.785996 0.649394 0.425653 O2-
0.214004 0.149394 0.370098 O2-
0.340793 0.651785 0.343868 O2-
0.659207 0.151785 0.399423 O2-
0.258044 0.728542 0.434593 O2-
0.741956 0.228542 0.379037 O2-
0.725734 0.758375 0.354677 O2-
0.274266 0.258375 0.410233 O2-
0.642950 0.828801 0.334030 O2-
0.357050 0.328801 0.389585 O2-
0.205272 0.829973 0.363511 O2-
0.794728 0.329973 0.419066 O2-
0.347295 0.944360 0.347537 O2-
0.652705 0.444360 0.403092 O2-
0.677470 0.919559 0.373646 O2-
0.322530 0.419559 0.429201 O2-
0.678914 0.057634 0.360249 O2-
0.321086 0.557634 0.415805 O2-
0.069000 0.035413 0.545529 O2-
0.931000 0.535413 0.489973 O2-
0.951087 0.140628 0.446082 O2-
0.048913 0.640628 0.501638 O2-
0.080018 0.275856 0.450887 O2-
0.919982 0.775856 0.506442 O2-
0.926681 0.392259 0.458870 O2-
0.073319 0.892259 0.514426 O2-
0.942022 0.978148 0.528543 O2-
0.057978 0.478148 0.472988 O2-
0.076781 0.590622 0.552722 O2-
0.923219 0.090622 0.497167 O2-
0.921841 0.709404 0.449173 O2-
0.078159 0.209404 0.504729 O2-
0.049265 0.843555 0.454270 O2-
0.950735 0.343555 0.509826 O2-
0.918787 0.943480 0.466349 O2-
0.081213 0.443480 0.521904 O2-
0.944691 0.504327 0.538581 O2-
0.055309 0.004327 0.483026 O2-
0.322795 0.926111 0.539989 O2-
0.677205 0.426111 0.484434 O2-
0.313918 0.066074 0.527114 O2-
0.686082 0.566074 0.471558 O2-
0.643576 0.041349 0.553163 O2-
0.356424 0.541349 0.497607 O2-
0.795305 0.153257 0.536999 O2-
0.204695 0.653257 0.481443 O2-
0.351974 0.154647 0.455578 O2-
0.648026 0.654647 0.511133 O2-
0.281781 0.224590 0.545909 O2-
0.718219 0.724590 0.490353 O2-
0.751546 0.252705 0.465906 O2-
0.248454 0.752705 0.521461 O2-
0.656290 0.330648 0.445784 O2-
0.343710 0.830648 0.501340 O2-
0.215121 0.332841 0.474770 O2-
0.784879 0.832841 0.530326 O2-
0.355777 0.446708 0.458843 O2-
0.644223 0.946708 0.514398 O2-
0.649890 0.536665 0.552904 O2-
0.350110 0.036665 0.497348 O2-
0.785996 0.649394 0.536765 O2-
0.214004 0.149394 0.481209 O2-
0.340793 0.651785 0.454979 O2-
0.659207 0.151785 0.510534 O2-
0.258044 0.728542 0.545704 O2-
0.741956 0.228542 0.490148 O2-
0.725734 0.758375 0.465788 O2-
0.274266 0.258375 0.521344 O2-
0.642950 0.828801 0.445141 O2-
0.357050 0.328801 0.500696 O2-
0.205272 0.829973 0.474622 O2-
0.794728 0.329973 0.530177 O2-
0.347295 0.944360 0.458648 O2-
0.652705 0.444360 0.514204 O2-
0.677470 0.919559 0.484757 O2-
0.322530 0.419559 0.540312 O2-
0.678914 0.057634 0.471360 O2-
0.321086 0.557634 0.526916 O2-
0.069000 0.035413 0.656640 O2-
0.931000 0.535413 0.601084 O2-
0.951087 0.140628 0.557193 O2-
0.048913 0.640628 0.612749 O2-
0.080018 0.275856 0.561998 O2-
0.919982 0.775856 0.617554 O2-
0.926681 0.392259 0.569981 O2-
0.073319 0.892259 0.625537 O2-
0.942022 0.978148 0.639654 O2-
0.057978 0.478148 0.584099 O2-
0.076781 0.590622 0.663834 O2-
0.923219 0.090622 0.608278 O2-
0.921841 0.709404 0.560284 O2-
0.078159 0.209404 0.615840 O2-
0.049265 0.843555 0.565381 O2-
0.950735 0.343555 0.620937 O2-
0.918787 0.943480 0.577460 O2-
0.081213 0.443480 0.633016 O2-
0.944691 0.504327 0.649692 O2-
0.055309 0.004327 0.594137 O2-
0.322795 0.926111 0.651100 O2-
0.677205 0.426111 0.595545 O2-
0.313918 0.066074 0.638225 O2-
0.686082 0.566074 0.582669 O2-
0.643576 0.041349 0.664274 O2-
0.356424 0.541349 0.608718 O2-
0.795305 0.153257 0.648110 O2-
0.204695 0.653257 0.592554 O2-
0.351974 0.154647 0.566689 O2-
0.648026 0.654647 0.622244 O2-
0.281781 0.224590 0.657020 O2-
0.718219 0.724590 0.601465 O2-
0.751546 0.252705 0.577017 O2-
0.248454 0.752705 0.632573 O2-
0.656290 0.330648 0.556896 O2-
0.343710 0.830648 0.612451 O2-
0.215121 0.332841 0.585881 O2-
0.784879 0.832841 0.641437 O2-
0.355777 0.446708 0.569954 O2-
0.644223 0.946708 0.625509 O2-
0.649890 0.536665 0.664015 O2-
0.350110 0.036665 0.608459 O2-
0.785996 0.649394 0.647876 O2-
0.214004 0.149394 0.592320 O2-
0.340793 0.651785 0.566090 O2-
0.659207 0.151785 0.621645 O2-
0.258044 0.728542 0.656815 O2-
0.741956 0.228542 0.601259 O2-
0.725734 0.758375 0.576899 O2-
0.274266 0.258375 0.632455 O2-
0.642950 0.828801 0.556252 O2-
0.357050 0.328801 0.611807 O2-
0.205272 0.829973 0.585733 O2-
0.794728 0.329973 0.641288 O2-
0.347295 0.944360 0.569759 O2-
0.652705 0.444360 0.625315 O2-
0.677470 0.919559 0.595868 O2-
0.322530 0.419559 0.651423 O2-
0.678914 0.057634 0.582472 O2-
0.321086 0.557634 0.638027 O2-
0.069000 0.035413 0.767751 O2-
0.931000 0.535413 0.712196 O2-
0.951087 0.140628 0.668304 O2-
0.048913 0.640628 0.723860 O2-
0.080018 0.275856 0.673109 O2-
0.919982 0.775856 0.728665 O2-
0.926681 0.392259 0.681093 O2-
0.073319 0.892259 0.736648 O2-
0.942022 0.978148 0.750765 O2-
0.057978 0.478148 0.695210 O2-
0.076781 0.590622 0.774945 O2-
0.923219 0.090622 0.719389 O2-
0.921841 0.709404 0.671395 O2-
0.078159 0.209404 0.726951 O2-
0.049265 0.843555 0.676492 O2-
0.950735 0.343555 0.732048 O2-
0.918787 0.943480 0.688571 O2-
0.081213 0.443480 0.744127 O2-
0.944691 0.504327 0.760804 O2-
0.055309 0.004327 0.705248 O2-
0.322795 0.926111 0.762212 O2-
0.677205 0.426111 0.706656 O2-
0.313918 0.066074 0.749336 O2-
0.686082 0.566074 0.693780 O2-
0.643576 0.041349 0.775385 O2-
0.356424 0.541349 0.719829 O2-
0.795305 0.153257 0.759221 O2-
0.204695 0.653257 0.703665 O2-
0.351974 0.154647 0.677800 O2-
0.648026 0.654647 0.733355 O2-
0.281781 0.224590 0.768131 O2-
0.718219 0.724590 0.712576 O2-
0.751546 0.252705 0.688128 O2-
0.248454 0.752705 0.743684 O2-
0.656290 0.330648 0.668007 O2-
0.343710 0.830648 0.723562 O2-
0.215121 0.332841 0.696992 O2-
0.784879 0.832841 0.752548 O2-
0.355777 0.446708 0.681065 O2-
0.644223 0.946708 0.736621 O2-
0.649890 0.536665 0.775126 O2-
0.350110 0.036665 0.719570 O2-
0.785996 0.649394 0.758987 O2-
0.214004 0.149394 0.703431 O2-
0.340793 0.651785 0.677201 O2-
0.659207 0.151785 0.732757 O2-
0.258044 0.728542 0.767926 O2-
0.741956 0.228542 0.712370 O2-
0.725734 0.758375 0.688010 O2-
0.274266 0.258375 0.743566 O2-
0.642950 0.828801 0.667363 O2-
0.357050 0.328801 0.722919 O2-
0.205272 0.829973 0.696844 O2-
0.794728 0.329973 0.752399 O2-
0.347295 0.944360 0.680870 O2-
0.652705 0.444360 0.736426 O2-
0.677470 0.919559 0.706979 O2-
0.322530 0.419559 0.762534 O2-
0.678914 0.057634 0.693583 O2-
0.321086 0.557634 0.749138 O2-
