Li20 P20 O60                            
   1.00000000000000     
     5.4552529999999999    0.0000000000000000    0.0000000000000000
     0.0000000000000000   13.1950590000000005   -0.0534360000000000
     0.0000000000000000   10.4746509999999997   16.3578809999999990
   Li   P    O 
    20    20    60
Direct
  0.5024220000000028  0.8776749999999964  0.1805999999999983
  0.4975779999999972  0.8776749999999964  0.6805999999999983
  0.5109810000000010  0.1124440000000035  0.0657330000000016
  0.4890189999999990  0.1124440000000035  0.5657330000000016
  0.4897210000000030  0.3463970000000032  0.9506609999999966
  0.5102789999999970  0.3463970000000032  0.4506609999999966
  0.4975760000000022  0.5806550000000001  0.8357450000000028
  0.5024239999999978  0.5806550000000001  0.3357450000000028
  0.0093809999999976  0.7287779999999984  0.7583860000000016
  0.9906179999999978  0.7287779999999984  0.2583860000000016
  0.4787060000000025  0.3769500000000008  0.6819580000000016
  0.5212939999999975  0.3769500000000008  0.1819580000000016
  0.5228159999999988  0.6123339999999970  0.5662299999999973
  0.4771840000000012  0.6123339999999970  0.0662299999999973
  0.4762959999999978  0.8456040000000016  0.4502850000000009
  0.5237040000000022  0.8456040000000016  0.9502850000000009
  0.5203360000000004  0.0804130000000001  0.3350629999999981
  0.4796639999999996  0.0804130000000001  0.8350629999999981
  0.0372229999999973  0.2286190000000019  0.2585150000000027
  0.9627770000000027  0.2286190000000019  0.7585150000000027
  0.8082849999999979  0.9977489999999989  0.9999940000000009
  0.1917150000000021  0.9977489999999989  0.4999940000000009
  0.1524470000000022  0.2035600000000031  0.9072990000000019
  0.8475529999999978  0.2035600000000031  0.4072990000000019
  0.8110080000000011  0.4000920000000008  0.8030449999999973
  0.1889919999999989  0.4000920000000008  0.3030449999999973
  0.1734050000000025  0.5908310000000014  0.6925280000000029
  0.8265949999999975  0.5908310000000014  0.1925280000000029
  0.8426919999999996  0.7918450000000021  0.5921250000000029
  0.1573080000000004  0.7918450000000021  0.0921250000000029
  0.1559689999999989  0.6660249999999976  0.4246720000000010
  0.8440310000000011  0.6660249999999976  0.9246720000000010
  0.8251220000000004  0.8666880000000035  0.3239340000000013
  0.1748779999999996  0.8666880000000035  0.8239340000000013
  0.1882340000000013  0.0575529999999986  0.2133419999999973
  0.8117659999999987  0.0575529999999986  0.7133419999999973
  0.8482740000000035  0.2547229999999985  0.1092820000000003
  0.1517259999999965  0.2547229999999985  0.6092820000000003
  0.1928649999999976  0.4602489999999975  0.0168639999999982
  0.8071350000000024  0.4602489999999975  0.5168639999999982
  0.9189500000000024  0.1303600000000031  0.9620239999999995
  0.0810499999999976  0.1303600000000031  0.4620239999999995
  0.0494630000000029  0.3389790000000019  0.8597690000000000
  0.9505369999999971  0.3389790000000019  0.3597690000000000
  0.9201740000000029  0.5186339999999987  0.7252590000000012
  0.0798259999999971  0.5186339999999987  0.2252590000000012
  0.0770169999999979  0.7068680000000001  0.6087789999999984
  0.9229830000000021  0.7068680000000001  0.1087789999999984
  0.0553740000000005  0.9199720000000013  0.0218550000000022
  0.9446259999999995  0.9199720000000013  0.5218550000000022
  0.9215439999999973  0.7510410000000007  0.4078760000000017
  0.0784560000000027  0.7510410000000007  0.9078760000000017
  0.0786510000000007  0.9384159999999966  0.2905650000000009
  0.9213489999999993  0.9384159999999966  0.7905650000000009
  0.9502790000000019  0.1191219999999973  0.1564710000000034
  0.0497209999999981  0.1191219999999973  0.6564710000000034
  0.0820310000000006  0.3276919999999990  0.0546500000000023
  0.9179689999999994  0.3276919999999990  0.5546500000000023
  0.0541660000000022  0.5380340000000032  0.4951799999999977
  0.9458339999999978  0.5380340000000032  0.9951799999999977
  0.6732990000000001  0.9710999999999999  0.0746329999999986
  0.3267009999999999  0.9710999999999999  0.5746329999999986
  0.6770100000000028  0.9894559999999970  0.9358379999999968
  0.3229899999999972  0.9894559999999970  0.4358379999999968
  0.3494140000000030  0.2007509999999968  0.9612499999999997
  0.6505859999999970  0.2007509999999968  0.4612499999999997
  0.2051349999999985  0.1680229999999980  0.8475159999999988
  0.7948650000000015  0.1680229999999980  0.3475159999999988
  0.6436130000000020  0.4367540000000005  0.8462150000000008
  0.3563869999999980  0.4367540000000005  0.3462150000000008
  0.7203090000000003  0.3217619999999997  0.7744360000000015
  0.2796909999999997  0.3217619999999997  0.2744360000000015
  0.2535549999999986  0.6291280000000015  0.7487250000000003
  0.7464450000000014  0.6291280000000015  0.2487250000000003
  0.3451680000000010  0.5267199999999974  0.6692350000000005
  0.6548319999999990  0.5267199999999974  0.1692350000000005
  0.7846669999999989  0.7921460000000025  0.6672989999999999
  0.2153330000000011  0.7921460000000025  0.1672989999999999
  0.6470780000000005  0.7596599999999967  0.5537840000000003
  0.3529219999999995  0.7596599999999967  0.0537840000000003
  0.3515119999999996  0.6985529999999969  0.4628450000000015
  0.6484880000000004  0.6985529999999969  0.9628450000000015
  0.2139689999999987  0.6652860000000018  0.3496740000000003
  0.7860310000000013  0.6652860000000018  0.8496740000000003
  0.6542839999999970  0.9314540000000022  0.3469490000000022
  0.3457160000000030  0.9314540000000022  0.8469490000000022
  0.7439060000000026  0.8275089999999992  0.2682900000000004
  0.2560939999999974  0.8275089999999992  0.7682900000000004
  0.2784010000000023  0.1351119999999995  0.2426269999999988
  0.7215989999999977  0.1351119999999995  0.7426269999999988
  0.3564799999999977  0.0216300000000018  0.1699339999999978
  0.6435200000000023  0.0216300000000018  0.6699339999999978
  0.7962559999999996  0.2897820000000024  0.1693530000000010
  0.2037440000000004  0.2897820000000024  0.6693530000000010
  0.6506820000000033  0.2581240000000022  0.0553010000000000
  0.3493179999999967  0.2581240000000022  0.5553010000000000
  0.3241810000000029  0.4681199999999990  0.0811840000000004
  0.6758189999999971  0.4681199999999990  0.5811840000000004
  0.3276570000000021  0.4872579999999971  0.9421219999999977
  0.6723429999999979  0.4872579999999971  0.4421219999999977
 
  0.00000000E+00  0.00000000E+00  0.00000000E+00
  0.00000000E+00  0.00000000E+00  0.00000000E+00
  0.00000000E+00  0.00000000E+00  0.00000000E+00
  0.00000000E+00  0.00000000E+00  0.00000000E+00
  0.00000000E+00  0.00000000E+00  0.00000000E+00
  0.00000000E+00  0.00000000E+00  0.00000000E+00
  0.00000000E+00  0.00000000E+00  0.00000000E+00
  0.00000000E+00  0.00000000E+00  0.00000000E+00
  0.00000000E+00  0.00000000E+00  0.00000000E+00
  0.00000000E+00  0.00000000E+00  0.00000000E+00
  0.00000000E+00  0.00000000E+00  0.00000000E+00
  0.00000000E+00  0.00000000E+00  0.00000000E+00
  0.00000000E+00  0.00000000E+00  0.00000000E+00
  0.00000000E+00  0.00000000E+00  0.00000000E+00
  0.00000000E+00  0.00000000E+00  0.00000000E+00
  0.00000000E+00  0.00000000E+00  0.00000000E+00
  0.00000000E+00  0.00000000E+00  0.00000000E+00
  0.00000000E+00  0.00000000E+00  0.00000000E+00
  0.00000000E+00  0.00000000E+00  0.00000000E+00
  0.00000000E+00  0.00000000E+00  0.00000000E+00
  0.00000000E+00  0.00000000E+00  0.00000000E+00
  0.00000000E+00  0.00000000E+00  0.00000000E+00
  0.00000000E+00  0.00000000E+00  0.00000000E+00
  0.00000000E+00  0.00000000E+00  0.00000000E+00
  0.00000000E+00  0.00000000E+00  0.00000000E+00
  0.00000000E+00  0.00000000E+00  0.00000000E+00
  0.00000000E+00  0.00000000E+00  0.00000000E+00
  0.00000000E+00  0.00000000E+00  0.00000000E+00
  0.00000000E+00  0.00000000E+00  0.00000000E+00
  0.00000000E+00  0.00000000E+00  0.00000000E+00
  0.00000000E+00  0.00000000E+00  0.00000000E+00
  0.00000000E+00  0.00000000E+00  0.00000000E+00
  0.00000000E+00  0.00000000E+00  0.00000000E+00
  0.00000000E+00  0.00000000E+00  0.00000000E+00
  0.00000000E+00  0.00000000E+00  0.00000000E+00
  0.00000000E+00  0.00000000E+00  0.00000000E+00
  0.00000000E+00  0.00000000E+00  0.00000000E+00
  0.00000000E+00  0.00000000E+00  0.00000000E+00
  0.00000000E+00  0.00000000E+00  0.00000000E+00
  0.00000000E+00  0.00000000E+00  0.00000000E+00
  0.00000000E+00  0.00000000E+00  0.00000000E+00
  0.00000000E+00  0.00000000E+00  0.00000000E+00
  0.00000000E+00  0.00000000E+00  0.00000000E+00
  0.00000000E+00  0.00000000E+00  0.00000000E+00
  0.00000000E+00  0.00000000E+00  0.00000000E+00
  0.00000000E+00  0.00000000E+00  0.00000000E+00
  0.00000000E+00  0.00000000E+00  0.00000000E+00
  0.00000000E+00  0.00000000E+00  0.00000000E+00
  0.00000000E+00  0.00000000E+00  0.00000000E+00
  0.00000000E+00  0.00000000E+00  0.00000000E+00
  0.00000000E+00  0.00000000E+00  0.00000000E+00
  0.00000000E+00  0.00000000E+00  0.00000000E+00
  0.00000000E+00  0.00000000E+00  0.00000000E+00
  0.00000000E+00  0.00000000E+00  0.00000000E+00
  0.00000000E+00  0.00000000E+00  0.00000000E+00
  0.00000000E+00  0.00000000E+00  0.00000000E+00
  0.00000000E+00  0.00000000E+00  0.00000000E+00
  0.00000000E+00  0.00000000E+00  0.00000000E+00
  0.00000000E+00  0.00000000E+00  0.00000000E+00
  0.00000000E+00  0.00000000E+00  0.00000000E+00
  0.00000000E+00  0.00000000E+00  0.00000000E+00
  0.00000000E+00  0.00000000E+00  0.00000000E+00
  0.00000000E+00  0.00000000E+00  0.00000000E+00
  0.00000000E+00  0.00000000E+00  0.00000000E+00
  0.00000000E+00  0.00000000E+00  0.00000000E+00
  0.00000000E+00  0.00000000E+00  0.00000000E+00
  0.00000000E+00  0.00000000E+00  0.00000000E+00
  0.00000000E+00  0.00000000E+00  0.00000000E+00
  0.00000000E+00  0.00000000E+00  0.00000000E+00
  0.00000000E+00  0.00000000E+00  0.00000000E+00
  0.00000000E+00  0.00000000E+00  0.00000000E+00
  0.00000000E+00  0.00000000E+00  0.00000000E+00
  0.00000000E+00  0.00000000E+00  0.00000000E+00
  0.00000000E+00  0.00000000E+00  0.00000000E+00
  0.00000000E+00  0.00000000E+00  0.00000000E+00
  0.00000000E+00  0.00000000E+00  0.00000000E+00
  0.00000000E+00  0.00000000E+00  0.00000000E+00
  0.00000000E+00  0.00000000E+00  0.00000000E+00
  0.00000000E+00  0.00000000E+00  0.00000000E+00
  0.00000000E+00  0.00000000E+00  0.00000000E+00
  0.00000000E+00  0.00000000E+00  0.00000000E+00
  0.00000000E+00  0.00000000E+00  0.00000000E+00
  0.00000000E+00  0.00000000E+00  0.00000000E+00
  0.00000000E+00  0.00000000E+00  0.00000000E+00
  0.00000000E+00  0.00000000E+00  0.00000000E+00
  0.00000000E+00  0.00000000E+00  0.00000000E+00
  0.00000000E+00  0.00000000E+00  0.00000000E+00
  0.00000000E+00  0.00000000E+00  0.00000000E+00
  0.00000000E+00  0.00000000E+00  0.00000000E+00
  0.00000000E+00  0.00000000E+00  0.00000000E+00
  0.00000000E+00  0.00000000E+00  0.00000000E+00
  0.00000000E+00  0.00000000E+00  0.00000000E+00
  0.00000000E+00  0.00000000E+00  0.00000000E+00
  0.00000000E+00  0.00000000E+00  0.00000000E+00
  0.00000000E+00  0.00000000E+00  0.00000000E+00
  0.00000000E+00  0.00000000E+00  0.00000000E+00
  0.00000000E+00  0.00000000E+00  0.00000000E+00
  0.00000000E+00  0.00000000E+00  0.00000000E+00
  0.00000000E+00  0.00000000E+00  0.00000000E+00
  0.00000000E+00  0.00000000E+00  0.00000000E+00
