Li73 P24 N1 O95                         
   1.00000000000000     
    14.7317077812427204    0.0018864204063014    0.0072174442261172
     0.0013164122623491   10.5665908974867442   -0.0169338174214882
     0.0059988619933217   -0.0198028258808434   12.2955415944544324
   Li   P    N    O 
    73    24     1    95
Direct
  0.2130228568185947  0.4424996451972718  0.0000997476849230
  0.1725248880314554  0.4183032798849106  0.4935818503560930
  0.1712996076907312  0.9221672662976087  0.0022556416646007
  0.1694068432249128  0.9178064869057205  0.5003880693432113
  0.5017126476671261  0.4245924844329887  0.0012647451175092
  0.5018370774583102  0.4222341773106986  0.4994280525270591
  0.5018145208114947  0.9226475159822859  0.0013394245428104
  0.5039421217714106  0.9220994055993154  0.5004230349336065
  0.8330961602259340  0.4225756180819980  0.0002238748172950
  0.8380785045023464  0.4216027347123765  0.4980766597080603
  0.8360314503640002  0.9242263493627237  0.0010866647540679
  0.8364967490544893  0.9210856180593942  0.5005534476953419
  0.0039654172133472  0.0767521141746379  0.2529862530263987
  0.0030223743211010  0.0771884963670308  0.7477857747402840
  0.0019405824812144  0.5782708314110701  0.2498484488880205
  0.0009776977580291  0.5760872250509431  0.7485031854884996
  0.3372388858196255  0.0772501441783267  0.2555140112109029
  0.3376470972795983  0.0762765551025903  0.7486422513719654
  0.3330999362403207  0.5756468376701571  0.2518719780124208
  0.3371288444445711  0.5783937162123496  0.7500994937852200
  0.6689715218901847  0.0785094023547718  0.2516698413550951
  0.6686420619670044  0.0779946345308656  0.7501657335034753
  0.6698038286939437  0.5785965530110674  0.2516838872229691
  0.6686512096647316  0.5780034674197545  0.7493232651020170
  0.1783724760946965  0.1615419548653784  0.1428818158957504
  0.1697114958755018  0.1617520876071659  0.6244006595600244
  0.1665751704278030  0.6648085416286506  0.1263151092817823
  0.1685272462734372  0.6593108398101032  0.6271783013964944
  0.5022399208079585  0.1644946533934273  0.1282786588560014
  0.5026560249765986  0.1629973541144707  0.6261872840965569
  0.5059415195174645  0.6649789788679654  0.1290068794497346
  0.5025667605425005  0.6632528202657396  0.6262441984199607
  0.8331688988198040  0.1636979696187515  0.1276239906667024
  0.8356082801925980  0.1624376299709209  0.6267200737389399
  0.8351653946750116  0.6630662733223851  0.1262528575108337
  0.8354810050006658  0.6628698925250920  0.6264290073873159
 -0.0102406608985140  0.3434506521827326  0.1325959789168397
  0.0022091693159612  0.3357295982372187  0.6219367416796949
  0.0026344242534075  0.8355071638119621  0.1235858745952424
  0.0024462567358778  0.8350409511297258  0.6246436626650109
  0.3328848056513399  0.3382187541505687  0.1297175855093274
  0.3360553972345093  0.3349790155017391  0.6235414269358938
  0.3359572361326216  0.8387511734988866  0.1262687861666433
  0.3365736902491744  0.8346517325031951  0.6244247893595528
  0.6685369079211849  0.3385063047760219  0.1248757723755648
  0.6685222603025220  0.3366385421982506  0.6226530402666901
  0.6697252857746432  0.8380736839705152  0.1241621274491649
  0.6697345246548946  0.8370640050073013  0.6244114926589522
  0.0269764740894046  0.3358506436161255  0.3747319071128313
 -0.0063052346456867  0.3395776511476450  0.8687657647295109
  0.0035927252280264  0.8346970149807985  0.3771036973068544
  0.0021987510557094  0.8352847504073333  0.8766937506741217
  0.3296908268821048  0.3348456140068070  0.3749460791476016
  0.3374871958124486  0.3366603571657109  0.8748719390196301
  0.3361270225541764  0.8342210716803641  0.3778014352388621
  0.3361506936562274  0.8396908079712946  0.8765568860967061
  0.6691750884325067  0.3366032496128739  0.3776189883553334
  0.6677881259872188  0.3375156419022390  0.8763993200039906
  0.6701886296286507  0.8370623628284186  0.3765231497020003
  0.6694655585507054  0.8378857033650119  0.8771177011147220
  0.1713826149897364  0.1613478639193312  0.3767260163112253
  0.1748280469969825  0.1569022551828950  0.8670972080161076
  0.1699518712554779  0.6539978957051330  0.3710900939345312
  0.1666342149291747  0.6670282065582376  0.8729605862481529
  0.5022224220949245  0.1640648206570313  0.3754389246192609
  0.5020040384055845  0.1639816451500424  0.8744831172633224
  0.5023199559977264  0.6629794302873830  0.3746383823657056
  0.5064286489027853  0.6657757595718801  0.8729853717699253
  0.8385831228590492  0.1646049099797436  0.3747165419538303
  0.8330700689913713  0.1637642020630867  0.8742657745989579
  0.8366170247953678  0.6630581024897633  0.3739534725381569
  0.8345171336981948  0.6636488785294582  0.8736972312294522
  0.1073212960978089  0.2946288596515939  0.0116588763680434
  0.1651872414116614  0.4105317247081078  0.2471831527923483
  0.1657388146826332  0.4106532017419179  0.7549156589877564
  0.1675354805282755  0.9079687360100309  0.2518981790925279
  0.1670569151677244  0.9107843437440075  0.7498462111362076
  0.5005445008519406  0.4131245820079825  0.2504668245017319
  0.4996850255526282  0.4127111285976046  0.7503882650835217
  0.5008312080784225  0.9127721918786086  0.2511465145355256
  0.5006428812563681  0.9129458039719950  0.7506229080975790
  0.8308570858567210  0.4127316541068696  0.2516068232420899
  0.8310012083490838  0.4119618281271367  0.7491664025186844
  0.8343592393422774  0.9126845078139821  0.2498096739202706
  0.8337204856655952  0.9126486218809589  0.7515137082135662
  0.0012959433672243  0.0907560580483741  0.0009787185215600
 -0.0000956435570322  0.0848513906869331  0.5007967008124014
 -0.0020220702120633  0.5841318981530973 -0.0014575253575134
  0.0001740960445664  0.5869324276214685  0.5006835081005099
  0.3317587382629071  0.0905963320686762  0.0020377791247970
  0.3346719050418935  0.0844878027547945  0.5017172968389474
  0.3371018959427556  0.6004932107034803 -0.0004142931336409
  0.3336527610066226  0.5860422233495410  0.5014718778563190
  0.6653572523115642  0.0886066340315263  0.0009788080908157
  0.6677057856752678  0.0876046641511991  0.5005871151380707
  0.6661608477459734  0.5885344143903873  0.0001834213709987
  0.6672913512414481  0.5881286029673423  0.5005985287546194
  0.1980071590700272  0.3362951310935622  0.3496663357593616
  0.0348074316422007  0.1513409928240554  0.3962424241374604
  0.0393569266167455  0.1643000237411500  0.8995829828643953
  0.0353986583640117  0.6557194156387220  0.3967855877293396
  0.0338533260367115  0.6522378630061026  0.8942962532015143
  0.3705277209361221  0.1537946624705288  0.3986182230858625
  0.3667660553386455  0.1588129905427356  0.8974569227258932
  0.3689448791765036  0.6553886080431323  0.3976420222671523
  0.3754849884983063  0.6625816682369911  0.8949326926251591
  0.7033966622926183  0.1567168469329472  0.3969785991161235
  0.7004011331317471  0.1578994387432169  0.8969731364784098
  0.7029270152101037  0.6578599590716203  0.3971962982375677
  0.7010004059041233  0.6574945679292941  0.8958904434383432
  0.2033329645371388  0.0464321736958721  0.2549030633071759
  0.2019290565840038  0.0502211007226073  0.7478296963754351
  0.2005582874755985  0.5529397200081412  0.2403766766002226
  0.2006116154326951  0.5498383582529859  0.7548560584375490
  0.5338834584638018  0.0530754604820628  0.2514236343632935
  0.5335289743012150  0.0532903369117068  0.7503707734225471
  0.5353476015363807  0.5526099560500470  0.2511470590640566
  0.5338949140705651  0.5523042404735837  0.7499842178812468
  0.8687403837700268  0.0523896382072593  0.2492561962859145
  0.8680159623368608  0.0524984333554884  0.7518983867670238
  0.8651262612570662  0.5524958576220482  0.2494813051284416
  0.8657100599729300  0.5513749902310739  0.7502444272151404
  0.0575811283626687  0.4175124473882044  0.2401413280906454
  0.0601989945873322  0.4081063889156122  0.7507976914651587
  0.0616572321688283  0.9079112443095788  0.2501140434175807
  0.0612308186580763  0.9098519066474247  0.7511141631647236
  0.3950955528838627  0.4112115017507723  0.2505294762752337
  0.3938822745518981  0.4101900899382276  0.7504493897985351
  0.3951612842131343  0.9092621274103325  0.2516539973329849
  0.3949237891872127  0.9094454636506968  0.7508910104041213
  0.7251007111871002  0.4111091894258967  0.2523057550706582
  0.7254811633337375  0.4098826755102044  0.7490149764714777
  0.7286554910822174  0.9108367827738221  0.2501736640079394
  0.7280702645770292  0.9106429682527667  0.7512157223491370
  0.2255683102934366  0.0949814700202478  0.0023412761128555
  0.2290978479324840  0.0841722818729077  0.5023012047430203
  0.2319199417980127  0.6151607939746498 -0.0018311233826151
  0.2280807327523615  0.5890867397175376  0.5021996069141506
  0.5596639871394181  0.0905090368860522  0.0008978868507369
  0.5620009946534403  0.0903816779171921  0.5004006414606731
  0.5604947818136991  0.5913414254418289  0.0005025897988573
  0.5615661257200026  0.5904539013355689  0.5003569889918313
  0.8961236675336927  0.0946395449493637  0.0004793961295721
  0.8941614811956591  0.0879178796509990  0.5017783507427050
  0.8923069010463396  0.5892650868733367 -0.0010312072008721
  0.8943388958250160  0.5906232619550086  0.5005733306558519
  0.1952588201345880  0.3467668101293509  0.1306068166306487
  0.2038814461644981  0.3378662398513341  0.6548330518439399
  0.2023816912198968  0.8419075542350540  0.1461658270171835
  0.2018602303733924  0.8390104181210318  0.6471515413239700
  0.5349291676876796  0.3445021084431305  0.1451739000794095
  0.5349973823449812  0.3425108954622216  0.6468525589277796
  0.5364949367685339  0.8449458368617313  0.1464400859568591
  0.5361843115767999  0.8432159113916929  0.6469517493329963
  0.8624989966724548  0.3429037629807920  0.1455894407562341
  0.8676995073627974  0.3422471497724273  0.6461233944812675
  0.8691496001881083  0.8434227080505408  0.1451629214209019
  0.8690038463725145  0.8426425510405237  0.6479194182589811
  0.0385316981797881  0.1643298173113471  0.1028793888895760
  0.0355127627561693  0.1555729078238476  0.6043865092962130
  0.0338885470327390  0.6549784928915670  0.1010342120716144
  0.0349097001913150  0.6564857416360347  0.6052702725042720
  0.3668302044819164  0.1594952083493932  0.1062117687732596
  0.3693515311337448  0.1547735796851031  0.6059153603716624
  0.3750675861568987  0.6626482322143793  0.1043377191482606
  0.3691364500099774  0.6558653904186124  0.6055802976222782
  0.7003426693380562  0.1578656329662634  0.1051209924194751
  0.7024065593210165  0.1567825369861207  0.6051153236924728
  0.7015597088364897  0.6580176854107070  0.1040165205562732
  0.7020268568884429  0.6574695095156552  0.6050302481194956
  0.0280598002731073  0.4418947165471245 -0.0019578296103120
  0.0340058167729297  0.4474592760429510  0.5021817529378865
  0.0348393802180672  0.9516122631004601  0.0004256658113375
  0.0336543824029926  0.9448115579122063  0.5021966888590494
  0.3583131075722457  0.4545180820079977 -0.0004369067481523
  0.3679145389195186  0.4465271219195622  0.5017864353354313
  0.3648662801951314  0.9505640650894549  0.0015618058182565
  0.3693253773310625  0.9447670155321537  0.5018763936666628
  0.6994989736400313  0.4485381309006329 -0.0000730859851719
  0.7012904106317490  0.4483821874453589  0.5005939233129603
  0.7005407131322778  0.9493410187498030  0.0006446821126493
  0.7014075803623269  0.9475573020439265  0.5007595393255750
  0.1978138670328232  0.3439288590206097  0.8635930340011965
  0.2015226679680434  0.8364222604368973  0.3547337703453567
  0.2020162981845906  0.8445159949757742  0.8549879924227365
  0.5359942899723301  0.3427270862172488  0.3535737463652018
  0.5337003428442210  0.3443094485855945  0.8553617278050200
  0.5366449782032477  0.8430753043030458  0.3543726622336415
  0.5364359887803469  0.8454537799200779  0.8548834665445882
  0.8678790296180772  0.3433028565673364  0.3534936586008235
  0.8647436452906068  0.3422132680034034  0.8535935831297029
  0.8695751913336269  0.8431853018705590  0.3533405452874717
  0.8686032108888772  0.8440152861885633  0.8559179271043892
 
  0.00000000E+00  0.00000000E+00  0.00000000E+00
  0.00000000E+00  0.00000000E+00  0.00000000E+00
  0.00000000E+00  0.00000000E+00  0.00000000E+00
  0.00000000E+00  0.00000000E+00  0.00000000E+00
  0.00000000E+00  0.00000000E+00  0.00000000E+00
  0.00000000E+00  0.00000000E+00  0.00000000E+00
  0.00000000E+00  0.00000000E+00  0.00000000E+00
  0.00000000E+00  0.00000000E+00  0.00000000E+00
  0.00000000E+00  0.00000000E+00  0.00000000E+00
  0.00000000E+00  0.00000000E+00  0.00000000E+00
  0.00000000E+00  0.00000000E+00  0.00000000E+00
  0.00000000E+00  0.00000000E+00  0.00000000E+00
  0.00000000E+00  0.00000000E+00  0.00000000E+00
  0.00000000E+00  0.00000000E+00  0.00000000E+00
  0.00000000E+00  0.00000000E+00  0.00000000E+00
  0.00000000E+00  0.00000000E+00  0.00000000E+00
  0.00000000E+00  0.00000000E+00  0.00000000E+00
  0.00000000E+00  0.00000000E+00  0.00000000E+00
  0.00000000E+00  0.00000000E+00  0.00000000E+00
  0.00000000E+00  0.00000000E+00  0.00000000E+00
  0.00000000E+00  0.00000000E+00  0.00000000E+00
  0.00000000E+00  0.00000000E+00  0.00000000E+00
  0.00000000E+00  0.00000000E+00  0.00000000E+00
  0.00000000E+00  0.00000000E+00  0.00000000E+00
  0.00000000E+00  0.00000000E+00  0.00000000E+00
  0.00000000E+00  0.00000000E+00  0.00000000E+00
  0.00000000E+00  0.00000000E+00  0.00000000E+00
  0.00000000E+00  0.00000000E+00  0.00000000E+00
  0.00000000E+00  0.00000000E+00  0.00000000E+00
  0.00000000E+00  0.00000000E+00  0.00000000E+00
  0.00000000E+00  0.00000000E+00  0.00000000E+00
  0.00000000E+00  0.00000000E+00  0.00000000E+00
  0.00000000E+00  0.00000000E+00  0.00000000E+00
  0.00000000E+00  0.00000000E+00  0.00000000E+00
  0.00000000E+00  0.00000000E+00  0.00000000E+00
  0.00000000E+00  0.00000000E+00  0.00000000E+00
  0.00000000E+00  0.00000000E+00  0.00000000E+00
  0.00000000E+00  0.00000000E+00  0.00000000E+00
  0.00000000E+00  0.00000000E+00  0.00000000E+00
  0.00000000E+00  0.00000000E+00  0.00000000E+00
  0.00000000E+00  0.00000000E+00  0.00000000E+00
  0.00000000E+00  0.00000000E+00  0.00000000E+00
  0.00000000E+00  0.00000000E+00  0.00000000E+00
  0.00000000E+00  0.00000000E+00  0.00000000E+00
  0.00000000E+00  0.00000000E+00  0.00000000E+00
  0.00000000E+00  0.00000000E+00  0.00000000E+00
  0.00000000E+00  0.00000000E+00  0.00000000E+00
  0.00000000E+00  0.00000000E+00  0.00000000E+00
  0.00000000E+00  0.00000000E+00  0.00000000E+00
  0.00000000E+00  0.00000000E+00  0.00000000E+00
  0.00000000E+00  0.00000000E+00  0.00000000E+00
  0.00000000E+00  0.00000000E+00  0.00000000E+00
  0.00000000E+00  0.00000000E+00  0.00000000E+00
  0.00000000E+00  0.00000000E+00  0.00000000E+00
  0.00000000E+00  0.00000000E+00  0.00000000E+00
  0.00000000E+00  0.00000000E+00  0.00000000E+00
  0.00000000E+00  0.00000000E+00  0.00000000E+00
  0.00000000E+00  0.00000000E+00  0.00000000E+00
  0.00000000E+00  0.00000000E+00  0.00000000E+00
  0.00000000E+00  0.00000000E+00  0.00000000E+00
  0.00000000E+00  0.00000000E+00  0.00000000E+00
  0.00000000E+00  0.00000000E+00  0.00000000E+00
  0.00000000E+00  0.00000000E+00  0.00000000E+00
  0.00000000E+00  0.00000000E+00  0.00000000E+00
  0.00000000E+00  0.00000000E+00  0.00000000E+00
  0.00000000E+00  0.00000000E+00  0.00000000E+00
  0.00000000E+00  0.00000000E+00  0.00000000E+00
  0.00000000E+00  0.00000000E+00  0.00000000E+00
  0.00000000E+00  0.00000000E+00  0.00000000E+00
  0.00000000E+00  0.00000000E+00  0.00000000E+00
  0.00000000E+00  0.00000000E+00  0.00000000E+00
  0.00000000E+00  0.00000000E+00  0.00000000E+00
  0.00000000E+00  0.00000000E+00  0.00000000E+00
  0.00000000E+00  0.00000000E+00  0.00000000E+00
  0.00000000E+00  0.00000000E+00  0.00000000E+00
  0.00000000E+00  0.00000000E+00  0.00000000E+00
  0.00000000E+00  0.00000000E+00  0.00000000E+00
  0.00000000E+00  0.00000000E+00  0.00000000E+00
  0.00000000E+00  0.00000000E+00  0.00000000E+00
  0.00000000E+00  0.00000000E+00  0.00000000E+00
  0.00000000E+00  0.00000000E+00  0.00000000E+00
  0.00000000E+00  0.00000000E+00  0.00000000E+00
  0.00000000E+00  0.00000000E+00  0.00000000E+00
  0.00000000E+00  0.00000000E+00  0.00000000E+00
  0.00000000E+00  0.00000000E+00  0.00000000E+00
  0.00000000E+00  0.00000000E+00  0.00000000E+00
  0.00000000E+00  0.00000000E+00  0.00000000E+00
  0.00000000E+00  0.00000000E+00  0.00000000E+00
  0.00000000E+00  0.00000000E+00  0.00000000E+00
  0.00000000E+00  0.00000000E+00  0.00000000E+00
  0.00000000E+00  0.00000000E+00  0.00000000E+00
  0.00000000E+00  0.00000000E+00  0.00000000E+00
  0.00000000E+00  0.00000000E+00  0.00000000E+00
  0.00000000E+00  0.00000000E+00  0.00000000E+00
  0.00000000E+00  0.00000000E+00  0.00000000E+00
  0.00000000E+00  0.00000000E+00  0.00000000E+00
  0.00000000E+00  0.00000000E+00  0.00000000E+00
  0.00000000E+00  0.00000000E+00  0.00000000E+00
  0.00000000E+00  0.00000000E+00  0.00000000E+00
  0.00000000E+00  0.00000000E+00  0.00000000E+00
  0.00000000E+00  0.00000000E+00  0.00000000E+00
  0.00000000E+00  0.00000000E+00  0.00000000E+00
  0.00000000E+00  0.00000000E+00  0.00000000E+00
  0.00000000E+00  0.00000000E+00  0.00000000E+00
  0.00000000E+00  0.00000000E+00  0.00000000E+00
  0.00000000E+00  0.00000000E+00  0.00000000E+00
  0.00000000E+00  0.00000000E+00  0.00000000E+00
  0.00000000E+00  0.00000000E+00  0.00000000E+00
  0.00000000E+00  0.00000000E+00  0.00000000E+00
  0.00000000E+00  0.00000000E+00  0.00000000E+00
  0.00000000E+00  0.00000000E+00  0.00000000E+00
  0.00000000E+00  0.00000000E+00  0.00000000E+00
  0.00000000E+00  0.00000000E+00  0.00000000E+00
  0.00000000E+00  0.00000000E+00  0.00000000E+00
  0.00000000E+00  0.00000000E+00  0.00000000E+00
  0.00000000E+00  0.00000000E+00  0.00000000E+00
  0.00000000E+00  0.00000000E+00  0.00000000E+00
  0.00000000E+00  0.00000000E+00  0.00000000E+00
  0.00000000E+00  0.00000000E+00  0.00000000E+00
  0.00000000E+00  0.00000000E+00  0.00000000E+00
  0.00000000E+00  0.00000000E+00  0.00000000E+00
  0.00000000E+00  0.00000000E+00  0.00000000E+00
  0.00000000E+00  0.00000000E+00  0.00000000E+00
  0.00000000E+00  0.00000000E+00  0.00000000E+00
  0.00000000E+00  0.00000000E+00  0.00000000E+00
  0.00000000E+00  0.00000000E+00  0.00000000E+00
  0.00000000E+00  0.00000000E+00  0.00000000E+00
  0.00000000E+00  0.00000000E+00  0.00000000E+00
  0.00000000E+00  0.00000000E+00  0.00000000E+00
  0.00000000E+00  0.00000000E+00  0.00000000E+00
  0.00000000E+00  0.00000000E+00  0.00000000E+00
  0.00000000E+00  0.00000000E+00  0.00000000E+00
  0.00000000E+00  0.00000000E+00  0.00000000E+00
  0.00000000E+00  0.00000000E+00  0.00000000E+00
  0.00000000E+00  0.00000000E+00  0.00000000E+00
  0.00000000E+00  0.00000000E+00  0.00000000E+00
  0.00000000E+00  0.00000000E+00  0.00000000E+00
  0.00000000E+00  0.00000000E+00  0.00000000E+00
  0.00000000E+00  0.00000000E+00  0.00000000E+00
  0.00000000E+00  0.00000000E+00  0.00000000E+00
  0.00000000E+00  0.00000000E+00  0.00000000E+00
  0.00000000E+00  0.00000000E+00  0.00000000E+00
  0.00000000E+00  0.00000000E+00  0.00000000E+00
  0.00000000E+00  0.00000000E+00  0.00000000E+00
  0.00000000E+00  0.00000000E+00  0.00000000E+00
  0.00000000E+00  0.00000000E+00  0.00000000E+00
  0.00000000E+00  0.00000000E+00  0.00000000E+00
  0.00000000E+00  0.00000000E+00  0.00000000E+00
  0.00000000E+00  0.00000000E+00  0.00000000E+00
  0.00000000E+00  0.00000000E+00  0.00000000E+00
  0.00000000E+00  0.00000000E+00  0.00000000E+00
  0.00000000E+00  0.00000000E+00  0.00000000E+00
  0.00000000E+00  0.00000000E+00  0.00000000E+00
  0.00000000E+00  0.00000000E+00  0.00000000E+00
  0.00000000E+00  0.00000000E+00  0.00000000E+00
  0.00000000E+00  0.00000000E+00  0.00000000E+00
  0.00000000E+00  0.00000000E+00  0.00000000E+00
  0.00000000E+00  0.00000000E+00  0.00000000E+00
  0.00000000E+00  0.00000000E+00  0.00000000E+00
  0.00000000E+00  0.00000000E+00  0.00000000E+00
  0.00000000E+00  0.00000000E+00  0.00000000E+00
  0.00000000E+00  0.00000000E+00  0.00000000E+00
  0.00000000E+00  0.00000000E+00  0.00000000E+00
  0.00000000E+00  0.00000000E+00  0.00000000E+00
  0.00000000E+00  0.00000000E+00  0.00000000E+00
  0.00000000E+00  0.00000000E+00  0.00000000E+00
  0.00000000E+00  0.00000000E+00  0.00000000E+00
  0.00000000E+00  0.00000000E+00  0.00000000E+00
  0.00000000E+00  0.00000000E+00  0.00000000E+00
  0.00000000E+00  0.00000000E+00  0.00000000E+00
  0.00000000E+00  0.00000000E+00  0.00000000E+00
  0.00000000E+00  0.00000000E+00  0.00000000E+00
  0.00000000E+00  0.00000000E+00  0.00000000E+00
  0.00000000E+00  0.00000000E+00  0.00000000E+00
  0.00000000E+00  0.00000000E+00  0.00000000E+00
  0.00000000E+00  0.00000000E+00  0.00000000E+00
  0.00000000E+00  0.00000000E+00  0.00000000E+00
  0.00000000E+00  0.00000000E+00  0.00000000E+00
  0.00000000E+00  0.00000000E+00  0.00000000E+00
  0.00000000E+00  0.00000000E+00  0.00000000E+00
  0.00000000E+00  0.00000000E+00  0.00000000E+00
  0.00000000E+00  0.00000000E+00  0.00000000E+00
  0.00000000E+00  0.00000000E+00  0.00000000E+00
  0.00000000E+00  0.00000000E+00  0.00000000E+00
  0.00000000E+00  0.00000000E+00  0.00000000E+00
  0.00000000E+00  0.00000000E+00  0.00000000E+00
  0.00000000E+00  0.00000000E+00  0.00000000E+00
  0.00000000E+00  0.00000000E+00  0.00000000E+00
  0.00000000E+00  0.00000000E+00  0.00000000E+00
  0.00000000E+00  0.00000000E+00  0.00000000E+00
  0.00000000E+00  0.00000000E+00  0.00000000E+00
  0.00000000E+00  0.00000000E+00  0.00000000E+00
  0.00000000E+00  0.00000000E+00  0.00000000E+00
