Li28 O28
1.0
2.754274 0.000000 -1.590181
0.000000 7.703522 0.000000
0.000000 0.000000 47.705428
Li O
28 28
direct
0.000000 0.500000 0.033333 Li+
0.000000 0.000000 0.033333 Li+
0.333333 0.750000 0.011111 Li+
0.666667 0.250000 0.055556 Li+
0.000000 0.500000 0.100000 Li+
0.000000 0.000000 0.100000 Li+
0.333333 0.750000 0.077778 Li+
0.666667 0.250000 0.122222 Li+
0.000000 0.500000 0.166667 Li+
0.000000 0.000000 0.166667 Li+
0.333333 0.750000 0.144444 Li+
0.666667 0.250000 0.188889 Li+
0.000000 0.500000 0.233333 Li+
0.000000 0.000000 0.233333 Li+
0.333333 0.750000 0.211111 Li+
0.666667 0.250000 0.255556 Li+
0.000000 0.500000 0.300000 Li+
0.000000 0.000000 0.300000 Li+
0.333333 0.750000 0.277778 Li+
0.666667 0.250000 0.322222 Li+
0.000000 0.500000 0.366667 Li+
0.000000 0.000000 0.366667 Li+
0.333333 0.750000 0.344444 Li+
0.666667 0.250000 0.388889 Li+
0.000000 0.500000 0.433333 Li+
0.000000 0.000000 0.433333 Li+
0.333333 0.750000 0.411111 Li+
0.666667 0.250000 0.455556 Li+
0.333333 0.149310 0.011111 O-
0.666667 0.649310 0.055556 O-
0.666667 0.850690 0.055556 O-
0.333333 0.350690 0.011111 O-
0.333333 0.149310 0.077778 O-
0.666667 0.649310 0.122222 O-
0.666667 0.850690 0.122222 O-
0.333333 0.350690 0.077778 O-
0.333333 0.149310 0.144444 O-
0.666667 0.649310 0.188889 O-
0.666667 0.850690 0.188889 O-
0.333333 0.350690 0.144444 O-
0.333333 0.149310 0.211111 O-
0.666667 0.649310 0.255556 O-
0.666667 0.850690 0.255556 O-
0.333333 0.350690 0.211111 O-
0.333333 0.149310 0.277778 O-
0.666667 0.649310 0.322222 O-
0.666667 0.850690 0.322222 O-
0.333333 0.350690 0.277778 O-
0.333333 0.149310 0.344444 O-
0.666667 0.649310 0.388889 O-
0.666667 0.850690 0.388889 O-
0.333333 0.350690 0.344444 O-
0.333333 0.149310 0.411111 O-
0.666667 0.649310 0.455556 O-
0.666667 0.850690 0.455556 O-
0.333333 0.350690 0.411111 O-
