Li6 P2
1.0
2.119324 -3.670777 0.000000
2.119324 3.670777 0.000000
0.000000 -0.475682 7.560755
Li P
6 2
direct
0.000000 0.000000 0.250000 Li
0.000000 0.000000 0.750000 Li
0.333333 0.666667 0.584119 Li
0.666667 0.333333 0.084119 Li
0.666667 0.333333 0.415881 Li
0.333333 0.666667 0.915881 Li
0.333333 0.666667 0.250000 P
0.666667 0.333333 0.750000 P
