P28 O70
1.0
4.936987 0.000000 0.023070
1.557664 8.595798 0.415402
0.000000 0.000000 53.147410
P O
28 70
Selective dynamics
direct
0.537779 0.063986 0.044075 T T T P5+
0.844259 0.759454 0.044205 T T T P5+
0.401346 0.580036 0.036050 T T T P5+
0.272358 0.326736 0.010564 T T T P5+
0.954445 0.897319 0.127409 F F F P5+
0.260926 0.592787 0.127538 F F F P5+
0.818013 0.413370 0.119383 F F F P5+
0.689025 0.160070 0.093897 F F F P5+
0.371112 0.730652 0.210742 F F F P5+
0.677592 0.426120 0.210872 F F F P5+
0.234680 0.246703 0.202716 F F F P5+
0.105691 0.993403 0.177231 F F F P5+
0.787779 0.563986 0.294075 F F F P5+
0.094259 0.259454 0.294205 F F F P5+
0.651346 0.080036 0.286050 F F F P5+
0.522358 0.826736 0.260564 F F F P5+
0.204445 0.397319 0.377409 F F F P5+
0.510926 0.092787 0.377538 F F F P5+
0.068013 0.913370 0.369383 F F F P5+
0.939025 0.660070 0.343897 F F F P5+
0.621112 0.230652 0.460742 F F F P5+
0.927592 0.926120 0.460872 F F F P5+
0.484680 0.746703 0.452716 F F F P5+
0.355691 0.493403 0.427231 F F F P5+
0.037779 0.063986 0.544075 T T T P5+
0.344259 0.759454 0.544205 T T T P5+
0.901346 0.580036 0.536050 T T T P5+
0.772358 0.326736 0.510564 T T T P5+
0.292114 0.009682 0.053532 T T T O2-
0.832197 0.740121 0.071567 T T T O2-
0.409928 0.495822 0.060462 T T T O2-
0.006049 0.337315 0.022970 T T T O2-
0.417633 0.476467 0.011767 T T T O2-
0.771800 0.934800 0.032600 T T T O2-
0.708283 0.140415 0.064305 T T T O2-
0.640791 0.673606 0.028685 T T T O2-
0.129693 0.708485 0.030270 T T T O2-
0.511048 0.188870 0.021053 T T T O2-
0.708781 0.843016 0.136865 F F F O2-
0.248863 0.573454 0.154900 F F F O2-
0.826595 0.329155 0.143795 F F F O2-
0.422716 0.170648 0.106303 F F F O2-
0.834300 0.309800 0.095100 F F F O2-
0.188466 0.768133 0.115933 F F F O2-
0.124950 0.973749 0.147638 F F F O2-
0.057457 0.506939 0.112018 F F F O2-
0.546359 0.541818 0.113603 F F F O2-
0.927715 0.022203 0.104386 F F F O2-
0.125447 0.676349 0.220199 F F F O2-
0.665530 0.406787 0.238233 F F F O2-
0.243261 0.162488 0.227129 F F F O2-
0.839382 0.003981 0.189636 F F F O2-
0.250966 0.143133 0.178433 F F F O2-
0.605133 0.601467 0.199267 F F F O2-
0.541617 0.807082 0.230971 F F F O2-
0.474124 0.340272 0.195351 F F F O2-
0.963026 0.375152 0.196937 F F F O2-
0.344381 0.855536 0.187719 F F F O2-
0.542114 0.509682 0.303532 F F F O2-
0.082197 0.240121 0.321567 F F F O2-
0.659928 0.995822 0.310462 F F F O2-
0.256049 0.837315 0.272970 F F F O2-
0.667633 0.976467 0.261767 F F F O2-
0.021800 0.434800 0.282600 F F F O2-
0.958283 0.640415 0.314305 F F F O2-
0.890791 0.173606 0.278685 F F F O2-
0.379693 0.208485 0.280270 F F F O2-
0.761048 0.688870 0.271053 F F F O2-
0.958781 0.343016 0.386865 F F F O2-
0.498863 0.073454 0.404900 F F F O2-
0.076595 0.829155 0.393795 F F F O2-
0.672716 0.670648 0.356303 F F F O2-
0.084300 0.809800 0.345100 F F F O2-
0.438466 0.268133 0.365933 F F F O2-
0.374950 0.473749 0.397638 F F F O2-
0.307457 0.006939 0.362018 F F F O2-
0.796359 0.041818 0.363603 F F F O2-
0.177715 0.522203 0.354386 F F F O2-
0.375447 0.176349 0.470199 F F F O2-
0.915530 0.906787 0.488233 F F F O2-
0.493261 0.662488 0.477129 F F F O2-
0.089382 0.503981 0.439636 F F F O2-
0.500966 0.643133 0.428433 F F F O2-
0.855133 0.101467 0.449267 F F F O2-
0.791617 0.307082 0.480971 F F F O2-
0.724124 0.840272 0.445351 F F F O2-
0.213026 0.875152 0.446937 F F F O2-
0.594381 0.355536 0.437719 F F F O2-
0.792114 0.009682 0.553532 T T T O2-
0.332197 0.740121 0.571567 T T T O2-
0.909928 0.495822 0.560462 T T T O2-
0.506049 0.337315 0.522970 T T T O2-
0.917633 0.476467 0.511767 T T T O2-
0.271800 0.934800 0.532600 T T T O2-
0.208283 0.140415 0.564305 T T T O2-
0.140791 0.673606 0.528685 T T T O2-
0.629693 0.708485 0.530270 T T T O2-
0.011048 0.188870 0.521053 T T T O2-
