Li61 P7 N32                             
   1.00000000000000     
    -0.0191683585872460    9.4831638931305893    0.0215506199073047
    -0.0016843309288546    0.0218141537512022    9.5886081765820670
     9.5740436587534905   -0.0187179719485504   -0.0016952560249806
   Li   P    N 
    61     7    32
Direct
  0.5066659920231126  0.9889563334196857  0.5018594028281514
  0.0174426758509194  0.5093198713523009  0.0028742336270525
  0.5045815763511222 -0.0006476182922905  0.0022577851440597
  0.0117333716261881 -0.0048789420249357  0.5025692113379384
  0.5108007867664243  0.4934550337466553 -0.0063130384223464
  0.0169009766984557  0.4932546152312459  0.4960862920153760
  0.7594900849992841  0.0015266963808756  0.4990980205767466
  0.2588895576669265 -0.0041941428600400  0.5023800811193563
  0.7781994103381235  0.5023494893833875  0.4976708491274414
  0.2505711648705886  0.4937832511483665  0.5079195829941585
  0.2718914070478483  0.9980305248854898  0.0043838379274097
  0.7452530188182697 -0.0000818535514283  0.0000213032150110
  0.8141066684410140  0.5900054097467965  0.0579659025668859
  0.5142319453911078  0.2396706225384053  0.9868382706832431
  0.5203843299454307  0.7645493902180940  0.0078435280331655
  0.0159814157922971  0.4869016470154675  0.2513414894676010
  0.9953196567081050  0.5083682944563765  0.7378642292531500
  0.2391111972136559  0.1995871839407629  0.2349854518342801
  0.2519447187544464  0.7910919409881491  0.7887318850447794
  0.2663127078388508  0.2838030610397478  0.7243868970295614
  0.2461319748902478  0.6944735522708848  0.3081289209607553
  0.7669428962619413  0.2989499940134953  0.2985068783178284
  0.7872341786457937  0.6856335781511301  0.6807676835023831
  0.7449389611259717  0.1847097180655072  0.8022696416575035
  0.7393377188421769  0.8038847752401508  0.1885202958255571
 -0.0066158273235040  0.2468511910154351  0.2457248522836840
  0.0024360335994094  0.7525226368132110  0.7562069701423875
  0.2746464803456226  0.2404547128903556  0.4823075904914914
  0.2774221052088773  0.7533251381462499  0.5381145030121284
  0.7536449422404381  0.2351928407885136  0.5317152898807503
  0.7645112836232921  0.7749810660308476  0.4389222036925455
  0.7727475791893063  0.5463451321104859  0.2695930131940466
  0.6824635932878670  0.5646220891583964  0.8508588458590107
  0.0233161040474178  0.2642893729350990  0.0185859709628883
  0.2326255582992102  0.5427829020832463  0.7524654148636016
  0.5281803741583506  0.7461129098657598  0.2745196095566156
  0.5176536080748096  0.2479328289952681  0.7460804188039394
  0.2511417290434987  0.9542873464553879  0.2602645780236943
  0.2416885839980894  0.0306353813958284  0.7461271577855749
  0.2701088703847500  0.2343626361200105  0.9747903192837172
  0.2427194678062088  0.7626795487902136  0.0289574854982091
  0.7575418701786503  0.9402048174126573  0.7272331948250220
  0.7699468841003734  0.0408214800151184  0.2613001067125130
  0.7574470488106296  0.7771674623946081  0.9330853235898799
  0.6833905388373218  0.4209737480123723  0.0795564159249562
  0.0165368386810994  0.2468975084843950  0.7641367104756859
  0.0101749278090920  0.7492582989372494  0.2367422716552867
  0.4917584458910964  0.2559257903195479  0.2418216946215729
  0.4979338054485792  0.7332041863076935  0.7575703229692330
  0.7736526469451596  0.2204625555177196  0.0477531916848497
  0.9977972155547317  0.7503341306835508  0.9828030520720306
  0.5124367008134348  0.2260205922386505  0.4966049244654661
  0.5194716772224539  0.7477147134508166  0.5172182414884325
  0.4021140977264826  0.6349959805062648  0.1366811001746725
  0.4798035572370369  0.4769380879770526  0.7656617594774453
  0.0106640760802071 -0.0041628849564775  0.2654471200610247
  0.0016674624897154  0.0022577581979516  0.7434304247444815
  0.2579168209902877  0.4460334945125632  0.2657192649119858
  0.7273754808489810  0.4107571850152747  0.6962854256729322
  0.5295832062133318  0.4999132117016363  0.2625857862668600
  0.8411378885497394  0.4062095704963833  0.9121582188880026
  0.5090593294751764  0.4887483482574351  0.5104681485254514
  0.0109112331923508  0.0017803836014608  0.0039684070565114
  0.2601754194578880  0.4910822909139460  0.0038561954291345
  0.0145078875718436  0.7446567458163043  0.4989227824127125
  0.0130011894786212  0.2450303691086826  0.5026092016837056
  0.5088931855529859 -0.0011478744422859  0.2504652197820167
  0.5033393873678870  0.9943651645573331  0.7527253345728684
  0.6090217006702711  0.5854967998062922  0.6215266510040137
  0.6181319205914926  0.3901739602054703  0.4122039244550261
  0.9058806557342710  0.8991665701509053  0.1028293541615332
  0.9085702449466890  0.1074997295488427  0.9067445601780204
  0.1136615280779152  0.9011751444222379  0.9000078956212014
  0.1159884727525344  0.0950177155112155  0.1101527853120936
  0.4097157252133638  0.5969145061690443  0.4079817948000692
  0.4022807820641456  0.3830378155687971  0.6003576763006712
  0.1154539165137578  0.3401965212738478  0.3934203715591147
  0.1133990745223304  0.6466969335989422  0.6076270278637459
  0.1198713116628191  0.1452807207179309  0.6047076033253905
  0.1224431958318801  0.8440742238382698  0.4004794399275157
  0.9008817138319832  0.1455301221099680  0.4060258634443629
  0.9008224902380579  0.8465945041323515  0.5915241311978272
  0.8756372851695330  0.3879652666315141  0.1305174553830698
  0.8777745378831823  0.6211889928797202  0.8669205054490812
  0.1721731881629502  0.5901882453740709  0.1243807879383368
  0.1600089640878630  0.3980184748993957  0.8938047929331051
  0.4114754305646520  0.8846924348617932  0.1534042465564341
  0.4041936058477967  0.1034404817327834  0.8505835254542266
  0.3973502361576557  0.0944739624517107  0.3512000362756829
  0.3954676755172861  0.8924734675021725  0.6540626562917116
  0.3667607914265019  0.3839932897539497  0.0985964251100237
  0.3562444384977680  0.6106267936747487  0.9113486362503280
  0.6163220549337990  0.0857850356238062  0.6502981971859543
  0.6244283439859626  0.9069019074719492  0.3520291925578685
  0.6280375273452729  0.6263777612710469  0.1271322151727930
  0.6431373804978523  0.3611862450165387  0.8785493689188111
  0.9134380610110714  0.3491990201981620  0.6058798296641452
  0.9166887971232307  0.6423427300485077  0.3929982898973211
  0.6053675386078312  0.1051851152479791  0.1474759479238112
  0.6033727091111847  0.8900612331695650  0.8556911127406390
 
  0.00000000E+00  0.00000000E+00  0.00000000E+00
  0.00000000E+00  0.00000000E+00  0.00000000E+00
  0.00000000E+00  0.00000000E+00  0.00000000E+00
  0.00000000E+00  0.00000000E+00  0.00000000E+00
  0.00000000E+00  0.00000000E+00  0.00000000E+00
  0.00000000E+00  0.00000000E+00  0.00000000E+00
  0.00000000E+00  0.00000000E+00  0.00000000E+00
  0.00000000E+00  0.00000000E+00  0.00000000E+00
  0.00000000E+00  0.00000000E+00  0.00000000E+00
  0.00000000E+00  0.00000000E+00  0.00000000E+00
  0.00000000E+00  0.00000000E+00  0.00000000E+00
  0.00000000E+00  0.00000000E+00  0.00000000E+00
  0.00000000E+00  0.00000000E+00  0.00000000E+00
  0.00000000E+00  0.00000000E+00  0.00000000E+00
  0.00000000E+00  0.00000000E+00  0.00000000E+00
  0.00000000E+00  0.00000000E+00  0.00000000E+00
  0.00000000E+00  0.00000000E+00  0.00000000E+00
  0.00000000E+00  0.00000000E+00  0.00000000E+00
  0.00000000E+00  0.00000000E+00  0.00000000E+00
  0.00000000E+00  0.00000000E+00  0.00000000E+00
  0.00000000E+00  0.00000000E+00  0.00000000E+00
  0.00000000E+00  0.00000000E+00  0.00000000E+00
  0.00000000E+00  0.00000000E+00  0.00000000E+00
  0.00000000E+00  0.00000000E+00  0.00000000E+00
  0.00000000E+00  0.00000000E+00  0.00000000E+00
  0.00000000E+00  0.00000000E+00  0.00000000E+00
  0.00000000E+00  0.00000000E+00  0.00000000E+00
  0.00000000E+00  0.00000000E+00  0.00000000E+00
  0.00000000E+00  0.00000000E+00  0.00000000E+00
  0.00000000E+00  0.00000000E+00  0.00000000E+00
  0.00000000E+00  0.00000000E+00  0.00000000E+00
  0.00000000E+00  0.00000000E+00  0.00000000E+00
  0.00000000E+00  0.00000000E+00  0.00000000E+00
  0.00000000E+00  0.00000000E+00  0.00000000E+00
  0.00000000E+00  0.00000000E+00  0.00000000E+00
  0.00000000E+00  0.00000000E+00  0.00000000E+00
  0.00000000E+00  0.00000000E+00  0.00000000E+00
  0.00000000E+00  0.00000000E+00  0.00000000E+00
  0.00000000E+00  0.00000000E+00  0.00000000E+00
  0.00000000E+00  0.00000000E+00  0.00000000E+00
  0.00000000E+00  0.00000000E+00  0.00000000E+00
  0.00000000E+00  0.00000000E+00  0.00000000E+00
  0.00000000E+00  0.00000000E+00  0.00000000E+00
  0.00000000E+00  0.00000000E+00  0.00000000E+00
  0.00000000E+00  0.00000000E+00  0.00000000E+00
  0.00000000E+00  0.00000000E+00  0.00000000E+00
  0.00000000E+00  0.00000000E+00  0.00000000E+00
  0.00000000E+00  0.00000000E+00  0.00000000E+00
  0.00000000E+00  0.00000000E+00  0.00000000E+00
  0.00000000E+00  0.00000000E+00  0.00000000E+00
  0.00000000E+00  0.00000000E+00  0.00000000E+00
  0.00000000E+00  0.00000000E+00  0.00000000E+00
  0.00000000E+00  0.00000000E+00  0.00000000E+00
  0.00000000E+00  0.00000000E+00  0.00000000E+00
  0.00000000E+00  0.00000000E+00  0.00000000E+00
  0.00000000E+00  0.00000000E+00  0.00000000E+00
  0.00000000E+00  0.00000000E+00  0.00000000E+00
  0.00000000E+00  0.00000000E+00  0.00000000E+00
  0.00000000E+00  0.00000000E+00  0.00000000E+00
  0.00000000E+00  0.00000000E+00  0.00000000E+00
  0.00000000E+00  0.00000000E+00  0.00000000E+00
  0.00000000E+00  0.00000000E+00  0.00000000E+00
  0.00000000E+00  0.00000000E+00  0.00000000E+00
  0.00000000E+00  0.00000000E+00  0.00000000E+00
  0.00000000E+00  0.00000000E+00  0.00000000E+00
  0.00000000E+00  0.00000000E+00  0.00000000E+00
  0.00000000E+00  0.00000000E+00  0.00000000E+00
  0.00000000E+00  0.00000000E+00  0.00000000E+00
  0.00000000E+00  0.00000000E+00  0.00000000E+00
  0.00000000E+00  0.00000000E+00  0.00000000E+00
  0.00000000E+00  0.00000000E+00  0.00000000E+00
  0.00000000E+00  0.00000000E+00  0.00000000E+00
  0.00000000E+00  0.00000000E+00  0.00000000E+00
  0.00000000E+00  0.00000000E+00  0.00000000E+00
  0.00000000E+00  0.00000000E+00  0.00000000E+00
  0.00000000E+00  0.00000000E+00  0.00000000E+00
  0.00000000E+00  0.00000000E+00  0.00000000E+00
  0.00000000E+00  0.00000000E+00  0.00000000E+00
  0.00000000E+00  0.00000000E+00  0.00000000E+00
  0.00000000E+00  0.00000000E+00  0.00000000E+00
  0.00000000E+00  0.00000000E+00  0.00000000E+00
  0.00000000E+00  0.00000000E+00  0.00000000E+00
  0.00000000E+00  0.00000000E+00  0.00000000E+00
  0.00000000E+00  0.00000000E+00  0.00000000E+00
  0.00000000E+00  0.00000000E+00  0.00000000E+00
  0.00000000E+00  0.00000000E+00  0.00000000E+00
  0.00000000E+00  0.00000000E+00  0.00000000E+00
  0.00000000E+00  0.00000000E+00  0.00000000E+00
  0.00000000E+00  0.00000000E+00  0.00000000E+00
  0.00000000E+00  0.00000000E+00  0.00000000E+00
  0.00000000E+00  0.00000000E+00  0.00000000E+00
  0.00000000E+00  0.00000000E+00  0.00000000E+00
  0.00000000E+00  0.00000000E+00  0.00000000E+00
  0.00000000E+00  0.00000000E+00  0.00000000E+00
  0.00000000E+00  0.00000000E+00  0.00000000E+00
  0.00000000E+00  0.00000000E+00  0.00000000E+00
  0.00000000E+00  0.00000000E+00  0.00000000E+00
  0.00000000E+00  0.00000000E+00  0.00000000E+00
  0.00000000E+00  0.00000000E+00  0.00000000E+00
  0.00000000E+00  0.00000000E+00  0.00000000E+00
