Li56 P56
1.0
4.970385 0.000000 0.000000
0.000000 9.037780 0.756887
0.000000 0.000000 61.532592
Li P
56 56
direct
0.388247 0.329300 0.074518 Li+
0.888247 0.170700 0.049480 Li+
0.611753 0.670700 0.004026 Li+
0.111753 0.829300 0.029063 Li+
0.658316 0.029786 0.011634 Li+
0.158316 0.470214 0.021455 Li+
0.341684 0.970214 0.066910 Li+
0.841684 0.529786 0.057088 Li+
0.388247 0.329300 0.165427 Li+
0.888247 0.170700 0.140389 Li+
0.611753 0.670700 0.094935 Li+
0.111753 0.829300 0.119972 Li+
0.658316 0.029786 0.102543 Li+
0.158316 0.470214 0.112364 Li+
0.341684 0.970214 0.157819 Li+
0.841684 0.529786 0.147997 Li+
0.388247 0.329300 0.256336 Li+
0.888247 0.170700 0.231298 Li+
0.611753 0.670700 0.185844 Li+
0.111753 0.829300 0.210882 Li+
0.658316 0.029786 0.193452 Li+
0.158316 0.470214 0.203273 Li+
0.341684 0.970214 0.248728 Li+
0.841684 0.529786 0.238906 Li+
0.388247 0.329300 0.347245 Li+
0.888247 0.170700 0.322207 Li+
0.611753 0.670700 0.276753 Li+
0.111753 0.829300 0.301791 Li+
0.658316 0.029786 0.284361 Li+
0.158316 0.470214 0.294182 Li+
0.341684 0.970214 0.339637 Li+
0.841684 0.529786 0.329816 Li+
0.388247 0.329300 0.438154 Li+
0.888247 0.170700 0.413116 Li+
0.611753 0.670700 0.367662 Li+
0.111753 0.829300 0.392700 Li+
0.658316 0.029786 0.375270 Li+
0.158316 0.470214 0.385092 Li+
0.341684 0.970214 0.430546 Li+
0.841684 0.529786 0.420725 Li+
0.388247 0.329300 0.529063 Li+
0.888247 0.170700 0.504026 Li+
0.611753 0.670700 0.458571 Li+
0.111753 0.829300 0.483609 Li+
0.658316 0.029786 0.466179 Li+
0.158316 0.470214 0.476001 Li+
0.341684 0.970214 0.521455 Li+
0.841684 0.529786 0.511634 Li+
0.388247 0.329300 0.619972 Li+
0.888247 0.170700 0.594935 Li+
0.611753 0.670700 0.549480 Li+
0.111753 0.829300 0.574518 Li+
0.658316 0.029786 0.557088 Li+
0.158316 0.470214 0.566910 Li+
0.341684 0.970214 0.612364 Li+
0.841684 0.529786 0.602543 Li+
0.894904 0.292916 0.086883 P-
0.394904 0.207084 0.037115 P-
0.105096 0.707084 0.082569 P-
0.605096 0.792916 0.041429 P-
0.156027 0.111742 0.011221 P-
0.656027 0.388258 0.021868 P-
0.843973 0.888258 0.067323 P-
0.343973 0.611742 0.056675 P-
0.894904 0.292916 0.177793 P-
0.394904 0.207084 0.128024 P-
0.105096 0.707084 0.173478 P-
0.605096 0.792916 0.132338 P-
0.156027 0.111742 0.102130 P-
0.656027 0.388258 0.112777 P-
0.843973 0.888258 0.158232 P-
0.343973 0.611742 0.147584 P-
0.894904 0.292916 0.268702 P-
0.394904 0.207084 0.218933 P-
0.105096 0.707084 0.264387 P-
0.605096 0.792916 0.223247 P-
0.156027 0.111742 0.193039 P-
0.656027 0.388258 0.203686 P-
0.843973 0.888258 0.249141 P-
0.343973 0.611742 0.238494 P-
0.894904 0.292916 0.359611 P-
0.394904 0.207084 0.309842 P-
0.105096 0.707084 0.355296 P-
0.605096 0.792916 0.314156 P-
0.156027 0.111742 0.283948 P-
0.656027 0.388258 0.294595 P-
0.843973 0.888258 0.340050 P-
0.343973 0.611742 0.329403 P-
0.894904 0.292916 0.450520 P-
0.394904 0.207084 0.400751 P-
0.105096 0.707084 0.446206 P-
0.605096 0.792916 0.405065 P-
0.156027 0.111742 0.374857 P-
0.656027 0.388258 0.385505 P-
0.843973 0.888258 0.430959 P-
0.343973 0.611742 0.420312 P-
0.894904 0.292916 0.541429 P-
0.394904 0.207084 0.491660 P-
0.105096 0.707084 0.537115 P-
0.605096 0.792916 0.495974 P-
0.156027 0.111742 0.465766 P-
0.656027 0.388258 0.476414 P-
0.843973 0.888258 0.521868 P-
0.343973 0.611742 0.511221 P-
0.894904 0.292916 0.632338 P-
0.394904 0.207084 0.582569 P-
0.105096 0.707084 0.628024 P-
0.605096 0.792916 0.586883 P-
0.156027 0.111742 0.556675 P-
0.656027 0.388258 0.567323 P-
0.843973 0.888258 0.612777 P-
0.343973 0.611742 0.602130 P-
