Li61 P7 N32                             
   1.00000000000000     
     0.0000172755025299    9.5400810242811929    0.0000183483089821
     0.0301550387344891    0.0000184714550408    9.5500363128617796
     9.5418852715059241    0.0000173381311753    0.0301154097507737
   Li   P    N 
    61     7    32
Direct
  0.4971885104340954  0.0000002971708850  0.5000007741241406
  0.0012694702814677  0.4999955799386179  0.0000022373694720
  0.5023732844838162 -0.0000049960758329  0.0000028059178901
  0.0022834466199860 -0.0000017878289334  0.4999991680131852
  0.5074860967739645  0.4999979980718721 -0.0000001557150019
  0.0153424632128274  0.4999976173425455  0.4999910546672959
  0.7493925794555768  0.0000018148826706  0.4999943983547488
  0.2472832992147343 -0.0000096429851026  0.4999995801287768
  0.7729706235525402  0.4999954961205782  0.5000016920616657
  0.2367720221278793  0.4999950784479557  0.5000077332319172
  0.2674089589709713  0.0000033880224541 -0.0000045568089038
  0.7459241984699535  0.0000009535683735 -0.0000062012291677
  0.7207165184391984  0.5000000018121968 -0.0000014528932927
  0.4968124754776314  0.2428879926323040 -0.0235317606755992
  0.4968044212953498  0.7570983236081552  0.0235352349516019
 -0.0242052801988476  0.4909728775659367  0.2661036833536148
 -0.0242311011882975  0.5090295066230084  0.7338789648792492
  0.2315725172241651  0.2043280475770765  0.2333984924663318
  0.2315774872246114  0.7956902320559718  0.7665981709771768
  0.2767483166366398  0.2894622873547434  0.7396981245530313
  0.2767461844684222  0.7105583943122947  0.2602960929143676
  0.7644173232754997  0.2948142955404978  0.3077761905613276
  0.7644191639769374  0.7051907625849724  0.6922392384460576
  0.7295711492567875  0.1825802994311334  0.8115332162702946
  0.7295747236140647  0.8174084299608964  0.1884699592034416
  0.9869898186815302  0.2489242034804527  0.2457500223241080
  0.9869991643346894  0.7510774281951095  0.7542458454569125
  0.2667327367734992  0.2343151247702407  0.4999600374831135
  0.2667221102381214  0.7656590589365441  0.5000358757217770
  0.7599216686487811  0.2339924654414948  0.5650637728238076
  0.7599137797567911  0.7659975860954443  0.4349521591348181
  0.7214866683806473  0.5121693245702034  0.2462757869147845
  0.7214726635146057  0.4878368700312206  0.7537310400899254
  0.1944359140447114  0.4606572814418866  0.2370345019261810
  0.1944089089148081  0.5393804007210989  0.7629710290602648
  0.5201521029131678  0.7508364335019322  0.2620460587939903
  0.5201520691221297  0.2491609907875402  0.7379597435978851
  0.2385015247986998  0.9671449726299411  0.2542772157185184
  0.2384973221443405  0.0328735096553590  0.7457158068815393
  0.2487264044678284  0.2386545057892007  0.9894828950012764
  0.2487138437687615  0.7613531612644242  0.0105126957054793
  0.7619455116799645  0.9516639992588019  0.7378656475864713
  0.7619490151103496  0.0483235147705007  0.2621151570719367
  0.7247836872232073  0.7463750882109063  0.9406424695462813
  0.7247698812527671  0.2536189286901997  0.0593446661014324
  0.0242703959635244  0.2494164902134451  0.7644344662952703
  0.0242646854465251  0.7505879316599400  0.2355633266214905
  0.5076058884695559  0.2641127309374854  0.2226828811294213
  0.5076164875936070  0.7358878514752613  0.7773199842980725
  0.0040718468439230  0.2559296950435639  0.0223461176263228
  0.0040623263440124  0.7440630635605230 -0.0223478769969637
  0.5201354321154917  0.2319711319587987  0.4915762911382069
  0.5201277199549745  0.7680352284342225  0.5084333969432483
  0.4912707048015133  0.5285323407526317  0.2291912765701916
  0.4912650077796967  0.4714603935721265  0.7708148208820775
  0.0010689399463666 -0.0042795066088778  0.2613127598680202
  0.0010650171854261  0.0042850257005640  0.7386842248526447
  0.3650101595502078  0.3694153366892203  0.3516552764157602
  0.3650127486431187  0.6305724283166320  0.6483664669403191
  0.8429018290627390  0.3695652420979015  0.9021153298100791
  0.8429029208907283  0.6304258935340421  0.0978778857039851
  0.5074816047505849  0.5000015646320575  0.4999992253244201
  0.0067785290316206  0.0000041229260095  0.0000007139109208
  0.2518158230472664  0.4999992460573801  0.0000007167974662
  0.0113856633490374  0.7510138637609022  0.4963368775165016
  0.0113885775534469  0.2489837788977709  0.5036588907092896
  0.5006185569691630  0.0059048941907101  0.2498299932022354
  0.5006199732058183 -0.0059046970125928  0.7501733358594651
  0.6006187806535138  0.5972328042062451  0.6102504281133135
  0.6006212023556247  0.4027734435123398  0.3897549972114427
  0.9052305086545230  0.8941604231364289  0.1003613485033499
  0.9052352470655305  0.1058513307261666  0.8996405530436983
  0.1103817813847997  0.9033497777007715  0.8933267056845667
  0.1103831687734878  0.0966513913524001  0.1066744173129318
  0.3987332784254575  0.6083787696260764  0.4092282724069973
  0.3987355742646573  0.3916233299790530  0.5907745960026886
  0.1181082216941007  0.3432290282297774  0.3917667933594958
  0.1180999713910345  0.6567660158037576  0.6082302659866099
  0.1159839213644531  0.1448648695792558  0.6040889363959979
  0.1159862011823635  0.8551293954386029  0.3959081082182090
  0.8958045060131882  0.1515920540191110  0.4095710227416129
  0.8958044859642520  0.8484050233934515  0.5904301406967772
  0.8652621117707198  0.3880066313327310  0.1337858572500671
  0.8652620557815790  0.6119947590288110  0.8662124553466604
  0.1518517471769313  0.6057226759648412  0.1031683003654313
  0.1518557462740775  0.3942796318886553  0.8968354785405228
  0.3998586858039979  0.8950651503097321  0.1555382405554341
  0.3998583202398348  0.1049331691793679  0.8444665325009466
  0.3934131654129330  0.1115224402387155  0.3492951656797644
  0.3934139788877272  0.8884807837992350  0.6507069078500975
  0.3484954646959304  0.3939624791999598  0.1096203677187557
  0.3484915603988963  0.6060396615347947  0.8903810000465160
  0.6134005539532977  0.0877242712119694  0.6466745757531874
  0.6133996920832253  0.9122736456945838  0.3533268825410039
  0.6332309794380278  0.6449875456831479  0.1207333200578197
  0.6332328161685749  0.3550059597503127  0.8792651002219897
  0.9192031772894110  0.3555320595083968  0.6069162362769761
  0.9192018430708182  0.6444699836428887  0.3930761618734365
  0.6004755988172472  0.1059916058041962  0.1446394541862501
  0.6004811661820554  0.8940077427567312  0.8553598840748793
 
  0.00000000E+00  0.00000000E+00  0.00000000E+00
  0.00000000E+00  0.00000000E+00  0.00000000E+00
  0.00000000E+00  0.00000000E+00  0.00000000E+00
  0.00000000E+00  0.00000000E+00  0.00000000E+00
  0.00000000E+00  0.00000000E+00  0.00000000E+00
  0.00000000E+00  0.00000000E+00  0.00000000E+00
  0.00000000E+00  0.00000000E+00  0.00000000E+00
  0.00000000E+00  0.00000000E+00  0.00000000E+00
  0.00000000E+00  0.00000000E+00  0.00000000E+00
  0.00000000E+00  0.00000000E+00  0.00000000E+00
  0.00000000E+00  0.00000000E+00  0.00000000E+00
  0.00000000E+00  0.00000000E+00  0.00000000E+00
  0.00000000E+00  0.00000000E+00  0.00000000E+00
  0.00000000E+00  0.00000000E+00  0.00000000E+00
  0.00000000E+00  0.00000000E+00  0.00000000E+00
  0.00000000E+00  0.00000000E+00  0.00000000E+00
  0.00000000E+00  0.00000000E+00  0.00000000E+00
  0.00000000E+00  0.00000000E+00  0.00000000E+00
  0.00000000E+00  0.00000000E+00  0.00000000E+00
  0.00000000E+00  0.00000000E+00  0.00000000E+00
  0.00000000E+00  0.00000000E+00  0.00000000E+00
  0.00000000E+00  0.00000000E+00  0.00000000E+00
  0.00000000E+00  0.00000000E+00  0.00000000E+00
  0.00000000E+00  0.00000000E+00  0.00000000E+00
  0.00000000E+00  0.00000000E+00  0.00000000E+00
  0.00000000E+00  0.00000000E+00  0.00000000E+00
  0.00000000E+00  0.00000000E+00  0.00000000E+00
  0.00000000E+00  0.00000000E+00  0.00000000E+00
  0.00000000E+00  0.00000000E+00  0.00000000E+00
  0.00000000E+00  0.00000000E+00  0.00000000E+00
  0.00000000E+00  0.00000000E+00  0.00000000E+00
  0.00000000E+00  0.00000000E+00  0.00000000E+00
  0.00000000E+00  0.00000000E+00  0.00000000E+00
  0.00000000E+00  0.00000000E+00  0.00000000E+00
  0.00000000E+00  0.00000000E+00  0.00000000E+00
  0.00000000E+00  0.00000000E+00  0.00000000E+00
  0.00000000E+00  0.00000000E+00  0.00000000E+00
  0.00000000E+00  0.00000000E+00  0.00000000E+00
  0.00000000E+00  0.00000000E+00  0.00000000E+00
  0.00000000E+00  0.00000000E+00  0.00000000E+00
  0.00000000E+00  0.00000000E+00  0.00000000E+00
  0.00000000E+00  0.00000000E+00  0.00000000E+00
  0.00000000E+00  0.00000000E+00  0.00000000E+00
  0.00000000E+00  0.00000000E+00  0.00000000E+00
  0.00000000E+00  0.00000000E+00  0.00000000E+00
  0.00000000E+00  0.00000000E+00  0.00000000E+00
  0.00000000E+00  0.00000000E+00  0.00000000E+00
  0.00000000E+00  0.00000000E+00  0.00000000E+00
  0.00000000E+00  0.00000000E+00  0.00000000E+00
  0.00000000E+00  0.00000000E+00  0.00000000E+00
  0.00000000E+00  0.00000000E+00  0.00000000E+00
  0.00000000E+00  0.00000000E+00  0.00000000E+00
  0.00000000E+00  0.00000000E+00  0.00000000E+00
  0.00000000E+00  0.00000000E+00  0.00000000E+00
  0.00000000E+00  0.00000000E+00  0.00000000E+00
  0.00000000E+00  0.00000000E+00  0.00000000E+00
  0.00000000E+00  0.00000000E+00  0.00000000E+00
  0.00000000E+00  0.00000000E+00  0.00000000E+00
  0.00000000E+00  0.00000000E+00  0.00000000E+00
  0.00000000E+00  0.00000000E+00  0.00000000E+00
  0.00000000E+00  0.00000000E+00  0.00000000E+00
  0.00000000E+00  0.00000000E+00  0.00000000E+00
  0.00000000E+00  0.00000000E+00  0.00000000E+00
  0.00000000E+00  0.00000000E+00  0.00000000E+00
  0.00000000E+00  0.00000000E+00  0.00000000E+00
  0.00000000E+00  0.00000000E+00  0.00000000E+00
  0.00000000E+00  0.00000000E+00  0.00000000E+00
  0.00000000E+00  0.00000000E+00  0.00000000E+00
  0.00000000E+00  0.00000000E+00  0.00000000E+00
  0.00000000E+00  0.00000000E+00  0.00000000E+00
  0.00000000E+00  0.00000000E+00  0.00000000E+00
  0.00000000E+00  0.00000000E+00  0.00000000E+00
  0.00000000E+00  0.00000000E+00  0.00000000E+00
  0.00000000E+00  0.00000000E+00  0.00000000E+00
  0.00000000E+00  0.00000000E+00  0.00000000E+00
  0.00000000E+00  0.00000000E+00  0.00000000E+00
  0.00000000E+00  0.00000000E+00  0.00000000E+00
  0.00000000E+00  0.00000000E+00  0.00000000E+00
  0.00000000E+00  0.00000000E+00  0.00000000E+00
  0.00000000E+00  0.00000000E+00  0.00000000E+00
  0.00000000E+00  0.00000000E+00  0.00000000E+00
  0.00000000E+00  0.00000000E+00  0.00000000E+00
  0.00000000E+00  0.00000000E+00  0.00000000E+00
  0.00000000E+00  0.00000000E+00  0.00000000E+00
  0.00000000E+00  0.00000000E+00  0.00000000E+00
  0.00000000E+00  0.00000000E+00  0.00000000E+00
  0.00000000E+00  0.00000000E+00  0.00000000E+00
  0.00000000E+00  0.00000000E+00  0.00000000E+00
  0.00000000E+00  0.00000000E+00  0.00000000E+00
  0.00000000E+00  0.00000000E+00  0.00000000E+00
  0.00000000E+00  0.00000000E+00  0.00000000E+00
  0.00000000E+00  0.00000000E+00  0.00000000E+00
  0.00000000E+00  0.00000000E+00  0.00000000E+00
  0.00000000E+00  0.00000000E+00  0.00000000E+00
  0.00000000E+00  0.00000000E+00  0.00000000E+00
  0.00000000E+00  0.00000000E+00  0.00000000E+00
  0.00000000E+00  0.00000000E+00  0.00000000E+00
  0.00000000E+00  0.00000000E+00  0.00000000E+00
  0.00000000E+00  0.00000000E+00  0.00000000E+00
  0.00000000E+00  0.00000000E+00  0.00000000E+00
