Li42 P14 O56
1.0
5.296402 0.000000 0.000000
-0.000000 6.176136 -4.922448
0.000000 0.000000 63.991824
Li P O
42 14 56
direct
0.844520 0.000000 0.007510 Li+
0.155480 0.500000 0.007510 Li+
0.326434 0.747127 0.064901 Li+
0.673566 0.752873 0.026881 Li+
0.673566 0.247127 0.064901 Li+
0.326434 0.252873 0.026881 Li+
0.844520 0.000000 0.084433 Li+
0.155480 0.500000 0.084433 Li+
0.326434 0.747127 0.141824 Li+
0.673566 0.752873 0.103804 Li+
0.673566 0.247127 0.141824 Li+
0.326434 0.252873 0.103804 Li+
0.844520 0.000000 0.161357 Li+
0.155480 0.500000 0.161357 Li+
0.326434 0.747127 0.218747 Li+
0.673566 0.752873 0.180727 Li+
0.673566 0.247127 0.218747 Li+
0.326434 0.252873 0.180727 Li+
0.844520 0.000000 0.238280 Li+
0.155480 0.500000 0.238280 Li+
0.326434 0.747127 0.295670 Li+
0.673566 0.752873 0.257650 Li+
0.673566 0.247127 0.295670 Li+
0.326434 0.252873 0.257650 Li+
0.844520 0.000000 0.315203 Li+
0.155480 0.500000 0.315203 Li+
0.326434 0.747127 0.372593 Li+
0.673566 0.752873 0.334573 Li+
0.673566 0.247127 0.372593 Li+
0.326434 0.252873 0.334573 Li+
0.844520 0.000000 0.392126 Li+
0.155480 0.500000 0.392126 Li+
0.326434 0.747127 0.449516 Li+
0.673566 0.752873 0.411496 Li+
0.673566 0.247127 0.449516 Li+
0.326434 0.252873 0.411496 Li+
0.844520 0.000000 0.469049 Li+
0.155480 0.500000 0.469049 Li+
0.326434 0.747127 0.526439 Li+
0.673566 0.752873 0.488420 Li+
0.673566 0.247127 0.526439 Li+
0.326434 0.252873 0.488420 Li+
0.824261 0.500000 0.045357 P5+
0.175739 0.000000 0.045357 P5+
0.824261 0.500000 0.122280 P5+
0.175739 0.000000 0.122280 P5+
0.824261 0.500000 0.199203 P5+
0.175739 0.000000 0.199203 P5+
0.824261 0.500000 0.276126 P5+
0.175739 0.000000 0.276126 P5+
0.824261 0.500000 0.353049 P5+
0.175739 0.000000 0.353049 P5+
0.824261 0.500000 0.429972 P5+
0.175739 0.000000 0.429972 P5+
0.824261 0.500000 0.506895 P5+
0.175739 0.000000 0.506895 P5+
0.313509 0.207138 0.069413 O2-
0.103508 0.500000 0.053103 O2-
0.818396 0.500000 0.021031 O2-
0.181604 0.000000 0.021031 O2-
0.686491 0.707138 0.069413 O2-
0.313509 0.792862 0.037545 O2-
0.896492 0.000000 0.053103 O2-
0.686491 0.292862 0.037545 O2-
0.313509 0.207138 0.146336 O2-
0.103508 0.500000 0.130026 O2-
0.818396 0.500000 0.097954 O2-
0.181604 0.000000 0.097954 O2-
0.686491 0.707138 0.146336 O2-
0.313509 0.792862 0.114468 O2-
0.896492 0.000000 0.130026 O2-
0.686491 0.292862 0.114468 O2-
0.313509 0.207138 0.223259 O2-
0.103508 0.500000 0.206950 O2-
0.818396 0.500000 0.174878 O2-
0.181604 0.000000 0.174878 O2-
0.686491 0.707138 0.223259 O2-
0.313509 0.792862 0.191392 O2-
0.896492 0.000000 0.206950 O2-
0.686491 0.292862 0.191392 O2-
0.313509 0.207138 0.300182 O2-
0.103508 0.500000 0.283873 O2-
0.818396 0.500000 0.251801 O2-
0.181604 0.000000 0.251801 O2-
0.686491 0.707138 0.300182 O2-
0.313509 0.792862 0.268315 O2-
0.896492 0.000000 0.283873 O2-
0.686491 0.292862 0.268315 O2-
0.313509 0.207138 0.377105 O2-
0.103508 0.500000 0.360796 O2-
0.818396 0.500000 0.328724 O2-
0.181604 0.000000 0.328724 O2-
0.686491 0.707138 0.377105 O2-
0.313509 0.792862 0.345238 O2-
0.896492 0.000000 0.360796 O2-
0.686491 0.292862 0.345238 O2-
0.313509 0.207138 0.454028 O2-
0.103508 0.500000 0.437719 O2-
0.818396 0.500000 0.405647 O2-
0.181604 0.000000 0.405647 O2-
0.686491 0.707138 0.454028 O2-
0.313509 0.792862 0.422161 O2-
0.896492 0.000000 0.437719 O2-
0.686491 0.292862 0.422161 O2-
0.313509 0.207138 0.530951 O2-
0.103508 0.500000 0.514642 O2-
0.818396 0.500000 0.482570 O2-
0.181604 0.000000 0.482570 O2-
0.686491 0.707138 0.530951 O2-
0.313509 0.792862 0.499084 O2-
0.896492 0.000000 0.514642 O2-
0.686491 0.292862 0.499084 O2-
