Li56 P28 O98
1.0
6.730959 0.000000 -2.599490
-2.035903 8.419349 0.002996
0.000000 0.000000 63.126504
Li P O
56 28 98
Selective dynamics
direct
0.144977 0.012029 0.062961 T T T Li+
0.855023 0.987971 0.020372 T T T Li+
0.588727 0.248347 0.008694 T T T Li+
0.411273 0.751653 0.074640 T T T Li+
0.327738 0.208724 0.039353 T T T Li+
0.672262 0.791276 0.043981 T T T Li+
0.241886 0.549204 0.036921 T T T Li+
0.758114 0.450796 0.046413 T T T Li+
0.144977 0.012029 0.146295 T T T Li+
0.855023 0.987971 0.103705 T T T Li+
0.588727 0.248347 0.092027 T T T Li+
0.411273 0.751653 0.157973 T T T Li+
0.327738 0.208724 0.122686 T T T Li+
0.672262 0.791276 0.127314 T T T Li+
0.241886 0.549204 0.120254 T T T Li+
0.758114 0.450796 0.129746 T T T Li+
0.144977 0.012029 0.229628 F F F Li+
0.855023 0.987971 0.187039 F F F Li+
0.588727 0.248347 0.175360 F F F Li+
0.411273 0.751653 0.241306 F F F Li+
0.327738 0.208724 0.206019 F F F Li+
0.672262 0.791276 0.210647 F F F Li+
0.241886 0.549204 0.203587 F F F Li+
0.758114 0.450796 0.213079 F F F Li+
0.144977 0.012029 0.312961 F F F Li+
0.855023 0.987971 0.270372 F F F Li+
0.588727 0.248347 0.258694 F F F Li+
0.411273 0.751653 0.324640 F F F Li+
0.327738 0.208724 0.289353 F F F Li+
0.672262 0.791276 0.293981 F F F Li+
0.241886 0.549204 0.286921 F F F Li+
0.758114 0.450796 0.296413 F F F Li+
0.144977 0.012029 0.396295 F F F Li+
0.855023 0.987971 0.353705 F F F Li+
0.588727 0.248347 0.342027 F F F Li+
0.411273 0.751653 0.407973 F F F Li+
0.327738 0.208724 0.372686 F F F Li+
0.672262 0.791276 0.377314 F F F Li+
0.241886 0.549204 0.370254 F F F Li+
0.758114 0.450796 0.379746 F F F Li+
0.144977 0.012029 0.479628 T T T Li+
0.855023 0.987971 0.437039 T T T Li+
0.588727 0.248347 0.425360 T T T Li+
0.411273 0.751653 0.491306 T T T Li+
0.327738 0.208724 0.456019 T T T Li+
0.672262 0.791276 0.460647 T T T Li+
0.241886 0.549204 0.453587 T T T Li+
0.758114 0.450796 0.463079 T T T Li+
0.144977 0.012029 0.562961 T T T Li+
0.855023 0.987971 0.520372 T T T Li+
0.588727 0.248347 0.508694 T T T Li+
0.411273 0.751653 0.574640 T T T Li+
0.327738 0.208724 0.539353 T T T Li+
0.672262 0.791276 0.543981 T T T Li+
0.241886 0.549204 0.536921 T T T Li+
0.758114 0.450796 0.546413 T T T Li+
0.213298 0.368044 0.077167 T T T P5+
0.786702 0.631956 0.006166 T T T P5+
0.779241 0.154498 0.059644 T T T P5+
0.220759 0.845502 0.023689 T T T P5+
0.213298 0.368044 0.160501 T T T P5+
0.786702 0.631956 0.089499 T T T P5+
0.779241 0.154498 0.142977 T T T P5+
0.220759 0.845502 0.107023 T T T P5+
0.213298 0.368044 0.243834 F F F P5+
0.786702 0.631956 0.172833 F F F P5+
0.779241 0.154498 0.226311 F F F P5+
0.220759 0.845502 0.190356 F F F P5+
0.213298 0.368044 0.327167 F F F P5+
0.786702 0.631956 0.256166 F F F P5+
0.779241 0.154498 0.309644 F F F P5+
0.220759 0.845502 0.273689 F F F P5+
0.213298 0.368044 0.410501 F F F P5+
0.786702 0.631956 0.339499 F F F P5+
0.779241 0.154498 0.392977 F F F P5+
0.220759 0.845502 0.357023 F F F P5+
0.213298 0.368044 0.493834 T T T P5+
0.786702 0.631956 0.422833 T T T P5+
0.779241 0.154498 0.476311 T T T P5+
0.220759 0.845502 0.440356 T T T P5+
0.213298 0.368044 0.577168 T T T P5+
0.786702 0.631956 0.506166 T T T P5+
0.779241 0.154498 0.559644 T T T P5+
0.220759 0.845502 0.523689 T T T P5+
0.741759 0.125660 0.081674 T T T O2-
0.605720 0.209316 0.041156 T T T O2-
0.394280 0.790684 0.042177 T T T O2-
0.848591 0.018024 0.051424 T T T O2-
0.743350 0.623545 0.063953 T T T O2-
0.256650 0.376455 0.019380 T T T O2-
0.732189 0.473810 0.015430 T T T O2-
0.267811 0.526190 0.067904 T T T O2-
0.702403 0.763496 0.013481 T T T O2-
0.297597 0.236504 0.069852 T T T O2-
0.962384 0.316106 0.063911 T T T O2-
0.037616 0.683894 0.019422 T T T O2-
0.151409 0.981976 0.031909 T T T O2-
0.258241 0.874340 0.001659 T T T O2-
0.741759 0.125660 0.165007 T T T O2-
0.605720 0.209316 0.124489 T T T O2-
0.394280 0.790684 0.125511 T T T O2-
0.848591 0.018024 0.134757 T T T O2-
0.743350 0.623545 0.147287 T T T O2-
0.256650 0.376455 0.102713 T T T O2-
0.732189 0.473810 0.098763 T T T O2-
0.267811 0.526190 0.151237 T T T O2-
0.702403 0.763496 0.096815 T T T O2-
0.297597 0.236504 0.153185 T T T O2-
0.962384 0.316106 0.147244 T T T O2-
0.037616 0.683894 0.102756 T T T O2-
0.151409 0.981976 0.115243 T T T O2-
0.258241 0.874340 0.084993 T T T O2-
0.741759 0.125660 0.248341 F F F O2-
0.605720 0.209316 0.207822 F F F O2-
0.394280 0.790684 0.208844 F F F O2-
0.848591 0.018024 0.218091 F F F O2-
0.743350 0.623545 0.230620 F F F O2-
0.256650 0.376455 0.186047 F F F O2-
0.732189 0.473810 0.182096 F F F O2-
0.267811 0.526190 0.234570 F F F O2-
0.702403 0.763496 0.180148 F F F O2-
0.297597 0.236504 0.236518 F F F O2-
0.962384 0.316106 0.230578 F F F O2-
0.037616 0.683894 0.186089 F F F O2-
0.151409 0.981976 0.198576 F F F O2-
0.258241 0.874340 0.168326 F F F O2-
0.741759 0.125660 0.331674 F F F O2-
0.605720 0.209316 0.291156 F F F O2-
0.394280 0.790684 0.292177 F F F O2-
0.848591 0.018024 0.301424 F F F O2-
0.743350 0.623545 0.313953 F F F O2-
0.256650 0.376455 0.269380 F F F O2-
0.732189 0.473810 0.265430 F F F O2-
0.267811 0.526190 0.317904 F F F O2-
0.702403 0.763496 0.263481 F F F O2-
0.297597 0.236504 0.319852 F F F O2-
0.962384 0.316106 0.313911 F F F O2-
0.037616 0.683894 0.269422 F F F O2-
0.151409 0.981976 0.281909 F F F O2-
0.258241 0.874340 0.251659 F F F O2-
0.741759 0.125660 0.415007 F F F O2-
0.605720 0.209316 0.374489 F F F O2-
0.394280 0.790684 0.375511 F F F O2-
0.848591 0.018024 0.384757 F F F O2-
0.743350 0.623545 0.397287 F F F O2-
0.256650 0.376455 0.352713 F F F O2-
0.732189 0.473810 0.348763 F F F O2-
0.267811 0.526190 0.401237 F F F O2-
0.702403 0.763496 0.346815 F F F O2-
0.297597 0.236504 0.403185 F F F O2-
0.962384 0.316106 0.397244 F F F O2-
0.037616 0.683894 0.352756 F F F O2-
0.151409 0.981976 0.365243 F F F O2-
0.258241 0.874340 0.334993 F F F O2-
0.741759 0.125660 0.498341 T T T O2-
0.605720 0.209316 0.457823 T T T O2-
0.394280 0.790684 0.458844 T T T O2-
0.848591 0.018024 0.468091 T T T O2-
0.743350 0.623545 0.480620 T T T O2-
0.256650 0.376455 0.436047 T T T O2-
0.732189 0.473810 0.432096 T T T O2-
0.267811 0.526190 0.484570 T T T O2-
0.702403 0.763496 0.430148 T T T O2-
0.297597 0.236504 0.486519 T T T O2-
0.962384 0.316106 0.480578 T T T O2-
0.037616 0.683894 0.436089 T T T O2-
0.151409 0.981976 0.448576 T T T O2-
0.258241 0.874340 0.418326 T T T O2-
0.741759 0.125660 0.581674 T T T O2-
0.605720 0.209316 0.541156 T T T O2-
0.394280 0.790684 0.542177 T T T O2-
0.848591 0.018024 0.551424 T T T O2-
0.743350 0.623545 0.563953 T T T O2-
0.256650 0.376455 0.519380 T T T O2-
0.732189 0.473810 0.515430 T T T O2-
0.267811 0.526190 0.567904 T T T O2-
0.702403 0.763496 0.513482 T T T O2-
0.297597 0.236504 0.569852 T T T O2-
0.962384 0.316106 0.563911 T T T O2-
0.037616 0.683894 0.519422 T T T O2-
0.151409 0.981976 0.531909 T T T O2-
0.258241 0.874340 0.501659 T T T O2-
