Li140 P140 O420
1.0
5.521558 0.000000 0.000000
0.000000 16.540545 -10.635230
0.000000 0.000000 119.816820
Li P O
140 140 420
direct
0.494607 0.818220 0.031874 Li+
0.505393 0.318220 0.031874 Li+
0.484419 0.934004 0.058280 Li+
0.515581 0.434004 0.058280 Li+
0.505784 0.049457 0.084488 Li+
0.494216 0.549457 0.084488 Li+
0.507224 0.164548 0.110561 Li+
0.492776 0.664548 0.110561 Li+
0.992783 0.241566 0.015828 Li+
0.007217 0.741566 0.015828 Li+
0.521194 0.318286 0.087676 Li+
0.478806 0.818286 0.087676 Li+
0.476313 0.433730 0.002847 Li+
0.523687 0.933730 0.002847 Li+
0.533250 0.550453 0.029059 Li+
0.466750 0.050453 0.029059 Li+
0.477737 0.667016 0.055318 Li+
0.522263 0.167016 0.055318 Li+
0.960889 0.743634 0.071835 Li+
0.039111 0.243634 0.071835 Li+
0.494607 0.818220 0.142985 Li+
0.505393 0.318220 0.142985 Li+
0.484419 0.934004 0.169391 Li+
0.515581 0.434004 0.169391 Li+
0.505784 0.049457 0.195599 Li+
0.494216 0.549457 0.195599 Li+
0.507224 0.164548 0.221672 Li+
0.492776 0.664548 0.221672 Li+
0.992783 0.241566 0.126939 Li+
0.007217 0.741566 0.126939 Li+
0.521194 0.318286 0.198787 Li+
0.478806 0.818286 0.198787 Li+
0.476313 0.433730 0.113958 Li+
0.523687 0.933730 0.113958 Li+
0.533250 0.550453 0.140170 Li+
0.466750 0.050453 0.140170 Li+
0.477737 0.667016 0.166430 Li+
0.522263 0.167016 0.166430 Li+
0.960889 0.743634 0.182946 Li+
0.039111 0.243634 0.182946 Li+
0.494607 0.818220 0.254096 Li+
0.505393 0.318220 0.254096 Li+
0.484419 0.934004 0.280502 Li+
0.515581 0.434004 0.280502 Li+
0.505784 0.049457 0.306710 Li+
0.494216 0.549457 0.306710 Li+
0.507224 0.164548 0.332783 Li+
0.492776 0.664548 0.332783 Li+
0.992783 0.241566 0.238050 Li+
0.007217 0.741566 0.238050 Li+
0.521194 0.318286 0.309898 Li+
0.478806 0.818286 0.309898 Li+
0.476313 0.433730 0.225069 Li+
0.523687 0.933730 0.225069 Li+
0.533250 0.550453 0.251281 Li+
0.466750 0.050453 0.251281 Li+
0.477737 0.667016 0.277541 Li+
0.522263 0.167016 0.277541 Li+
0.960889 0.743634 0.294057 Li+
0.039111 0.243634 0.294057 Li+
0.494607 0.818220 0.365208 Li+
0.505393 0.318220 0.365208 Li+
0.484419 0.934004 0.391613 Li+
0.515581 0.434004 0.391613 Li+
0.505784 0.049457 0.417821 Li+
0.494216 0.549457 0.417821 Li+
0.507224 0.164548 0.443894 Li+
0.492776 0.664548 0.443894 Li+
0.992783 0.241566 0.349161 Li+
0.007217 0.741566 0.349161 Li+
0.521194 0.318286 0.421009 Li+
0.478806 0.818286 0.421009 Li+
0.476313 0.433730 0.336180 Li+
0.523687 0.933730 0.336180 Li+
0.533250 0.550453 0.362392 Li+
0.466750 0.050453 0.362392 Li+
0.477737 0.667016 0.388652 Li+
0.522263 0.167016 0.388652 Li+
0.960889 0.743634 0.405169 Li+
0.039111 0.243634 0.405169 Li+
0.494607 0.818220 0.476319 Li+
0.505393 0.318220 0.476319 Li+
0.484419 0.934004 0.502724 Li+
0.515581 0.434004 0.502724 Li+
0.505784 0.049457 0.528932 Li+
0.494216 0.549457 0.528932 Li+
0.507224 0.164548 0.555005 Li+
0.492776 0.664548 0.555005 Li+
0.992783 0.241566 0.460272 Li+
0.007217 0.741566 0.460272 Li+
0.521194 0.318286 0.532120 Li+
0.478806 0.818286 0.532120 Li+
0.476313 0.433730 0.447291 Li+
0.523687 0.933730 0.447291 Li+
0.533250 0.550453 0.473503 Li+
0.466750 0.050453 0.473503 Li+
0.477737 0.667016 0.499763 Li+
0.522263 0.167016 0.499763 Li+
0.960889 0.743634 0.516280 Li+
0.039111 0.243634 0.516280 Li+
0.494607 0.818220 0.587430 Li+
0.505393 0.318220 0.587430 Li+
0.484419 0.934004 0.613835 Li+
0.515581 0.434004 0.613835 Li+
0.505784 0.049457 0.640043 Li+
0.494216 0.549457 0.640043 Li+
0.507224 0.164548 0.666117 Li+
0.492776 0.664548 0.666117 Li+
0.992783 0.241566 0.571384 Li+
0.007217 0.741566 0.571384 Li+
0.521194 0.318286 0.643231 Li+
0.478806 0.818286 0.643231 Li+
0.476313 0.433730 0.558402 Li+
0.523687 0.933730 0.558402 Li+
0.533250 0.550453 0.584614 Li+
0.466750 0.050453 0.584614 Li+
0.477737 0.667016 0.610874 Li+
0.522263 0.167016 0.610874 Li+
0.960889 0.743634 0.627391 Li+
0.039111 0.243634 0.627391 Li+
0.494607 0.818220 0.698541 Li+
0.505393 0.318220 0.698541 Li+
0.484419 0.934004 0.724946 Li+
0.515581 0.434004 0.724946 Li+
0.505784 0.049457 0.751154 Li+
0.494216 0.549457 0.751154 Li+
0.507224 0.164548 0.777228 Li+
0.492776 0.664548 0.777228 Li+
0.992783 0.241566 0.682495 Li+
0.007217 0.741566 0.682495 Li+
0.521194 0.318286 0.754343 Li+
0.478806 0.818286 0.754343 Li+
0.476313 0.433730 0.669513 Li+
0.523687 0.933730 0.669513 Li+
0.533250 0.550453 0.695725 Li+
0.466750 0.050453 0.695725 Li+
0.477737 0.667016 0.721985 Li+
0.522263 0.167016 0.721985 Li+
0.960889 0.743634 0.738502 Li+
0.039111 0.243634 0.738502 Li+
0.185377 0.000413 0.045841 P5+
0.814623 0.500413 0.045841 P5+
0.843317 0.093280 0.068773 P5+
0.156683 0.593280 0.068773 P5+
0.188444 0.197061 0.090498 P5+
0.811556 0.697061 0.090498 P5+
0.828977 0.308311 0.000550 P5+
0.171023 0.808311 0.000550 P5+
0.159739 0.408249 0.022772 P5+
0.840261 0.908249 0.022772 P5+
0.843930 0.574567 0.008714 P5+
0.156070 0.074567 0.008714 P5+
0.174322 0.674438 0.030978 P5+
0.825678 0.174438 0.030978 P5+
0.812278 0.786455 0.052185 P5+
0.187722 0.286455 0.052185 P5+
0.151901 0.889856 0.073942 P5+
0.848099 0.389856 0.073942 P5+
0.809867 0.982845 0.096863 P5+
0.190133 0.482845 0.096863 P5+
0.185377 0.000413 0.156952 P5+
0.814623 0.500413 0.156952 P5+
0.843317 0.093280 0.179884 P5+
0.156683 0.593280 0.179884 P5+
0.188444 0.197061 0.201609 P5+
0.811556 0.697061 0.201609 P5+
0.828977 0.308311 0.111661 P5+
0.171023 0.808311 0.111661 P5+
0.159739 0.408249 0.133883 P5+
0.840261 0.908249 0.133883 P5+
0.843930 0.574567 0.119825 P5+
0.156070 0.074567 0.119825 P5+
0.174322 0.674438 0.142089 P5+
0.825678 0.174438 0.142089 P5+
0.812278 0.786455 0.163297 P5+
0.187722 0.286455 0.163297 P5+
0.151901 0.889856 0.185053 P5+
0.848099 0.389856 0.185053 P5+
0.809867 0.982845 0.207974 P5+
0.190133 0.482845 0.207974 P5+
0.185377 0.000413 0.268063 P5+
0.814623 0.500413 0.268063 P5+
0.843317 0.093280 0.290995 P5+
0.156683 0.593280 0.290995 P5+
0.188444 0.197061 0.312720 P5+
0.811556 0.697061 0.312720 P5+
0.828977 0.308311 0.222772 P5+
0.171023 0.808311 0.222772 P5+
0.159739 0.408249 0.244994 P5+
0.840261 0.908249 0.244994 P5+
0.843930 0.574567 0.230936 P5+
0.156070 0.074567 0.230936 P5+
0.174322 0.674438 0.253200 P5+
0.825678 0.174438 0.253200 P5+
0.812278 0.786455 0.274408 P5+
0.187722 0.286455 0.274408 P5+
0.151901 0.889856 0.296164 P5+
0.848099 0.389856 0.296164 P5+
0.809867 0.982845 0.319085 P5+
0.190133 0.482845 0.319085 P5+
0.185377 0.000413 0.379174 P5+
0.814623 0.500413 0.379174 P5+
0.843317 0.093280 0.402107 P5+
0.156683 0.593280 0.402107 P5+
0.188444 0.197061 0.423831 P5+
0.811556 0.697061 0.423831 P5+
0.828977 0.308311 0.333883 P5+
0.171023 0.808311 0.333883 P5+
0.159739 0.408249 0.356105 P5+
0.840261 0.908249 0.356105 P5+
0.843930 0.574567 0.342047 P5+
0.156070 0.074567 0.342047 P5+
0.174322 0.674438 0.364311 P5+
0.825678 0.174438 0.364311 P5+
0.812278 0.786455 0.385519 P5+
0.187722 0.286455 0.385519 P5+
0.151901 0.889856 0.407276 P5+
0.848099 0.389856 0.407276 P5+
0.809867 0.982845 0.430196 P5+
0.190133 0.482845 0.430196 P5+
0.185377 0.000413 0.490285 P5+
0.814623 0.500413 0.490285 P5+
0.843317 0.093280 0.513218 P5+
0.156683 0.593280 0.513218 P5+
0.188444 0.197061 0.534943 P5+
0.811556 0.697061 0.534943 P5+
0.828977 0.308311 0.444995 P5+
0.171023 0.808311 0.444995 P5+
0.159739 0.408249 0.467216 P5+
0.840261 0.908249 0.467216 P5+
0.843930 0.574567 0.453158 P5+
0.156070 0.074567 0.453158 P5+
0.174322 0.674438 0.475422 P5+
0.825678 0.174438 0.475422 P5+
0.812278 0.786455 0.496630 P5+
0.187722 0.286455 0.496630 P5+
0.151901 0.889856 0.518387 P5+
0.848099 0.389856 0.518387 P5+
0.809867 0.982845 0.541307 P5+
0.190133 0.482845 0.541307 P5+
0.185377 0.000413 0.601396 P5+
0.814623 0.500413 0.601396 P5+
0.843317 0.093280 0.624329 P5+
0.156683 0.593280 0.624329 P5+
0.188444 0.197061 0.646054 P5+
0.811556 0.697061 0.646054 P5+
0.828977 0.308311 0.556106 P5+
0.171023 0.808311 0.556106 P5+
0.159739 0.408249 0.578327 P5+
0.840261 0.908249 0.578327 P5+
0.843930 0.574567 0.564270 P5+
0.156070 0.074567 0.564270 P5+
0.174322 0.674438 0.586533 P5+
0.825678 0.174438 0.586533 P5+
0.812278 0.786455 0.607741 P5+
0.187722 0.286455 0.607741 P5+
0.151901 0.889856 0.629498 P5+
0.848099 0.389856 0.629498 P5+
0.809867 0.982845 0.652418 P5+
0.190133 0.482845 0.652418 P5+
0.185377 0.000413 0.712507 P5+
0.814623 0.500413 0.712507 P5+
0.843317 0.093280 0.735440 P5+
0.156683 0.593280 0.735440 P5+
0.188444 0.197061 0.757165 P5+
0.811556 0.697061 0.757165 P5+
0.828977 0.308311 0.667217 P5+
0.171023 0.808311 0.667217 P5+
0.159739 0.408249 0.689438 P5+
0.840261 0.908249 0.689438 P5+
0.843930 0.574567 0.675381 P5+
0.156070 0.074567 0.675381 P5+
0.174322 0.674438 0.697644 P5+
0.825678 0.174438 0.697644 P5+
0.812278 0.786455 0.718852 P5+
0.187722 0.286455 0.718852 P5+
0.151901 0.889856 0.740609 P5+
0.848099 0.389856 0.740609 P5+
0.809867 0.982845 0.763530 P5+
0.190133 0.482845 0.763530 P5+
0.069000 0.035413 0.060370 O2-
0.931000 0.535413 0.060370 O2-
0.951087 0.140628 0.083725 O2-
0.048913 0.640628 0.083725 O2-
0.080018 0.275856 0.103555 O2-
0.919982 0.775856 0.103555 O2-
0.926681 0.392259 0.013361 O2-
0.073319 0.892259 0.013361 O2-
0.942022 0.978148 0.037022 O2-
0.057978 0.478148 0.037022 O2-
0.076781 0.590622 0.018142 O2-
0.923219 0.090622 0.018142 O2-
0.921841 0.709404 0.038902 O2-
0.078159 0.209404 0.038902 O2-
0.049265 0.843555 0.058905 O2-
0.950735 0.343555 0.058905 O2-
0.918787 0.943480 0.082086 O2-
0.081213 0.443480 0.082086 O2-
0.944691 0.504327 0.105524 O2-
0.055309 0.004327 0.105524 O2-
0.322795 0.926111 0.042686 O2-
0.677205 0.426111 0.042686 O2-
0.313918 0.066074 0.045362 O2-
0.686082 0.566074 0.045362 O2-
0.643576 0.041349 0.068663 O2-
0.356424 0.541349 0.068663 O2-
0.795305 0.153257 0.064934 O2-
0.204695 0.653257 0.064934 O2-
0.351974 0.154647 0.094778 O2-
0.648026 0.654647 0.094778 O2-
0.281781 0.224590 0.081770 O2-
0.718219 0.724590 0.081770 O2-
0.751546 0.252705 0.004891 O2-
0.248454 0.752705 0.004891 O2-
0.656290 0.330648 0.104541 O2-
0.343710 0.830648 0.104541 O2-
0.215121 0.332841 0.022659 O2-
0.784879 0.832841 0.022659 O2-
0.355777 0.446708 0.019383 O2-
0.644223 0.946708 0.019383 O2-
0.649890 0.536665 0.012328 O2-
0.350110 0.036665 0.012328 O2-
0.785996 0.649394 0.008715 O2-
0.214004 0.149394 0.008715 O2-
0.340793 0.651785 0.038306 O2-
0.659207 0.151785 0.038306 O2-
0.258044 0.728542 0.026448 O2-
0.741956 0.228542 0.026448 O2-
0.725734 0.758375 0.060958 O2-
0.274266 0.258375 0.060958 O2-
0.642950 0.828801 0.048136 O2-
0.357050 0.328801 0.048136 O2-
0.205272 0.829973 0.077747 O2-
0.794728 0.329973 0.077747 O2-
0.347295 0.944360 0.074483 O2-
0.652705 0.444360 0.074483 O2-
0.677470 0.919559 0.097836 O2-
0.322530 0.419559 0.097836 O2-
0.678914 0.057634 0.099782 O2-
0.321086 0.557634 0.099782 O2-
0.069000 0.035413 0.171481 O2-
0.931000 0.535413 0.171481 O2-
0.951087 0.140628 0.194836 O2-
0.048913 0.640628 0.194836 O2-
0.080018 0.275856 0.214666 O2-
0.919982 0.775856 0.214666 O2-
0.926681 0.392259 0.124472 O2-
0.073319 0.892259 0.124472 O2-
0.942022 0.978148 0.148133 O2-
0.057978 0.478148 0.148133 O2-
0.076781 0.590622 0.129254 O2-
0.923219 0.090622 0.129254 O2-
0.921841 0.709404 0.150013 O2-
0.078159 0.209404 0.150013 O2-
0.049265 0.843555 0.170016 O2-
0.950735 0.343555 0.170016 O2-
0.918787 0.943480 0.193198 O2-
0.081213 0.443480 0.193198 O2-
0.944691 0.504327 0.216635 O2-
0.055309 0.004327 0.216635 O2-
0.322795 0.926111 0.153797 O2-
0.677205 0.426111 0.153797 O2-
0.313918 0.066074 0.156473 O2-
0.686082 0.566074 0.156473 O2-
0.643576 0.041349 0.179775 O2-
0.356424 0.541349 0.179775 O2-
0.795305 0.153257 0.176045 O2-
0.204695 0.653257 0.176045 O2-
0.351974 0.154647 0.205889 O2-
0.648026 0.654647 0.205889 O2-
0.281781 0.224590 0.192881 O2-
0.718219 0.724590 0.192881 O2-
0.751546 0.252705 0.116002 O2-
0.248454 0.752705 0.116002 O2-
0.656290 0.330648 0.215652 O2-
0.343710 0.830648 0.215652 O2-
0.215121 0.332841 0.133770 O2-
0.784879 0.832841 0.133770 O2-
0.355777 0.446708 0.130495 O2-
0.644223 0.946708 0.130495 O2-
0.649890 0.536665 0.123439 O2-
0.350110 0.036665 0.123439 O2-
0.785996 0.649394 0.119826 O2-
0.214004 0.149394 0.119826 O2-
0.340793 0.651785 0.149417 O2-
0.659207 0.151785 0.149417 O2-
0.258044 0.728542 0.137559 O2-
0.741956 0.228542 0.137559 O2-
0.725734 0.758375 0.172070 O2-
0.274266 0.258375 0.172070 O2-
0.642950 0.828801 0.159247 O2-
0.357050 0.328801 0.159247 O2-
0.205272 0.829973 0.188858 O2-
0.794728 0.329973 0.188858 O2-
0.347295 0.944360 0.185594 O2-
0.652705 0.444360 0.185594 O2-
0.677470 0.919559 0.208947 O2-
0.322530 0.419559 0.208947 O2-
0.678914 0.057634 0.210893 O2-
0.321086 0.557634 0.210893 O2-
0.069000 0.035413 0.282592 O2-
0.931000 0.535413 0.282592 O2-
0.951087 0.140628 0.305947 O2-
0.048913 0.640628 0.305947 O2-
0.080018 0.275856 0.325777 O2-
0.919982 0.775856 0.325777 O2-
0.926681 0.392259 0.235583 O2-
0.073319 0.892259 0.235583 O2-
0.942022 0.978148 0.259244 O2-
0.057978 0.478148 0.259244 O2-
0.076781 0.590622 0.240365 O2-
0.923219 0.090622 0.240365 O2-
0.921841 0.709404 0.261124 O2-
0.078159 0.209404 0.261124 O2-
0.049265 0.843555 0.281127 O2-
0.950735 0.343555 0.281127 O2-
0.918787 0.943480 0.304309 O2-
0.081213 0.443480 0.304309 O2-
0.944691 0.504327 0.327746 O2-
0.055309 0.004327 0.327746 O2-
0.322795 0.926111 0.264908 O2-
0.677205 0.426111 0.264908 O2-
0.313918 0.066074 0.267584 O2-
0.686082 0.566074 0.267584 O2-
0.643576 0.041349 0.290886 O2-
0.356424 0.541349 0.290886 O2-
0.795305 0.153257 0.287156 O2-
0.204695 0.653257 0.287156 O2-
0.351974 0.154647 0.317000 O2-
0.648026 0.654647 0.317000 O2-
0.281781 0.224590 0.303992 O2-
0.718219 0.724590 0.303992 O2-
0.751546 0.252705 0.227113 O2-
0.248454 0.752705 0.227113 O2-
0.656290 0.330648 0.326763 O2-
0.343710 0.830648 0.326763 O2-
0.215121 0.332841 0.244881 O2-
0.784879 0.832841 0.244881 O2-
0.355777 0.446708 0.241606 O2-
0.644223 0.946708 0.241606 O2-
0.649890 0.536665 0.234551 O2-
0.350110 0.036665 0.234551 O2-
0.785996 0.649394 0.230937 O2-
0.214004 0.149394 0.230937 O2-
0.340793 0.651785 0.260528 O2-
0.659207 0.151785 0.260528 O2-
0.258044 0.728542 0.248670 O2-
0.741956 0.228542 0.248670 O2-
0.725734 0.758375 0.283181 O2-
0.274266 0.258375 0.283181 O2-
0.642950 0.828801 0.270358 O2-
0.357050 0.328801 0.270358 O2-
0.205272 0.829973 0.299970 O2-
0.794728 0.329973 0.299970 O2-
0.347295 0.944360 0.296706 O2-
0.652705 0.444360 0.296706 O2-
0.677470 0.919559 0.320059 O2-
0.322530 0.419559 0.320059 O2-
0.678914 0.057634 0.322004 O2-
0.321086 0.557634 0.322004 O2-
0.069000 0.035413 0.393703 O2-
0.931000 0.535413 0.393703 O2-
0.951087 0.140628 0.417058 O2-
0.048913 0.640628 0.417058 O2-
0.080018 0.275856 0.436888 O2-
0.919982 0.775856 0.436888 O2-
0.926681 0.392259 0.346694 O2-
0.073319 0.892259 0.346694 O2-
0.942022 0.978148 0.370355 O2-
0.057978 0.478148 0.370355 O2-
0.076781 0.590622 0.351476 O2-
0.923219 0.090622 0.351476 O2-
0.921841 0.709404 0.372236 O2-
0.078159 0.209404 0.372236 O2-
0.049265 0.843555 0.392238 O2-
0.950735 0.343555 0.392238 O2-
0.918787 0.943480 0.415420 O2-
0.081213 0.443480 0.415420 O2-
0.944691 0.504327 0.438857 O2-
0.055309 0.004327 0.438857 O2-
0.322795 0.926111 0.376019 O2-
0.677205 0.426111 0.376019 O2-
0.313918 0.066074 0.378695 O2-
0.686082 0.566074 0.378695 O2-
0.643576 0.041349 0.401997 O2-
0.356424 0.541349 0.401997 O2-
0.795305 0.153257 0.398267 O2-
0.204695 0.653257 0.398267 O2-
0.351974 0.154647 0.428112 O2-
0.648026 0.654647 0.428112 O2-
0.281781 0.224590 0.415103 O2-
0.718219 0.724590 0.415103 O2-
0.751546 0.252705 0.338224 O2-
0.248454 0.752705 0.338224 O2-
0.656290 0.330648 0.437874 O2-
0.343710 0.830648 0.437874 O2-
0.215121 0.332841 0.355992 O2-
0.784879 0.832841 0.355992 O2-
0.355777 0.446708 0.352717 O2-
0.644223 0.946708 0.352717 O2-
0.649890 0.536665 0.345662 O2-
0.350110 0.036665 0.345662 O2-
0.785996 0.649394 0.342048 O2-
0.214004 0.149394 0.342048 O2-
0.340793 0.651785 0.371639 O2-
0.659207 0.151785 0.371639 O2-
0.258044 0.728542 0.359782 O2-
0.741956 0.228542 0.359782 O2-
0.725734 0.758375 0.394292 O2-
0.274266 0.258375 0.394292 O2-
0.642950 0.828801 0.381470 O2-
0.357050 0.328801 0.381470 O2-
0.205272 0.829973 0.411081 O2-
0.794728 0.329973 0.411081 O2-
0.347295 0.944360 0.407817 O2-
0.652705 0.444360 0.407817 O2-
0.677470 0.919559 0.431170 O2-
0.322530 0.419559 0.431170 O2-
0.678914 0.057634 0.433115 O2-
0.321086 0.557634 0.433115 O2-
0.069000 0.035413 0.504815 O2-
0.931000 0.535413 0.504815 O2-
0.951087 0.140628 0.528169 O2-
0.048913 0.640628 0.528169 O2-
0.080018 0.275856 0.548000 O2-
0.919982 0.775856 0.548000 O2-
0.926681 0.392259 0.457806 O2-
0.073319 0.892259 0.457806 O2-
0.942022 0.978148 0.481466 O2-
0.057978 0.478148 0.481466 O2-
0.076781 0.590622 0.462587 O2-
0.923219 0.090622 0.462587 O2-
0.921841 0.709404 0.483347 O2-
0.078159 0.209404 0.483347 O2-
0.049265 0.843555 0.503349 O2-
0.950735 0.343555 0.503349 O2-
0.918787 0.943480 0.526531 O2-
0.081213 0.443480 0.526531 O2-
0.944691 0.504327 0.549969 O2-
0.055309 0.004327 0.549969 O2-
0.322795 0.926111 0.487130 O2-
0.677205 0.426111 0.487130 O2-
0.313918 0.066074 0.489806 O2-
0.686082 0.566074 0.489806 O2-
0.643576 0.041349 0.513108 O2-
0.356424 0.541349 0.513108 O2-
0.795305 0.153257 0.509378 O2-
0.204695 0.653257 0.509378 O2-
0.351974 0.154647 0.539223 O2-
0.648026 0.654647 0.539223 O2-
0.281781 0.224590 0.526214 O2-
0.718219 0.724590 0.526214 O2-
0.751546 0.252705 0.449335 O2-
0.248454 0.752705 0.449335 O2-
0.656290 0.330648 0.548985 O2-
0.343710 0.830648 0.548985 O2-
0.215121 0.332841 0.467103 O2-
0.784879 0.832841 0.467103 O2-
0.355777 0.446708 0.463828 O2-
0.644223 0.946708 0.463828 O2-
0.649890 0.536665 0.456773 O2-
0.350110 0.036665 0.456773 O2-
0.785996 0.649394 0.453159 O2-
0.214004 0.149394 0.453159 O2-
0.340793 0.651785 0.482750 O2-
0.659207 0.151785 0.482750 O2-
0.258044 0.728542 0.470893 O2-
0.741956 0.228542 0.470893 O2-
0.725734 0.758375 0.505403 O2-
0.274266 0.258375 0.505403 O2-
0.642950 0.828801 0.492581 O2-
0.357050 0.328801 0.492581 O2-
0.205272 0.829973 0.522192 O2-
0.794728 0.329973 0.522192 O2-
0.347295 0.944360 0.518928 O2-
0.652705 0.444360 0.518928 O2-
0.677470 0.919559 0.542281 O2-
0.322530 0.419559 0.542281 O2-
0.678914 0.057634 0.544226 O2-
0.321086 0.557634 0.544226 O2-
0.069000 0.035413 0.615926 O2-
0.931000 0.535413 0.615926 O2-
0.951087 0.140628 0.639281 O2-
0.048913 0.640628 0.639281 O2-
0.080018 0.275856 0.659111 O2-
0.919982 0.775856 0.659111 O2-
0.926681 0.392259 0.568917 O2-
0.073319 0.892259 0.568917 O2-
0.942022 0.978148 0.592577 O2-
0.057978 0.478148 0.592577 O2-
0.076781 0.590622 0.573698 O2-
0.923219 0.090622 0.573698 O2-
0.921841 0.709404 0.594458 O2-
0.078159 0.209404 0.594458 O2-
0.049265 0.843555 0.614461 O2-
0.950735 0.343555 0.614461 O2-
0.918787 0.943480 0.637642 O2-
0.081213 0.443480 0.637642 O2-
0.944691 0.504327 0.661080 O2-
0.055309 0.004327 0.661080 O2-
0.322795 0.926111 0.598241 O2-
0.677205 0.426111 0.598241 O2-
0.313918 0.066074 0.600917 O2-
0.686082 0.566074 0.600917 O2-
0.643576 0.041349 0.624219 O2-
0.356424 0.541349 0.624219 O2-
0.795305 0.153257 0.620489 O2-
0.204695 0.653257 0.620489 O2-
0.351974 0.154647 0.650334 O2-
0.648026 0.654647 0.650334 O2-
0.281781 0.224590 0.637325 O2-
0.718219 0.724590 0.637325 O2-
0.751546 0.252705 0.560446 O2-
0.248454 0.752705 0.560446 O2-
0.656290 0.330648 0.660096 O2-
0.343710 0.830648 0.660096 O2-
0.215121 0.332841 0.578214 O2-
0.784879 0.832841 0.578214 O2-
0.355777 0.446708 0.574939 O2-
0.644223 0.946708 0.574939 O2-
0.649890 0.536665 0.567884 O2-
0.350110 0.036665 0.567884 O2-
0.785996 0.649394 0.564270 O2-
0.214004 0.149394 0.564270 O2-
0.340793 0.651785 0.593861 O2-
0.659207 0.151785 0.593861 O2-
0.258044 0.728542 0.582004 O2-
0.741956 0.228542 0.582004 O2-
0.725734 0.758375 0.616514 O2-
0.274266 0.258375 0.616514 O2-
0.642950 0.828801 0.603692 O2-
0.357050 0.328801 0.603692 O2-
0.205272 0.829973 0.633303 O2-
0.794728 0.329973 0.633303 O2-
0.347295 0.944360 0.630039 O2-
0.652705 0.444360 0.630039 O2-
0.677470 0.919559 0.653392 O2-
0.322530 0.419559 0.653392 O2-
0.678914 0.057634 0.655337 O2-
0.321086 0.557634 0.655337 O2-
0.069000 0.035413 0.727037 O2-
0.931000 0.535413 0.727037 O2-
0.951087 0.140628 0.750392 O2-
0.048913 0.640628 0.750392 O2-
0.080018 0.275856 0.770222 O2-
0.919982 0.775856 0.770222 O2-
0.926681 0.392259 0.680028 O2-
0.073319 0.892259 0.680028 O2-
0.942022 0.978148 0.703688 O2-
0.057978 0.478148 0.703688 O2-
0.076781 0.590622 0.684809 O2-
0.923219 0.090622 0.684809 O2-
0.921841 0.709404 0.705569 O2-
0.078159 0.209404 0.705569 O2-
0.049265 0.843555 0.725572 O2-
0.950735 0.343555 0.725572 O2-
0.918787 0.943480 0.748753 O2-
0.081213 0.443480 0.748753 O2-
0.944691 0.504327 0.772191 O2-
0.055309 0.004327 0.772191 O2-
0.322795 0.926111 0.709353 O2-
0.677205 0.426111 0.709353 O2-
0.313918 0.066074 0.712028 O2-
0.686082 0.566074 0.712028 O2-
0.643576 0.041349 0.735330 O2-
0.356424 0.541349 0.735330 O2-
0.795305 0.153257 0.731600 O2-
0.204695 0.653257 0.731600 O2-
0.351974 0.154647 0.761445 O2-
0.648026 0.654647 0.761445 O2-
0.281781 0.224590 0.748437 O2-
0.718219 0.724590 0.748437 O2-
0.751546 0.252705 0.671557 O2-
0.248454 0.752705 0.671557 O2-
0.656290 0.330648 0.771207 O2-
0.343710 0.830648 0.771207 O2-
0.215121 0.332841 0.689326 O2-
0.784879 0.832841 0.689326 O2-
0.355777 0.446708 0.686050 O2-
0.644223 0.946708 0.686050 O2-
0.649890 0.536665 0.678995 O2-
0.350110 0.036665 0.678995 O2-
0.785996 0.649394 0.675381 O2-
0.214004 0.149394 0.675381 O2-
0.340793 0.651785 0.704972 O2-
0.659207 0.151785 0.704972 O2-
0.258044 0.728542 0.693115 O2-
0.741956 0.228542 0.693115 O2-
0.725734 0.758375 0.727625 O2-
0.274266 0.258375 0.727625 O2-
0.642950 0.828801 0.714803 O2-
0.357050 0.328801 0.714803 O2-
0.205272 0.829973 0.744414 O2-
0.794728 0.329973 0.744414 O2-
0.347295 0.944360 0.741150 O2-
0.652705 0.444360 0.741150 O2-
0.677470 0.919559 0.764503 O2-
0.322530 0.419559 0.764503 O2-
0.678914 0.057634 0.766448 O2-
0.321086 0.557634 0.766448 O2-
