Li61 P7 N32                             
   1.00000000000000     
     0.0583543247148773    9.6107374867750330   -0.0081935519041348
     0.0379780778486810   -0.0085716744837757    9.6209069441010797
     9.5687333058792277    0.0588216513622362    0.0375652048252562
   Li   P    N 
    61     7    32
Direct
  0.4954900511162850 -0.0138079577861752  0.5041397591685672
  0.0071519308927468  0.4923520364516565  0.0064889586751078
  0.5010876816785854 -0.0120524696658701  0.0045539026063531
 -0.0057737220053567 -0.0011469314324072  0.4996617821399105
  0.5037044002298079  0.4741347424082390 -0.0112539624426630
  0.0104070998938404  0.4982623167050402  0.5004728926060811
  0.7476691479671610 -0.0067083794733009  0.5091049705029524
  0.2458445370129616 -0.0057608681621617  0.5046582977813925
  0.7737576067923189  0.5143055999778281  0.5122256757558163
  0.2555734131575020  0.5063810025359520  0.5139627748755514
  0.2644407978071726  0.0002562166017453  0.0066775663766027
  0.7389891448515128 -0.0028745109659280  0.0184151083915358
  0.5591224580378942  0.5721980032430510  0.4474523768104538
  0.5353462582493403  0.2246409532393089 -0.0234149684568881
  0.5048075525539898  0.7410333651728204  0.0350070336237633
  0.0061589339916755  0.4992097656872514  0.2491259760496609
 -0.0018624529679304  0.4737595582305629  0.7597925652905116
  0.2152909914507883  0.2240642832833471  0.2229768399764192
  0.2015227313221274  0.8035318325310246  0.7313611425293152
  0.2202888359237754  0.3029847896364345  0.7126060129963042
  0.2756305037989474  0.7218642348700988  0.2315903385311003
  0.8269676941188173  0.3448407529314912  0.3452231386899713
  0.7071613280497243  0.7765130405097290  0.6997366411128250
  0.7356812511420324  0.2289186583626172  0.7763466522146627
  0.7650345562674303  0.8102389880365373  0.2330171559686149
 -0.0173808507671134  0.2336911267356149  0.2288892785020977
  0.9480198493181307  0.7154944458992145  0.7502287415880706
  0.2576263699557533  0.2392850797807472  0.4837915087956625
  0.2415312525545129  0.7335028823268795  0.4704294917736799
  0.7396341529703557  0.2338048120862470  0.5234443650768691
  0.7359165961087203  0.7531049050380509  0.4771873670693732
  0.7532344297794472  0.5471191565066902  0.2590234729362720
  0.7657530631610381  0.4756483283362908  0.7422945793912310
  0.2453765070523188  0.4879157616823265  0.2610195425454502
  0.2184220174069138  0.5512847020211435  0.7526448360382501
  0.4904319524216871  0.7649394386248134  0.2953485115164103
  0.4627450146116343  0.2334315014007570  0.7212594025687934
  0.2367262951412930  0.9711460425307492  0.2581054161749132
  0.2437980320186343  0.0405079759706449  0.7536988799424243
  0.2881607917700089  0.2461277512007211  0.9570924277760144
  0.2461107448989776  0.7564908719633547 -0.0092642935457826
  0.7609347313582417 -0.0091783910166722  0.7686791815062558
  0.7428890817286868  0.0721002197067074  0.2818760878409113
  0.7682168700223511  0.7538920349493413  0.9871892055345864
  0.7930080842026352  0.2365484630034861  0.0121311429935791
 -0.0169346261486029  0.2167063304926090  0.7482932759890888
  0.0170847745384776  0.7460944221414096  0.2367703326332498
  0.4485734159708550  0.2491951197262845  0.2167719113362614
  0.4486977681359773  0.7510724665550721  0.7904761662717352
  0.0372007910999720  0.2502734816380044 -0.0138048597654124
  0.0087070728331258  0.7306831476000536 -0.0076922742223671
  0.5054774568199432  0.2179415856693185  0.4736842923779199
  0.4686424859551919  0.7348658184551765  0.5554120896462480
  0.4963686590089158  0.5209850340153429  0.2189817567038560
  0.4471157975031152  0.5071890986521975  0.7260380694854403
 -0.0095900689074671 -0.0101313306762340  0.2617200957835974
 -0.0007105243869657 -0.0220010371472963  0.7378020367369966
  0.4275966045917584  0.4190332968802358  0.4155675943182600
  0.5754549564891797  0.4122170920712856  0.5856288202915860
  0.6646533276554443  0.3091426193046000  0.2009110223718885
  0.6315190294528084  0.6181242545942432  0.8443935380916584
  0.0027916260741329 -0.0076712964751013 -0.0003505721891829
  0.7631297810913904  0.4895747794188678  0.0072703911332223
  0.2527934589581777  0.4974296290470798  0.0013815095733818
 -0.0064879055644621  0.7522076375764557  0.4978134906877000
  0.0005111990614419  0.2435349570160758  0.4988398459845265
  0.4986023265536655  0.0035554573370215  0.2489900032444972
  0.5010574888478897 -0.0060841489380247  0.7586183683708534
  0.6207192983711363  0.6104277392161879  0.6369195605292995
  0.6300881290045072  0.3875828709589578  0.3845191496237834
  0.9011831348060270  0.8860776627420596  0.0972414544908231
  0.9000714171337646  0.0958526834739689  0.8984924562898848
  0.1085349234083917  0.8975119795966011  0.8954694938127373
  0.0993086898080354  0.0933855845827930  0.1055179051243650
  0.3773643250400356  0.6166377850303075  0.3730583716876104
  0.3751524732119964  0.3632416643205693  0.6030257663328558
  0.0908858669294131  0.3423411813793974  0.3825942642342712
  0.0945795581559358  0.6539319430734698  0.6075142798454998
  0.1031486912825257  0.1431979722227701  0.5997257277863501
  0.0978817205867619  0.8547226665585552  0.3976254403392836
  0.8898144881947450  0.1461610808274786  0.4036360208506082
  0.8838404323093988  0.8491774765204326  0.5983576040375318
  0.8576256870617396  0.3990136793930573  0.1259258378887645
  0.8618610018230176  0.5863604624584587  0.8959600122966926
  0.1514750730245643  0.5996920263360670  0.1039440960596535
  0.1534690828855534  0.4016535320885309  0.8918270605193347
  0.4033349515723926  0.8893324574637077  0.1547208842731996
  0.4073831242790887  0.0996255508539254  0.8629045164402795
  0.3846501020536331  0.0961908744262671  0.3482126462837629
  0.3859310269961792  0.9022609530726790  0.6619317813775203
  0.3478712190607924  0.3872254194956627  0.1000065280913743
  0.3574748694777624  0.6030284502079492  0.9024531364572438
  0.6103579876270897  0.0922481704230483  0.6556104688760749
  0.6153577825423687  0.9155048008870592  0.3496056285372629
  0.6524915578153786  0.6009373624932122  0.0842820758824807
  0.6727062490219909  0.3752716427895880  0.9122762238300848
  0.9008954512714510  0.3459655833127046  0.6077995312211536
  0.8990925533247145  0.6491615650606568  0.3900814824379715
  0.5930401521557643  0.1128199090667859  0.1441509062599820
  0.6010023670825020  0.8833687230364180  0.8560950056282692
 
  0.00000000E+00  0.00000000E+00  0.00000000E+00
  0.00000000E+00  0.00000000E+00  0.00000000E+00
  0.00000000E+00  0.00000000E+00  0.00000000E+00
  0.00000000E+00  0.00000000E+00  0.00000000E+00
  0.00000000E+00  0.00000000E+00  0.00000000E+00
  0.00000000E+00  0.00000000E+00  0.00000000E+00
  0.00000000E+00  0.00000000E+00  0.00000000E+00
  0.00000000E+00  0.00000000E+00  0.00000000E+00
  0.00000000E+00  0.00000000E+00  0.00000000E+00
  0.00000000E+00  0.00000000E+00  0.00000000E+00
  0.00000000E+00  0.00000000E+00  0.00000000E+00
  0.00000000E+00  0.00000000E+00  0.00000000E+00
  0.00000000E+00  0.00000000E+00  0.00000000E+00
  0.00000000E+00  0.00000000E+00  0.00000000E+00
  0.00000000E+00  0.00000000E+00  0.00000000E+00
  0.00000000E+00  0.00000000E+00  0.00000000E+00
  0.00000000E+00  0.00000000E+00  0.00000000E+00
  0.00000000E+00  0.00000000E+00  0.00000000E+00
  0.00000000E+00  0.00000000E+00  0.00000000E+00
  0.00000000E+00  0.00000000E+00  0.00000000E+00
  0.00000000E+00  0.00000000E+00  0.00000000E+00
  0.00000000E+00  0.00000000E+00  0.00000000E+00
  0.00000000E+00  0.00000000E+00  0.00000000E+00
  0.00000000E+00  0.00000000E+00  0.00000000E+00
  0.00000000E+00  0.00000000E+00  0.00000000E+00
  0.00000000E+00  0.00000000E+00  0.00000000E+00
  0.00000000E+00  0.00000000E+00  0.00000000E+00
  0.00000000E+00  0.00000000E+00  0.00000000E+00
  0.00000000E+00  0.00000000E+00  0.00000000E+00
  0.00000000E+00  0.00000000E+00  0.00000000E+00
  0.00000000E+00  0.00000000E+00  0.00000000E+00
  0.00000000E+00  0.00000000E+00  0.00000000E+00
  0.00000000E+00  0.00000000E+00  0.00000000E+00
  0.00000000E+00  0.00000000E+00  0.00000000E+00
  0.00000000E+00  0.00000000E+00  0.00000000E+00
  0.00000000E+00  0.00000000E+00  0.00000000E+00
  0.00000000E+00  0.00000000E+00  0.00000000E+00
  0.00000000E+00  0.00000000E+00  0.00000000E+00
  0.00000000E+00  0.00000000E+00  0.00000000E+00
  0.00000000E+00  0.00000000E+00  0.00000000E+00
  0.00000000E+00  0.00000000E+00  0.00000000E+00
  0.00000000E+00  0.00000000E+00  0.00000000E+00
  0.00000000E+00  0.00000000E+00  0.00000000E+00
  0.00000000E+00  0.00000000E+00  0.00000000E+00
  0.00000000E+00  0.00000000E+00  0.00000000E+00
  0.00000000E+00  0.00000000E+00  0.00000000E+00
  0.00000000E+00  0.00000000E+00  0.00000000E+00
  0.00000000E+00  0.00000000E+00  0.00000000E+00
  0.00000000E+00  0.00000000E+00  0.00000000E+00
  0.00000000E+00  0.00000000E+00  0.00000000E+00
  0.00000000E+00  0.00000000E+00  0.00000000E+00
  0.00000000E+00  0.00000000E+00  0.00000000E+00
  0.00000000E+00  0.00000000E+00  0.00000000E+00
  0.00000000E+00  0.00000000E+00  0.00000000E+00
  0.00000000E+00  0.00000000E+00  0.00000000E+00
  0.00000000E+00  0.00000000E+00  0.00000000E+00
  0.00000000E+00  0.00000000E+00  0.00000000E+00
  0.00000000E+00  0.00000000E+00  0.00000000E+00
  0.00000000E+00  0.00000000E+00  0.00000000E+00
  0.00000000E+00  0.00000000E+00  0.00000000E+00
  0.00000000E+00  0.00000000E+00  0.00000000E+00
  0.00000000E+00  0.00000000E+00  0.00000000E+00
  0.00000000E+00  0.00000000E+00  0.00000000E+00
  0.00000000E+00  0.00000000E+00  0.00000000E+00
  0.00000000E+00  0.00000000E+00  0.00000000E+00
  0.00000000E+00  0.00000000E+00  0.00000000E+00
  0.00000000E+00  0.00000000E+00  0.00000000E+00
  0.00000000E+00  0.00000000E+00  0.00000000E+00
  0.00000000E+00  0.00000000E+00  0.00000000E+00
  0.00000000E+00  0.00000000E+00  0.00000000E+00
  0.00000000E+00  0.00000000E+00  0.00000000E+00
  0.00000000E+00  0.00000000E+00  0.00000000E+00
  0.00000000E+00  0.00000000E+00  0.00000000E+00
  0.00000000E+00  0.00000000E+00  0.00000000E+00
  0.00000000E+00  0.00000000E+00  0.00000000E+00
  0.00000000E+00  0.00000000E+00  0.00000000E+00
  0.00000000E+00  0.00000000E+00  0.00000000E+00
  0.00000000E+00  0.00000000E+00  0.00000000E+00
  0.00000000E+00  0.00000000E+00  0.00000000E+00
  0.00000000E+00  0.00000000E+00  0.00000000E+00
  0.00000000E+00  0.00000000E+00  0.00000000E+00
  0.00000000E+00  0.00000000E+00  0.00000000E+00
  0.00000000E+00  0.00000000E+00  0.00000000E+00
  0.00000000E+00  0.00000000E+00  0.00000000E+00
  0.00000000E+00  0.00000000E+00  0.00000000E+00
  0.00000000E+00  0.00000000E+00  0.00000000E+00
  0.00000000E+00  0.00000000E+00  0.00000000E+00
  0.00000000E+00  0.00000000E+00  0.00000000E+00
  0.00000000E+00  0.00000000E+00  0.00000000E+00
  0.00000000E+00  0.00000000E+00  0.00000000E+00
  0.00000000E+00  0.00000000E+00  0.00000000E+00
  0.00000000E+00  0.00000000E+00  0.00000000E+00
  0.00000000E+00  0.00000000E+00  0.00000000E+00
  0.00000000E+00  0.00000000E+00  0.00000000E+00
  0.00000000E+00  0.00000000E+00  0.00000000E+00
  0.00000000E+00  0.00000000E+00  0.00000000E+00
  0.00000000E+00  0.00000000E+00  0.00000000E+00
  0.00000000E+00  0.00000000E+00  0.00000000E+00
  0.00000000E+00  0.00000000E+00  0.00000000E+00
  0.00000000E+00  0.00000000E+00  0.00000000E+00
