Li56 P28 O98
1.0
4.907295 0.000000 -1.895193
-0.730671 8.419349 5.315209
0.000000 0.000000 79.370284
Li P O
56 28 98
direct
0.744463 0.987971 0.044726 Li+
0.255537 0.012029 0.068899 Li+
0.395677 0.751653 0.025869 Li+
0.604323 0.248347 0.087756 Li+
0.027769 0.791276 0.045993 Li+
0.972231 0.208724 0.067632 Li+
0.056952 0.450796 0.084750 Li+
0.943048 0.549204 0.028874 Li+
0.744463 0.987971 0.135635 Li+
0.255537 0.012029 0.159808 Li+
0.395677 0.751653 0.116778 Li+
0.604323 0.248347 0.178665 Li+
0.027769 0.791276 0.136902 Li+
0.972231 0.208724 0.158541 Li+
0.056952 0.450796 0.175660 Li+
0.943048 0.549204 0.119784 Li+
0.744463 0.987971 0.226544 Li+
0.255537 0.012029 0.250717 Li+
0.395677 0.751653 0.207687 Li+
0.604323 0.248347 0.269574 Li+
0.027769 0.791276 0.227811 Li+
0.972231 0.208724 0.249450 Li+
0.056952 0.450796 0.266569 Li+
0.943048 0.549204 0.210693 Li+
0.744463 0.987971 0.317454 Li+
0.255537 0.012029 0.341626 Li+
0.395677 0.751653 0.298596 Li+
0.604323 0.248347 0.360483 Li+
0.027769 0.791276 0.318720 Li+
0.972231 0.208724 0.340359 Li+
0.056952 0.450796 0.357478 Li+
0.943048 0.549204 0.301602 Li+
0.744463 0.987971 0.408363 Li+
0.255537 0.012029 0.432535 Li+
0.395677 0.751653 0.389505 Li+
0.604323 0.248347 0.451392 Li+
0.027769 0.791276 0.409629 Li+
0.972231 0.208724 0.431268 Li+
0.056952 0.450796 0.448387 Li+
0.943048 0.549204 0.392511 Li+
0.744463 0.987971 0.499272 Li+
0.255537 0.012029 0.523444 Li+
0.395677 0.751653 0.480414 Li+
0.604323 0.248347 0.542302 Li+
0.027769 0.791276 0.500538 Li+
0.972231 0.208724 0.522177 Li+
0.056952 0.450796 0.539296 Li+
0.943048 0.549204 0.483420 Li+
0.744463 0.987971 0.590181 Li+
0.255537 0.012029 0.614353 Li+
0.395677 0.751653 0.571323 Li+
0.604323 0.248347 0.633211 Li+
0.027769 0.791276 0.591448 Li+
0.972231 0.208724 0.613086 Li+
0.056952 0.450796 0.630205 Li+
0.943048 0.549204 0.574329 Li+
0.573990 0.631956 0.070880 P5+
0.426010 0.368044 0.042745 P5+
0.784272 0.845502 0.000018 P5+
0.215728 0.154498 0.022698 P5+
0.573990 0.631956 0.161789 P5+
0.426010 0.368044 0.133654 P5+
0.784272 0.845502 0.090927 P5+
0.215728 0.154498 0.113607 P5+
0.573990 0.631956 0.252698 P5+
0.426010 0.368044 0.224563 P5+
0.784272 0.845502 0.181836 P5+
0.215728 0.154498 0.204516 P5+
0.573990 0.631956 0.343608 P5+
0.426010 0.368044 0.315472 P5+
0.784272 0.845502 0.272745 P5+
0.215728 0.154498 0.295425 P5+
0.573990 0.631956 0.434517 P5+
0.426010 0.368044 0.406381 P5+
0.784272 0.845502 0.363654 P5+
0.215728 0.154498 0.386335 P5+
0.573990 0.631956 0.525426 P5+
0.426010 0.368044 0.497290 P5+
0.784272 0.845502 0.454563 P5+
0.215728 0.154498 0.477244 P5+
0.573990 0.631956 0.616335 P5+
0.426010 0.368044 0.588199 P5+
0.784272 0.845502 0.545472 P5+
0.215728 0.154498 0.568153 P5+
0.519912 0.874340 0.000803 O2-
0.006130 0.790684 0.020776 O2-
0.993870 0.209316 0.001940 O2-
0.882911 0.981976 0.072215 O2-
0.732561 0.376455 0.045921 O2-
0.267439 0.623545 0.067704 O2-
0.314844 0.526190 0.033323 O2-
0.685156 0.473810 0.080301 O2-
0.338222 0.236504 0.062366 O2-
0.661778 0.763496 0.051259 O2-
0.733069 0.683894 0.088969 O2-
0.266931 0.316106 0.024656 O2-
0.117089 0.018024 0.041409 O2-
0.480088 0.125660 0.021912 O2-
0.519912 0.874340 0.091713 O2-
0.006130 0.790684 0.111685 O2-
0.993870 0.209316 0.092849 O2-
0.882911 0.981976 0.163125 O2-
0.732561 0.376455 0.136830 O2-
0.267439 0.623545 0.158613 O2-
0.314844 0.526190 0.124233 O2-
0.685156 0.473810 0.171211 O2-
0.338222 0.236504 0.153275 O2-
0.661778 0.763496 0.142168 O2-
0.733069 0.683894 0.179878 O2-
0.266931 0.316106 0.115565 O2-
0.117089 0.018024 0.132319 O2-
0.480088 0.125660 0.112821 O2-
0.519912 0.874340 0.182622 O2-
0.006130 0.790684 0.202594 O2-
0.993870 0.209316 0.183758 O2-
0.882911 0.981976 0.254034 O2-
0.732561 0.376455 0.227739 O2-
0.267439 0.623545 0.249522 O2-
0.314844 0.526190 0.215142 O2-
0.685156 0.473810 0.262120 O2-
0.338222 0.236504 0.244185 O2-
0.661778 0.763496 0.233077 O2-
0.733069 0.683894 0.270787 O2-
0.266931 0.316106 0.206474 O2-
0.117089 0.018024 0.223228 O2-
0.480088 0.125660 0.203731 O2-
0.519912 0.874340 0.273531 O2-
0.006130 0.790684 0.293503 O2-
0.993870 0.209316 0.274667 O2-
0.882911 0.981976 0.344943 O2-
0.732561 0.376455 0.318648 O2-
0.267439 0.623545 0.340431 O2-
0.314844 0.526190 0.306051 O2-
0.685156 0.473810 0.353029 O2-
0.338222 0.236504 0.335094 O2-
0.661778 0.763496 0.323986 O2-
0.733069 0.683894 0.361696 O2-
0.266931 0.316106 0.297383 O2-
0.117089 0.018024 0.314137 O2-
0.480088 0.125660 0.294640 O2-
0.519912 0.874340 0.364440 O2-
0.006130 0.790684 0.384412 O2-
0.993870 0.209316 0.365576 O2-
0.882911 0.981976 0.435852 O2-
0.732561 0.376455 0.409557 O2-
0.267439 0.623545 0.431340 O2-
0.314844 0.526190 0.396960 O2-
0.685156 0.473810 0.443938 O2-
0.338222 0.236504 0.426003 O2-
0.661778 0.763496 0.414895 O2-
0.733069 0.683894 0.452605 O2-
0.266931 0.316106 0.388292 O2-
0.117089 0.018024 0.405046 O2-
0.480088 0.125660 0.385549 O2-
0.519912 0.874340 0.455349 O2-
0.006130 0.790684 0.475321 O2-
0.993870 0.209316 0.456486 O2-
0.882911 0.981976 0.526761 O2-
0.732561 0.376455 0.500467 O2-
0.267439 0.623545 0.522249 O2-
0.314844 0.526190 0.487869 O2-
0.685156 0.473810 0.534847 O2-
0.338222 0.236504 0.516912 O2-
0.661778 0.763496 0.505804 O2-
0.733069 0.683894 0.543514 O2-
0.266931 0.316106 0.479201 O2-
0.117089 0.018024 0.495955 O2-
0.480088 0.125660 0.476458 O2-
0.519912 0.874340 0.546258 O2-
0.006130 0.790684 0.566230 O2-
0.993870 0.209316 0.547395 O2-
0.882911 0.981976 0.617670 O2-
0.732561 0.376455 0.591376 O2-
0.267439 0.623545 0.613158 O2-
0.314844 0.526190 0.578778 O2-
0.685156 0.473810 0.625756 O2-
0.338222 0.236504 0.607821 O2-
0.661778 0.763496 0.596713 O2-
0.733069 0.683894 0.634424 O2-
0.266931 0.316106 0.570110 O2-
0.117089 0.018024 0.586864 O2-
0.480088 0.125660 0.567367 O2-
