Li5 P2 N1 O6                            
   1.00000000000000     
    -0.0355616005319493    0.0130511631765471    5.2092156601110142
     6.0880547625936563   -0.1854104053610340   -0.0437934958794802
    -0.1600730601219058    5.3874561289026399    0.0119262990941524
   Li   P    N    O 
     5     2     1     6
Direct
  0.4754053145887206  0.0185622690058689  0.9114172258361130
  0.0806414356110341  0.4833255120757383  0.1810574013678818
  0.4761978415972965  0.8554351097601450  0.3703809976953319
  0.0106604867746259  0.7611973048907807  0.6573726846207113
 -0.0006385010274795  0.2107521161302839  0.6619247347357807
  0.4722756450097915  0.4930483148071478  0.7288714651108359
  0.0051050359301933 -0.0195187966950238  0.1765449195143917
  0.1221785741587356  0.7796256762189915  0.3110449669528316
  0.0757833660283162  0.2115897003924503  0.3157425620666001
  0.6055678086184100  0.7023710668386668  0.6673293458070888
  0.6228678680952975  0.2880636805213514  0.7451265912091108
  0.1055866491834564 -0.0000376599855141  0.8947156650100679
  0.1919167764004936  0.4915253883940254  0.7909359314285999
  0.7037626990311351 -0.0288126823549130  0.1575935086446574
 
  0.00000000E+00  0.00000000E+00  0.00000000E+00
  0.00000000E+00  0.00000000E+00  0.00000000E+00
  0.00000000E+00  0.00000000E+00  0.00000000E+00
  0.00000000E+00  0.00000000E+00  0.00000000E+00
  0.00000000E+00  0.00000000E+00  0.00000000E+00
  0.00000000E+00  0.00000000E+00  0.00000000E+00
  0.00000000E+00  0.00000000E+00  0.00000000E+00
  0.00000000E+00  0.00000000E+00  0.00000000E+00
  0.00000000E+00  0.00000000E+00  0.00000000E+00
  0.00000000E+00  0.00000000E+00  0.00000000E+00
  0.00000000E+00  0.00000000E+00  0.00000000E+00
  0.00000000E+00  0.00000000E+00  0.00000000E+00
  0.00000000E+00  0.00000000E+00  0.00000000E+00
  0.00000000E+00  0.00000000E+00  0.00000000E+00
