Li28 O28
1.0
2.754274 0.000000 -1.590181
-0.000000 7.703522 -3.180362
0.000000 0.000000 47.705428
Li O
28 28
Selective dynamics
direct
0.000000 0.500000 0.002778 T T T Li+
0.000000 0.000000 0.036111 T T T Li+
0.333333 0.750000 0.063889 T T T Li+
0.666667 0.250000 0.008333 T T T Li+
0.000000 0.500000 0.069444 F F F Li+
0.000000 0.000000 0.102778 F F F Li+
0.333333 0.750000 0.130556 F F F Li+
0.666667 0.250000 0.075000 F F F Li+
0.000000 0.500000 0.136111 F F F Li+
0.000000 0.000000 0.169444 F F F Li+
0.333333 0.750000 0.197222 F F F Li+
0.666667 0.250000 0.141667 F F F Li+
0.000000 0.500000 0.202778 F F F Li+
0.000000 0.000000 0.236111 F F F Li+
0.333333 0.750000 0.263889 F F F Li+
0.666667 0.250000 0.208333 F F F Li+
0.000000 0.500000 0.269444 F F F Li+
0.000000 0.000000 0.302778 F F F Li+
0.333333 0.750000 0.330556 F F F Li+
0.666667 0.250000 0.275000 F F F Li+
0.000000 0.500000 0.336111 F F F Li+
0.000000 0.000000 0.369444 F F F Li+
0.333333 0.750000 0.397222 F F F Li+
0.666667 0.250000 0.341667 F F F Li+
0.000000 0.500000 0.402778 T T T Li+
0.000000 0.000000 0.436111 T T T Li+
0.333333 0.750000 0.463889 T T T Li+
0.666667 0.250000 0.408333 T T T Li+
0.333333 0.149310 0.023843 T T T O-
0.666667 0.649310 0.034954 T T T O-
0.666667 0.850690 0.048379 T T T O-
0.333333 0.350690 0.037268 T T T O-
0.333333 0.149310 0.090510 F F F O-
0.666667 0.649310 0.101621 F F F O-
0.666667 0.850690 0.115046 F F F O-
0.333333 0.350690 0.103935 F F F O-
0.333333 0.149310 0.157176 F F F O-
0.666667 0.649310 0.168287 F F F O-
0.666667 0.850690 0.181713 F F F O-
0.333333 0.350690 0.170602 F F F O-
0.333333 0.149310 0.223843 F F F O-
0.666667 0.649310 0.234954 F F F O-
0.666667 0.850690 0.248379 F F F O-
0.333333 0.350690 0.237268 F F F O-
0.333333 0.149310 0.290510 F F F O-
0.666667 0.649310 0.301621 F F F O-
0.666667 0.850690 0.315046 F F F O-
0.333333 0.350690 0.303935 F F F O-
0.333333 0.149310 0.357176 F F F O-
0.666667 0.649310 0.368287 F F F O-
0.666667 0.850690 0.381713 F F F O-
0.333333 0.350690 0.370602 F F F O-
0.333333 0.149310 0.423843 T T T O-
0.666667 0.649310 0.434954 T T T O-
0.666667 0.850690 0.448379 T T T O-
0.333333 0.350690 0.437268 T T T O-
