Li3 N1                                  
   1.00000000000000     
     1.8280529999999999   -3.1662810000000001    0.0000000000000000
     1.8280529999999999    3.1662810000000001    0.0000000000000000
     0.0000000000000000   -0.3664960000000000    3.8771209999999998
   Li   N 
     3     1
Direct
  0.0000000000000000  0.0000000000000000  0.5000000000000000
  0.3333330000000032  0.6666669999999968  0.0000000000000000
  0.6666669999999968  0.3333330000000032  0.0000000000000000
  0.0000000000000000  0.0000000000000000  0.0000000000000000
 
  0.00000000E+00  0.00000000E+00  0.00000000E+00
  0.00000000E+00  0.00000000E+00  0.00000000E+00
  0.00000000E+00  0.00000000E+00  0.00000000E+00
  0.00000000E+00  0.00000000E+00  0.00000000E+00
