Li71 P24 N1 O94                         
   1.00000000000000     
    14.7421427055458967   -0.0041963084718374    0.0050971774424886
    -0.0030193689045377   10.5791612650180848   -0.0006766674315898
     0.0042924910859502   -0.0008300856892914   12.2977648178137198
   Li   P    N    O 
    71    24     1    94
Direct
  0.2028498308129802  0.4105923298345330  0.0008400817359607
  0.1705415080178466  0.4225067803967065  0.4986307206431477
  0.1653602654852971  0.9279562511918652  0.0093202769904966
  0.1706602056367570  0.9241401328856805  0.4989745035949831
  0.5009319596278157  0.4214011059930330  0.0004636852236402
  0.5023752755439423  0.4218857125775506  0.4995997499899096
  0.5061797648286237  0.9225888128626442  0.0000106518541699
  0.5021867767129830  0.9233772896575549  0.4994827455261931
  0.8319995305260885  0.4200134281009920  0.0006903266819758
  0.8361892811131394  0.4215504995814426  0.4995611254678975
  0.8350438946951085  0.9205334734996033 -0.0007146576942301
  0.8368327002702948  0.9236286764966981  0.4993223575690217
  0.0098274507948748  0.0756645978410370  0.2481807825290601
  0.0029041569765698  0.0739707461851203  0.7480231302985859
  0.0033157321148388  0.5784446154348907  0.2536487278421543
  0.0021272167460636  0.5784451789108239  0.7466645339957582
  0.3326324033538358  0.0774342785543317  0.2468830449214186
  0.3369352565198974  0.0771196117072672  0.7511438802957702
  0.3352475310772352  0.5781105716259823  0.2512101298379517
  0.3371016647464516  0.5775792649381365  0.7496938001472293
  0.6704150145586174  0.0770870134095155  0.2500704882581407
  0.6695879087583688  0.0762454051154162  0.7490003309332146
  0.6684999568544319  0.5774562805764482  0.2505764068465616
  0.6678769481442538  0.5778065063996727  0.7493585812365103
  0.1698488927950936  0.1633308357474718  0.6262621270661886
  0.1729858458987574  0.6640993279198033  0.1290696842361546
  0.1699149467140076  0.6655052954765786  0.6258394377376477
  0.5035629867063306  0.1625906384776591  0.1270923548791678
  0.5022089702615469  0.1628376656446204  0.6261338984741222
  0.5023331731283338  0.6640693803457804  0.1270157709082440
  0.5024456171425183  0.6633210392910492  0.6256913038550547
  0.8384550755323295  0.1612626533296172  0.1252169938516827
  0.8361742927442868  0.1628680216940033  0.6253940351452089
  0.8330541158684375  0.6646710940566317  0.1298696435217525
  0.8351891864765633  0.6636560349653002  0.6254745005991470
  0.0009705022870348  0.3193256802961582  0.1437485078005945
  0.0038602234796483  0.3371015661233714  0.6217213511927498
  0.0023430862346736  0.8436911629813589  0.1267278268696627
  0.0034334155299264  0.8374625295688484  0.6227350395503832
  0.3346033165049493  0.3310213922654603  0.1275379907573628
  0.3358306761693714  0.3361206169803289  0.6231335255770465
  0.3364991082582287  0.8396120420518285  0.1224669668320050
  0.3363230067847505  0.8373127942926184  0.6234444812316765
  0.6686321015303625  0.3359083765887854  0.1242787517397395
  0.6686529034056427  0.3361984307928411  0.6230822675433072
  0.6693363459701115  0.8372107023442785  0.1242534322213762
  0.6689015802626292  0.8366445007136544  0.6227255509275182
  0.0052130249347849  0.3377069004342517  0.3771619291087988
 -0.0040225460982044  0.3201543439148284  0.8571050861249202
  0.0037680145534415  0.8375382251199994  0.3768757024051095
  0.0019921122931215  0.8431925517224292  0.8746229758231722
  0.3354144652027937  0.3366788337044608  0.3760586706597819
  0.3389484644688770  0.3299851934001294  0.8739573331221406
  0.3351049963952401  0.8367491020438879  0.3760484750233569
  0.3369678110190805  0.8391159586290874  0.8780686927514367
  0.6691775610318392  0.3363720362211564  0.3762658846386135
  0.6681125419036126  0.3365156572637867  0.8760377152160198
  0.6692364546946518  0.8369381797683773  0.3765333887831260
  0.6691335551334746  0.8369870793079229  0.8759044408917027
  0.1712696811809314  0.1640943880368866  0.3681187753935658
  0.1632416916111548  0.1676973055394947  0.8765638109913291
  0.1686754125242803  0.6631633625441310  0.3767242139068850
  0.1724082452330149  0.6659997699970659  0.8730356409587515
  0.5022294846257011  0.1630434573969521  0.3731359636877911
  0.5064211791356742  0.1618345476068297  0.8728263573090183
  0.5024133837827707  0.6635840939139104  0.3740140383394264
  0.5025756383435889  0.6639674376615100  0.8733737353486911
  0.8374246445729034  0.1629741726152936  0.3725776668624131
  0.8333809207744758  0.1613185016509327  0.8713200682942418
  0.8361712153187417  0.6638636958800985  0.3748853280876962
  0.8325575369574004  0.6643589606466619  0.8703823180188024
  0.1680741215828609  0.4165885482712227  0.2492632914640028
  0.1669229614758001  0.4141639812358785  0.7498264738507500
  0.1689370674373122  0.9097995024229572  0.2535053086682780
  0.1674300449390803  0.9132840956096377  0.7507231123588004
  0.5003264063239484  0.4124189219224387  0.2501005444405911
  0.5001437600119470  0.4122247613653067  0.7496795437830287
  0.5010159273607137  0.9120756404844684  0.2503760818109166
  0.5009856707290485  0.9115952289172505  0.7492154260862792
  0.8340569112582622  0.4135511443304454  0.2497127778350324
  0.8329449433077383  0.4132243581492190  0.7498480582899879
  0.8342332287367588  0.9118543515393771  0.2505522839101290
  0.8336360703925070  0.9111558414602785  0.7485464218001755
 -0.0054687415356610  0.0868621059646102 -0.0000480571964120
  0.0008648128128430  0.0888649965537610  0.4996745112474592
 -0.0019235925205500  0.5973950979711382 -0.0002275648066523
 -0.0002680564620409  0.5879048578094995  0.5006652093251600
  0.3380830872272864  0.0868960540601176 -0.0009932985973522
  0.3334510579007059  0.0887336915631180  0.4998667772582829
  0.3332690103424107  0.5886819060509776 -0.0003150044508014
  0.3338213068222769  0.5875465830252972  0.5007374112256385
  0.6680366551359371  0.0881201077597355  0.0000886822526484
  0.6675545298711186  0.0882431410350826  0.4997690896331286
  0.6659392126367402  0.5874830879162081  0.0000813130161572
  0.6671156404305280  0.5873022112647315  0.4999153434416416
  0.2285487987785094  0.0901896538446193 -0.0057388042397194
  0.0362221183951737  0.1582779944830751  0.3961065981980552
  0.0304103347816157  0.1560292311771102  0.8953751941103824
  0.0342091205137617  0.6573445605003793  0.3968940112347608
  0.0357133194547779  0.6583863051307161  0.8942535008891468
  0.3692404618984269  0.1580818516055295  0.3963362789028976
  0.3764948267987597  0.1543625042192306  0.8942688069704143
  0.3693129166486642  0.6565651055819327  0.3969445419895037
  0.3693001778984610  0.6565963192657044  0.8957073554387481
  0.7033341866369198  0.1574110578497029  0.3959733864854403
  0.7018902472648370  0.1570234020505307  0.8950728802729057
  0.7025379125066743  0.6567347978076982  0.3961240893497530
  0.7014313703480362  0.6564376140294520  0.8959840242033351
  0.2042725563644545  0.0460341410143773  0.2577979764604869
  0.1998686604731469  0.0536310692699424  0.7511300951501950
  0.1991584200705837  0.5579208099409538  0.2545511971485028
  0.1999734070571224  0.5539269839596350  0.7497019661565048
  0.5356002025677454  0.0515925168817022  0.2504005301477262
  0.5356127797410927  0.0509987928242796  0.7487260732716058
  0.5343056701698947  0.5522122813677927  0.2501680598743339
  0.5336581221254519  0.5521958383818744  0.7495963207101353
  0.8684843470165360  0.0510615408915052  0.2500433201714121
  0.8675196449336613  0.0508329556157511  0.7484804234868422
  0.8674684849320112  0.5535404408438491  0.2501932822552996
  0.8670239631315595  0.5528206633182625  0.7500980249249392
  0.0615401498123252  0.4130605043287559  0.2490465095161642
  0.0606657497526647  0.4110817390256576  0.7518919943841407
  0.0626619027579780  0.9072467032421305  0.2516186384725649
  0.0614737599477428  0.9090709381267510  0.7495494745994494
  0.3948238079880199  0.4099398412890258  0.2504160944044773
  0.3945089445725860  0.4092231353154355  0.7494770677863056
  0.3955771277728980  0.9092632434543592  0.2501335889123859
  0.3954098558810709  0.9089395755132952  0.7497384707677064
  0.7285606371217321  0.4097903289461774  0.2496898723999715
  0.7275931411812309  0.4099114664428454  0.7498838781517227
  0.7285630913529646  0.9089174630235886  0.2503003800190217
  0.7280785938646508  0.9082823534477285  0.7492941904848863
  0.2279058498758464  0.0925581847895027  0.5002148049447761
  0.2274359390409595  0.5929644631131731 -0.0005497435158652
  0.2282285918427847  0.5898998782973035  0.5015801414911492
  0.5626766374360497  0.0914138957793316  0.0010356855174859
  0.5619580273941666  0.0912822323094965  0.4996709816782520
  0.5604551080041581  0.5900974233320913  0.0001114744324167
  0.5615417370059510  0.5895028545152741  0.4998100564851217
  0.8885879144280433  0.0864319582013886 -0.0054074276366674
  0.8950868428249238  0.0916105718521296  0.4995706165501893
  0.8929175590366281  0.5917399387668195 -0.0002997207323429
  0.8940615981459695  0.5891699492117508  0.5010209385400851
  0.2049503393171218  0.3554321617899912  0.1450508743600374
  0.2007207146706695  0.3447016547197306  0.6457072318889298
  0.2033812875993053  0.8400341269246594  0.1489636809698693
  0.2027215249661690  0.8447261224292835  0.6462973049204807
  0.5355936899413660  0.3434466422485780  0.1459161488255042
  0.5357682747240166  0.3428649400042434  0.6460114161336125
  0.5370166830372605  0.8424105008730397  0.1468607536417614
  0.5357286311260474  0.8424106618887913  0.6448751244435155
  0.8699074911045687  0.3458706939203721  0.1447580466374366
  0.8696074341486978  0.3430688485926280  0.6472567232411691
  0.8691326163235711  0.8416030815465396  0.1465420853851147
  0.8690274704386822  0.8423082725099783  0.6445719476325329
  0.0229706207963065  0.1557868018865881  0.1045182612561550
  0.0354579443506852  0.1578523608107166  0.6043524168855198
  0.0358269525306789  0.6586576527480534  0.1047906662134926
  0.0350899676578028  0.6573341197203081  0.6044605042862238
  0.3718054034319918  0.1566100970723212  0.1037072183830178
  0.3688931154816074  0.1571727608270081  0.6044235185554049
  0.3692098533444161  0.6560586037591978  0.1037053126904573
  0.3691738766358326  0.6567611989025595  0.6047081180321163
  0.7041922023423026  0.1574039858831117  0.1035508714401319
  0.7028722846819204  0.1573581736370072  0.6038950630538755
  0.7016993434966748  0.6565884117364611  0.1038387782237848
  0.7021302048449164  0.6565313089883914  0.6040499468401397
  0.0341761076551399  0.4484684366232473  0.5005888638946150
  0.0293535718949984  0.9473149020752919 -0.0001764844057273
  0.0343288513481271  0.9490824412290573  0.5002523109379378
  0.3627067415769941  0.4463977372005705 -0.0009016064106159
  0.3674540073409870  0.4476300992065508  0.5005074219512614
  0.3754995180587350  0.9475933994318126 -0.0004240126513248
  0.3669892367527537  0.9487449498602624  0.4997562301332905
  0.6999316757686112  0.4477394037971016 -0.0000158589325976
  0.7013442510817710  0.4476350658607748  0.4998954099968071
  0.7008915433030868  0.9478121416465497 -0.0003324662979019
  0.7013793984690742  0.9484913730726384  0.4999120977927689
  0.2017470509792952  0.3457838582792651  0.3533109009700934
  0.2024027252476841  0.3448458542623381  0.8531624061684652
  0.2013730580171289  0.8367748332439382  0.3575185587148713
  0.2023053863710075  0.8437432084698356  0.8543678108107210
  0.5360319867386381  0.3431106772049364  0.3537543637191725
  0.5353354022917541  0.3439279924217928  0.8540316588550363
  0.5360519335871455  0.8430391350088112  0.3546761570345163
  0.5368680617520796  0.8423102705344531  0.8527904282628800
  0.8703201701204947  0.3436809653914712  0.3526135236351323
  0.8680865937253015  0.3447470339048649  0.8548763693934638
  0.8692650349974791  0.8426482172895775  0.3545585242746547
  0.8689000189672207  0.8412204289578767  0.8523224813581867
 
  0.00000000E+00  0.00000000E+00  0.00000000E+00
  0.00000000E+00  0.00000000E+00  0.00000000E+00
  0.00000000E+00  0.00000000E+00  0.00000000E+00
  0.00000000E+00  0.00000000E+00  0.00000000E+00
  0.00000000E+00  0.00000000E+00  0.00000000E+00
  0.00000000E+00  0.00000000E+00  0.00000000E+00
  0.00000000E+00  0.00000000E+00  0.00000000E+00
  0.00000000E+00  0.00000000E+00  0.00000000E+00
  0.00000000E+00  0.00000000E+00  0.00000000E+00
  0.00000000E+00  0.00000000E+00  0.00000000E+00
  0.00000000E+00  0.00000000E+00  0.00000000E+00
  0.00000000E+00  0.00000000E+00  0.00000000E+00
  0.00000000E+00  0.00000000E+00  0.00000000E+00
  0.00000000E+00  0.00000000E+00  0.00000000E+00
  0.00000000E+00  0.00000000E+00  0.00000000E+00
  0.00000000E+00  0.00000000E+00  0.00000000E+00
  0.00000000E+00  0.00000000E+00  0.00000000E+00
  0.00000000E+00  0.00000000E+00  0.00000000E+00
  0.00000000E+00  0.00000000E+00  0.00000000E+00
  0.00000000E+00  0.00000000E+00  0.00000000E+00
  0.00000000E+00  0.00000000E+00  0.00000000E+00
  0.00000000E+00  0.00000000E+00  0.00000000E+00
  0.00000000E+00  0.00000000E+00  0.00000000E+00
  0.00000000E+00  0.00000000E+00  0.00000000E+00
  0.00000000E+00  0.00000000E+00  0.00000000E+00
  0.00000000E+00  0.00000000E+00  0.00000000E+00
  0.00000000E+00  0.00000000E+00  0.00000000E+00
  0.00000000E+00  0.00000000E+00  0.00000000E+00
  0.00000000E+00  0.00000000E+00  0.00000000E+00
  0.00000000E+00  0.00000000E+00  0.00000000E+00
  0.00000000E+00  0.00000000E+00  0.00000000E+00
  0.00000000E+00  0.00000000E+00  0.00000000E+00
  0.00000000E+00  0.00000000E+00  0.00000000E+00
  0.00000000E+00  0.00000000E+00  0.00000000E+00
  0.00000000E+00  0.00000000E+00  0.00000000E+00
  0.00000000E+00  0.00000000E+00  0.00000000E+00
  0.00000000E+00  0.00000000E+00  0.00000000E+00
  0.00000000E+00  0.00000000E+00  0.00000000E+00
  0.00000000E+00  0.00000000E+00  0.00000000E+00
  0.00000000E+00  0.00000000E+00  0.00000000E+00
  0.00000000E+00  0.00000000E+00  0.00000000E+00
  0.00000000E+00  0.00000000E+00  0.00000000E+00
  0.00000000E+00  0.00000000E+00  0.00000000E+00
  0.00000000E+00  0.00000000E+00  0.00000000E+00
  0.00000000E+00  0.00000000E+00  0.00000000E+00
  0.00000000E+00  0.00000000E+00  0.00000000E+00
  0.00000000E+00  0.00000000E+00  0.00000000E+00
  0.00000000E+00  0.00000000E+00  0.00000000E+00
  0.00000000E+00  0.00000000E+00  0.00000000E+00
  0.00000000E+00  0.00000000E+00  0.00000000E+00
  0.00000000E+00  0.00000000E+00  0.00000000E+00
  0.00000000E+00  0.00000000E+00  0.00000000E+00
  0.00000000E+00  0.00000000E+00  0.00000000E+00
  0.00000000E+00  0.00000000E+00  0.00000000E+00
  0.00000000E+00  0.00000000E+00  0.00000000E+00
  0.00000000E+00  0.00000000E+00  0.00000000E+00
  0.00000000E+00  0.00000000E+00  0.00000000E+00
  0.00000000E+00  0.00000000E+00  0.00000000E+00
  0.00000000E+00  0.00000000E+00  0.00000000E+00
  0.00000000E+00  0.00000000E+00  0.00000000E+00
  0.00000000E+00  0.00000000E+00  0.00000000E+00
  0.00000000E+00  0.00000000E+00  0.00000000E+00
  0.00000000E+00  0.00000000E+00  0.00000000E+00
  0.00000000E+00  0.00000000E+00  0.00000000E+00
  0.00000000E+00  0.00000000E+00  0.00000000E+00
  0.00000000E+00  0.00000000E+00  0.00000000E+00
  0.00000000E+00  0.00000000E+00  0.00000000E+00
  0.00000000E+00  0.00000000E+00  0.00000000E+00
  0.00000000E+00  0.00000000E+00  0.00000000E+00
  0.00000000E+00  0.00000000E+00  0.00000000E+00
  0.00000000E+00  0.00000000E+00  0.00000000E+00
  0.00000000E+00  0.00000000E+00  0.00000000E+00
  0.00000000E+00  0.00000000E+00  0.00000000E+00
  0.00000000E+00  0.00000000E+00  0.00000000E+00
  0.00000000E+00  0.00000000E+00  0.00000000E+00
  0.00000000E+00  0.00000000E+00  0.00000000E+00
  0.00000000E+00  0.00000000E+00  0.00000000E+00
  0.00000000E+00  0.00000000E+00  0.00000000E+00
  0.00000000E+00  0.00000000E+00  0.00000000E+00
  0.00000000E+00  0.00000000E+00  0.00000000E+00
  0.00000000E+00  0.00000000E+00  0.00000000E+00
  0.00000000E+00  0.00000000E+00  0.00000000E+00
  0.00000000E+00  0.00000000E+00  0.00000000E+00
  0.00000000E+00  0.00000000E+00  0.00000000E+00
  0.00000000E+00  0.00000000E+00  0.00000000E+00
  0.00000000E+00  0.00000000E+00  0.00000000E+00
  0.00000000E+00  0.00000000E+00  0.00000000E+00
  0.00000000E+00  0.00000000E+00  0.00000000E+00
  0.00000000E+00  0.00000000E+00  0.00000000E+00
  0.00000000E+00  0.00000000E+00  0.00000000E+00
  0.00000000E+00  0.00000000E+00  0.00000000E+00
  0.00000000E+00  0.00000000E+00  0.00000000E+00
  0.00000000E+00  0.00000000E+00  0.00000000E+00
  0.00000000E+00  0.00000000E+00  0.00000000E+00
  0.00000000E+00  0.00000000E+00  0.00000000E+00
  0.00000000E+00  0.00000000E+00  0.00000000E+00
  0.00000000E+00  0.00000000E+00  0.00000000E+00
  0.00000000E+00  0.00000000E+00  0.00000000E+00
  0.00000000E+00  0.00000000E+00  0.00000000E+00
  0.00000000E+00  0.00000000E+00  0.00000000E+00
  0.00000000E+00  0.00000000E+00  0.00000000E+00
  0.00000000E+00  0.00000000E+00  0.00000000E+00
  0.00000000E+00  0.00000000E+00  0.00000000E+00
  0.00000000E+00  0.00000000E+00  0.00000000E+00
  0.00000000E+00  0.00000000E+00  0.00000000E+00
  0.00000000E+00  0.00000000E+00  0.00000000E+00
  0.00000000E+00  0.00000000E+00  0.00000000E+00
  0.00000000E+00  0.00000000E+00  0.00000000E+00
  0.00000000E+00  0.00000000E+00  0.00000000E+00
  0.00000000E+00  0.00000000E+00  0.00000000E+00
  0.00000000E+00  0.00000000E+00  0.00000000E+00
  0.00000000E+00  0.00000000E+00  0.00000000E+00
  0.00000000E+00  0.00000000E+00  0.00000000E+00
  0.00000000E+00  0.00000000E+00  0.00000000E+00
  0.00000000E+00  0.00000000E+00  0.00000000E+00
  0.00000000E+00  0.00000000E+00  0.00000000E+00
  0.00000000E+00  0.00000000E+00  0.00000000E+00
  0.00000000E+00  0.00000000E+00  0.00000000E+00
  0.00000000E+00  0.00000000E+00  0.00000000E+00
  0.00000000E+00  0.00000000E+00  0.00000000E+00
  0.00000000E+00  0.00000000E+00  0.00000000E+00
  0.00000000E+00  0.00000000E+00  0.00000000E+00
  0.00000000E+00  0.00000000E+00  0.00000000E+00
  0.00000000E+00  0.00000000E+00  0.00000000E+00
  0.00000000E+00  0.00000000E+00  0.00000000E+00
  0.00000000E+00  0.00000000E+00  0.00000000E+00
  0.00000000E+00  0.00000000E+00  0.00000000E+00
  0.00000000E+00  0.00000000E+00  0.00000000E+00
  0.00000000E+00  0.00000000E+00  0.00000000E+00
  0.00000000E+00  0.00000000E+00  0.00000000E+00
  0.00000000E+00  0.00000000E+00  0.00000000E+00
  0.00000000E+00  0.00000000E+00  0.00000000E+00
  0.00000000E+00  0.00000000E+00  0.00000000E+00
  0.00000000E+00  0.00000000E+00  0.00000000E+00
  0.00000000E+00  0.00000000E+00  0.00000000E+00
  0.00000000E+00  0.00000000E+00  0.00000000E+00
  0.00000000E+00  0.00000000E+00  0.00000000E+00
  0.00000000E+00  0.00000000E+00  0.00000000E+00
  0.00000000E+00  0.00000000E+00  0.00000000E+00
  0.00000000E+00  0.00000000E+00  0.00000000E+00
  0.00000000E+00  0.00000000E+00  0.00000000E+00
  0.00000000E+00  0.00000000E+00  0.00000000E+00
  0.00000000E+00  0.00000000E+00  0.00000000E+00
  0.00000000E+00  0.00000000E+00  0.00000000E+00
  0.00000000E+00  0.00000000E+00  0.00000000E+00
  0.00000000E+00  0.00000000E+00  0.00000000E+00
  0.00000000E+00  0.00000000E+00  0.00000000E+00
  0.00000000E+00  0.00000000E+00  0.00000000E+00
  0.00000000E+00  0.00000000E+00  0.00000000E+00
  0.00000000E+00  0.00000000E+00  0.00000000E+00
  0.00000000E+00  0.00000000E+00  0.00000000E+00
  0.00000000E+00  0.00000000E+00  0.00000000E+00
  0.00000000E+00  0.00000000E+00  0.00000000E+00
  0.00000000E+00  0.00000000E+00  0.00000000E+00
  0.00000000E+00  0.00000000E+00  0.00000000E+00
  0.00000000E+00  0.00000000E+00  0.00000000E+00
  0.00000000E+00  0.00000000E+00  0.00000000E+00
  0.00000000E+00  0.00000000E+00  0.00000000E+00
  0.00000000E+00  0.00000000E+00  0.00000000E+00
  0.00000000E+00  0.00000000E+00  0.00000000E+00
  0.00000000E+00  0.00000000E+00  0.00000000E+00
  0.00000000E+00  0.00000000E+00  0.00000000E+00
  0.00000000E+00  0.00000000E+00  0.00000000E+00
  0.00000000E+00  0.00000000E+00  0.00000000E+00
  0.00000000E+00  0.00000000E+00  0.00000000E+00
  0.00000000E+00  0.00000000E+00  0.00000000E+00
  0.00000000E+00  0.00000000E+00  0.00000000E+00
  0.00000000E+00  0.00000000E+00  0.00000000E+00
  0.00000000E+00  0.00000000E+00  0.00000000E+00
  0.00000000E+00  0.00000000E+00  0.00000000E+00
  0.00000000E+00  0.00000000E+00  0.00000000E+00
  0.00000000E+00  0.00000000E+00  0.00000000E+00
  0.00000000E+00  0.00000000E+00  0.00000000E+00
  0.00000000E+00  0.00000000E+00  0.00000000E+00
  0.00000000E+00  0.00000000E+00  0.00000000E+00
  0.00000000E+00  0.00000000E+00  0.00000000E+00
  0.00000000E+00  0.00000000E+00  0.00000000E+00
  0.00000000E+00  0.00000000E+00  0.00000000E+00
  0.00000000E+00  0.00000000E+00  0.00000000E+00
  0.00000000E+00  0.00000000E+00  0.00000000E+00
  0.00000000E+00  0.00000000E+00  0.00000000E+00
  0.00000000E+00  0.00000000E+00  0.00000000E+00
  0.00000000E+00  0.00000000E+00  0.00000000E+00
  0.00000000E+00  0.00000000E+00  0.00000000E+00
  0.00000000E+00  0.00000000E+00  0.00000000E+00
  0.00000000E+00  0.00000000E+00  0.00000000E+00
  0.00000000E+00  0.00000000E+00  0.00000000E+00
  0.00000000E+00  0.00000000E+00  0.00000000E+00
  0.00000000E+00  0.00000000E+00  0.00000000E+00
  0.00000000E+00  0.00000000E+00  0.00000000E+00
