Li5 P2 N1 O6                            
   1.00000000000000     
    -0.3193119966529051    0.0646155727743115    5.0737825788942565
     6.1099301236361239    0.2342208169883895   -0.4042243006982364
     0.2043726832680058    5.3736120042718181    0.0704003080681894
   Li   P    N    O 
     5     2     1     6
Direct
  0.5293507863046254  0.0192358669404781  0.8355837937632095
 -0.1284817374665302  0.4420562795941956  0.2972037597651736
  0.4632108323130346  0.7270283705756742  0.3017634070630958
 -0.0050868658362654  0.8561511602670424  0.6223926005028285
  0.0661425067004842  0.2588812888952451  0.6928650526801676
  0.5503295584978775  0.5048148643628333  0.8099665742765838
  0.0053842333326095 -0.0288589682208110  0.1664458122744175
  0.0640321157933684  0.1682054187160407  0.3514624844836717
  0.5973582856721307  0.7378779431476564  0.6659474149769316
  0.0824717778062991  0.7495691516626859  0.2961872961740993
  0.7119512149654544  0.3409828499709013  0.6855108880808606
  0.5761078232355618  0.5016677920952425  0.0922143581844848
  0.1487293475711467  0.0104942293718508  0.9020161594169056
  0.7027461211102281 -0.0409792473790370  0.1356103983575714
 
  0.00000000E+00  0.00000000E+00  0.00000000E+00
  0.00000000E+00  0.00000000E+00  0.00000000E+00
  0.00000000E+00  0.00000000E+00  0.00000000E+00
  0.00000000E+00  0.00000000E+00  0.00000000E+00
  0.00000000E+00  0.00000000E+00  0.00000000E+00
  0.00000000E+00  0.00000000E+00  0.00000000E+00
  0.00000000E+00  0.00000000E+00  0.00000000E+00
  0.00000000E+00  0.00000000E+00  0.00000000E+00
  0.00000000E+00  0.00000000E+00  0.00000000E+00
  0.00000000E+00  0.00000000E+00  0.00000000E+00
  0.00000000E+00  0.00000000E+00  0.00000000E+00
  0.00000000E+00  0.00000000E+00  0.00000000E+00
  0.00000000E+00  0.00000000E+00  0.00000000E+00
  0.00000000E+00  0.00000000E+00  0.00000000E+00
