Li8 P56                                 
   1.00000000000000     
    -8.1242769999999993    6.8148900000000001    7.4161739999999998
     8.1242769999999993   -6.8148900000000001    7.4161739999999998
     5.5055030000000000    6.8148900000000001   -7.4161739999999998
   Li   P 
     8    56
Direct
  0.1187570000000022  0.1187570000000022  0.7375150000000019
  0.8687570000000022  0.6312429999999978  0.5000000000000000
  0.1312429999999978  0.3687570000000022  0.5000000000000000
  0.3812429999999978  0.3812429999999978  0.2624849999999981
  0.6312429999999978  0.1312429999999978  0.7624849999999981
  0.8812429999999978  0.6187570000000022  0.0000000000000000
  0.6187570000000022  0.8812429999999978  0.0000000000000000
  0.3687570000000022  0.8687570000000022  0.2375150000000019
  0.7939289999999986  0.7677339999999973  0.3827909999999974
  0.5177339999999973  0.6349439999999973  0.4738049999999987
  0.1611389999999986  0.0439289999999986  0.5261950000000013
  0.8650560000000027  0.9822660000000027  0.5261950000000013
  0.4560710000000014  0.3388610000000014  0.4738049999999987
  0.3849439999999973  0.4111389999999986  0.6172090000000026
  0.7322660000000027  0.7060710000000014  0.6172090000000026
  0.0888610000000014  0.1150560000000027  0.3827909999999974
  0.9560710000000014  0.4822660000000027  0.1172090000000026
  0.2322660000000027  0.6150560000000027  0.0261950000000013
  0.5888610000000014  0.2060710000000014  0.9738049999999987
  0.8849439999999973  0.2677339999999973  0.9738049999999987
  0.2939289999999986  0.9111389999999986  0.0261950000000013
  0.3650560000000027  0.8388610000000014  0.8827909999999974
  0.0177339999999973  0.5439289999999986  0.8827909999999974
  0.6611389999999986  0.1349439999999973  0.1172090000000026
  0.5829409999999982  0.7099309999999974  0.2464289999999991
  0.4599309999999974  0.7135010000000008  0.6269899999999993
  0.0865119999999990  0.8329409999999982  0.3730100000000007
  0.7864989999999992  0.0400690000000026  0.3730100000000007
  0.6670590000000018  0.4134880000000010  0.6269899999999993
  0.4635010000000008  0.3365119999999990  0.7535710000000009
  0.7900690000000026  0.9170590000000018  0.7535710000000009
  0.1634880000000010  0.0364989999999992  0.2464289999999991
  0.1670590000000018  0.5400690000000026  0.2535710000000009
  0.2900690000000026  0.5364989999999992  0.8730100000000007
  0.6634880000000010  0.4170590000000018  0.1269899999999993
  0.9635010000000008  0.2099309999999974  0.1269899999999993
  0.0829409999999982  0.8365119999999990  0.8730100000000007
  0.2864989999999992  0.9134880000000010  0.7464289999999991
  0.9599309999999974  0.3329409999999982  0.7464289999999991
  0.5865119999999990  0.2135010000000008  0.2535710000000009
  0.7174910000000025  0.9706139999999976  0.5941699999999983
  0.7206139999999976  0.6264449999999968  0.7531230000000022
  0.8733209999999971  0.9674910000000025  0.2468769999999978
  0.8735550000000032  0.7793860000000024  0.2468769999999978
  0.5325089999999975  0.6266790000000029  0.7531230000000022
  0.3764449999999968  0.1233209999999971  0.4058300000000017
  0.5293860000000024  0.7825089999999975  0.4058300000000017
  0.3766790000000029  0.1235550000000032  0.5941699999999983
  0.0325089999999975  0.2793860000000024  0.9058300000000017
  0.0293860000000024  0.6235550000000032  0.7468769999999978
  0.8766790000000029  0.2825089999999975  0.2531230000000022
  0.8764449999999968  0.4706139999999976  0.2531230000000022
  0.2174910000000025  0.6233209999999971  0.7468769999999978
  0.3735550000000032  0.1266790000000029  0.0941699999999983
  0.2206139999999976  0.4674910000000025  0.0941699999999983
  0.3733209999999971  0.1264449999999968  0.9058300000000017
  0.6250000000000000  0.9151299999999978  0.7901299999999978
  0.6651299999999978  0.3750000000000000  0.7901299999999978
  0.5848700000000022  0.8750000000000000  0.2098700000000022
  0.1250000000000000  0.8348700000000022  0.2098700000000022
  0.1250000000000000  0.3348700000000022  0.7098700000000022
  0.0848700000000022  0.8750000000000000  0.7098700000000022
  0.1651299999999978  0.3750000000000000  0.2901299999999978
  0.6250000000000000  0.4151299999999978  0.2901299999999978
 
  0.00000000E+00  0.00000000E+00  0.00000000E+00
  0.00000000E+00  0.00000000E+00  0.00000000E+00
  0.00000000E+00  0.00000000E+00  0.00000000E+00
  0.00000000E+00  0.00000000E+00  0.00000000E+00
  0.00000000E+00  0.00000000E+00  0.00000000E+00
  0.00000000E+00  0.00000000E+00  0.00000000E+00
  0.00000000E+00  0.00000000E+00  0.00000000E+00
  0.00000000E+00  0.00000000E+00  0.00000000E+00
  0.00000000E+00  0.00000000E+00  0.00000000E+00
  0.00000000E+00  0.00000000E+00  0.00000000E+00
  0.00000000E+00  0.00000000E+00  0.00000000E+00
  0.00000000E+00  0.00000000E+00  0.00000000E+00
  0.00000000E+00  0.00000000E+00  0.00000000E+00
  0.00000000E+00  0.00000000E+00  0.00000000E+00
  0.00000000E+00  0.00000000E+00  0.00000000E+00
  0.00000000E+00  0.00000000E+00  0.00000000E+00
  0.00000000E+00  0.00000000E+00  0.00000000E+00
  0.00000000E+00  0.00000000E+00  0.00000000E+00
  0.00000000E+00  0.00000000E+00  0.00000000E+00
  0.00000000E+00  0.00000000E+00  0.00000000E+00
  0.00000000E+00  0.00000000E+00  0.00000000E+00
  0.00000000E+00  0.00000000E+00  0.00000000E+00
  0.00000000E+00  0.00000000E+00  0.00000000E+00
  0.00000000E+00  0.00000000E+00  0.00000000E+00
  0.00000000E+00  0.00000000E+00  0.00000000E+00
  0.00000000E+00  0.00000000E+00  0.00000000E+00
  0.00000000E+00  0.00000000E+00  0.00000000E+00
  0.00000000E+00  0.00000000E+00  0.00000000E+00
  0.00000000E+00  0.00000000E+00  0.00000000E+00
  0.00000000E+00  0.00000000E+00  0.00000000E+00
  0.00000000E+00  0.00000000E+00  0.00000000E+00
  0.00000000E+00  0.00000000E+00  0.00000000E+00
  0.00000000E+00  0.00000000E+00  0.00000000E+00
  0.00000000E+00  0.00000000E+00  0.00000000E+00
  0.00000000E+00  0.00000000E+00  0.00000000E+00
  0.00000000E+00  0.00000000E+00  0.00000000E+00
  0.00000000E+00  0.00000000E+00  0.00000000E+00
  0.00000000E+00  0.00000000E+00  0.00000000E+00
  0.00000000E+00  0.00000000E+00  0.00000000E+00
  0.00000000E+00  0.00000000E+00  0.00000000E+00
  0.00000000E+00  0.00000000E+00  0.00000000E+00
  0.00000000E+00  0.00000000E+00  0.00000000E+00
  0.00000000E+00  0.00000000E+00  0.00000000E+00
  0.00000000E+00  0.00000000E+00  0.00000000E+00
  0.00000000E+00  0.00000000E+00  0.00000000E+00
  0.00000000E+00  0.00000000E+00  0.00000000E+00
  0.00000000E+00  0.00000000E+00  0.00000000E+00
  0.00000000E+00  0.00000000E+00  0.00000000E+00
  0.00000000E+00  0.00000000E+00  0.00000000E+00
  0.00000000E+00  0.00000000E+00  0.00000000E+00
  0.00000000E+00  0.00000000E+00  0.00000000E+00
  0.00000000E+00  0.00000000E+00  0.00000000E+00
  0.00000000E+00  0.00000000E+00  0.00000000E+00
  0.00000000E+00  0.00000000E+00  0.00000000E+00
  0.00000000E+00  0.00000000E+00  0.00000000E+00
  0.00000000E+00  0.00000000E+00  0.00000000E+00
  0.00000000E+00  0.00000000E+00  0.00000000E+00
  0.00000000E+00  0.00000000E+00  0.00000000E+00
  0.00000000E+00  0.00000000E+00  0.00000000E+00
  0.00000000E+00  0.00000000E+00  0.00000000E+00
  0.00000000E+00  0.00000000E+00  0.00000000E+00
  0.00000000E+00  0.00000000E+00  0.00000000E+00
  0.00000000E+00  0.00000000E+00  0.00000000E+00
  0.00000000E+00  0.00000000E+00  0.00000000E+00
