Li4 P2 N2 O4                            
   1.00000000000000     
     2.7999960000000002   -4.6882859999999997    0.0000000000000000
     2.7999960000000002    4.6882859999999997    0.0000000000000000
     0.0000000000000000    0.0000000000000000    4.8814260000000003
   Li   P    N    O 
     4     2     2     4
Direct
  0.3248150000000010  0.9936459999999983  0.5014960000000031
  0.9936459999999983  0.3248150000000010  0.5014960000000031
  0.6751849999999990  0.0063540000000017  0.0014960000000031
  0.0063540000000017  0.6751849999999990  0.0014960000000031
  0.6544910000000002  0.6544910000000002  0.4992360000000033
  0.3455089999999998  0.3455089999999998  0.9992360000000033
  0.3858400000000017  0.3858400000000017  0.3427229999999994
  0.6141599999999983  0.6141599999999983  0.8427229999999994
  0.9458669999999998  0.6669169999999980  0.4180250000000001
  0.6669169999999980  0.9458669999999998  0.4180250000000001
  0.0541330000000002  0.3330830000000020  0.9180250000000001
  0.3330830000000020  0.0541330000000002  0.9180250000000001
 
  0.00000000E+00  0.00000000E+00  0.00000000E+00
  0.00000000E+00  0.00000000E+00  0.00000000E+00
  0.00000000E+00  0.00000000E+00  0.00000000E+00
  0.00000000E+00  0.00000000E+00  0.00000000E+00
  0.00000000E+00  0.00000000E+00  0.00000000E+00
  0.00000000E+00  0.00000000E+00  0.00000000E+00
  0.00000000E+00  0.00000000E+00  0.00000000E+00
  0.00000000E+00  0.00000000E+00  0.00000000E+00
  0.00000000E+00  0.00000000E+00  0.00000000E+00
  0.00000000E+00  0.00000000E+00  0.00000000E+00
  0.00000000E+00  0.00000000E+00  0.00000000E+00
  0.00000000E+00  0.00000000E+00  0.00000000E+00
