Li56 P56
1.0
5.593872 0.000000 -4.970385
0.756887 9.037780 0.000000
0.000000 0.000000 59.644620
Li P
56 56
Selective dynamics
direct
0.112292 0.670700 0.026595 T T T Li
0.387708 0.829300 0.007880 T T T Li
0.887708 0.329300 0.072588 F F F Li
0.612292 0.170700 0.007970 T T T Li
0.804018 0.970214 0.061733 F F F Li
0.695982 0.529786 0.011064 T T T Li
0.195982 0.029786 0.037450 T T T Li
0.304018 0.470214 0.004786 T T T Li
0.112292 0.670700 0.109929 F F F Li
0.387708 0.829300 0.091213 F F F Li
0.887708 0.329300 0.155921 F F F Li
0.612292 0.170700 0.091303 F F F Li
0.804018 0.970214 0.145067 F F F Li
0.695982 0.529786 0.094397 F F F Li
0.195982 0.029786 0.120783 F F F Li
0.304018 0.470214 0.088119 F F F Li
0.112292 0.670700 0.193262 F F F Li
0.387708 0.829300 0.174547 F F F Li
0.887708 0.329300 0.239255 F F F Li
0.612292 0.170700 0.174637 F F F Li
0.804018 0.970214 0.228400 F F F Li
0.695982 0.529786 0.177730 F F F Li
0.195982 0.029786 0.204116 F F F Li
0.304018 0.470214 0.171453 F F F Li
0.112292 0.670700 0.276595 F F F Li
0.387708 0.829300 0.257880 F F F Li
0.887708 0.329300 0.322588 F F F Li
0.612292 0.170700 0.257970 F F F Li
0.804018 0.970214 0.311733 F F F Li
0.695982 0.529786 0.261064 F F F Li
0.195982 0.029786 0.287450 F F F Li
0.304018 0.470214 0.254786 F F F Li
0.112292 0.670700 0.359929 F F F Li
0.387708 0.829300 0.341213 F F F Li
0.887708 0.329300 0.405921 F F F Li
0.612292 0.170700 0.341303 F F F Li
0.804018 0.970214 0.395067 F F F Li
0.695982 0.529786 0.344397 F F F Li
0.195982 0.029786 0.370783 F F F Li
0.304018 0.470214 0.338119 F F F Li
0.112292 0.670700 0.443262 F F F Li
0.387708 0.829300 0.424547 F F F Li
0.887708 0.329300 0.489255 F F F Li
0.612292 0.170700 0.424637 F F F Li
0.804018 0.970214 0.478400 F F F Li
0.695982 0.529786 0.427730 F F F Li
0.195982 0.029786 0.454116 F F F Li
0.304018 0.470214 0.421453 F F F Li
0.112292 0.670700 0.526595 T T T Li
0.387708 0.829300 0.507880 F F F Li
0.887708 0.329300 0.572588 T T T Li
0.612292 0.170700 0.507970 F F F Li
0.804018 0.970214 0.561733 T T T Li
0.695982 0.529786 0.511064 F F F Li
0.195982 0.029786 0.537450 T T T Li
0.304018 0.470214 0.504786 F F F Li
0.976271 0.707084 0.056372 F F F P
0.523729 0.792916 0.060327 F F F P
0.023729 0.292916 0.042811 T T T P
0.476271 0.207084 0.038856 T T T P
0.808560 0.888258 0.020636 T T T P
0.691440 0.611742 0.052543 F F F P
0.191440 0.111742 0.078547 F F F P
0.308560 0.388258 0.046641 T T T P
0.976271 0.707084 0.139706 F F F P
0.523729 0.792916 0.143660 F F F P
0.023729 0.292916 0.126144 F F F P
0.476271 0.207084 0.122190 F F F P
0.808560 0.888258 0.103969 F F F P
0.691440 0.611742 0.135876 F F F P
0.191440 0.111742 0.161881 F F F P
0.308560 0.388258 0.129974 F F F P
0.976271 0.707084 0.223039 F F F P
0.523729 0.792916 0.226994 F F F P
0.023729 0.292916 0.209478 F F F P
0.476271 0.207084 0.205523 F F F P
0.808560 0.888258 0.187303 F F F P
0.691440 0.611742 0.219209 F F F P
0.191440 0.111742 0.245214 F F F P
0.308560 0.388258 0.213307 F F F P
0.976271 0.707084 0.306372 F F F P
0.523729 0.792916 0.310327 F F F P
0.023729 0.292916 0.292811 F F F P
0.476271 0.207084 0.288856 F F F P
0.808560 0.888258 0.270636 F F F P
0.691440 0.611742 0.302543 F F F P
0.191440 0.111742 0.328547 F F F P
0.308560 0.388258 0.296641 F F F P
0.976271 0.707084 0.389706 F F F P
0.523729 0.792916 0.393660 F F F P
0.023729 0.292916 0.376144 F F F P
0.476271 0.207084 0.372190 F F F P
0.808560 0.888258 0.353969 F F F P
0.691440 0.611742 0.385876 F F F P
0.191440 0.111742 0.411881 F F F P
0.308560 0.388258 0.379974 F F F P
0.976271 0.707084 0.473039 F F F P
0.523729 0.792916 0.476994 F F F P
0.023729 0.292916 0.459478 F F F P
0.476271 0.207084 0.455523 F F F P
0.808560 0.888258 0.437303 F F F P
0.691440 0.611742 0.469209 F F F P
0.191440 0.111742 0.495214 F F F P
0.308560 0.388258 0.463307 F F F P
0.976271 0.707084 0.556372 T T T P
0.523729 0.792916 0.560327 T T T P
0.023729 0.292916 0.542811 T T T P
0.476271 0.207084 0.538856 T T T P
0.808560 0.888258 0.520636 T T T P
0.691440 0.611742 0.552543 T T T P
0.191440 0.111742 0.578547 T T T P
0.308560 0.388258 0.546641 T T T P
