Li5 P2 N1 O6                            
   1.00000000000000     
    -0.4402269874493492   -0.2372374811393076    5.5210886315583210
     5.4401813492717661   -0.0171988927841296   -0.5907499983667577
    -0.0440350508313308    5.3436308370137819   -0.2950319649498639
   Li   P    N    O 
     5     2     1     6
Direct
  0.4155094984308600  0.1314586094965594  0.8146359087119334
  0.0204106629164255  0.3927726492191393  0.0808084970503847
  0.4382928079088774  0.7033163129588017  0.3184393171629351
  0.0668065417171527  0.6331472250006528  0.6759212389153562
  0.8469307347174975  0.1118796899486282  0.6406043289855734
  0.5855059120536596  0.6019990277539063  0.8304004435222764
  0.9838652171746937  0.8971203936087397  0.1638259165721701
  0.7541871060957731  0.4116567827600330  0.7859495137856973
  0.9968634864887453  0.1299695328913032  0.3256480163895573
  0.5628507210874720  0.8200275326033504  0.6455454110173863
  0.0951137586958034  0.6943673623221603  0.3067115247344770
  0.6900831967127505  0.7809798591160746  0.1004537976731029
  0.0866609331080533  0.9541678279034974  0.9080261753541463
  0.3211654228922436  0.4842641944171319  0.8949919101249973
 
  0.00000000E+00  0.00000000E+00  0.00000000E+00
  0.00000000E+00  0.00000000E+00  0.00000000E+00
  0.00000000E+00  0.00000000E+00  0.00000000E+00
  0.00000000E+00  0.00000000E+00  0.00000000E+00
  0.00000000E+00  0.00000000E+00  0.00000000E+00
  0.00000000E+00  0.00000000E+00  0.00000000E+00
  0.00000000E+00  0.00000000E+00  0.00000000E+00
  0.00000000E+00  0.00000000E+00  0.00000000E+00
  0.00000000E+00  0.00000000E+00  0.00000000E+00
  0.00000000E+00  0.00000000E+00  0.00000000E+00
  0.00000000E+00  0.00000000E+00  0.00000000E+00
  0.00000000E+00  0.00000000E+00  0.00000000E+00
  0.00000000E+00  0.00000000E+00  0.00000000E+00
  0.00000000E+00  0.00000000E+00  0.00000000E+00
