Li5 P2 N1 O6                            
   1.00000000000000     
     0.5158078306684937    0.7061314643166831    5.0774972209480804
     6.1786938500223290   -0.2970857015391521    0.4798607465217874
    -0.5426364748884062    4.9684244994870772    0.8266598302650529
   Li   P    N    O 
     5     2     1     6
Direct
  0.4780434184031799  0.1545626783752382  0.0987290481199675
  0.9527227432845137  0.3152850792520538 -0.0722407316506815
  0.5028613366013605  0.7346195897250108  0.3724294729194055
  0.9286926840594237  0.7559762431932745  0.8203672805229263
  0.1083684020203822  0.5052889611141346  0.3922949323834831
  0.4974937222867117  0.4720976145102103  0.7862462280797752
  0.9178648787367092  0.0426716126428018  0.3725451350379566
  0.2123516341408177  0.4781874560618075  0.7448470062354386
  0.0850880012106171  0.1916325609001884  0.2061739231191360
  0.6858343002513622  0.6174877150376353  0.6344864190317073
  0.0999121496516924  0.8619649109399553  0.4579682718317317
  0.7164239350793585  0.1949512380314556  0.6684105467417814
  0.5257032913215091  0.4726302297187439  0.0884988970383153
  0.7359505029523881  0.9497711104974835  0.2063175705890487
 
  0.00000000E+00  0.00000000E+00  0.00000000E+00
  0.00000000E+00  0.00000000E+00  0.00000000E+00
  0.00000000E+00  0.00000000E+00  0.00000000E+00
  0.00000000E+00  0.00000000E+00  0.00000000E+00
  0.00000000E+00  0.00000000E+00  0.00000000E+00
  0.00000000E+00  0.00000000E+00  0.00000000E+00
  0.00000000E+00  0.00000000E+00  0.00000000E+00
  0.00000000E+00  0.00000000E+00  0.00000000E+00
  0.00000000E+00  0.00000000E+00  0.00000000E+00
  0.00000000E+00  0.00000000E+00  0.00000000E+00
  0.00000000E+00  0.00000000E+00  0.00000000E+00
  0.00000000E+00  0.00000000E+00  0.00000000E+00
  0.00000000E+00  0.00000000E+00  0.00000000E+00
  0.00000000E+00  0.00000000E+00  0.00000000E+00
