Li140 P140 O420
1.0
5.521558 0.000000 0.000000
0.000000 16.540545 2.677750
0.000000 0.000000 119.816820
Li P O
140 140 420
Selective dynamics
direct
0.494607 0.818220 0.000307 T T T Li
0.505393 0.318220 0.055863 F F F Li
0.484419 0.934004 0.013848 T T T Li
0.515581 0.434004 0.069403 F F F Li
0.505784 0.049457 0.027228 F F F Li
0.494216 0.549457 0.082783 F F F Li
0.507224 0.164548 0.040513 F F F Li
0.492776 0.664548 0.096069 F F F Li
0.992783 0.241566 0.048334 F F F Li
0.007217 0.741566 0.103889 F F F Li
0.521194 0.318286 0.000546 T T T Li
0.478806 0.818286 0.056102 F F F Li
0.476313 0.433730 0.014001 T T T Li
0.523687 0.933730 0.069557 F F F Li
0.533250 0.550453 0.027244 F F F Li
0.466750 0.050453 0.082799 F F F Li
0.477737 0.667016 0.040552 F F F Li
0.522263 0.167016 0.096107 F F F Li
0.960889 0.743634 0.048556 F F F Li
0.039111 0.243634 0.104111 F F F Li
0.494607 0.818220 0.111418 F F F Li
0.505393 0.318220 0.166974 F F F Li
0.484419 0.934004 0.124959 F F F Li
0.515581 0.434004 0.180514 F F F Li
0.505784 0.049457 0.138339 F F F Li
0.494216 0.549457 0.193894 F F F Li
0.507224 0.164548 0.151624 F F F Li
0.492776 0.664548 0.207180 F F F Li
0.992783 0.241566 0.159445 F F F Li
0.007217 0.741566 0.215000 F F F Li
0.521194 0.318286 0.111657 F F F Li
0.478806 0.818286 0.167213 F F F Li
0.476313 0.433730 0.125112 F F F Li
0.523687 0.933730 0.180668 F F F Li
0.533250 0.550453 0.138355 F F F Li
0.466750 0.050453 0.193910 F F F Li
0.477737 0.667016 0.151663 F F F Li
0.522263 0.167016 0.207219 F F F Li
0.960889 0.743634 0.159667 F F F Li
0.039111 0.243634 0.215222 F F F Li
0.494607 0.818220 0.222529 F F F Li
0.505393 0.318220 0.278085 F F F Li
0.484419 0.934004 0.236070 F F F Li
0.515581 0.434004 0.291625 F F F Li
0.505784 0.049457 0.249450 F F F Li
0.494216 0.549457 0.305005 F F F Li
0.507224 0.164548 0.262735 F F F Li
0.492776 0.664548 0.318291 F F F Li
0.992783 0.241566 0.270556 F F F Li
0.007217 0.741566 0.326111 F F F Li
0.521194 0.318286 0.222768 F F F Li
0.478806 0.818286 0.278324 F F F Li
0.476313 0.433730 0.236223 F F F Li
0.523687 0.933730 0.291779 F F F Li
0.533250 0.550453 0.249466 F F F Li
0.466750 0.050453 0.305021 F F F Li
0.477737 0.667016 0.262774 F F F Li
0.522263 0.167016 0.318330 F F F Li
0.960889 0.743634 0.270778 F F F Li
0.039111 0.243634 0.326333 F F F Li
0.494607 0.818220 0.333641 F F F Li
0.505393 0.318220 0.389196 F F F Li
0.484419 0.934004 0.347181 F F F Li
0.515581 0.434004 0.402737 F F F Li
0.505784 0.049457 0.360561 F F F Li
0.494216 0.549457 0.416117 F F F Li
0.507224 0.164548 0.373846 F F F Li
0.492776 0.664548 0.429402 F F F Li
0.992783 0.241566 0.381667 F F F Li
0.007217 0.741566 0.437223 F F F Li
0.521194 0.318286 0.333879 F F F Li
0.478806 0.818286 0.389435 F F F Li
0.476313 0.433730 0.347334 F F F Li
0.523687 0.933730 0.402890 F F F Li
0.533250 0.550453 0.360577 F F F Li
0.466750 0.050453 0.416133 F F F Li
0.477737 0.667016 0.373885 F F F Li
0.522263 0.167016 0.429441 F F F Li
0.960889 0.743634 0.381889 F F F Li
0.039111 0.243634 0.437445 F F F Li
0.494607 0.818220 0.444752 F F F Li
0.505393 0.318220 0.500307 F F F Li
0.484419 0.934004 0.458292 F F F Li
0.515581 0.434004 0.513848 F F F Li
0.505784 0.049457 0.471672 F F F Li
0.494216 0.549457 0.527228 F F F Li
0.507224 0.164548 0.484958 F F F Li
0.492776 0.664548 0.540513 F F F Li
0.992783 0.241566 0.492778 F F F Li
0.007217 0.741566 0.548334 F F F Li
0.521194 0.318286 0.444991 F F F Li
0.478806 0.818286 0.500546 F F F Li
0.476313 0.433730 0.458445 F F F Li
0.523687 0.933730 0.514001 F F F Li
0.533250 0.550453 0.471688 F F F Li
0.466750 0.050453 0.527244 F F F Li
0.477737 0.667016 0.484996 F F F Li
0.522263 0.167016 0.540552 F F F Li
0.960889 0.743634 0.493000 F F F Li
0.039111 0.243634 0.548556 F F F Li
0.494607 0.818220 0.555863 F F F Li
0.505393 0.318220 0.611418 F F F Li
0.484419 0.934004 0.569403 F F F Li
0.515581 0.434004 0.624959 F F F Li
0.505784 0.049457 0.582783 F F F Li
0.494216 0.549457 0.638339 F F F Li
0.507224 0.164548 0.596069 F F F Li
0.492776 0.664548 0.651624 F F F Li
0.992783 0.241566 0.603889 F F F Li
0.007217 0.741566 0.659445 F F F Li
0.521194 0.318286 0.556102 F F F Li
0.478806 0.818286 0.611657 F F F Li
0.476313 0.433730 0.569557 F F F Li
0.523687 0.933730 0.625112 F F F Li
0.533250 0.550453 0.582799 F F F Li
0.466750 0.050453 0.638355 F F F Li
0.477737 0.667016 0.596108 F F F Li
0.522263 0.167016 0.651663 F F F Li
0.960889 0.743634 0.604111 F F F Li
0.039111 0.243634 0.659667 F F F Li
0.494607 0.818220 0.666974 F F F Li
0.505393 0.318220 0.722529 F F F Li
0.484419 0.934004 0.680514 F F F Li
0.515581 0.434004 0.736070 F F F Li
0.505784 0.049457 0.693894 F F F Li
0.494216 0.549457 0.749450 F F F Li
0.507224 0.164548 0.707180 F F F Li
0.492776 0.664548 0.762735 T T T Li
0.992783 0.241566 0.715000 F F F Li
0.007217 0.741566 0.770556 T T T Li
0.521194 0.318286 0.667213 F F F Li
0.478806 0.818286 0.722768 F F F Li
0.476313 0.433730 0.680668 F F F Li
0.523687 0.933730 0.736223 F F F Li
0.533250 0.550453 0.693910 F F F Li
0.466750 0.050453 0.749466 F F F Li
0.477737 0.667016 0.707219 F F F Li
0.522263 0.167016 0.762774 T T T Li
0.960889 0.743634 0.715222 F F F Li
0.039111 0.243634 0.770778 T T T Li
0.185377 0.000413 0.105141 F F F P
0.814623 0.500413 0.049586 F F F P
0.843317 0.093280 0.006644 T T T P
0.156683 0.593280 0.062200 F F F P
0.188444 0.197061 0.016838 F F F P
0.811556 0.697061 0.072393 F F F P
0.828977 0.308311 0.025640 F F F P
0.171023 0.808311 0.081195 F F F P
0.159739 0.408249 0.036757 F F F P
0.840261 0.908249 0.092313 F F F P
0.843930 0.574567 0.004220 T T T P
0.156070 0.074567 0.059775 F F F P
0.174322 0.674438 0.015386 F F F P
0.825678 0.174438 0.070942 F F F P
0.812278 0.786455 0.024148 F F F P
0.187722 0.286455 0.079704 F F F P
0.151901 0.889856 0.034416 F F F P
0.848099 0.389856 0.089971 F F F P
0.809867 0.982845 0.047004 F F F P
0.190133 0.482845 0.102560 F F F P
0.185377 0.000413 0.216252 F F F P
0.814623 0.500413 0.160697 F F F P
0.843317 0.093280 0.117755 F F F P
0.156683 0.593280 0.173311 F F F P
0.188444 0.197061 0.127949 F F F P
0.811556 0.697061 0.183504 F F F P
0.828977 0.308311 0.136751 F F F P
0.171023 0.808311 0.192306 F F F P
0.159739 0.408249 0.147868 F F F P
0.840261 0.908249 0.203424 F F F P
0.843930 0.574567 0.115331 F F F P
0.156070 0.074567 0.170886 F F F P
0.174322 0.674438 0.126498 F F F P
0.825678 0.174438 0.182053 F F F P
0.812278 0.786455 0.135259 F F F P
0.187722 0.286455 0.190815 F F F P
0.151901 0.889856 0.145527 F F F P
0.848099 0.389856 0.201082 F F F P
0.809867 0.982845 0.158115 F F F P
0.190133 0.482845 0.213671 F F F P
0.185377 0.000413 0.327363 F F F P
0.814623 0.500413 0.271808 F F F P
0.843317 0.093280 0.228866 F F F P
0.156683 0.593280 0.284422 F F F P
0.188444 0.197061 0.239060 F F F P
0.811556 0.697061 0.294616 F F F P
0.828977 0.308311 0.247862 F F F P
0.171023 0.808311 0.303418 F F F P
0.159739 0.408249 0.258979 F F F P
0.840261 0.908249 0.314535 F F F P
0.843930 0.574567 0.226442 F F F P
0.156070 0.074567 0.281997 F F F P
0.174322 0.674438 0.237609 F F F P
0.825678 0.174438 0.293164 F F F P
0.812278 0.786455 0.246370 F F F P
0.187722 0.286455 0.301926 F F F P
0.151901 0.889856 0.256638 F F F P
0.848099 0.389856 0.312193 F F F P
0.809867 0.982845 0.269226 F F F P
0.190133 0.482845 0.324782 F F F P
0.185377 0.000413 0.438475 F F F P
0.814623 0.500413 0.382919 F F F P
0.843317 0.093280 0.339977 F F F P
0.156683 0.593280 0.395533 F F F P
0.188444 0.197061 0.350171 F F F P
0.811556 0.697061 0.405727 F F F P
0.828977 0.308311 0.358973 F F F P
0.171023 0.808311 0.414529 F F F P
0.159739 0.408249 0.370090 F F F P
0.840261 0.908249 0.425646 F F F P
0.843930 0.574567 0.337553 F F F P
0.156070 0.074567 0.393108 F F F P
0.174322 0.674438 0.348720 F F F P
0.825678 0.174438 0.404275 F F F P
0.812278 0.786455 0.357481 F F F P
0.187722 0.286455 0.413037 F F F P
0.151901 0.889856 0.367749 F F F P
0.848099 0.389856 0.423305 F F F P
0.809867 0.982845 0.380338 F F F P
0.190133 0.482845 0.435893 F F F P
0.185377 0.000413 0.549586 F F F P
0.814623 0.500413 0.494030 F F F P
0.843317 0.093280 0.451089 F F F P
0.156683 0.593280 0.506644 F F F P
0.188444 0.197061 0.461282 F F F P
0.811556 0.697061 0.516838 F F F P
0.828977 0.308311 0.470084 F F F P
0.171023 0.808311 0.525640 F F F P
0.159739 0.408249 0.481202 F F F P
0.840261 0.908249 0.536757 F F F P
0.843930 0.574567 0.448664 F F F P
0.156070 0.074567 0.504220 F F F P
0.174322 0.674438 0.459831 F F F P
0.825678 0.174438 0.515386 F F F P
0.812278 0.786455 0.468592 F F F P
0.187722 0.286455 0.524148 F F F P
0.151901 0.889856 0.478860 F F F P
0.848099 0.389856 0.534416 F F F P
0.809867 0.982845 0.491449 F F F P
0.190133 0.482845 0.547004 F F F P
0.185377 0.000413 0.660697 F F F P
0.814623 0.500413 0.605141 F F F P
0.843317 0.093280 0.562200 F F F P
0.156683 0.593280 0.617755 F F F P
0.188444 0.197061 0.572393 F F F P
0.811556 0.697061 0.627949 F F F P
0.828977 0.308311 0.581195 F F F P
0.171023 0.808311 0.636751 F F F P
0.159739 0.408249 0.592313 F F F P
0.840261 0.908249 0.647868 F F F P
0.843930 0.574567 0.559775 F F F P
0.156070 0.074567 0.615331 F F F P
0.174322 0.674438 0.570942 F F F P
0.825678 0.174438 0.626498 F F F P
0.812278 0.786455 0.579704 F F F P
0.187722 0.286455 0.635259 F F F P
0.151901 0.889856 0.589971 F F F P
0.848099 0.389856 0.645527 F F F P
0.809867 0.982845 0.602560 F F F P
0.190133 0.482845 0.658115 F F F P
0.185377 0.000413 0.771808 T T T P
0.814623 0.500413 0.716252 F F F P
0.843317 0.093280 0.673311 F F F P
0.156683 0.593280 0.728866 F F F P
0.188444 0.197061 0.683504 F F F P
0.811556 0.697061 0.739060 F F F P
0.828977 0.308311 0.692306 F F F P
0.171023 0.808311 0.747862 F F F P
0.159739 0.408249 0.703424 F F F P
0.840261 0.908249 0.758979 F F F P
0.843930 0.574567 0.670886 F F F P
0.156070 0.074567 0.726442 F F F P
0.174322 0.674438 0.682053 F F F P
0.825678 0.174438 0.737609 F F F P
0.812278 0.786455 0.690815 F F F P
0.187722 0.286455 0.746370 F F F P
0.151901 0.889856 0.701082 F F F P
0.848099 0.389856 0.756638 F F F P
0.809867 0.982845 0.713671 F F F P
0.190133 0.482845 0.769226 T T T P
0.069000 0.035413 0.004671 T T T O
0.931000 0.535413 0.060226 F F F O
0.951087 0.140628 0.016335 F F F O
0.048913 0.640628 0.071891 F F F O
0.080018 0.275856 0.021140 F F F O
0.919982 0.775856 0.076695 F F F O
0.926681 0.392259 0.029123 F F F O
0.073319 0.892259 0.084679 F F F O
0.942022 0.978148 0.098796 F F F O
0.057978 0.478148 0.043240 F F F O
0.076781 0.590622 0.011864 T T T O
0.923219 0.090622 0.067420 F F F O
0.921841 0.709404 0.019426 F F F O
0.078159 0.209404 0.074982 F F F O
0.049265 0.843555 0.024523 F F F O
0.950735 0.343555 0.080079 F F F O
0.918787 0.943480 0.036602 F F F O
0.081213 0.443480 0.092157 F F F O
0.944691 0.504327 0.108834 F F F O
0.055309 0.004327 0.053279 F F F O
0.322795 0.926111 0.110242 F F F O
0.677205 0.426111 0.054687 F F F O
0.313918 0.066074 0.097367 F F F O
0.686082 0.566074 0.041811 F F F O
0.643576 0.041349 0.012304 T T T O
0.356424 0.541349 0.067860 F F F O
0.795305 0.153257 0.107251 F F F O
0.204695 0.653257 0.051696 F F F O
0.351974 0.154647 0.025830 F F F O
0.648026 0.654647 0.081386 F F F O
0.281781 0.224590 0.005051 T T T O
0.718219 0.724590 0.060606 F F F O
0.751546 0.252705 0.036159 F F F O
0.248454 0.752705 0.091714 F F F O
0.656290 0.330648 0.016037 F F F O
0.343710 0.830648 0.071593 F F F O
0.215121 0.332841 0.045023 F F F O
0.784879 0.832841 0.100579 F F F O
0.355777 0.446708 0.029096 F F F O
0.644223 0.946708 0.084651 F F F O
0.649890 0.536665 0.012045 T T T O
0.350110 0.036665 0.067601 F F F O
0.785996 0.649394 0.107017 F F F O
0.214004 0.149394 0.051462 F F F O
0.340793 0.651785 0.025232 F F F O
0.659207 0.151785 0.080787 F F F O
0.258044 0.728542 0.004846 T T T O
0.741956 0.228542 0.060401 F F F O
0.725734 0.758375 0.036041 F F F O
0.274266 0.258375 0.091597 F F F O
0.642950 0.828801 0.015394 F F F O
0.357050 0.328801 0.070949 F F F O
0.205272 0.829973 0.044874 F F F O
0.794728 0.329973 0.100430 F F F O
0.347295 0.944360 0.028901 F F F O
0.652705 0.444360 0.084456 F F F O
0.677470 0.919559 0.055009 F F F O
0.322530 0.419559 0.110565 F F F O
0.678914 0.057634 0.041613 F F F O
0.321086 0.557634 0.097169 F F F O
0.069000 0.035413 0.115782 F F F O
0.931000 0.535413 0.171337 F F F O
0.951087 0.140628 0.127446 F F F O
0.048913 0.640628 0.183002 F F F O
0.080018 0.275856 0.132251 F F F O
0.919982 0.775856 0.187806 F F F O
0.926681 0.392259 0.140234 F F F O
0.073319 0.892259 0.195790 F F F O
0.942022 0.978148 0.209907 F F F O
0.057978 0.478148 0.154351 F F F O
0.076781 0.590622 0.122975 F F F O
0.923219 0.090622 0.178531 F F F O
0.921841 0.709404 0.130537 F F F O
0.078159 0.209404 0.186093 F F F O
0.049265 0.843555 0.135634 F F F O
0.950735 0.343555 0.191190 F F F O
0.918787 0.943480 0.147713 F F F O
0.081213 0.443480 0.203268 F F F O
0.944691 0.504327 0.219945 F F F O
0.055309 0.004327 0.164390 F F F O
0.322795 0.926111 0.221353 F F F O
0.677205 0.426111 0.165798 F F F O
0.313918 0.066074 0.208478 F F F O
0.686082 0.566074 0.152922 F F F O
0.643576 0.041349 0.123416 F F F O
0.356424 0.541349 0.178971 F F F O
0.795305 0.153257 0.218363 F F F O
0.204695 0.653257 0.162807 F F F O
0.351974 0.154647 0.136942 F F F O
0.648026 0.654647 0.192497 F F F O
0.281781 0.224590 0.116162 F F F O
0.718219 0.724590 0.171717 F F F O
0.751546 0.252705 0.147270 F F F O
0.248454 0.752705 0.202825 F F F O
0.656290 0.330648 0.127148 F F F O
0.343710 0.830648 0.182704 F F F O
0.215121 0.332841 0.156134 F F F O
0.784879 0.832841 0.211690 F F F O
0.355777 0.446708 0.140207 F F F O
0.644223 0.946708 0.195762 F F F O
0.649890 0.536665 0.123156 F F F O
0.350110 0.036665 0.178712 F F F O
0.785996 0.649394 0.218129 F F F O
0.214004 0.149394 0.162573 F F F O
0.340793 0.651785 0.136343 F F F O
0.659207 0.151785 0.191898 F F F O
0.258044 0.728542 0.115957 F F F O
0.741956 0.228542 0.171512 F F F O
0.725734 0.758375 0.147152 F F F O
0.274266 0.258375 0.202708 F F F O
0.642950 0.828801 0.126505 F F F O
0.357050 0.328801 0.182060 F F F O
0.205272 0.829973 0.155986 F F F O
0.794728 0.329973 0.211541 F F F O
0.347295 0.944360 0.140012 F F F O
0.652705 0.444360 0.195568 F F F O
0.677470 0.919559 0.166121 F F F O
0.322530 0.419559 0.221676 F F F O
0.678914 0.057634 0.152724 F F F O
0.321086 0.557634 0.208280 F F F O
0.069000 0.035413 0.226893 F F F O
0.931000 0.535413 0.282448 F F F O
0.951087 0.140628 0.238557 F F F O
0.048913 0.640628 0.294113 F F F O
0.080018 0.275856 0.243362 F F F O
0.919982 0.775856 0.298918 F F F O
0.926681 0.392259 0.251345 F F F O
0.073319 0.892259 0.306901 F F F O
0.942022 0.978148 0.321018 F F F O
0.057978 0.478148 0.265463 F F F O
0.076781 0.590622 0.234086 F F F O
0.923219 0.090622 0.289642 F F F O
0.921841 0.709404 0.241648 F F F O
0.078159 0.209404 0.297204 F F F O
0.049265 0.843555 0.246745 F F F O
0.950735 0.343555 0.302301 F F F O
0.918787 0.943480 0.258824 F F F O
0.081213 0.443480 0.314379 F F F O
0.944691 0.504327 0.331056 F F F O
0.055309 0.004327 0.275501 F F F O
0.322795 0.926111 0.332464 F F F O
0.677205 0.426111 0.276909 F F F O
0.313918 0.066074 0.319589 F F F O
0.686082 0.566074 0.264033 F F F O
0.643576 0.041349 0.234527 F F F O
0.356424 0.541349 0.290082 F F F O
0.795305 0.153257 0.329474 F F F O
0.204695 0.653257 0.273918 F F F O
0.351974 0.154647 0.248053 F F F O
0.648026 0.654647 0.303608 F F F O
0.281781 0.224590 0.227273 F F F O
0.718219 0.724590 0.282829 F F F O
0.751546 0.252705 0.258381 F F F O
0.248454 0.752705 0.313937 F F F O
0.656290 0.330648 0.238260 F F F O
0.343710 0.830648 0.293815 F F F O
0.215121 0.332841 0.267245 F F F O
0.784879 0.832841 0.322801 F F F O
0.355777 0.446708 0.251318 F F F O
0.644223 0.946708 0.306873 F F F O
0.649890 0.536665 0.234268 F F F O
0.350110 0.036665 0.289823 F F F O
0.785996 0.649394 0.329240 F F F O
0.214004 0.149394 0.273684 F F F O
0.340793 0.651785 0.247454 F F F O
0.659207 0.151785 0.303009 F F F O
0.258044 0.728542 0.227068 F F F O
0.741956 0.228542 0.282623 F F F O
0.725734 0.758375 0.258263 F F F O
0.274266 0.258375 0.313819 F F F O
0.642950 0.828801 0.237616 F F F O
0.357050 0.328801 0.293171 F F F O
0.205272 0.829973 0.267097 F F F O
0.794728 0.329973 0.322652 F F F O
0.347295 0.944360 0.251123 F F F O
0.652705 0.444360 0.306679 F F F O
0.677470 0.919559 0.277232 F F F O
0.322530 0.419559 0.332787 F F F O
0.678914 0.057634 0.263836 F F F O
0.321086 0.557634 0.319391 F F F O
0.069000 0.035413 0.338004 F F F O
0.931000 0.535413 0.393559 F F F O
0.951087 0.140628 0.349668 F F F O
0.048913 0.640628 0.405224 F F F O
0.080018 0.275856 0.354473 F F F O
0.919982 0.775856 0.410029 F F F O
0.926681 0.392259 0.362457 F F F O
0.073319 0.892259 0.418012 F F F O
0.942022 0.978148 0.432129 F F F O
0.057978 0.478148 0.376574 F F F O
0.076781 0.590622 0.345197 F F F O
0.923219 0.090622 0.400753 F F F O
0.921841 0.709404 0.352759 F F F O
0.078159 0.209404 0.408315 F F F O
0.049265 0.843555 0.357856 F F F O
0.950735 0.343555 0.413412 F F F O
0.918787 0.943480 0.369935 F F F O
0.081213 0.443480 0.425491 F F F O
0.944691 0.504327 0.442167 F F F O
0.055309 0.004327 0.386612 F F F O
0.322795 0.926111 0.443576 F F F O
0.677205 0.426111 0.388020 F F F O
0.313918 0.066074 0.430700 F F F O
0.686082 0.566074 0.375144 F F F O
0.643576 0.041349 0.345638 F F F O
0.356424 0.541349 0.401193 F F F O
0.795305 0.153257 0.440585 F F F O
0.204695 0.653257 0.385029 F F F O
0.351974 0.154647 0.359164 F F F O
0.648026 0.654647 0.414719 F F F O
0.281781 0.224590 0.338384 F F F O
0.718219 0.724590 0.393940 F F F O
0.751546 0.252705 0.369492 F F F O
0.248454 0.752705 0.425048 F F F O
0.656290 0.330648 0.349371 F F F O
0.343710 0.830648 0.404926 F F F O
0.215121 0.332841 0.378356 F F F O
0.784879 0.832841 0.433912 F F F O
0.355777 0.446708 0.362429 F F F O
0.644223 0.946708 0.417985 F F F O
0.649890 0.536665 0.345379 F F F O
0.350110 0.036665 0.400934 F F F O
0.785996 0.649394 0.440351 F F F O
0.214004 0.149394 0.384795 F F F O
0.340793 0.651785 0.358565 F F F O
0.659207 0.151785 0.414121 F F F O
0.258044 0.728542 0.338179 F F F O
0.741956 0.228542 0.393734 F F F O
0.725734 0.758375 0.369374 F F F O
0.274266 0.258375 0.424930 F F F O
0.642950 0.828801 0.348727 F F F O
0.357050 0.328801 0.404282 F F F O
0.205272 0.829973 0.378208 F F F O
0.794728 0.329973 0.433763 F F F O
0.347295 0.944360 0.362234 F F F O
0.652705 0.444360 0.417790 F F F O
0.677470 0.919559 0.388343 F F F O
0.322530 0.419559 0.443898 F F F O
0.678914 0.057634 0.374947 F F F O
0.321086 0.557634 0.430502 F F F O
0.069000 0.035413 0.449115 F F F O
0.931000 0.535413 0.504671 F F F O
0.951087 0.140628 0.460779 F F F O
0.048913 0.640628 0.516335 F F F O
0.080018 0.275856 0.465584 F F F O
0.919982 0.775856 0.521140 F F F O
0.926681 0.392259 0.473568 F F F O
0.073319 0.892259 0.529123 F F F O
0.942022 0.978148 0.543240 F F F O
0.057978 0.478148 0.487685 F F F O
0.076781 0.590622 0.456309 F F F O
0.923219 0.090622 0.511864 F F F O
0.921841 0.709404 0.463870 F F F O
0.078159 0.209404 0.519426 F F F O
0.049265 0.843555 0.468967 F F F O
0.950735 0.343555 0.524523 F F F O
0.918787 0.943480 0.481046 F F F O
0.081213 0.443480 0.536602 F F F O
0.944691 0.504327 0.553279 F F F O
0.055309 0.004327 0.497723 F F F O
0.322795 0.926111 0.554687 F F F O
0.677205 0.426111 0.499131 F F F O
0.313918 0.066074 0.541811 F F F O
0.686082 0.566074 0.486255 F F F O
0.643576 0.041349 0.456749 F F F O
0.356424 0.541349 0.512304 F F F O
0.795305 0.153257 0.551696 F F F O
0.204695 0.653257 0.496140 F F F O
0.351974 0.154647 0.470275 F F F O
0.648026 0.654647 0.525830 F F F O
0.281781 0.224590 0.449495 F F F O
0.718219 0.724590 0.505051 F F F O
0.751546 0.252705 0.480603 F F F O
0.248454 0.752705 0.536159 F F F O
0.656290 0.330648 0.460482 F F F O
0.343710 0.830648 0.516037 F F F O
0.215121 0.332841 0.489467 F F F O
0.784879 0.832841 0.545023 F F F O
0.355777 0.446708 0.473540 F F F O
0.644223 0.946708 0.529096 F F F O
0.649890 0.536665 0.456490 F F F O
0.350110 0.036665 0.512045 F F F O
0.785996 0.649394 0.551462 F F F O
0.214004 0.149394 0.495906 F F F O
0.340793 0.651785 0.469676 F F F O
0.659207 0.151785 0.525232 F F F O
0.258044 0.728542 0.449290 F F F O
0.741956 0.228542 0.504845 F F F O
0.725734 0.758375 0.480485 F F F O
0.274266 0.258375 0.536041 F F F O
0.642950 0.828801 0.459838 F F F O
0.357050 0.328801 0.515394 F F F O
0.205272 0.829973 0.489319 F F F O
0.794728 0.329973 0.544874 F F F O
0.347295 0.944360 0.473345 F F F O
0.652705 0.444360 0.528901 F F F O
0.677470 0.919559 0.499454 F F F O
0.322530 0.419559 0.555009 F F F O
0.678914 0.057634 0.486058 F F F O
0.321086 0.557634 0.541613 F F F O
0.069000 0.035413 0.560226 F F F O
0.931000 0.535413 0.615782 F F F O
0.951087 0.140628 0.571891 F F F O
0.048913 0.640628 0.627446 F F F O
0.080018 0.275856 0.576695 F F F O
0.919982 0.775856 0.632251 F F F O
0.926681 0.392259 0.584679 F F F O
0.073319 0.892259 0.640234 F F F O
0.942022 0.978148 0.654351 F F F O
0.057978 0.478148 0.598796 F F F O
0.076781 0.590622 0.567420 F F F O
0.923219 0.090622 0.622975 F F F O
0.921841 0.709404 0.574982 F F F O
0.078159 0.209404 0.630537 F F F O
0.049265 0.843555 0.580079 F F F O
0.950735 0.343555 0.635634 F F F O
0.918787 0.943480 0.592157 F F F O
0.081213 0.443480 0.647713 F F F O
0.944691 0.504327 0.664390 F F F O
0.055309 0.004327 0.608834 F F F O
0.322795 0.926111 0.665798 F F F O
0.677205 0.426111 0.610242 F F F O
0.313918 0.066074 0.652922 F F F O
0.686082 0.566074 0.597367 F F F O
0.643576 0.041349 0.567860 F F F O
0.356424 0.541349 0.623416 F F F O
0.795305 0.153257 0.662807 F F F O
0.204695 0.653257 0.607251 F F F O
0.351974 0.154647 0.581386 F F F O
0.648026 0.654647 0.636942 F F F O
0.281781 0.224590 0.560606 F F F O
0.718219 0.724590 0.616162 F F F O
0.751546 0.252705 0.591714 F F F O
0.248454 0.752705 0.647270 F F F O
0.656290 0.330648 0.571593 F F F O
0.343710 0.830648 0.627148 F F F O
0.215121 0.332841 0.600579 F F F O
0.784879 0.832841 0.656134 F F F O
0.355777 0.446708 0.584651 F F F O
0.644223 0.946708 0.640207 F F F O
0.649890 0.536665 0.567601 F F F O
0.350110 0.036665 0.623156 F F F O
0.785996 0.649394 0.662573 F F F O
0.214004 0.149394 0.607017 F F F O
0.340793 0.651785 0.580787 F F F O
0.659207 0.151785 0.636343 F F F O
0.258044 0.728542 0.560401 F F F O
0.741956 0.228542 0.615957 F F F O
0.725734 0.758375 0.591597 F F F O
0.274266 0.258375 0.647152 F F F O
0.642950 0.828801 0.570949 F F F O
0.357050 0.328801 0.626505 F F F O
0.205272 0.829973 0.600430 F F F O
0.794728 0.329973 0.655986 F F F O
0.347295 0.944360 0.584456 F F F O
0.652705 0.444360 0.640012 F F F O
0.677470 0.919559 0.610565 F F F O
0.322530 0.419559 0.666121 F F F O
0.678914 0.057634 0.597169 F F F O
0.321086 0.557634 0.652724 F F F O
0.069000 0.035413 0.671337 F F F O
0.931000 0.535413 0.726893 F F F O
0.951087 0.140628 0.683002 F F F O
0.048913 0.640628 0.738557 F F F O
0.080018 0.275856 0.687806 F F F O
0.919982 0.775856 0.743362 F F F O
0.926681 0.392259 0.695790 F F F O
0.073319 0.892259 0.751345 F F F O
0.942022 0.978148 0.765463 F F F O
0.057978 0.478148 0.709907 F F F O
0.076781 0.590622 0.678531 F F F O
0.923219 0.090622 0.734086 F F F O
0.921841 0.709404 0.686093 F F F O
0.078159 0.209404 0.741648 F F F O
0.049265 0.843555 0.691190 F F F O
0.950735 0.343555 0.746745 F F F O
0.918787 0.943480 0.703268 F F F O
0.081213 0.443480 0.758824 F F F O
0.944691 0.504327 0.775501 F F F O
0.055309 0.004327 0.719945 F F F O
0.322795 0.926111 0.776909 T T T O
0.677205 0.426111 0.721353 F F F O
0.313918 0.066074 0.764033 T T T O
0.686082 0.566074 0.708478 F F F O
0.643576 0.041349 0.678971 F F F O
0.356424 0.541349 0.734527 F F F O
0.795305 0.153257 0.773918 T T T O
0.204695 0.653257 0.718363 F F F O
0.351974 0.154647 0.692497 F F F O
0.648026 0.654647 0.748053 F F F O
0.281781 0.224590 0.671717 F F F O
0.718219 0.724590 0.727273 F F F O
0.751546 0.252705 0.702825 F F F O
0.248454 0.752705 0.758381 F F F O
0.656290 0.330648 0.682704 F F F O
0.343710 0.830648 0.738259 F F F O
0.215121 0.332841 0.711690 F F F O
0.784879 0.832841 0.767245 F F F O
0.355777 0.446708 0.695762 F F F O
0.644223 0.946708 0.751318 F F F O
0.649890 0.536665 0.678712 F F F O
0.350110 0.036665 0.734267 F F F O
0.785996 0.649394 0.773684 T T T O
0.214004 0.149394 0.718128 F F F O
0.340793 0.651785 0.691898 F F F O
0.659207 0.151785 0.747454 F F F O
0.258044 0.728542 0.671512 F F F O
0.741956 0.228542 0.727068 F F F O
0.725734 0.758375 0.702708 F F F O
0.274266 0.258375 0.758263 F F F O
0.642950 0.828801 0.682060 F F F O
0.357050 0.328801 0.737616 F F F O
0.205272 0.829973 0.711541 F F F O
0.794728 0.329973 0.767097 F F F O
0.347295 0.944360 0.695567 F F F O
0.652705 0.444360 0.751123 F F F O
0.677470 0.919559 0.721676 F F F O
0.322530 0.419559 0.777232 F F F O
0.678914 0.057634 0.708280 F F F O
0.321086 0.557634 0.763836 F F F O
