Li61 P7 N32                             
   1.00000000000000     
    -0.0000134649457179    9.5150152379257680   -0.0000151788157782
     0.0269468416766780   -0.0000151274168612    9.5866567404087615
     9.5211964079380316   -0.0000135193060389    0.0269771825631211
   Li   P    N 
    61     7    32
Direct
  0.4942357701843595  0.0000014474752286  0.5000065350902714
 -0.0107284605228722  0.5000027513922077 -0.0000051816641891
  0.4933991051555043 -0.0000050784465714 -0.0000073537591687
  0.0050333666551329  0.0000023826816723  0.4999981218610828
  0.5090030303695325  0.5000026183411311  0.0000032468640563
  0.0066814793431712  0.5000009986256004  0.4999943778354277
  0.7442259594722463 -0.0000043482810732  0.5000008081028323
  0.2501564607825733  0.0000019452116126  0.5000010457568187
  0.7773053463204668  0.5000071486162709  0.5000072420743756
  0.2369286474534806  0.4999966101295671  0.5000088383548063
  0.2586630315003493 -0.0000008185032265  0.0000006490467794
  0.7361327197024468  0.0000033279157799  0.0000006123527471
  0.7514823469771570  0.5000058758400268 -0.0000001516945405
  0.4967363516314426  0.2487551952597691 -0.0149575154538711
  0.4967347792998821  0.7512347166941624  0.0149516902464459
  0.0024656972464740  0.4811069854122427  0.2582133008368735
  0.0024579161507196  0.5188831845603261  0.7417716692848989
  0.2352370773829387  0.2087128103368341  0.2155759843322906
  0.2352440995965396  0.7913021135897501  0.7844271759523705
  0.2496981120986027  0.2907994615757672  0.7136452451892935
  0.2497188032012442  0.7092230297768831  0.2863478792450602
  0.7796308020785010  0.3071225913060018  0.3298615327941840
  0.7796145174976034  0.6928912261898140  0.6701538302737751
  0.7173591698053338  0.1796700488299587  0.8163446017197232
  0.7173721268431652  0.8203335075494821  0.1836624255654144
  0.9865219127344047  0.2425845613934990  0.2434711023429526
  0.9865260678923868  0.7574040399570887  0.7565277471143994
  0.2673367014347787  0.2431668240427041  0.4710594265664370
  0.2673263701337720  0.7568383056697827  0.5289408041529051
  0.7665999265854470  0.2053821015193282  0.5692988795705060
  0.7665860704685569  0.7946164601099062  0.4307107183543962
  0.8277551176974796  0.5968449236891442  0.1902429617139929
  0.8277479371550595  0.4031522874711478  0.8097579117568527
  0.2278909727469608  0.4517547537656352  0.2557428038828038
  0.2278817179561632  0.5482691007014554  0.7442671345519508
  0.4947103076338863  0.7574206373924489  0.2571631301309620
  0.4947041615970693  0.2425651095565914  0.7428209277886632
  0.2333251334811190  0.9683731464536438  0.2561705747302320
  0.2333249149351077  0.0316376959921464  0.7438301458481165
  0.2499328194929379  0.2405347220710626  0.9667557414245451
  0.2499311121920884  0.7594610475575486  0.0332468793192221
  0.7532750526481740  0.9408148136430976  0.7397062670471608
  0.7532643440443486  0.0591937275507561  0.2603053554524294
  0.7435276980794778  0.7503281035795337  0.9549259755649494
  0.7435266452823496  0.2496674827061586  0.0450731265752021
  0.0130214376351660  0.2452162488012121  0.7667480115512321
  0.0130284224813042  0.7547746708650143  0.2332623592275215
  0.4785486366932273  0.2653793259855446  0.2388272433447725
  0.4785493529055542  0.7346129151764730  0.7611609173232350
 -0.0075035744745182  0.2620629791202257  0.0156184835719674
 -0.0075064758289332  0.7379392641878355 -0.0156193486726059
  0.5085971871169128  0.2358266595726698  0.4843503970232590
  0.5085904968566385  0.7641722157434856  0.5156371828616512
  0.4547273301820778  0.5254735174245582  0.2256304440202690
  0.4547073338473595  0.4745094143987205  0.7743821769601171
 -0.0067726687860225 -0.0039843539832673  0.2615471969585900
 -0.0067650535104829  0.0039787399202409  0.7384487769112411
  0.6488513798444281  0.3905742453446072  0.6583873403121181
  0.6488580810990897  0.6094205505900687  0.3416202881421702
  0.6671779111960638  0.4341830117525111  0.1935892769286456
  0.6671666055335225  0.5658154311732162  0.8064050781307736
  0.4906631665326177  0.5000205942399512  0.4999772793075568
 -0.0021935645416720  0.0000000517839505 -0.0000007645199068
  0.2467160194989396  0.5000015427176370  0.0000035713381675
  0.0066327377345630  0.7506706395128832  0.4958634108243443
  0.0066332340431794  0.2493315559211776  0.5041372920317356
  0.4931743703820425  0.0074357206360638  0.2471081666133004
  0.4931716476419176 -0.0074444988484808  0.7528919176954472
  0.5983290059014881  0.5929142679996580  0.6058181342287720
  0.5983278579225055  0.4070873860104232  0.3941812935175936
  0.8940129733156840  0.8962291970499779  0.1006571111483415
  0.8940115690607002  0.1037714537466161  0.8993366062924606
  0.1007308650535827  0.9018132633140606  0.8949930381002895
  0.1007307019668651  0.0981894081250258  0.1050045530766910
  0.3934389077788490  0.6112685404724426  0.4054418970094986
  0.3934358345808557  0.3887153833070727  0.5945697275090536
  0.1041998199664558  0.3473487144799581  0.3941827400775246
  0.1041955175221901  0.6526504338419553  0.6058158644551273
  0.1142639664562454  0.1499436092235123  0.6040962976965082
  0.1142601577216617  0.8500579576711373  0.3959048424078969
  0.8929808862617199  0.1471919215778666  0.4116947470480680
  0.8929794085805659  0.8528087133428668  0.5883060215500411
  0.8616110698840810  0.3846924652070308  0.1441418306404516
  0.8616068301024549  0.6153015032860617  0.8558557974661597
  0.1485656542708622  0.5944465499367544  0.1157196633633570
  0.1485703796065149  0.4055507543961489  0.8842723205321003
  0.3933257956253151  0.8969275150798321  0.1509939388227199
  0.3933321779144683  0.1030669102759736  0.8490104398416994
  0.3853540420975277  0.1044189818666469  0.3497106419489291
  0.3853545416548926  0.8955844511056160  0.6502921232109086
  0.3467037272187201  0.3862984407393237  0.0962120125873144
  0.3467024787637603  0.6137025632669965  0.9037862533355006
  0.6085200446554938  0.0882223438578952  0.6504372303386612
  0.6085172716725531  0.9117761019593305  0.3495672285273989
  0.6268134373175628  0.6318312120395785  0.1360143108875415
  0.6268056055623651  0.3681647745413721  0.8639842129007967
  0.9056433616763827  0.3515960788808599  0.6102614145714971
  0.9056369885619723  0.6484077230438826  0.3897363358456370
  0.5900634407762861  0.1120800599026366  0.1434145141397457
  0.5900684260488865  0.8879113015132925  0.8565859349396759
 
  0.00000000E+00  0.00000000E+00  0.00000000E+00
  0.00000000E+00  0.00000000E+00  0.00000000E+00
  0.00000000E+00  0.00000000E+00  0.00000000E+00
  0.00000000E+00  0.00000000E+00  0.00000000E+00
  0.00000000E+00  0.00000000E+00  0.00000000E+00
  0.00000000E+00  0.00000000E+00  0.00000000E+00
  0.00000000E+00  0.00000000E+00  0.00000000E+00
  0.00000000E+00  0.00000000E+00  0.00000000E+00
  0.00000000E+00  0.00000000E+00  0.00000000E+00
  0.00000000E+00  0.00000000E+00  0.00000000E+00
  0.00000000E+00  0.00000000E+00  0.00000000E+00
  0.00000000E+00  0.00000000E+00  0.00000000E+00
  0.00000000E+00  0.00000000E+00  0.00000000E+00
  0.00000000E+00  0.00000000E+00  0.00000000E+00
  0.00000000E+00  0.00000000E+00  0.00000000E+00
  0.00000000E+00  0.00000000E+00  0.00000000E+00
  0.00000000E+00  0.00000000E+00  0.00000000E+00
  0.00000000E+00  0.00000000E+00  0.00000000E+00
  0.00000000E+00  0.00000000E+00  0.00000000E+00
  0.00000000E+00  0.00000000E+00  0.00000000E+00
  0.00000000E+00  0.00000000E+00  0.00000000E+00
  0.00000000E+00  0.00000000E+00  0.00000000E+00
  0.00000000E+00  0.00000000E+00  0.00000000E+00
  0.00000000E+00  0.00000000E+00  0.00000000E+00
  0.00000000E+00  0.00000000E+00  0.00000000E+00
  0.00000000E+00  0.00000000E+00  0.00000000E+00
  0.00000000E+00  0.00000000E+00  0.00000000E+00
  0.00000000E+00  0.00000000E+00  0.00000000E+00
  0.00000000E+00  0.00000000E+00  0.00000000E+00
  0.00000000E+00  0.00000000E+00  0.00000000E+00
  0.00000000E+00  0.00000000E+00  0.00000000E+00
  0.00000000E+00  0.00000000E+00  0.00000000E+00
  0.00000000E+00  0.00000000E+00  0.00000000E+00
  0.00000000E+00  0.00000000E+00  0.00000000E+00
  0.00000000E+00  0.00000000E+00  0.00000000E+00
  0.00000000E+00  0.00000000E+00  0.00000000E+00
  0.00000000E+00  0.00000000E+00  0.00000000E+00
  0.00000000E+00  0.00000000E+00  0.00000000E+00
  0.00000000E+00  0.00000000E+00  0.00000000E+00
  0.00000000E+00  0.00000000E+00  0.00000000E+00
  0.00000000E+00  0.00000000E+00  0.00000000E+00
  0.00000000E+00  0.00000000E+00  0.00000000E+00
  0.00000000E+00  0.00000000E+00  0.00000000E+00
  0.00000000E+00  0.00000000E+00  0.00000000E+00
  0.00000000E+00  0.00000000E+00  0.00000000E+00
  0.00000000E+00  0.00000000E+00  0.00000000E+00
  0.00000000E+00  0.00000000E+00  0.00000000E+00
  0.00000000E+00  0.00000000E+00  0.00000000E+00
  0.00000000E+00  0.00000000E+00  0.00000000E+00
  0.00000000E+00  0.00000000E+00  0.00000000E+00
  0.00000000E+00  0.00000000E+00  0.00000000E+00
  0.00000000E+00  0.00000000E+00  0.00000000E+00
  0.00000000E+00  0.00000000E+00  0.00000000E+00
  0.00000000E+00  0.00000000E+00  0.00000000E+00
  0.00000000E+00  0.00000000E+00  0.00000000E+00
  0.00000000E+00  0.00000000E+00  0.00000000E+00
  0.00000000E+00  0.00000000E+00  0.00000000E+00
  0.00000000E+00  0.00000000E+00  0.00000000E+00
  0.00000000E+00  0.00000000E+00  0.00000000E+00
  0.00000000E+00  0.00000000E+00  0.00000000E+00
  0.00000000E+00  0.00000000E+00  0.00000000E+00
  0.00000000E+00  0.00000000E+00  0.00000000E+00
  0.00000000E+00  0.00000000E+00  0.00000000E+00
  0.00000000E+00  0.00000000E+00  0.00000000E+00
  0.00000000E+00  0.00000000E+00  0.00000000E+00
  0.00000000E+00  0.00000000E+00  0.00000000E+00
  0.00000000E+00  0.00000000E+00  0.00000000E+00
  0.00000000E+00  0.00000000E+00  0.00000000E+00
  0.00000000E+00  0.00000000E+00  0.00000000E+00
  0.00000000E+00  0.00000000E+00  0.00000000E+00
  0.00000000E+00  0.00000000E+00  0.00000000E+00
  0.00000000E+00  0.00000000E+00  0.00000000E+00
  0.00000000E+00  0.00000000E+00  0.00000000E+00
  0.00000000E+00  0.00000000E+00  0.00000000E+00
  0.00000000E+00  0.00000000E+00  0.00000000E+00
  0.00000000E+00  0.00000000E+00  0.00000000E+00
  0.00000000E+00  0.00000000E+00  0.00000000E+00
  0.00000000E+00  0.00000000E+00  0.00000000E+00
  0.00000000E+00  0.00000000E+00  0.00000000E+00
  0.00000000E+00  0.00000000E+00  0.00000000E+00
  0.00000000E+00  0.00000000E+00  0.00000000E+00
  0.00000000E+00  0.00000000E+00  0.00000000E+00
  0.00000000E+00  0.00000000E+00  0.00000000E+00
  0.00000000E+00  0.00000000E+00  0.00000000E+00
  0.00000000E+00  0.00000000E+00  0.00000000E+00
  0.00000000E+00  0.00000000E+00  0.00000000E+00
  0.00000000E+00  0.00000000E+00  0.00000000E+00
  0.00000000E+00  0.00000000E+00  0.00000000E+00
  0.00000000E+00  0.00000000E+00  0.00000000E+00
  0.00000000E+00  0.00000000E+00  0.00000000E+00
  0.00000000E+00  0.00000000E+00  0.00000000E+00
  0.00000000E+00  0.00000000E+00  0.00000000E+00
  0.00000000E+00  0.00000000E+00  0.00000000E+00
  0.00000000E+00  0.00000000E+00  0.00000000E+00
  0.00000000E+00  0.00000000E+00  0.00000000E+00
  0.00000000E+00  0.00000000E+00  0.00000000E+00
  0.00000000E+00  0.00000000E+00  0.00000000E+00
  0.00000000E+00  0.00000000E+00  0.00000000E+00
  0.00000000E+00  0.00000000E+00  0.00000000E+00
  0.00000000E+00  0.00000000E+00  0.00000000E+00
