Li71 P24 N1 O94                         
   1.00000000000000     
    14.7055647979471704   -0.0074916561103090    0.0171695329127455
    -0.0053512900079914   10.5786438737463619    0.0003824244752828
     0.0143134691868571    0.0004434911708678   12.3373784734354697
   Li   P    N    O 
    71    24     1    94
Direct
  0.1698953975783564  0.4192945940976996 -0.0001062011736286
  0.1715367863885888  0.4214238428557273  0.5083827352818441
  0.1685474687146975  0.9314955783242910  0.0072538381599964
  0.1735748734004659  0.9178547305288647  0.5011660368893712
  0.5025680465902208  0.4220747376778267  0.0007930503929915
  0.5034997422275423  0.4229973823166159  0.5004114331308216
  0.5037220962734116  0.9227849320567212  0.0002075788574220
  0.5031909249547192  0.9215704979461050  0.4998410579323989
  0.8366887778838172  0.4230839685124895 -0.0005469009926280
  0.8350392160315651  0.4221442858669782  0.5004223797287062
  0.8355834908257498  0.9198584694719655 -0.0019165918778913
  0.8332203640015742  0.9185257102116527  0.4989449832016412
  0.0039030612380218  0.0646290160525859  0.2254310163134370
  0.0029279258401875  0.0756162278362592  0.7561085555857608
  0.0027125235368044  0.5855183070400286  0.2459271216610866
  0.0036474731034401  0.5771870858276915  0.7515212658525365
  0.3333172477446127  0.0761602880201314  0.2415161773544399
  0.3371099791990997  0.0772110775599851  0.7533922597675450
  0.3339063394047499  0.5768485168020961  0.2498002647286782
  0.3369644850393929  0.5776356275292813  0.7515513423347431
  0.6690395084417613  0.0780801595073994  0.2485093647236702
  0.6687249494637831  0.0769643938056648  0.7502230225389486
  0.6697381042155126  0.5770695470678180  0.2498978530119007
  0.6691308597122592  0.5780558221914751  0.7505259126121464
  0.1735138034579039  0.1628954442627859  0.6302980960348745
  0.1698068757004515  0.6655242787902895  0.1248863268594593
  0.1707587708647861  0.6630344328982494  0.6286032555361436
  0.5019802707358541  0.1631333309097095  0.1254485958818476
  0.5030719949302436  0.1630960637496786  0.6271578065541246
  0.5021373645259314  0.6630273291754419  0.1266660068532376
  0.5026763418100052  0.6633631995544407  0.6266283651045649
  0.8394994839486682  0.1629427918226770  0.1226441568238553
  0.8332200917853942  0.1657760695613542  0.6279060019870459
  0.8361053187890500  0.6629266949607359  0.1258786654187477
  0.8353284790666897  0.6628197725985362  0.6269262251410124
  0.0046123106553831  0.3368189421004576  0.1206535846425659
  0.0021771196040216  0.3401084765462507  0.6258104148083468
  0.0044116999533367  0.8356464643178987  0.1218857584183369
  0.0025645088287721  0.8321234379421270  0.6282743863354400
  0.3333771748879531  0.3329167265397061  0.1236519360534179
  0.3378274063149040  0.3363242455671581  0.6248888804498282
  0.3364230980440986  0.8370987468975074  0.1222345872477315
  0.3368420375787209  0.8365186737338284  0.6249285371840142
  0.6704408167767468  0.3361220535483946  0.1237835644840610
  0.6685681155514897  0.3375328023597777  0.6239840006495818
  0.6695407083742949  0.8369090000219612  0.1236778783041591
  0.6685585889232608  0.8366531962616875  0.6236332829671514
  0.0023726589829524  0.3616087625682257  0.3710008693292199
  0.0028614942394798  0.3362418412104924  0.8764170375454386
  0.0025394753469313  0.8349082214724325  0.3755418003450823
  0.0039932656556147  0.8374550580011949  0.8772793860528005
  0.3384001782795821  0.3405237225741000  0.3776989120367616
  0.3371088069480595  0.3344611586364890  0.8777377433672372
  0.3357272766040373  0.8356849660177844  0.3756608000604778
  0.3359163913152555  0.8375077729690130  0.8784529954792859
  0.6680325297047626  0.3369397720470289  0.3764953038878045
  0.6695270913613013  0.3370089366838117  0.8768370947573066
  0.6686049489683138  0.8367588770036913  0.3755068782188852
  0.6695058539941189  0.8367045262278626  0.8759781332104585
  0.1942286931366882  0.1594085703477781  0.3707259334127314
  0.1686938906162986  0.1629216404952387  0.8793813425287911
  0.1685455313552713  0.6614809336349355  0.3769533348378267
  0.1699341807923911  0.6637220825381028  0.8747548041634571
  0.5004739277479359  0.1629057833325202  0.3728452745808778
  0.5040836975936046  0.1630127427914431  0.8743495622193372
  0.5023348711955593  0.6629933923857664  0.3732251061667402
  0.5025525627023241  0.6633340513627057  0.8744003424007692
  0.8341842140884296  0.1641444670322831  0.3701582996348132
  0.8345195749766317  0.1632635955869348  0.8706070367663198
  0.8362175062310645  0.6625379077247837  0.3742535577798041
  0.8364015126427539  0.6633039363732284  0.8731257324212931
  0.1644169155404422  0.4197154458763506  0.2465532179974173
  0.1676259689735491  0.4117988859937370  0.7516053386247058
  0.1682175343685899  0.9091141073196077  0.2535997800291043
  0.1672701245168585  0.9119980945818396  0.7512568387533486
  0.5005420606780825  0.4121379023876171  0.2497393645349962
  0.5006244939589248  0.4125218720383077  0.7505613809131511
  0.5002959288785671  0.9120442633763344  0.2499110620491759
  0.5006136102041732  0.9117611336052416  0.7500788111918110
  0.8342585729106869  0.4123954574474712  0.2490659941731211
  0.8334526772781832  0.4126327344222712  0.7498896266446207
  0.8345043459702968  0.9118648975281635  0.2504703495573219
  0.8338272887752500  0.9120560602403611  0.7479774886817018
 -0.0041776942661517  0.0885475846958828 -0.0023919063909452
  0.0000900797585705  0.0845458581768508  0.5074076874801224
  0.0002510307050652  0.5885546612490430 -0.0018989494769356
 -0.0001467338073988  0.5883511334142713  0.5015998139679595
  0.3348952808824789  0.0866859068308202 -0.0017694352857453
  0.3338582250396411  0.0862220724337582  0.5019312635199010
  0.3336522898306446  0.5870303593047796  0.0001301986746209
  0.3341115683711970  0.5874903606976974  0.5013415345965260
  0.6679525320826265  0.0874450871492118 -0.0003250600080659
  0.6664129872099396  0.0882837207404119  0.4994918941986074
  0.6672946748820580  0.5880113062363052  0.0002378750040547
  0.6670114069492534  0.5883574401366762  0.4999927268123364
  0.1997102418095712  0.3415967435677937  0.3522608330231826
  0.0332149703697635  0.1566761401985666  0.8941963041951030
  0.0341529567831004  0.6572673253388590  0.3976982192889520
  0.0351188011581513  0.6576739842237086  0.8941333150977301
  0.3653908256882271  0.1567159131732253  0.3969486411067517
  0.3728209644707434  0.1564699718964017  0.8950062275876000
  0.3686783292705932  0.6559883336398749  0.3970572495764855
  0.3692503174366983  0.6568082715203063  0.8966018293906237
  0.7026690095735066  0.1572677571423198  0.3959829226298249
  0.7021398372824943  0.1564631575121486  0.8951013881149366
  0.7028064462530736  0.6573519150127839  0.3963399810763914
  0.7028075762378493  0.6571392851261455  0.8963692365467254
  0.2032497819184924  0.0456356698967856  0.2590525420488388
  0.2007264194161608  0.0517844033906737  0.7509741659554678
  0.1968077804340922  0.5606811108211257  0.2519549707231569
  0.2011451414105383  0.5516816382128664  0.7509254081334427
  0.5341484455233244  0.0520245530107376  0.2501349848774912
  0.5347221366492120  0.0515500216783969  0.7497396391123377
  0.5349261422220396  0.5518530443107358  0.2502634100812227
  0.5342916438578291  0.5525354233886887  0.7500107073955573
  0.8700454702143562  0.0513611634083287  0.2505583561713783
  0.8678070708722401  0.0519950628670743  0.7463696753180118
  0.8674141265482059  0.5525849704401047  0.2506032017996926
  0.8677061578547742  0.5521842984591760  0.7495355981958889
  0.0577322506392240  0.4201213573252131  0.2439941058166258
  0.0615500739398722  0.4093250293159598  0.7502499789374949
  0.0613797162949298  0.9073462288168541  0.2516239449692292
  0.0609373753034931  0.9097273544443224  0.7498836281620496
  0.3948095504136798  0.4097603828792218  0.2491673697749246
  0.3947595743532555  0.4095450218908320  0.7509806276007169
  0.3945335365972364  0.9087218868061163  0.2497569833829182
  0.3947970771055083  0.9087931487860448  0.7506016702884927
  0.7284504912161327  0.4085731265842071  0.2517589973476456
  0.7276327408004019  0.4099082449711063  0.7496471381876826
  0.7286985432065405  0.9106547504994045  0.2502031264387152
  0.7280328923280852  0.9094226364443000  0.7488566219350905
  0.2308704657831393  0.0864097469790353 -0.0058556470462267
  0.2276674636224906  0.0865234237787643  0.5047503368197472
  0.2277690470239025  0.5899136152330555 -0.0004022852470073
  0.2280335573881484  0.5884773901893854  0.5024096953838386
  0.5622439669972786  0.0905410359964545  0.0007020610805744
  0.5606877880749048  0.0912569343338870  0.4993011115611552
  0.5614593668776076  0.5907690496945760  0.0003715614103679
  0.5612039196037584  0.5913093507783688  0.4998983835412757
  0.8895763036931713  0.0854607143355777 -0.0079112413621023
  0.8950261148338525  0.0926056736517930  0.4987854136563576
  0.8942349030348865  0.5915112196203101 -0.0008645741637458
  0.8940020442022205  0.5890751996731388  0.5016252763920521
  0.2034805419125594  0.3552347896105434  0.1449731963236890
  0.2032712601071741  0.3422833352035938  0.6479800767282586
  0.2026856472328732  0.8416958477109870  0.1486904517274662
  0.2023851980156657  0.8424300009652297  0.6472863076454871
  0.5369588455841223  0.3428630482925483  0.1466595600727104
  0.5356408549961135  0.3433464974324424  0.6464813661346591
  0.5364828567154585  0.8427630031025608  0.1467002474599132
  0.5356359856818775  0.8429483074538420  0.6458232793509979
  0.8682948171883759  0.3447594150432142  0.1446281280751219
  0.8688008516476347  0.3431486691853174  0.6459136727462181
  0.8701016395171113  0.8423173511551425  0.1472901269569396
  0.8689662117932649  0.8432601781220656  0.6435862283090467
  0.0224846992204430  0.1605300460154651  0.1011212192118261
  0.0365839397663090  0.1584413118577707  0.6068340382977124
  0.0356776078173917  0.6588011296615641  0.1010037298219485
  0.0354222229287630  0.6564916928377816  0.6052545202449248
  0.3706681067749339  0.1563360941506514  0.1017893335674748
  0.3696249458822296  0.1559466492089771  0.6047969699192495
  0.3685705434623452  0.6561140985868997  0.1040410830633330
  0.3690211715908138  0.6574926590524112  0.6046475593257227
  0.7042531520586840  0.1563881706118411  0.1029541546990002
  0.7017300724899974  0.1573211080217042  0.6032787942262882
  0.7027834371734692  0.6570439636553248  0.1039257882952482
  0.7023290667201981  0.6571994158319820  0.6037700589850826
  0.0337587594418820  0.4490404325209918 -0.0023599104380480
  0.0346734613686277  0.4484745506039786  0.5011620632855955
  0.0320417257792866  0.9494869399164042  0.0004828284605165
  0.0351277783550204  0.9466161429465370  0.5014971905076883
  0.3677945167343596  0.4474843239997185 -0.0001122125710725
  0.3688819103908922  0.4481824074571176  0.5020876039208748
  0.3712425774604077  0.9470751119166723 -0.0002034749866571
  0.3682288244507197  0.9469476658691736  0.5003547498166153
  0.7012019160073663  0.4482531876995534  0.0001882738746849
  0.7005832629657441  0.4482735850649276  0.4999582728212242
  0.7010972273903918  0.9471777534637169 -0.0006428778193739
  0.7001692930256515  0.9483657548639191  0.4996030221184637
  0.2023132913371779  0.3426723434578851  0.8548435067025183
  0.2004411524010170  0.8357920401484285  0.3570606129940805
  0.2013691264195543  0.8425413623350355  0.8546327740597038
  0.5348513058663625  0.3428623609213715  0.3540985002555980
  0.5365063316864165  0.3438594399112566  0.8539138658533937
  0.5354661831731455  0.8431370092075472  0.3539120642088501
  0.5365687332318747  0.8425771304728494  0.8532018248146661
  0.8717141210860225  0.3422893116863369  0.3521949798120697
  0.8686029938253176  0.3432759430399817  0.8531817948562931
  0.8688853587943191  0.8430172205857919  0.3548992293617335
  0.8696157888528006  0.8426014797473527  0.8508362873856492
 
  0.00000000E+00  0.00000000E+00  0.00000000E+00
  0.00000000E+00  0.00000000E+00  0.00000000E+00
  0.00000000E+00  0.00000000E+00  0.00000000E+00
  0.00000000E+00  0.00000000E+00  0.00000000E+00
  0.00000000E+00  0.00000000E+00  0.00000000E+00
  0.00000000E+00  0.00000000E+00  0.00000000E+00
  0.00000000E+00  0.00000000E+00  0.00000000E+00
  0.00000000E+00  0.00000000E+00  0.00000000E+00
  0.00000000E+00  0.00000000E+00  0.00000000E+00
  0.00000000E+00  0.00000000E+00  0.00000000E+00
  0.00000000E+00  0.00000000E+00  0.00000000E+00
  0.00000000E+00  0.00000000E+00  0.00000000E+00
  0.00000000E+00  0.00000000E+00  0.00000000E+00
  0.00000000E+00  0.00000000E+00  0.00000000E+00
  0.00000000E+00  0.00000000E+00  0.00000000E+00
  0.00000000E+00  0.00000000E+00  0.00000000E+00
  0.00000000E+00  0.00000000E+00  0.00000000E+00
  0.00000000E+00  0.00000000E+00  0.00000000E+00
  0.00000000E+00  0.00000000E+00  0.00000000E+00
  0.00000000E+00  0.00000000E+00  0.00000000E+00
  0.00000000E+00  0.00000000E+00  0.00000000E+00
  0.00000000E+00  0.00000000E+00  0.00000000E+00
  0.00000000E+00  0.00000000E+00  0.00000000E+00
  0.00000000E+00  0.00000000E+00  0.00000000E+00
  0.00000000E+00  0.00000000E+00  0.00000000E+00
  0.00000000E+00  0.00000000E+00  0.00000000E+00
  0.00000000E+00  0.00000000E+00  0.00000000E+00
  0.00000000E+00  0.00000000E+00  0.00000000E+00
  0.00000000E+00  0.00000000E+00  0.00000000E+00
  0.00000000E+00  0.00000000E+00  0.00000000E+00
  0.00000000E+00  0.00000000E+00  0.00000000E+00
  0.00000000E+00  0.00000000E+00  0.00000000E+00
  0.00000000E+00  0.00000000E+00  0.00000000E+00
  0.00000000E+00  0.00000000E+00  0.00000000E+00
  0.00000000E+00  0.00000000E+00  0.00000000E+00
  0.00000000E+00  0.00000000E+00  0.00000000E+00
  0.00000000E+00  0.00000000E+00  0.00000000E+00
  0.00000000E+00  0.00000000E+00  0.00000000E+00
  0.00000000E+00  0.00000000E+00  0.00000000E+00
  0.00000000E+00  0.00000000E+00  0.00000000E+00
  0.00000000E+00  0.00000000E+00  0.00000000E+00
  0.00000000E+00  0.00000000E+00  0.00000000E+00
  0.00000000E+00  0.00000000E+00  0.00000000E+00
  0.00000000E+00  0.00000000E+00  0.00000000E+00
  0.00000000E+00  0.00000000E+00  0.00000000E+00
  0.00000000E+00  0.00000000E+00  0.00000000E+00
  0.00000000E+00  0.00000000E+00  0.00000000E+00
  0.00000000E+00  0.00000000E+00  0.00000000E+00
  0.00000000E+00  0.00000000E+00  0.00000000E+00
  0.00000000E+00  0.00000000E+00  0.00000000E+00
  0.00000000E+00  0.00000000E+00  0.00000000E+00
  0.00000000E+00  0.00000000E+00  0.00000000E+00
  0.00000000E+00  0.00000000E+00  0.00000000E+00
  0.00000000E+00  0.00000000E+00  0.00000000E+00
  0.00000000E+00  0.00000000E+00  0.00000000E+00
  0.00000000E+00  0.00000000E+00  0.00000000E+00
  0.00000000E+00  0.00000000E+00  0.00000000E+00
  0.00000000E+00  0.00000000E+00  0.00000000E+00
  0.00000000E+00  0.00000000E+00  0.00000000E+00
  0.00000000E+00  0.00000000E+00  0.00000000E+00
  0.00000000E+00  0.00000000E+00  0.00000000E+00
  0.00000000E+00  0.00000000E+00  0.00000000E+00
  0.00000000E+00  0.00000000E+00  0.00000000E+00
  0.00000000E+00  0.00000000E+00  0.00000000E+00
  0.00000000E+00  0.00000000E+00  0.00000000E+00
  0.00000000E+00  0.00000000E+00  0.00000000E+00
  0.00000000E+00  0.00000000E+00  0.00000000E+00
  0.00000000E+00  0.00000000E+00  0.00000000E+00
  0.00000000E+00  0.00000000E+00  0.00000000E+00
  0.00000000E+00  0.00000000E+00  0.00000000E+00
  0.00000000E+00  0.00000000E+00  0.00000000E+00
  0.00000000E+00  0.00000000E+00  0.00000000E+00
  0.00000000E+00  0.00000000E+00  0.00000000E+00
  0.00000000E+00  0.00000000E+00  0.00000000E+00
  0.00000000E+00  0.00000000E+00  0.00000000E+00
  0.00000000E+00  0.00000000E+00  0.00000000E+00
  0.00000000E+00  0.00000000E+00  0.00000000E+00
  0.00000000E+00  0.00000000E+00  0.00000000E+00
  0.00000000E+00  0.00000000E+00  0.00000000E+00
  0.00000000E+00  0.00000000E+00  0.00000000E+00
  0.00000000E+00  0.00000000E+00  0.00000000E+00
  0.00000000E+00  0.00000000E+00  0.00000000E+00
  0.00000000E+00  0.00000000E+00  0.00000000E+00
  0.00000000E+00  0.00000000E+00  0.00000000E+00
  0.00000000E+00  0.00000000E+00  0.00000000E+00
  0.00000000E+00  0.00000000E+00  0.00000000E+00
  0.00000000E+00  0.00000000E+00  0.00000000E+00
  0.00000000E+00  0.00000000E+00  0.00000000E+00
  0.00000000E+00  0.00000000E+00  0.00000000E+00
  0.00000000E+00  0.00000000E+00  0.00000000E+00
  0.00000000E+00  0.00000000E+00  0.00000000E+00
  0.00000000E+00  0.00000000E+00  0.00000000E+00
  0.00000000E+00  0.00000000E+00  0.00000000E+00
  0.00000000E+00  0.00000000E+00  0.00000000E+00
  0.00000000E+00  0.00000000E+00  0.00000000E+00
  0.00000000E+00  0.00000000E+00  0.00000000E+00
  0.00000000E+00  0.00000000E+00  0.00000000E+00
  0.00000000E+00  0.00000000E+00  0.00000000E+00
  0.00000000E+00  0.00000000E+00  0.00000000E+00
  0.00000000E+00  0.00000000E+00  0.00000000E+00
  0.00000000E+00  0.00000000E+00  0.00000000E+00
  0.00000000E+00  0.00000000E+00  0.00000000E+00
  0.00000000E+00  0.00000000E+00  0.00000000E+00
  0.00000000E+00  0.00000000E+00  0.00000000E+00
  0.00000000E+00  0.00000000E+00  0.00000000E+00
  0.00000000E+00  0.00000000E+00  0.00000000E+00
  0.00000000E+00  0.00000000E+00  0.00000000E+00
  0.00000000E+00  0.00000000E+00  0.00000000E+00
  0.00000000E+00  0.00000000E+00  0.00000000E+00
  0.00000000E+00  0.00000000E+00  0.00000000E+00
  0.00000000E+00  0.00000000E+00  0.00000000E+00
  0.00000000E+00  0.00000000E+00  0.00000000E+00
  0.00000000E+00  0.00000000E+00  0.00000000E+00
  0.00000000E+00  0.00000000E+00  0.00000000E+00
  0.00000000E+00  0.00000000E+00  0.00000000E+00
  0.00000000E+00  0.00000000E+00  0.00000000E+00
  0.00000000E+00  0.00000000E+00  0.00000000E+00
  0.00000000E+00  0.00000000E+00  0.00000000E+00
  0.00000000E+00  0.00000000E+00  0.00000000E+00
  0.00000000E+00  0.00000000E+00  0.00000000E+00
  0.00000000E+00  0.00000000E+00  0.00000000E+00
  0.00000000E+00  0.00000000E+00  0.00000000E+00
  0.00000000E+00  0.00000000E+00  0.00000000E+00
  0.00000000E+00  0.00000000E+00  0.00000000E+00
  0.00000000E+00  0.00000000E+00  0.00000000E+00
  0.00000000E+00  0.00000000E+00  0.00000000E+00
  0.00000000E+00  0.00000000E+00  0.00000000E+00
  0.00000000E+00  0.00000000E+00  0.00000000E+00
  0.00000000E+00  0.00000000E+00  0.00000000E+00
  0.00000000E+00  0.00000000E+00  0.00000000E+00
  0.00000000E+00  0.00000000E+00  0.00000000E+00
  0.00000000E+00  0.00000000E+00  0.00000000E+00
  0.00000000E+00  0.00000000E+00  0.00000000E+00
  0.00000000E+00  0.00000000E+00  0.00000000E+00
  0.00000000E+00  0.00000000E+00  0.00000000E+00
  0.00000000E+00  0.00000000E+00  0.00000000E+00
  0.00000000E+00  0.00000000E+00  0.00000000E+00
  0.00000000E+00  0.00000000E+00  0.00000000E+00
  0.00000000E+00  0.00000000E+00  0.00000000E+00
  0.00000000E+00  0.00000000E+00  0.00000000E+00
  0.00000000E+00  0.00000000E+00  0.00000000E+00
  0.00000000E+00  0.00000000E+00  0.00000000E+00
  0.00000000E+00  0.00000000E+00  0.00000000E+00
  0.00000000E+00  0.00000000E+00  0.00000000E+00
  0.00000000E+00  0.00000000E+00  0.00000000E+00
  0.00000000E+00  0.00000000E+00  0.00000000E+00
  0.00000000E+00  0.00000000E+00  0.00000000E+00
  0.00000000E+00  0.00000000E+00  0.00000000E+00
  0.00000000E+00  0.00000000E+00  0.00000000E+00
  0.00000000E+00  0.00000000E+00  0.00000000E+00
  0.00000000E+00  0.00000000E+00  0.00000000E+00
  0.00000000E+00  0.00000000E+00  0.00000000E+00
  0.00000000E+00  0.00000000E+00  0.00000000E+00
  0.00000000E+00  0.00000000E+00  0.00000000E+00
  0.00000000E+00  0.00000000E+00  0.00000000E+00
  0.00000000E+00  0.00000000E+00  0.00000000E+00
  0.00000000E+00  0.00000000E+00  0.00000000E+00
  0.00000000E+00  0.00000000E+00  0.00000000E+00
  0.00000000E+00  0.00000000E+00  0.00000000E+00
  0.00000000E+00  0.00000000E+00  0.00000000E+00
  0.00000000E+00  0.00000000E+00  0.00000000E+00
  0.00000000E+00  0.00000000E+00  0.00000000E+00
  0.00000000E+00  0.00000000E+00  0.00000000E+00
  0.00000000E+00  0.00000000E+00  0.00000000E+00
  0.00000000E+00  0.00000000E+00  0.00000000E+00
  0.00000000E+00  0.00000000E+00  0.00000000E+00
  0.00000000E+00  0.00000000E+00  0.00000000E+00
  0.00000000E+00  0.00000000E+00  0.00000000E+00
  0.00000000E+00  0.00000000E+00  0.00000000E+00
  0.00000000E+00  0.00000000E+00  0.00000000E+00
  0.00000000E+00  0.00000000E+00  0.00000000E+00
  0.00000000E+00  0.00000000E+00  0.00000000E+00
  0.00000000E+00  0.00000000E+00  0.00000000E+00
  0.00000000E+00  0.00000000E+00  0.00000000E+00
  0.00000000E+00  0.00000000E+00  0.00000000E+00
  0.00000000E+00  0.00000000E+00  0.00000000E+00
  0.00000000E+00  0.00000000E+00  0.00000000E+00
  0.00000000E+00  0.00000000E+00  0.00000000E+00
  0.00000000E+00  0.00000000E+00  0.00000000E+00
  0.00000000E+00  0.00000000E+00  0.00000000E+00
  0.00000000E+00  0.00000000E+00  0.00000000E+00
  0.00000000E+00  0.00000000E+00  0.00000000E+00
  0.00000000E+00  0.00000000E+00  0.00000000E+00
  0.00000000E+00  0.00000000E+00  0.00000000E+00
  0.00000000E+00  0.00000000E+00  0.00000000E+00
  0.00000000E+00  0.00000000E+00  0.00000000E+00
  0.00000000E+00  0.00000000E+00  0.00000000E+00
  0.00000000E+00  0.00000000E+00  0.00000000E+00
  0.00000000E+00  0.00000000E+00  0.00000000E+00
  0.00000000E+00  0.00000000E+00  0.00000000E+00
