Li1
1.0
-1.615198 1.713409 1.713409
1.615198 -1.713409 1.713409
1.811620 1.713409 -1.713409
Li
1
direct
0.000000 0.000000 0.000000 Li
