Li56 P56
1.0
4.970385 0.000000 0.000000
0.000000 9.037780 -4.836985
0.000000 0.000000 67.126464
Li P
56 56
Selective dynamics
direct
0.388247 0.329300 0.059751 T T T Li+
0.888247 0.170700 0.023583 T T T Li+
0.611753 0.670700 0.023583 T T T Li+
0.111753 0.829300 0.059751 T T T Li+
0.658316 0.029786 0.060481 T T T Li+
0.158316 0.470214 0.022853 T T T Li+
0.341684 0.970214 0.022853 T T T Li+
0.841684 0.529786 0.060481 T T T Li+
0.388247 0.329300 0.143084 F F F Li+
0.888247 0.170700 0.106916 F F F Li+
0.611753 0.670700 0.106916 F F F Li+
0.111753 0.829300 0.143084 F F F Li+
0.658316 0.029786 0.143814 F F F Li+
0.158316 0.470214 0.106186 F F F Li+
0.341684 0.970214 0.106186 F F F Li+
0.841684 0.529786 0.143814 F F F Li+
0.388247 0.329300 0.226417 F F F Li+
0.888247 0.170700 0.190249 F F F Li+
0.611753 0.670700 0.190249 F F F Li+
0.111753 0.829300 0.226417 F F F Li+
0.658316 0.029786 0.227147 F F F Li+
0.158316 0.470214 0.189519 F F F Li+
0.341684 0.970214 0.189519 F F F Li+
0.841684 0.529786 0.227147 F F F Li+
0.388247 0.329300 0.309751 F F F Li+
0.888247 0.170700 0.273583 F F F Li+
0.611753 0.670700 0.273583 F F F Li+
0.111753 0.829300 0.309751 F F F Li+
0.658316 0.029786 0.310481 F F F Li+
0.158316 0.470214 0.272853 F F F Li+
0.341684 0.970214 0.272853 F F F Li+
0.841684 0.529786 0.310481 F F F Li+
0.388247 0.329300 0.393084 F F F Li+
0.888247 0.170700 0.356916 F F F Li+
0.611753 0.670700 0.356916 F F F Li+
0.111753 0.829300 0.393084 F F F Li+
0.658316 0.029786 0.393814 F F F Li+
0.158316 0.470214 0.356186 F F F Li+
0.341684 0.970214 0.356186 F F F Li+
0.841684 0.529786 0.393814 F F F Li+
0.388247 0.329300 0.476417 F F F Li+
0.888247 0.170700 0.440249 F F F Li+
0.611753 0.670700 0.440249 F F F Li+
0.111753 0.829300 0.476417 F F F Li+
0.658316 0.029786 0.477147 F F F Li+
0.158316 0.470214 0.439519 F F F Li+
0.341684 0.970214 0.439519 F F F Li+
0.841684 0.529786 0.477147 F F F Li+
0.388247 0.329300 0.559751 T T T Li+
0.888247 0.170700 0.523583 T T T Li+
0.611753 0.670700 0.523583 T T T Li+
0.111753 0.829300 0.559751 T T T Li+
0.658316 0.029786 0.560481 T T T Li+
0.158316 0.470214 0.522853 T T T Li+
0.341684 0.970214 0.522853 T T T Li+
0.841684 0.529786 0.560481 T T T Li+
0.894904 0.292916 0.068054 T T T P-
0.394904 0.207084 0.015280 T T T P-
0.105096 0.707084 0.015280 T T T P-
0.605096 0.792916 0.068054 T T T P-
0.156027 0.111742 0.066932 T T T P-
0.656027 0.388258 0.016402 T T T P-
0.843973 0.888258 0.016402 T T T P-
0.343973 0.611742 0.066932 T T T P-
0.894904 0.292916 0.151387 F F F P-
0.394904 0.207084 0.098613 F F F P-
0.105096 0.707084 0.098613 F F F P-
0.605096 0.792916 0.151387 F F F P-
0.156027 0.111742 0.150265 F F F P-
0.656027 0.388258 0.099735 F F F P-
0.843973 0.888258 0.099735 F F F P-
0.343973 0.611742 0.150265 F F F P-
0.894904 0.292916 0.234720 F F F P-
0.394904 0.207084 0.181946 F F F P-
0.105096 0.707084 0.181946 F F F P-
0.605096 0.792916 0.234720 F F F P-
0.156027 0.111742 0.233598 F F F P-
0.656027 0.388258 0.183068 F F F P-
0.843973 0.888258 0.183068 F F F P-
0.343973 0.611742 0.233598 F F F P-
0.894904 0.292916 0.318054 F F F P-
0.394904 0.207084 0.265280 F F F P-
0.105096 0.707084 0.265280 F F F P-
0.605096 0.792916 0.318054 F F F P-
0.156027 0.111742 0.316932 F F F P-
0.656027 0.388258 0.266402 F F F P-
0.843973 0.888258 0.266402 F F F P-
0.343973 0.611742 0.316932 F F F P-
0.894904 0.292916 0.401387 F F F P-
0.394904 0.207084 0.348613 F F F P-
0.105096 0.707084 0.348613 F F F P-
0.605096 0.792916 0.401387 F F F P-
0.156027 0.111742 0.400265 F F F P-
0.656027 0.388258 0.349735 F F F P-
0.843973 0.888258 0.349735 F F F P-
0.343973 0.611742 0.400265 F F F P-
0.894904 0.292916 0.484720 F F F P-
0.394904 0.207084 0.431946 F F F P-
0.105096 0.707084 0.431946 F F F P-
0.605096 0.792916 0.484720 F F F P-
0.156027 0.111742 0.483598 F F F P-
0.656027 0.388258 0.433068 F F F P-
0.843973 0.888258 0.433068 F F F P-
0.343973 0.611742 0.483598 F F F P-
0.894904 0.292916 0.568054 T T T P-
0.394904 0.207084 0.515280 T T T P-
0.105096 0.707084 0.515280 T T T P-
0.605096 0.792916 0.568054 T T T P-
0.156027 0.111742 0.566932 T T T P-
0.656027 0.388258 0.516401 T T T P-
0.843973 0.888258 0.516402 T T T P-
0.343973 0.611742 0.566932 T T T P-
