Li21 N7
1.0
3.161590 0.000000 -1.825345
-0.000000 3.888635 -3.650690
0.000000 0.000000 58.411038
Li N
21 7
direct
0.000000 0.500000 0.020833 Li+
0.333333 0.000000 0.031250 Li+
0.666667 0.000000 0.010417 Li+
0.000000 0.500000 0.083333 Li+
0.333333 0.000000 0.093750 Li+
0.666667 0.000000 0.072917 Li+
0.000000 0.500000 0.145833 Li+
0.333333 0.000000 0.156250 Li+
0.666667 0.000000 0.135417 Li+
0.000000 0.500000 0.208333 Li+
0.333333 0.000000 0.218750 Li+
0.666667 0.000000 0.197917 Li+
0.000000 0.500000 0.270833 Li+
0.333333 0.000000 0.281250 Li+
0.666667 0.000000 0.260417 Li+
0.000000 0.500000 0.333333 Li+
0.333333 0.000000 0.343750 Li+
0.666667 0.000000 0.322917 Li+
0.000000 0.500000 0.395833 Li+
0.333333 0.000000 0.406250 Li+
0.666667 0.000000 0.385417 Li+
0.000000 0.000000 0.052083 N3-
0.000000 0.000000 0.114583 N3-
0.000000 0.000000 0.177083 N3-
0.000000 0.000000 0.239583 N3-
0.000000 0.000000 0.302083 N3-
0.000000 0.000000 0.364583 N3-
0.000000 0.000000 0.427083 N3-
