Li4 P2 N2 O4                            
   1.00000000000000     
     2.4847670000000002   -4.1659199999999998    0.0000000000000000
     2.7305130000000002    4.5779339999999999    0.0000000000000000
     0.0000000000000000    0.0000000000000000    4.7489689999999998
   Li   P    N    O 
     4     2     2     4
Direct
  0.3251360000000005  0.9937929999999966  0.5015560000000008
  0.9937929999999966  0.3251360000000005  0.5015560000000008
  0.6748639999999995  0.0062070000000034  0.0015560000000008
  0.0062070000000034  0.6748639999999995  0.0015560000000008
  0.6537500000000023  0.6537500000000023  0.4985110000000006
  0.3462499999999977  0.3462499999999977  0.9985110000000006
  0.3870000000000005  0.3870000000000005  0.3411759999999973
  0.6129999999999995  0.6129999999999995  0.8411759999999973
  0.9444969999999984  0.6664030000000025  0.4191009999999977
  0.6664030000000025  0.9444969999999984  0.4191009999999977
  0.0555030000000016  0.3335969999999975  0.9191009999999977
  0.3335969999999975  0.0555030000000016  0.9191009999999977
 
  0.00000000E+00  0.00000000E+00  0.00000000E+00
  0.00000000E+00  0.00000000E+00  0.00000000E+00
  0.00000000E+00  0.00000000E+00  0.00000000E+00
  0.00000000E+00  0.00000000E+00  0.00000000E+00
  0.00000000E+00  0.00000000E+00  0.00000000E+00
  0.00000000E+00  0.00000000E+00  0.00000000E+00
  0.00000000E+00  0.00000000E+00  0.00000000E+00
  0.00000000E+00  0.00000000E+00  0.00000000E+00
  0.00000000E+00  0.00000000E+00  0.00000000E+00
  0.00000000E+00  0.00000000E+00  0.00000000E+00
  0.00000000E+00  0.00000000E+00  0.00000000E+00
  0.00000000E+00  0.00000000E+00  0.00000000E+00
