Li14 N42
1.0
3.354050 0.000000 0.000000
-0.000000 5.428812 3.300981
0.000000 0.000000 59.862993
Li N
14 42
direct
0.000000 0.000000 0.062500 Li+
0.500000 0.500000 0.020833 Li+
0.000000 0.000000 0.145833 Li+
0.500000 0.500000 0.104167 Li+
0.000000 0.000000 0.229167 Li+
0.500000 0.500000 0.187500 Li+
0.000000 0.000000 0.312500 Li+
0.500000 0.500000 0.270833 Li+
0.000000 0.000000 0.395833 Li+
0.500000 0.500000 0.354167 Li+
0.000000 0.000000 0.479167 Li+
0.500000 0.500000 0.437500 Li+
0.000000 0.000000 0.562500 Li+
0.500000 0.500000 0.520833 Li+
0.000000 0.605811 0.073957 N3-
0.000000 0.394189 0.051043 N3-
0.000000 0.500000 0.062500 N3-
0.500000 0.105811 0.032290 N3-
0.500000 0.894189 0.009377 N3-
0.500000 0.000000 0.020833 N3-
0.000000 0.605811 0.157290 N3-
0.000000 0.394189 0.134377 N3-
0.000000 0.500000 0.145833 N3-
0.500000 0.105811 0.115623 N3-
0.500000 0.894189 0.092710 N3-
0.500000 0.000000 0.104167 N3-
0.000000 0.605811 0.240623 N3-
0.000000 0.394189 0.217710 N3-
0.000000 0.500000 0.229167 N3-
0.500000 0.105811 0.198957 N3-
0.500000 0.894189 0.176043 N3-
0.500000 0.000000 0.187500 N3-
0.000000 0.605811 0.323957 N3-
0.000000 0.394189 0.301043 N3-
0.000000 0.500000 0.312500 N3-
0.500000 0.105811 0.282290 N3-
0.500000 0.894189 0.259377 N3-
0.500000 0.000000 0.270833 N3-
0.000000 0.605811 0.407290 N3-
0.000000 0.394189 0.384377 N3-
0.000000 0.500000 0.395833 N3-
0.500000 0.105811 0.365623 N3-
0.500000 0.894189 0.342710 N3-
0.500000 0.000000 0.354167 N3-
0.000000 0.605811 0.490623 N3-
0.000000 0.394189 0.467710 N3-
0.000000 0.500000 0.479167 N3-
0.500000 0.105811 0.448957 N3-
0.500000 0.894189 0.426043 N3-
0.500000 0.000000 0.437500 N3-
0.000000 0.605811 0.573957 N3-
0.000000 0.394189 0.551043 N3-
0.000000 0.500000 0.562500 N3-
0.500000 0.105811 0.532290 N3-
0.500000 0.894189 0.509377 N3-
0.500000 0.000000 0.520833 N3-
