Li56 P56
1.0
5.593872 0.000000 4.970385
10.430857 9.037780 0.000000
0.000000 0.000000 69.585390
Li P
56 56
Selective dynamics
direct
0.453692 0.329300 0.066754 T T T Li+
0.046308 0.170700 0.060138 T T T Li+
0.546308 0.670700 0.004675 T T T Li+
0.953692 0.829300 0.011290 T T T Li+
0.744446 0.029786 0.065276 T T T Li+
0.755554 0.470214 0.028769 T T T Li+
0.255554 0.970214 0.006152 T T T Li+
0.244446 0.529786 0.042660 T T T Li+
0.453692 0.329300 0.138182 F F F Li+
0.046308 0.170700 0.131567 F F F Li+
0.546308 0.670700 0.076103 F F F Li+
0.953692 0.829300 0.082719 F F F Li+
0.744446 0.029786 0.136705 F F F Li+
0.755554 0.470214 0.100197 F F F Li+
0.255554 0.970214 0.077581 F F F Li+
0.244446 0.529786 0.114088 F F F Li+
0.453692 0.329300 0.209611 F F F Li+
0.046308 0.170700 0.202996 F F F Li+
0.546308 0.670700 0.147532 F F F Li+
0.953692 0.829300 0.154147 F F F Li+
0.744446 0.029786 0.208134 F F F Li+
0.755554 0.470214 0.171626 F F F Li+
0.255554 0.970214 0.149009 F F F Li+
0.244446 0.529786 0.185517 F F F Li+
0.453692 0.329300 0.281040 F F F Li+
0.046308 0.170700 0.274424 F F F Li+
0.546308 0.670700 0.218960 F F F Li+
0.953692 0.829300 0.225576 F F F Li+
0.744446 0.029786 0.279562 F F F Li+
0.755554 0.470214 0.243054 F F F Li+
0.255554 0.970214 0.220438 F F F Li+
0.244446 0.529786 0.256946 F F F Li+
0.453692 0.329300 0.352468 F F F Li+
0.046308 0.170700 0.345853 F F F Li+
0.546308 0.670700 0.290389 F F F Li+
0.953692 0.829300 0.297004 F F F Li+
0.744446 0.029786 0.350991 F F F Li+
0.755554 0.470214 0.314483 F F F Li+
0.255554 0.970214 0.291866 F F F Li+
0.244446 0.529786 0.328374 F F F Li+
0.453692 0.329300 0.423897 F F F Li+
0.046308 0.170700 0.417281 F F F Li+
0.546308 0.670700 0.361818 F F F Li+
0.953692 0.829300 0.368433 F F F Li+
0.744446 0.029786 0.422419 F F F Li+
0.755554 0.470214 0.385912 F F F Li+
0.255554 0.970214 0.363295 F F F Li+
0.244446 0.529786 0.399803 F F F Li+
0.453692 0.329300 0.495325 T T T Li+
0.046308 0.170700 0.488710 T T T Li+
0.546308 0.670700 0.433246 T T T Li+
0.953692 0.829300 0.439861 T T T Li+
0.744446 0.029786 0.493848 T T T Li+
0.755554 0.470214 0.457340 T T T Li+
0.255554 0.970214 0.434724 T T T Li+
0.244446 0.529786 0.471231 T T T Li+
0.390439 0.292916 0.036033 T T T P-
0.109561 0.207084 0.020382 T T T P-
0.609561 0.707084 0.035395 T T T P-
0.890439 0.792916 0.051047 T T T P-
0.585076 0.111742 0.040782 T T T P-
0.914924 0.388258 0.052936 T T T P-
0.414924 0.888258 0.030646 T T T P-
0.085076 0.611742 0.018493 T T T P-
0.390439 0.292916 0.107462 F F F P-
0.109561 0.207084 0.091810 F F F P-
0.609561 0.707084 0.106824 F F F P-
0.890439 0.792916 0.122475 F F F P-
0.585076 0.111742 0.112211 F F F P-
0.914924 0.388258 0.124364 F F F P-
0.414924 0.888258 0.102075 F F F P-
0.085076 0.611742 0.089921 F F F P-
0.390439 0.292916 0.178890 F F F P-
0.109561 0.207084 0.163239 F F F P-
0.609561 0.707084 0.178253 F F F P-
0.890439 0.792916 0.193904 F F F P-
0.585076 0.111742 0.183639 F F F P-
0.914924 0.388258 0.195793 F F F P-
0.414924 0.888258 0.173504 F F F P-
0.085076 0.611742 0.161350 F F F P-
0.390439 0.292916 0.250319 F F F P-
0.109561 0.207084 0.234667 F F F P-
0.609561 0.707084 0.249681 F F F P-
0.890439 0.792916 0.265333 F F F P-
0.585076 0.111742 0.255068 F F F P-
0.914924 0.388258 0.267222 F F F P-
0.414924 0.888258 0.244932 F F F P-
0.085076 0.611742 0.232778 F F F P-
0.390439 0.292916 0.321747 F F F P-
0.109561 0.207084 0.306096 F F F P-
0.609561 0.707084 0.321110 F F F P-
0.890439 0.792916 0.336761 F F F P-
0.585076 0.111742 0.326496 F F F P-
0.914924 0.388258 0.338650 F F F P-
0.414924 0.888258 0.316361 F F F P-
0.085076 0.611742 0.304207 F F F P-
0.390439 0.292916 0.393176 F F F P-
0.109561 0.207084 0.377525 F F F P-
0.609561 0.707084 0.392538 F F F P-
0.890439 0.792916 0.408190 F F F P-
0.585076 0.111742 0.397925 F F F P-
0.914924 0.388258 0.410079 F F F P-
0.414924 0.888258 0.387789 F F F P-
0.085076 0.611742 0.375636 F F F P-
0.390439 0.292916 0.464605 T T T P-
0.109561 0.207084 0.448953 T T T P-
0.609561 0.707084 0.463967 T T T P-
0.890439 0.792916 0.479618 T T T P-
0.585076 0.111742 0.469354 T T T P-
0.914924 0.388258 0.481507 T T T P-
0.414924 0.888258 0.459218 T T T P-
0.085076 0.611742 0.447064 T T T P-
