Li56 P28 O98
1.0
4.907295 0.000000 -1.895193
-0.730671 8.419349 -1.900271
0.000000 0.000000 79.370284
Li P O
56 28 98
direct
0.744463 0.987971 0.069137 Li+
0.255537 0.012029 0.004588 Li+
0.395677 0.751653 0.028796 Li+
0.604323 0.248347 0.044929 Li+
0.027769 0.791276 0.052523 Li+
0.972231 0.208724 0.021202 Li+
0.056952 0.450796 0.060327 Li+
0.943048 0.549204 0.013398 Li+
0.744463 0.987971 0.160046 Li+
0.255537 0.012029 0.095497 Li+
0.395677 0.751653 0.119706 Li+
0.604323 0.248347 0.135838 Li+
0.027769 0.791276 0.143432 Li+
0.972231 0.208724 0.112111 Li+
0.056952 0.450796 0.151236 Li+
0.943048 0.549204 0.104307 Li+
0.744463 0.987971 0.250955 Li+
0.255537 0.012029 0.186406 Li+
0.395677 0.751653 0.210615 Li+
0.604323 0.248347 0.226747 Li+
0.027769 0.791276 0.234341 Li+
0.972231 0.208724 0.203020 Li+
0.056952 0.450796 0.242146 Li+
0.943048 0.549204 0.195216 Li+
0.744463 0.987971 0.341865 Li+
0.255537 0.012029 0.277315 Li+
0.395677 0.751653 0.301524 Li+
0.604323 0.248347 0.317656 Li+
0.027769 0.791276 0.325250 Li+
0.972231 0.208724 0.293930 Li+
0.056952 0.450796 0.333055 Li+
0.943048 0.549204 0.286125 Li+
0.744463 0.987971 0.432774 Li+
0.255537 0.012029 0.368224 Li+
0.395677 0.751653 0.392433 Li+
0.604323 0.248347 0.408565 Li+
0.027769 0.791276 0.416159 Li+
0.972231 0.208724 0.384839 Li+
0.056952 0.450796 0.423964 Li+
0.943048 0.549204 0.377034 Li+
0.744463 0.987971 0.523683 Li+
0.255537 0.012029 0.459133 Li+
0.395677 0.751653 0.483342 Li+
0.604323 0.248347 0.499474 Li+
0.027769 0.791276 0.507068 Li+
0.972231 0.208724 0.475748 Li+
0.056952 0.450796 0.514873 Li+
0.943048 0.549204 0.467943 Li+
0.744463 0.987971 0.614592 Li+
0.255537 0.012029 0.550042 Li+
0.395677 0.751653 0.574251 Li+
0.604323 0.248347 0.590383 Li+
0.027769 0.791276 0.597977 Li+
0.972231 0.208724 0.566657 Li+
0.056952 0.450796 0.605782 Li+
0.943048 0.549204 0.558852 Li+
0.573990 0.631956 0.062926 P5+
0.426010 0.368044 0.010799 P5+
0.784272 0.845502 0.011477 P5+
0.215728 0.154498 0.062248 P5+
0.573990 0.631956 0.153835 P5+
0.426010 0.368044 0.101708 P5+
0.784272 0.845502 0.102386 P5+
0.215728 0.154498 0.153157 P5+
0.573990 0.631956 0.244745 P5+
0.426010 0.368044 0.192617 P5+
0.784272 0.845502 0.193295 P5+
0.215728 0.154498 0.244066 P5+
0.573990 0.631956 0.335654 P5+
0.426010 0.368044 0.283526 P5+
0.784272 0.845502 0.284204 P5+
0.215728 0.154498 0.334975 P5+
0.573990 0.631956 0.426563 P5+
0.426010 0.368044 0.374435 P5+
0.784272 0.845502 0.375113 P5+
0.215728 0.154498 0.425884 P5+
0.573990 0.631956 0.517472 P5+
0.426010 0.368044 0.465344 P5+
0.784272 0.845502 0.466022 P5+
0.215728 0.154498 0.516794 P5+
0.573990 0.631956 0.608381 P5+
0.426010 0.368044 0.556253 P5+
0.784272 0.845502 0.556931 P5+
0.215728 0.154498 0.607703 P5+
0.519912 0.874340 0.014884 O2-
0.006130 0.790684 0.027252 O2-
0.993870 0.209316 0.046473 O2-
0.882911 0.981976 0.005172 O2-
0.732561 0.376455 0.014740 O2-
0.267439 0.623545 0.058985 O2-
0.314844 0.526190 0.015754 O2-
0.685156 0.473810 0.057971 O2-
0.338222 0.236504 0.018462 O2-
0.661778 0.763496 0.055263 O2-
0.733069 0.683894 0.085737 O2-
0.266931 0.316106 0.078897 O2-
0.117089 0.018024 0.068553 O2-
0.480088 0.125660 0.058841 O2-
0.519912 0.874340 0.105794 O2-
0.006130 0.790684 0.118161 O2-
0.993870 0.209316 0.137383 O2-
0.882911 0.981976 0.096082 O2-
0.732561 0.376455 0.105649 O2-
0.267439 0.623545 0.149894 O2-
0.314844 0.526190 0.106664 O2-
0.685156 0.473810 0.148880 O2-
0.338222 0.236504 0.109371 O2-
0.661778 0.763496 0.146172 O2-
0.733069 0.683894 0.176646 O2-
0.266931 0.316106 0.169807 O2-
0.117089 0.018024 0.159462 O2-
0.480088 0.125660 0.149750 O2-
0.519912 0.874340 0.196703 O2-
0.006130 0.790684 0.209070 O2-
0.993870 0.209316 0.228292 O2-
0.882911 0.981976 0.186991 O2-
0.732561 0.376455 0.196558 O2-
0.267439 0.623545 0.240803 O2-
0.314844 0.526190 0.197573 O2-
0.685156 0.473810 0.239789 O2-
0.338222 0.236504 0.200280 O2-
0.661778 0.763496 0.237081 O2-
0.733069 0.683894 0.267555 O2-
0.266931 0.316106 0.260716 O2-
0.117089 0.018024 0.250371 O2-
0.480088 0.125660 0.240659 O2-
0.519912 0.874340 0.287612 O2-
0.006130 0.790684 0.299979 O2-
0.993870 0.209316 0.319201 O2-
0.882911 0.981976 0.277900 O2-
0.732561 0.376455 0.287467 O2-
0.267439 0.623545 0.331712 O2-
0.314844 0.526190 0.288482 O2-
0.685156 0.473810 0.330698 O2-
0.338222 0.236504 0.291189 O2-
0.661778 0.763496 0.327990 O2-
0.733069 0.683894 0.358464 O2-
0.266931 0.316106 0.351625 O2-
0.117089 0.018024 0.341280 O2-
0.480088 0.125660 0.331568 O2-
0.519912 0.874340 0.378521 O2-
0.006130 0.790684 0.390888 O2-
0.993870 0.209316 0.410110 O2-
0.882911 0.981976 0.368809 O2-
0.732561 0.376455 0.378376 O2-
0.267439 0.623545 0.422622 O2-
0.314844 0.526190 0.379391 O2-
0.685156 0.473810 0.421607 O2-
0.338222 0.236504 0.382099 O2-
0.661778 0.763496 0.418899 O2-
0.733069 0.683894 0.449373 O2-
0.266931 0.316106 0.442534 O2-
0.117089 0.018024 0.432189 O2-
0.480088 0.125660 0.422477 O2-
0.519912 0.874340 0.469430 O2-
0.006130 0.790684 0.481797 O2-
0.993870 0.209316 0.501019 O2-
0.882911 0.981976 0.459718 O2-
0.732561 0.376455 0.469285 O2-
0.267439 0.623545 0.513531 O2-
0.314844 0.526190 0.470300 O2-
0.685156 0.473810 0.512516 O2-
0.338222 0.236504 0.473008 O2-
0.661778 0.763496 0.509808 O2-
0.733069 0.683894 0.540282 O2-
0.266931 0.316106 0.533443 O2-
0.117089 0.018024 0.523098 O2-
0.480088 0.125660 0.513386 O2-
0.519912 0.874340 0.560339 O2-
0.006130 0.790684 0.572706 O2-
0.993870 0.209316 0.591928 O2-
0.882911 0.981976 0.550627 O2-
0.732561 0.376455 0.560194 O2-
0.267439 0.623545 0.604440 O2-
0.314844 0.526190 0.561209 O2-
0.685156 0.473810 0.603425 O2-
0.338222 0.236504 0.563917 O2-
0.661778 0.763496 0.600717 O2-
0.733069 0.683894 0.631191 O2-
0.266931 0.316106 0.624352 O2-
0.117089 0.018024 0.614007 O2-
0.480088 0.125660 0.604295 O2-
