Li5 P2 N1 O6                            
   1.00000000000000     
     0.0607541027476365    0.0614784113748061    4.9849638671125689
     6.3495957456631995   -0.1323588034283289    0.0762476304828507
    -0.1131342129667033    5.3453888090583206    0.0656748707297087
   Li   P    N    O 
     5     2     1     6
Direct
  0.4755484014813410 -0.0339561144800855  0.8823367670996590
  0.0215951261024968  0.4856082973642377  0.1621119436965796
  0.5148584687466033  0.7410289265315475  0.3241658349659960
  0.0032257549517164  0.7628636644522244  0.6787780468964694
  0.0668816233861139  0.2403962595887060  0.6660952749815459
  0.5116567363568709  0.5148012179493747  0.8220599707416767
 -0.0171256228926677  0.0088154556280398  0.1761190051679355
  0.1068855288011184  0.8065164127673506  0.3179422331777773
  0.0555035796110620  0.2162216966718996  0.3182757326741925
  0.6046989173536028  0.7097473685934328  0.6764654979044985
  0.6293992447682514  0.5084707280940930  0.0838542519693894
  0.0928136865414518  0.0168525020354011  0.8943973009893161
  0.2001671709982897  0.4995131516817577  0.8171489078465893
  0.6763183837937726 -0.0226145668779786  0.1673242318883784
 
  0.00000000E+00  0.00000000E+00  0.00000000E+00
  0.00000000E+00  0.00000000E+00  0.00000000E+00
  0.00000000E+00  0.00000000E+00  0.00000000E+00
  0.00000000E+00  0.00000000E+00  0.00000000E+00
  0.00000000E+00  0.00000000E+00  0.00000000E+00
  0.00000000E+00  0.00000000E+00  0.00000000E+00
  0.00000000E+00  0.00000000E+00  0.00000000E+00
  0.00000000E+00  0.00000000E+00  0.00000000E+00
  0.00000000E+00  0.00000000E+00  0.00000000E+00
  0.00000000E+00  0.00000000E+00  0.00000000E+00
  0.00000000E+00  0.00000000E+00  0.00000000E+00
  0.00000000E+00  0.00000000E+00  0.00000000E+00
  0.00000000E+00  0.00000000E+00  0.00000000E+00
  0.00000000E+00  0.00000000E+00  0.00000000E+00
