Li56 P28 O98
1.0
6.730959 0.000000 7.860032
2.035903 8.419349 5.263538
0.000000 0.000000 68.387046
Li P O
56 28 98
direct
0.144977 0.987971 0.041168 Li+
0.855023 0.012029 0.024012 Li+
0.588727 0.751653 0.075305 Li+
0.411273 0.248347 0.066798 Li+
0.327738 0.791276 0.064033 Li+
0.672262 0.208724 0.001148 Li+
0.241886 0.450796 0.022150 Li+
0.758114 0.549204 0.043031 Li+
0.144977 0.987971 0.118091 Li+
0.855023 0.012029 0.100935 Li+
0.588727 0.751653 0.152229 Li+
0.411273 0.248347 0.143721 Li+
0.327738 0.791276 0.140956 Li+
0.672262 0.208724 0.078071 Li+
0.241886 0.450796 0.099073 Li+
0.758114 0.549204 0.119954 Li+
0.144977 0.987971 0.195015 Li+
0.855023 0.012029 0.177858 Li+
0.588727 0.751653 0.229152 Li+
0.411273 0.248347 0.220644 Li+
0.327738 0.791276 0.217879 Li+
0.672262 0.208724 0.154994 Li+
0.241886 0.450796 0.175996 Li+
0.758114 0.549204 0.196877 Li+
0.144977 0.987971 0.271938 Li+
0.855023 0.012029 0.254781 Li+
0.588727 0.751653 0.306075 Li+
0.411273 0.248347 0.297567 Li+
0.327738 0.791276 0.294802 Li+
0.672262 0.208724 0.231917 Li+
0.241886 0.450796 0.252919 Li+
0.758114 0.549204 0.273800 Li+
0.144977 0.987971 0.348861 Li+
0.855023 0.012029 0.331705 Li+
0.588727 0.751653 0.382998 Li+
0.411273 0.248347 0.374491 Li+
0.327738 0.791276 0.371725 Li+
0.672262 0.208724 0.308840 Li+
0.241886 0.450796 0.329842 Li+
0.758114 0.549204 0.350723 Li+
0.144977 0.987971 0.425784 Li+
0.855023 0.012029 0.408628 Li+
0.588727 0.751653 0.459921 Li+
0.411273 0.248347 0.451414 Li+
0.327738 0.791276 0.448648 Li+
0.672262 0.208724 0.385763 Li+
0.241886 0.450796 0.406765 Li+
0.758114 0.549204 0.427646 Li+
0.144977 0.987971 0.502707 Li+
0.855023 0.012029 0.485551 Li+
0.588727 0.751653 0.536844 Li+
0.411273 0.248347 0.528337 Li+
0.327738 0.791276 0.525571 Li+
0.672262 0.208724 0.462686 Li+
0.241886 0.450796 0.483688 Li+
0.758114 0.549204 0.504570 Li+
0.213298 0.631956 0.050185 P5+
0.786702 0.368044 0.014995 P5+
0.779241 0.845502 0.006400 P5+
0.220759 0.154498 0.058780 P5+
0.213298 0.631956 0.127108 P5+
0.786702 0.368044 0.091918 P5+
0.779241 0.845502 0.083323 P5+
0.220759 0.154498 0.135703 P5+
0.213298 0.631956 0.204032 P5+
0.786702 0.368044 0.168841 P5+
0.779241 0.845502 0.160246 P5+
0.220759 0.154498 0.212627 P5+
0.213298 0.631956 0.280955 P5+
0.786702 0.368044 0.245764 P5+
0.779241 0.845502 0.237169 P5+
0.220759 0.154498 0.289550 P5+
0.213298 0.631956 0.357878 P5+
0.786702 0.368044 0.322688 P5+
0.779241 0.845502 0.314093 P5+
0.220759 0.154498 0.366473 P5+
0.213298 0.631956 0.434801 P5+
0.786702 0.368044 0.399611 P5+
0.779241 0.845502 0.391016 P5+
0.220759 0.154498 0.443396 P5+
0.213298 0.631956 0.511724 P5+
0.786702 0.368044 0.476534 P5+
0.779241 0.845502 0.467939 P5+
0.220759 0.154498 0.520319 P5+
0.741759 0.874340 0.063653 O2-
0.605720 0.790684 0.041031 O2-
0.394280 0.209316 0.024150 O2-
0.848591 0.981976 0.075078 O2-
0.743350 0.376455 0.041264 O2-
0.256650 0.623545 0.023917 O2-
0.732189 0.526190 0.075395 O2-
0.267811 0.473810 0.066708 O2-
0.702403 0.236504 0.024845 O2-
0.297597 0.763496 0.040335 O2-
0.962384 0.683894 0.000805 O2-
0.037616 0.316106 0.064376 O2-
0.151409 0.018024 0.067025 O2-
0.258241 0.125660 0.001528 O2-
0.741759 0.874340 0.140576 O2-
0.605720 0.790684 0.117954 O2-
0.394280 0.209316 0.101073 O2-
0.848591 0.981976 0.152001 O2-
0.743350 0.376455 0.118187 O2-
0.256650 0.623545 0.100840 O2-
0.732189 0.526190 0.152318 O2-
0.267811 0.473810 0.143631 O2-
0.702403 0.236504 0.101768 O2-
0.297597 0.763496 0.117258 O2-
0.962384 0.683894 0.077728 O2-
0.037616 0.316106 0.141299 O2-
0.151409 0.018024 0.143948 O2-
0.258241 0.125660 0.078451 O2-
0.741759 0.874340 0.217499 O2-
0.605720 0.790684 0.194877 O2-
0.394280 0.209316 0.177996 O2-
0.848591 0.981976 0.228924 O2-
0.743350 0.376455 0.195110 O2-
0.256650 0.623545 0.177763 O2-
0.732189 0.526190 0.229241 O2-
0.267811 0.473810 0.220555 O2-
0.702403 0.236504 0.178691 O2-
0.297597 0.763496 0.194181 O2-
0.962384 0.683894 0.154651 O2-
0.037616 0.316106 0.218222 O2-
0.151409 0.018024 0.220872 O2-
0.258241 0.125660 0.155374 O2-
0.741759 0.874340 0.294422 O2-
0.605720 0.790684 0.271800 O2-
0.394280 0.209316 0.254919 O2-
0.848591 0.981976 0.305848 O2-
0.743350 0.376455 0.272033 O2-
0.256650 0.623545 0.254686 O2-
0.732189 0.526190 0.306165 O2-
0.267811 0.473810 0.297478 O2-
0.702403 0.236504 0.255615 O2-
0.297597 0.763496 0.271105 O2-
0.962384 0.683894 0.231574 O2-
0.037616 0.316106 0.295145 O2-
0.151409 0.018024 0.297795 O2-
0.258241 0.125660 0.232297 O2-
0.741759 0.874340 0.371345 O2-
0.605720 0.790684 0.348723 O2-
0.394280 0.209316 0.331842 O2-
0.848591 0.981976 0.382771 O2-
0.743350 0.376455 0.348956 O2-
0.256650 0.623545 0.331609 O2-
0.732189 0.526190 0.383088 O2-
0.267811 0.473810 0.374401 O2-
0.702403 0.236504 0.332538 O2-
0.297597 0.763496 0.348028 O2-
0.962384 0.683894 0.308497 O2-
0.037616 0.316106 0.372068 O2-
0.151409 0.018024 0.374718 O2-
0.258241 0.125660 0.309220 O2-
0.741759 0.874340 0.448268 O2-
0.605720 0.790684 0.425646 O2-
0.394280 0.209316 0.408765 O2-
0.848591 0.981976 0.459694 O2-
0.743350 0.376455 0.425879 O2-
0.256650 0.623545 0.408532 O2-
0.732189 0.526190 0.460011 O2-
0.267811 0.473810 0.451324 O2-
0.702403 0.236504 0.409461 O2-
0.297597 0.763496 0.424951 O2-
0.962384 0.683894 0.385420 O2-
0.037616 0.316106 0.448991 O2-
0.151409 0.018024 0.451641 O2-
0.258241 0.125660 0.386143 O2-
0.741759 0.874340 0.525191 O2-
0.605720 0.790684 0.502569 O2-
0.394280 0.209316 0.485688 O2-
0.848591 0.981976 0.536617 O2-
0.743350 0.376455 0.502802 O2-
0.256650 0.623545 0.485455 O2-
0.732189 0.526190 0.536934 O2-
0.267811 0.473810 0.528247 O2-
0.702403 0.236504 0.486384 O2-
0.297597 0.763496 0.501874 O2-
0.962384 0.683894 0.462343 O2-
0.037616 0.316106 0.525914 O2-
0.151409 0.018024 0.528564 O2-
0.258241 0.125660 0.463066 O2-
