Li6 P2 O8                               
   1.00000000000000     
     4.8239989999999997    0.0000000000000000    0.0000000000000000
     0.0000000000000000    5.2964019999999996    0.0000000000000000
     0.0000000000000000    0.0000000000000000    6.1761359999999996
   Li   P    O 
     6     2     8
Direct
  0.5094169999999991  0.8445200000000028  0.0000000000000000
  0.0094169999999991  0.1554799999999972  0.5000000000000000
  0.5083630000000028  0.3264339999999990  0.2528730000000010
  0.0083630000000028  0.6735660000000010  0.2471269999999990
  0.0083630000000028  0.6735660000000010  0.7528730000000010
  0.5083630000000028  0.3264339999999990  0.7471269999999990
  0.5014200000000031  0.8242609999999999  0.5000000000000000
  0.0014200000000031  0.1757390000000001  0.0000000000000000
  0.1070100000000025  0.3135090000000034  0.7928619999999995
  0.6021259999999984  0.1035079999999979  0.5000000000000000
  0.1851910000000032  0.8183959999999999  0.5000000000000000
  0.6851910000000032  0.1816040000000001  0.0000000000000000
  0.6070100000000025  0.6864909999999966  0.2928619999999995
  0.1070100000000025  0.3135090000000034  0.2071380000000005
  0.1021259999999984  0.8964920000000021  0.0000000000000000
  0.6070100000000025  0.6864909999999966  0.7071380000000005
 
  0.00000000E+00  0.00000000E+00  0.00000000E+00
  0.00000000E+00  0.00000000E+00  0.00000000E+00
  0.00000000E+00  0.00000000E+00  0.00000000E+00
  0.00000000E+00  0.00000000E+00  0.00000000E+00
  0.00000000E+00  0.00000000E+00  0.00000000E+00
  0.00000000E+00  0.00000000E+00  0.00000000E+00
  0.00000000E+00  0.00000000E+00  0.00000000E+00
  0.00000000E+00  0.00000000E+00  0.00000000E+00
  0.00000000E+00  0.00000000E+00  0.00000000E+00
  0.00000000E+00  0.00000000E+00  0.00000000E+00
  0.00000000E+00  0.00000000E+00  0.00000000E+00
  0.00000000E+00  0.00000000E+00  0.00000000E+00
  0.00000000E+00  0.00000000E+00  0.00000000E+00
  0.00000000E+00  0.00000000E+00  0.00000000E+00
  0.00000000E+00  0.00000000E+00  0.00000000E+00
  0.00000000E+00  0.00000000E+00  0.00000000E+00
