Li140 P140 O420
1.0
5.521558 0.000000 0.000000
0.000000 16.540545 2.677750
0.000000 0.000000 119.816820
Li P O
140 140 420
direct
0.494607 0.818220 0.102074 Li+
0.505393 0.318220 0.046518 Li+
0.484419 0.934004 0.004503 Li+
0.515581 0.434004 0.060059 Li+
0.505784 0.049457 0.017883 Li+
0.494216 0.549457 0.073439 Li+
0.507224 0.164548 0.031168 Li+
0.492776 0.664548 0.086724 Li+
0.992783 0.241566 0.038989 Li+
0.007217 0.741566 0.094545 Li+
0.521194 0.318286 0.102312 Li+
0.478806 0.818286 0.046757 Li+
0.476313 0.433730 0.004656 Li+
0.523687 0.933730 0.060212 Li+
0.533250 0.550453 0.017899 Li+
0.466750 0.050453 0.073454 Li+
0.477737 0.667016 0.031207 Li+
0.522263 0.167016 0.086763 Li+
0.960889 0.743634 0.039211 Li+
0.039111 0.243634 0.094766 Li+
0.494607 0.818220 0.213185 Li+
0.505393 0.318220 0.157629 Li+
0.484419 0.934004 0.115614 Li+
0.515581 0.434004 0.171170 Li+
0.505784 0.049457 0.128994 Li+
0.494216 0.549457 0.184550 Li+
0.507224 0.164548 0.142280 Li+
0.492776 0.664548 0.197835 Li+
0.992783 0.241566 0.150100 Li+
0.007217 0.741566 0.205656 Li+
0.521194 0.318286 0.213424 Li+
0.478806 0.818286 0.157868 Li+
0.476313 0.433730 0.115767 Li+
0.523687 0.933730 0.171323 Li+
0.533250 0.550453 0.129010 Li+
0.466750 0.050453 0.184566 Li+
0.477737 0.667016 0.142318 Li+
0.522263 0.167016 0.197874 Li+
0.960889 0.743634 0.150322 Li+
0.039111 0.243634 0.205878 Li+
0.494607 0.818220 0.324296 Li+
0.505393 0.318220 0.268740 Li+
0.484419 0.934004 0.226725 Li+
0.515581 0.434004 0.282281 Li+
0.505784 0.049457 0.240105 Li+
0.494216 0.549457 0.295661 Li+
0.507224 0.164548 0.253391 Li+
0.492776 0.664548 0.308946 Li+
0.992783 0.241566 0.261211 Li+
0.007217 0.741566 0.316767 Li+
0.521194 0.318286 0.324535 Li+
0.478806 0.818286 0.268979 Li+
0.476313 0.433730 0.226879 Li+
0.523687 0.933730 0.282434 Li+
0.533250 0.550453 0.240121 Li+
0.466750 0.050453 0.295677 Li+
0.477737 0.667016 0.253429 Li+
0.522263 0.167016 0.308985 Li+
0.960889 0.743634 0.261433 Li+
0.039111 0.243634 0.316989 Li+
0.494607 0.818220 0.435407 Li+
0.505393 0.318220 0.379852 Li+
0.484419 0.934004 0.337836 Li+
0.515581 0.434004 0.393392 Li+
0.505784 0.049457 0.351216 Li+
0.494216 0.549457 0.406772 Li+
0.507224 0.164548 0.364502 Li+
0.492776 0.664548 0.420057 Li+
0.992783 0.241566 0.372322 Li+
0.007217 0.741566 0.427878 Li+
0.521194 0.318286 0.435646 Li+
0.478806 0.818286 0.380090 Li+
0.476313 0.433730 0.337990 Li+
0.523687 0.933730 0.393545 Li+
0.533250 0.550453 0.351232 Li+
0.466750 0.050453 0.406788 Li+
0.477737 0.667016 0.364541 Li+
0.522263 0.167016 0.420096 Li+
0.960889 0.743634 0.372544 Li+
0.039111 0.243634 0.428100 Li+
0.494607 0.818220 0.546518 Li+
0.505393 0.318220 0.490963 Li+
0.484419 0.934004 0.448947 Li+
0.515581 0.434004 0.504503 Li+
0.505784 0.049457 0.462327 Li+
0.494216 0.549457 0.517883 Li+
0.507224 0.164548 0.475613 Li+
0.492776 0.664548 0.531168 Li+
0.992783 0.241566 0.483433 Li+
0.007217 0.741566 0.538989 Li+
0.521194 0.318286 0.546757 Li+
0.478806 0.818286 0.491201 Li+
0.476313 0.433730 0.449101 Li+
0.523687 0.933730 0.504656 Li+
0.533250 0.550453 0.462343 Li+
0.466750 0.050453 0.517899 Li+
0.477737 0.667016 0.475652 Li+
0.522263 0.167016 0.531207 Li+
0.960889 0.743634 0.483655 Li+
0.039111 0.243634 0.539211 Li+
0.494607 0.818220 0.657629 Li+
0.505393 0.318220 0.602074 Li+
0.484419 0.934004 0.560059 Li+
0.515581 0.434004 0.615614 Li+
0.505784 0.049457 0.573439 Li+
0.494216 0.549457 0.628994 Li+
0.507224 0.164548 0.586724 Li+
0.492776 0.664548 0.642280 Li+
0.992783 0.241566 0.594545 Li+
0.007217 0.741566 0.650100 Li+
0.521194 0.318286 0.657868 Li+
0.478806 0.818286 0.602313 Li+
0.476313 0.433730 0.560212 Li+
0.523687 0.933730 0.615767 Li+
0.533250 0.550453 0.573454 Li+
0.466750 0.050453 0.629010 Li+
0.477737 0.667016 0.586763 Li+
0.522263 0.167016 0.642318 Li+
0.960889 0.743634 0.594766 Li+
0.039111 0.243634 0.650322 Li+
0.494607 0.818220 0.768740 Li+
0.505393 0.318220 0.713185 Li+
0.484419 0.934004 0.671170 Li+
0.515581 0.434004 0.726725 Li+
0.505784 0.049457 0.684550 Li+
0.494216 0.549457 0.740105 Li+
0.507224 0.164548 0.697835 Li+
0.492776 0.664548 0.753391 Li+
0.992783 0.241566 0.705656 Li+
0.007217 0.741566 0.761211 Li+
0.521194 0.318286 0.768979 Li+
0.478806 0.818286 0.713424 Li+
0.476313 0.433730 0.671323 Li+
0.523687 0.933730 0.726878 Li+
0.533250 0.550453 0.684566 Li+
0.466750 0.050453 0.740121 Li+
0.477737 0.667016 0.697874 Li+
0.522263 0.167016 0.753429 Li+
0.960889 0.743634 0.705878 Li+
0.039111 0.243634 0.761433 Li+
0.185377 0.000413 0.095797 P5+
0.814623 0.500413 0.040241 P5+
0.843317 0.093280 0.108410 P5+
0.156683 0.593280 0.052855 P5+
0.188444 0.197061 0.007493 P5+
0.811556 0.697061 0.063049 P5+
0.828977 0.308311 0.016295 P5+
0.171023 0.808311 0.071851 P5+
0.159739 0.408249 0.027412 P5+
0.840261 0.908249 0.082968 P5+
0.843930 0.574567 0.105986 P5+
0.156070 0.074567 0.050430 P5+
0.174322 0.674438 0.006042 P5+
0.825678 0.174438 0.061597 P5+
0.812278 0.786455 0.014803 P5+
0.187722 0.286455 0.070359 P5+
0.151901 0.889856 0.025071 P5+
0.848099 0.389856 0.080627 P5+
0.809867 0.982845 0.037660 P5+
0.190133 0.482845 0.093215 P5+
0.185377 0.000413 0.206908 P5+
0.814623 0.500413 0.151352 P5+
0.843317 0.093280 0.219522 P5+
0.156683 0.593280 0.163966 P5+
0.188444 0.197061 0.118604 P5+
0.811556 0.697061 0.174160 P5+
0.828977 0.308311 0.127406 P5+
0.171023 0.808311 0.182962 P5+
0.159739 0.408249 0.138524 P5+
0.840261 0.908249 0.194079 P5+
0.843930 0.574567 0.217097 P5+
0.156070 0.074567 0.161542 P5+
0.174322 0.674438 0.117153 P5+
0.825678 0.174438 0.172708 P5+
0.812278 0.786455 0.125914 P5+
0.187722 0.286455 0.181470 P5+
0.151901 0.889856 0.136182 P5+
0.848099 0.389856 0.191738 P5+
0.809867 0.982845 0.148771 P5+
0.190133 0.482845 0.204326 P5+
0.185377 0.000413 0.318019 P5+
0.814623 0.500413 0.262463 P5+
0.843317 0.093280 0.330633 P5+
0.156683 0.593280 0.275077 P5+
0.188444 0.197061 0.229715 P5+
0.811556 0.697061 0.285271 P5+
0.828977 0.308311 0.238517 P5+
0.171023 0.808311 0.294073 P5+
0.159739 0.408249 0.249635 P5+
0.840261 0.908249 0.305190 P5+
0.843930 0.574567 0.328208 P5+
0.156070 0.074567 0.272653 P5+
0.174322 0.674438 0.228264 P5+
0.825678 0.174438 0.283820 P5+
0.812278 0.786455 0.237025 P5+
0.187722 0.286455 0.292581 P5+
0.151901 0.889856 0.247293 P5+
0.848099 0.389856 0.302849 P5+
0.809867 0.982845 0.259882 P5+
0.190133 0.482845 0.315437 P5+
0.185377 0.000413 0.429130 P5+
0.814623 0.500413 0.373574 P5+
0.843317 0.093280 0.441744 P5+
0.156683 0.593280 0.386188 P5+
0.188444 0.197061 0.340826 P5+
0.811556 0.697061 0.396382 P5+
0.828977 0.308311 0.349628 P5+
0.171023 0.808311 0.405184 P5+
0.159739 0.408249 0.360746 P5+
0.840261 0.908249 0.416301 P5+
0.843930 0.574567 0.439319 P5+
0.156070 0.074567 0.383764 P5+
0.174322 0.674438 0.339375 P5+
0.825678 0.174438 0.394931 P5+
0.812278 0.786455 0.348137 P5+
0.187722 0.286455 0.403692 P5+
0.151901 0.889856 0.358404 P5+
0.848099 0.389856 0.413960 P5+
0.809867 0.982845 0.370993 P5+
0.190133 0.482845 0.426548 P5+
0.185377 0.000413 0.540241 P5+
0.814623 0.500413 0.484685 P5+
0.843317 0.093280 0.552855 P5+
0.156683 0.593280 0.497299 P5+
0.188444 0.197061 0.451937 P5+
0.811556 0.697061 0.507493 P5+
0.828977 0.308311 0.460739 P5+
0.171023 0.808311 0.516295 P5+
0.159739 0.408249 0.471857 P5+
0.840261 0.908249 0.527412 P5+
0.843930 0.574567 0.550430 P5+
0.156070 0.074567 0.494875 P5+
0.174322 0.674438 0.450486 P5+
0.825678 0.174438 0.506042 P5+
0.812278 0.786455 0.459248 P5+
0.187722 0.286455 0.514803 P5+
0.151901 0.889856 0.469515 P5+
0.848099 0.389856 0.525071 P5+
0.809867 0.982845 0.482104 P5+
0.190133 0.482845 0.537660 P5+
0.185377 0.000413 0.651352 P5+
0.814623 0.500413 0.595797 P5+
0.843317 0.093280 0.663966 P5+
0.156683 0.593280 0.608410 P5+
0.188444 0.197061 0.563049 P5+
0.811556 0.697061 0.618604 P5+
0.828977 0.308311 0.571851 P5+
0.171023 0.808311 0.627406 P5+
0.159739 0.408249 0.582968 P5+
0.840261 0.908249 0.638524 P5+
0.843930 0.574567 0.661542 P5+
0.156070 0.074567 0.605986 P5+
0.174322 0.674438 0.561597 P5+
0.825678 0.174438 0.617153 P5+
0.812278 0.786455 0.570359 P5+
0.187722 0.286455 0.625914 P5+
0.151901 0.889856 0.580627 P5+
0.848099 0.389856 0.636182 P5+
0.809867 0.982845 0.593215 P5+
0.190133 0.482845 0.648771 P5+
0.185377 0.000413 0.762463 P5+
0.814623 0.500413 0.706908 P5+
0.843317 0.093280 0.775077 P5+
0.156683 0.593280 0.719522 P5+
0.188444 0.197061 0.674160 P5+
0.811556 0.697061 0.729715 P5+
0.828977 0.308311 0.682962 P5+
0.171023 0.808311 0.738517 P5+
0.159739 0.408249 0.694079 P5+
0.840261 0.908249 0.749635 P5+
0.843930 0.574567 0.772653 P5+
0.156070 0.074567 0.717097 P5+
0.174322 0.674438 0.672708 P5+
0.825678 0.174438 0.728264 P5+
0.812278 0.786455 0.681470 P5+
0.187722 0.286455 0.737025 P5+
0.151901 0.889856 0.691738 P5+
0.848099 0.389856 0.747293 P5+
0.809867 0.982845 0.704326 P5+
0.190133 0.482845 0.759882 P5+
0.069000 0.035413 0.106437 O2-
0.931000 0.535413 0.050881 O2-
0.951087 0.140628 0.006990 O2-
0.048913 0.640628 0.062546 O2-
0.080018 0.275856 0.011795 O2-
0.919982 0.775856 0.067351 O2-
0.926681 0.392259 0.019778 O2-
0.073319 0.892259 0.075334 O2-
0.942022 0.978148 0.089451 O2-
0.057978 0.478148 0.033896 O2-
0.076781 0.590622 0.002519 O2-
0.923219 0.090622 0.058075 O2-
0.921841 0.709404 0.010081 O2-
0.078159 0.209404 0.065637 O2-
0.049265 0.843555 0.015178 O2-
0.950735 0.343555 0.070734 O2-
0.918787 0.943480 0.027257 O2-
0.081213 0.443480 0.082813 O2-
0.944691 0.504327 0.099489 O2-
0.055309 0.004327 0.043934 O2-
0.322795 0.926111 0.100897 O2-
0.677205 0.426111 0.045342 O2-
0.313918 0.066074 0.088022 O2-
0.686082 0.566074 0.032466 O2-
0.643576 0.041349 0.002960 O2-
0.356424 0.541349 0.058515 O2-
0.795305 0.153257 0.097907 O2-
0.204695 0.653257 0.042351 O2-
0.351974 0.154647 0.016486 O2-
0.648026 0.654647 0.072041 O2-
0.281781 0.224590 0.106817 O2-
0.718219 0.724590 0.051262 O2-
0.751546 0.252705 0.026814 O2-
0.248454 0.752705 0.082370 O2-
0.656290 0.330648 0.006693 O2-
0.343710 0.830648 0.062248 O2-
0.215121 0.332841 0.035678 O2-
0.784879 0.832841 0.091234 O2-
0.355777 0.446708 0.019751 O2-
0.644223 0.946708 0.075307 O2-
0.649890 0.536665 0.002701 O2-
0.350110 0.036665 0.058256 O2-
0.785996 0.649394 0.097673 O2-
0.214004 0.149394 0.042117 O2-
0.340793 0.651785 0.015887 O2-
0.659207 0.151785 0.071442 O2-
0.258044 0.728542 0.106612 O2-
0.741956 0.228542 0.051056 O2-
0.725734 0.758375 0.026696 O2-
0.274266 0.258375 0.082252 O2-
0.642950 0.828801 0.006049 O2-
0.357050 0.328801 0.061604 O2-
0.205272 0.829973 0.035530 O2-
0.794728 0.329973 0.091085 O2-
0.347295 0.944360 0.019556 O2-
0.652705 0.444360 0.075112 O2-
0.677470 0.919559 0.045665 O2-
0.322530 0.419559 0.101220 O2-
0.678914 0.057634 0.032269 O2-
0.321086 0.557634 0.087824 O2-
0.069000 0.035413 0.217548 O2-
0.931000 0.535413 0.161993 O2-
0.951087 0.140628 0.118101 O2-
0.048913 0.640628 0.173657 O2-
0.080018 0.275856 0.122906 O2-
0.919982 0.775856 0.178462 O2-
0.926681 0.392259 0.130890 O2-
0.073319 0.892259 0.186445 O2-
0.942022 0.978148 0.200562 O2-
0.057978 0.478148 0.145007 O2-
0.076781 0.590622 0.113631 O2-
0.923219 0.090622 0.169186 O2-
0.921841 0.709404 0.121192 O2-
0.078159 0.209404 0.176748 O2-
0.049265 0.843555 0.126289 O2-
0.950735 0.343555 0.181845 O2-
0.918787 0.943480 0.138368 O2-
0.081213 0.443480 0.193924 O2-
0.944691 0.504327 0.210601 O2-
0.055309 0.004327 0.155045 O2-
0.322795 0.926111 0.212009 O2-
0.677205 0.426111 0.156453 O2-
0.313918 0.066074 0.199133 O2-
0.686082 0.566074 0.143577 O2-
0.643576 0.041349 0.114071 O2-
0.356424 0.541349 0.169626 O2-
0.795305 0.153257 0.209018 O2-
0.204695 0.653257 0.153462 O2-
0.351974 0.154647 0.127597 O2-
0.648026 0.654647 0.183152 O2-
0.281781 0.224590 0.217928 O2-
0.718219 0.724590 0.162373 O2-
0.751546 0.252705 0.137925 O2-
0.248454 0.752705 0.193481 O2-
0.656290 0.330648 0.117804 O2-
0.343710 0.830648 0.173359 O2-
0.215121 0.332841 0.146789 O2-
0.784879 0.832841 0.202345 O2-
0.355777 0.446708 0.130862 O2-
0.644223 0.946708 0.186418 O2-
0.649890 0.536665 0.113812 O2-
0.350110 0.036665 0.169367 O2-
0.785996 0.649394 0.208784 O2-
0.214004 0.149394 0.153228 O2-
0.340793 0.651785 0.126998 O2-
0.659207 0.151785 0.182554 O2-
0.258044 0.728542 0.217723 O2-
0.741956 0.228542 0.162167 O2-
0.725734 0.758375 0.137807 O2-
0.274266 0.258375 0.193363 O2-
0.642950 0.828801 0.117160 O2-
0.357050 0.328801 0.172716 O2-
0.205272 0.829973 0.146641 O2-
0.794728 0.329973 0.202197 O2-
0.347295 0.944360 0.130667 O2-
0.652705 0.444360 0.186223 O2-
0.677470 0.919559 0.156776 O2-
0.322530 0.419559 0.212331 O2-
0.678914 0.057634 0.143380 O2-
0.321086 0.557634 0.198935 O2-
0.069000 0.035413 0.328659 O2-
0.931000 0.535413 0.273104 O2-
0.951087 0.140628 0.229212 O2-
0.048913 0.640628 0.284768 O2-
0.080018 0.275856 0.234017 O2-
0.919982 0.775856 0.289573 O2-
0.926681 0.392259 0.242001 O2-
0.073319 0.892259 0.297556 O2-
0.942022 0.978148 0.311673 O2-
0.057978 0.478148 0.256118 O2-
0.076781 0.590622 0.224742 O2-
0.923219 0.090622 0.280297 O2-
0.921841 0.709404 0.232303 O2-
0.078159 0.209404 0.287859 O2-
0.049265 0.843555 0.237401 O2-
0.950735 0.343555 0.292956 O2-
0.918787 0.943480 0.249479 O2-
0.081213 0.443480 0.305035 O2-
0.944691 0.504327 0.321712 O2-
0.055309 0.004327 0.266156 O2-
0.322795 0.926111 0.323120 O2-
0.677205 0.426111 0.267564 O2-
0.313918 0.066074 0.310244 O2-
0.686082 0.566074 0.254688 O2-
0.643576 0.041349 0.225182 O2-
0.356424 0.541349 0.280737 O2-
0.795305 0.153257 0.320129 O2-
0.204695 0.653257 0.264573 O2-
0.351974 0.154647 0.238708 O2-
0.648026 0.654647 0.294264 O2-
0.281781 0.224590 0.329039 O2-
0.718219 0.724590 0.273484 O2-
0.751546 0.252705 0.249036 O2-
0.248454 0.752705 0.304592 O2-
0.656290 0.330648 0.228915 O2-
0.343710 0.830648 0.284470 O2-
0.215121 0.332841 0.257900 O2-
0.784879 0.832841 0.313456 O2-
0.355777 0.446708 0.241973 O2-
0.644223 0.946708 0.297529 O2-
0.649890 0.536665 0.224923 O2-
0.350110 0.036665 0.280478 O2-
0.785996 0.649394 0.319895 O2-
0.214004 0.149394 0.264339 O2-
0.340793 0.651785 0.238109 O2-
0.659207 0.151785 0.293665 O2-
0.258044 0.728542 0.328834 O2-
0.741956 0.228542 0.273279 O2-
0.725734 0.758375 0.248918 O2-
0.274266 0.258375 0.304474 O2-
0.642950 0.828801 0.228271 O2-
0.357050 0.328801 0.283827 O2-
0.205272 0.829973 0.257752 O2-
0.794728 0.329973 0.313308 O2-
0.347295 0.944360 0.241778 O2-
0.652705 0.444360 0.297334 O2-
0.677470 0.919559 0.267887 O2-
0.322530 0.419559 0.323443 O2-
0.678914 0.057634 0.254491 O2-
0.321086 0.557634 0.310046 O2-
0.069000 0.035413 0.439770 O2-
0.931000 0.535413 0.384215 O2-
0.951087 0.140628 0.340324 O2-
0.048913 0.640628 0.395879 O2-
0.080018 0.275856 0.345128 O2-
0.919982 0.775856 0.400684 O2-
0.926681 0.392259 0.353112 O2-
0.073319 0.892259 0.408667 O2-
0.942022 0.978148 0.422785 O2-
0.057978 0.478148 0.367229 O2-
0.076781 0.590622 0.335853 O2-
0.923219 0.090622 0.391408 O2-
0.921841 0.709404 0.343415 O2-
0.078159 0.209404 0.398970 O2-
0.049265 0.843555 0.348512 O2-
0.950735 0.343555 0.404067 O2-
0.918787 0.943480 0.360590 O2-
0.081213 0.443480 0.416146 O2-
0.944691 0.504327 0.432823 O2-
0.055309 0.004327 0.377267 O2-
0.322795 0.926111 0.434231 O2-
0.677205 0.426111 0.378675 O2-
0.313918 0.066074 0.421355 O2-
0.686082 0.566074 0.365800 O2-
0.643576 0.041349 0.336293 O2-
0.356424 0.541349 0.391849 O2-
0.795305 0.153257 0.431240 O2-
0.204695 0.653257 0.375684 O2-
0.351974 0.154647 0.349819 O2-
0.648026 0.654647 0.405375 O2-
0.281781 0.224590 0.440151 O2-
0.718219 0.724590 0.384595 O2-
0.751546 0.252705 0.360147 O2-
0.248454 0.752705 0.415703 O2-
0.656290 0.330648 0.340026 O2-
0.343710 0.830648 0.395581 O2-
0.215121 0.332841 0.369012 O2-
0.784879 0.832841 0.424567 O2-
0.355777 0.446708 0.353084 O2-
0.644223 0.946708 0.408640 O2-
0.649890 0.536665 0.336034 O2-
0.350110 0.036665 0.391589 O2-
0.785996 0.649394 0.431006 O2-
0.214004 0.149394 0.375450 O2-
0.340793 0.651785 0.349220 O2-
0.659207 0.151785 0.404776 O2-
0.258044 0.728542 0.439945 O2-
0.741956 0.228542 0.384390 O2-
0.725734 0.758375 0.360030 O2-
0.274266 0.258375 0.415585 O2-
0.642950 0.828801 0.339382 O2-
0.357050 0.328801 0.394938 O2-
0.205272 0.829973 0.368863 O2-
0.794728 0.329973 0.424419 O2-
0.347295 0.944360 0.352889 O2-
0.652705 0.444360 0.408445 O2-
0.677470 0.919559 0.378998 O2-
0.322530 0.419559 0.434554 O2-
0.678914 0.057634 0.365602 O2-
0.321086 0.557634 0.421157 O2-
0.069000 0.035413 0.550882 O2-
0.931000 0.535413 0.495326 O2-
0.951087 0.140628 0.451435 O2-
0.048913 0.640628 0.506990 O2-
0.080018 0.275856 0.456240 O2-
0.919982 0.775856 0.511795 O2-
0.926681 0.392259 0.464223 O2-
0.073319 0.892259 0.519778 O2-
0.942022 0.978148 0.533896 O2-
0.057978 0.478148 0.478340 O2-
0.076781 0.590622 0.446964 O2-
0.923219 0.090622 0.502520 O2-
0.921841 0.709404 0.454526 O2-
0.078159 0.209404 0.510081 O2-
0.049265 0.843555 0.459623 O2-
0.950735 0.343555 0.515178 O2-
0.918787 0.943480 0.471701 O2-
0.081213 0.443480 0.527257 O2-
0.944691 0.504327 0.543934 O2-
0.055309 0.004327 0.488378 O2-
0.322795 0.926111 0.545342 O2-
0.677205 0.426111 0.489786 O2-
0.313918 0.066074 0.532466 O2-
0.686082 0.566074 0.476911 O2-
0.643576 0.041349 0.447404 O2-
0.356424 0.541349 0.502960 O2-
0.795305 0.153257 0.542351 O2-
0.204695 0.653257 0.486796 O2-
0.351974 0.154647 0.460930 O2-
0.648026 0.654647 0.516486 O2-
0.281781 0.224590 0.551262 O2-
0.718219 0.724590 0.495706 O2-
0.751546 0.252705 0.471258 O2-
0.248454 0.752705 0.526814 O2-
0.656290 0.330648 0.451137 O2-
0.343710 0.830648 0.506693 O2-
0.215121 0.332841 0.480123 O2-
0.784879 0.832841 0.535678 O2-
0.355777 0.446708 0.464195 O2-
0.644223 0.946708 0.519751 O2-
0.649890 0.536665 0.447145 O2-
0.350110 0.036665 0.502701 O2-
0.785996 0.649394 0.542117 O2-
0.214004 0.149394 0.486562 O2-
0.340793 0.651785 0.460331 O2-
0.659207 0.151785 0.515887 O2-
0.258044 0.728542 0.551056 O2-
0.741956 0.228542 0.495501 O2-
0.725734 0.758375 0.471141 O2-
0.274266 0.258375 0.526696 O2-
0.642950 0.828801 0.450493 O2-
0.357050 0.328801 0.506049 O2-
0.205272 0.829973 0.479974 O2-
0.794728 0.329973 0.535530 O2-
0.347295 0.944360 0.464001 O2-
0.652705 0.444360 0.519556 O2-
0.677470 0.919559 0.490109 O2-
0.322530 0.419559 0.545665 O2-
0.678914 0.057634 0.476713 O2-
0.321086 0.557634 0.532269 O2-
0.069000 0.035413 0.661993 O2-
0.931000 0.535413 0.606437 O2-
0.951087 0.140628 0.562546 O2-
0.048913 0.640628 0.618101 O2-
0.080018 0.275856 0.567351 O2-
0.919982 0.775856 0.622906 O2-
0.926681 0.392259 0.575334 O2-
0.073319 0.892259 0.630890 O2-
0.942022 0.978148 0.645007 O2-
0.057978 0.478148 0.589451 O2-
0.076781 0.590622 0.558075 O2-
0.923219 0.090622 0.613631 O2-
0.921841 0.709404 0.565637 O2-
0.078159 0.209404 0.621192 O2-
0.049265 0.843555 0.570734 O2-
0.950735 0.343555 0.626289 O2-
0.918787 0.943480 0.582813 O2-
0.081213 0.443480 0.638368 O2-
0.944691 0.504327 0.655045 O2-
0.055309 0.004327 0.599490 O2-
0.322795 0.926111 0.656453 O2-
0.677205 0.426111 0.600897 O2-
0.313918 0.066074 0.643577 O2-
0.686082 0.566074 0.588022 O2-
0.643576 0.041349 0.558515 O2-
0.356424 0.541349 0.614071 O2-
0.795305 0.153257 0.653462 O2-
0.204695 0.653257 0.597907 O2-
0.351974 0.154647 0.572041 O2-
0.648026 0.654647 0.627597 O2-
0.281781 0.224590 0.662373 O2-
0.718219 0.724590 0.606817 O2-
0.751546 0.252705 0.582370 O2-
0.248454 0.752705 0.637925 O2-
0.656290 0.330648 0.562248 O2-
0.343710 0.830648 0.617804 O2-
0.215121 0.332841 0.591234 O2-
0.784879 0.832841 0.646789 O2-
0.355777 0.446708 0.575307 O2-
0.644223 0.946708 0.630862 O2-
0.649890 0.536665 0.558256 O2-
0.350110 0.036665 0.613812 O2-
0.785996 0.649394 0.653228 O2-
0.214004 0.149394 0.597673 O2-
0.340793 0.651785 0.571442 O2-
0.659207 0.151785 0.626998 O2-
0.258044 0.728542 0.662168 O2-
0.741956 0.228542 0.606612 O2-
0.725734 0.758375 0.582252 O2-
0.274266 0.258375 0.637807 O2-
0.642950 0.828801 0.561605 O2-
0.357050 0.328801 0.617160 O2-
0.205272 0.829973 0.591085 O2-
0.794728 0.329973 0.646641 O2-
0.347295 0.944360 0.575112 O2-
0.652705 0.444360 0.630667 O2-
0.677470 0.919559 0.601220 O2-
0.322530 0.419559 0.656776 O2-
0.678914 0.057634 0.587824 O2-
0.321086 0.557634 0.643380 O2-
0.069000 0.035413 0.773104 O2-
0.931000 0.535413 0.717548 O2-
0.951087 0.140628 0.673657 O2-
0.048913 0.640628 0.729212 O2-
0.080018 0.275856 0.678462 O2-
0.919982 0.775856 0.734017 O2-
0.926681 0.392259 0.686445 O2-
0.073319 0.892259 0.742001 O2-
0.942022 0.978148 0.756118 O2-
0.057978 0.478148 0.700562 O2-
0.076781 0.590622 0.669186 O2-
0.923219 0.090622 0.724742 O2-
0.921841 0.709404 0.676748 O2-
0.078159 0.209404 0.732303 O2-
0.049265 0.843555 0.681845 O2-
0.950735 0.343555 0.737401 O2-
0.918787 0.943480 0.693924 O2-
0.081213 0.443480 0.749479 O2-
0.944691 0.504327 0.766156 O2-
0.055309 0.004327 0.710601 O2-
0.322795 0.926111 0.767564 O2-
0.677205 0.426111 0.712009 O2-
0.313918 0.066074 0.754688 O2-
0.686082 0.566074 0.699133 O2-
0.643576 0.041349 0.669626 O2-
0.356424 0.541349 0.725182 O2-
0.795305 0.153257 0.764573 O2-
0.204695 0.653257 0.709018 O2-
0.351974 0.154647 0.683152 O2-
0.648026 0.654647 0.738708 O2-
0.281781 0.224590 0.773484 O2-
0.718219 0.724590 0.717928 O2-
0.751546 0.252705 0.693481 O2-
0.248454 0.752705 0.749036 O2-
0.656290 0.330648 0.673359 O2-
0.343710 0.830648 0.728915 O2-
0.215121 0.332841 0.702345 O2-
0.784879 0.832841 0.757900 O2-
0.355777 0.446708 0.686418 O2-
0.644223 0.946708 0.741973 O2-
0.649890 0.536665 0.669367 O2-
0.350110 0.036665 0.724923 O2-
0.785996 0.649394 0.764339 O2-
0.214004 0.149394 0.708784 O2-
0.340793 0.651785 0.682554 O2-
0.659207 0.151785 0.738109 O2-
0.258044 0.728542 0.773279 O2-
0.741956 0.228542 0.717723 O2-
0.725734 0.758375 0.693363 O2-
0.274266 0.258375 0.748918 O2-
0.642950 0.828801 0.672716 O2-
0.357050 0.328801 0.728271 O2-
0.205272 0.829973 0.702196 O2-
0.794728 0.329973 0.757752 O2-
0.347295 0.944360 0.686223 O2-
0.652705 0.444360 0.741778 O2-
0.677470 0.919559 0.712331 O2-
0.322530 0.419559 0.767887 O2-
0.678914 0.057634 0.698935 O2-
0.321086 0.557634 0.754491 O2-
