Li42 P14 O56
1.0
4.922448 0.000000 0.000000
0.000000 6.176136 0.000000
0.000000 0.000000 58.260422
Li P O
42 14 56
direct
0.490583 0.000000 0.082539 Li+
0.990583 0.500000 0.054269 Li+
0.491637 0.252873 0.038728 Li+
0.991637 0.247127 0.007171 Li+
0.991637 0.752873 0.007171 Li+
0.491637 0.747127 0.038728 Li+
0.490583 0.000000 0.173448 Li+
0.990583 0.500000 0.145178 Li+
0.491637 0.252873 0.129637 Li+
0.991637 0.247127 0.098080 Li+
0.991637 0.752873 0.098080 Li+
0.491637 0.747127 0.129637 Li+
0.490583 0.000000 0.264357 Li+
0.990583 0.500000 0.236088 Li+
0.491637 0.252873 0.220546 Li+
0.991637 0.247127 0.188989 Li+
0.991637 0.752873 0.188989 Li+
0.491637 0.747127 0.220546 Li+
0.490583 0.000000 0.355266 Li+
0.990583 0.500000 0.326997 Li+
0.491637 0.252873 0.311455 Li+
0.991637 0.247127 0.279898 Li+
0.991637 0.752873 0.279898 Li+
0.491637 0.747127 0.311455 Li+
0.490583 0.000000 0.446175 Li+
0.990583 0.500000 0.417906 Li+
0.491637 0.252873 0.402365 Li+
0.991637 0.247127 0.370807 Li+
0.991637 0.752873 0.370807 Li+
0.491637 0.747127 0.402365 Li+
0.490583 0.000000 0.537084 Li+
0.990583 0.500000 0.508815 Li+
0.491637 0.252873 0.493274 Li+
0.991637 0.247127 0.461716 Li+
0.991637 0.752873 0.461716 Li+
0.491637 0.747127 0.493274 Li+
0.490583 0.000000 0.627993 Li+
0.990583 0.500000 0.599724 Li+
0.491637 0.252873 0.584183 Li+
0.991637 0.247127 0.552625 Li+
0.991637 0.752873 0.552625 Li+
0.491637 0.747127 0.584183 Li+
0.498580 0.500000 0.084380 P5+
0.998580 0.000000 0.052428 P5+
0.498580 0.500000 0.175289 P5+
0.998580 0.000000 0.143337 P5+
0.498580 0.500000 0.266198 P5+
0.998580 0.000000 0.234246 P5+
0.498580 0.500000 0.357107 P5+
0.998580 0.000000 0.325155 P5+
0.498580 0.500000 0.448017 P5+
0.998580 0.000000 0.416064 P5+
0.498580 0.500000 0.538926 P5+
0.998580 0.000000 0.506973 P5+
0.498580 0.500000 0.629835 P5+
0.998580 0.000000 0.597882 P5+
0.892990 0.792862 0.039903 O2-
0.397874 0.500000 0.058994 O2-
0.814809 0.500000 0.084913 O2-
0.314809 0.000000 0.051894 O2-
0.392990 0.292862 0.005996 O2-
0.892990 0.207138 0.039903 O2-
0.897874 0.000000 0.077814 O2-
0.392990 0.707138 0.005996 O2-
0.892990 0.792862 0.130812 O2-
0.397874 0.500000 0.149903 O2-
0.814809 0.500000 0.175822 O2-
0.314809 0.000000 0.142804 O2-
0.392990 0.292862 0.096905 O2-
0.892990 0.207138 0.130812 O2-
0.897874 0.000000 0.168723 O2-
0.392990 0.707138 0.096905 O2-
0.892990 0.792862 0.221721 O2-
0.397874 0.500000 0.240812 O2-
0.814809 0.500000 0.266732 O2-
0.314809 0.000000 0.233713 O2-
0.392990 0.292862 0.187814 O2-
0.892990 0.207138 0.221721 O2-
0.897874 0.000000 0.259632 O2-
0.392990 0.707138 0.187814 O2-
0.892990 0.792862 0.312630 O2-
0.397874 0.500000 0.331721 O2-
0.814809 0.500000 0.357641 O2-
0.314809 0.000000 0.324622 O2-
0.392990 0.292862 0.278723 O2-
0.892990 0.207138 0.312630 O2-
0.897874 0.000000 0.350541 O2-
0.392990 0.707138 0.278723 O2-
0.892990 0.792862 0.403539 O2-
0.397874 0.500000 0.422631 O2-
0.814809 0.500000 0.448550 O2-
0.314809 0.000000 0.415531 O2-
0.392990 0.292862 0.369632 O2-
0.892990 0.207138 0.403539 O2-
0.897874 0.000000 0.441450 O2-
0.392990 0.707138 0.369632 O2-
0.892990 0.792862 0.494449 O2-
0.397874 0.500000 0.513540 O2-
0.814809 0.500000 0.539459 O2-
0.314809 0.000000 0.506440 O2-
0.392990 0.292862 0.460541 O2-
0.892990 0.207138 0.494449 O2-
0.897874 0.000000 0.532359 O2-
0.392990 0.707138 0.460541 O2-
0.892990 0.792862 0.585358 O2-
0.397874 0.500000 0.604449 O2-
0.814809 0.500000 0.630368 O2-
0.314809 0.000000 0.597349 O2-
0.392990 0.292862 0.551450 O2-
0.892990 0.207138 0.585358 O2-
0.897874 0.000000 0.623268 O2-
0.392990 0.707138 0.551450 O2-
