Li71 P24 N1 O94                         
   1.00000000000000     
    14.7208599084235132   -0.0026123816923762    0.0000261289650499
    -0.0018871496569783   10.5653714421758060    0.0180345826072517
     0.0000170605524449    0.0209757319592791   12.3529572049676961
   Li   P    N    O 
    71    24     1    94
Direct
  0.1675216312016967  0.4214050170294338 -0.0029538536304306
  0.1622560563676639  0.4329928710516193  0.5221060226482077
  0.1686660243153856  0.9232437509430143  0.0008647220812733
  0.1711014941619214  0.9195575360876637  0.5008510121602027
  0.5042770982324207  0.4215309518814211 -0.0010673911883767
  0.5068408653115041  0.4245609225544387  0.5046868586342259
  0.5048573194088152  0.9223287493768298 -0.0006055453746272
  0.5034285407169501  0.9226361383161326  0.5001599776661918
  0.8358326190247374  0.4230487925256837  0.0002828929346567
  0.8352623592232359  0.4230329399202044  0.5003826221204708
  0.8356844283545591  0.9206258917376358  0.0002803478257462
  0.8367015234460947  0.9257972147997207  0.4982370362815682
  0.0004583914281900  0.0725328880157142  0.7496007505192871
 -0.0006564699974229  0.5886000833740497  0.2508003157961413
  0.0019715481898651  0.5788070178340740  0.7509472440423403
  0.3369401003231302  0.0750801733268662  0.2481845032445748
  0.3366873923458634  0.0769563718458582  0.7501666783960538
  0.3388919802304372  0.5813325716247378  0.2485009047379237
  0.3364895308174071  0.5771151445311561  0.7506967845187605
  0.6783246964098648  0.0741613032073337  0.2489544742589501
  0.6700940065137394  0.0759130843010500  0.7495668270057931
  0.6707914284316474  0.5808051694771932  0.2497905269666393
  0.6692101957913092  0.5777527259938726  0.7501467302071249
  0.1712133574298321  0.1570103963330764  0.1277251375617351
  0.1676637540840779  0.1611449066838971  0.6278199391025027
  0.1685678739736565  0.6690022626871724  0.1216085272840071
  0.1696926063769419  0.6653540093323359  0.6279512124149297
  0.5052767292471952  0.1616072234740648  0.1260912175247404
  0.5030304432519433  0.1629337738979488  0.6263673964890022
  0.5040841285604392  0.6632056026198913  0.1248794565529486
  0.5024662640439604  0.6639049583477981  0.6266621912940331
  0.8408136910987678  0.1623578555551957  0.1258404989949645
  0.8359930737100317  0.1633439526121797  0.6262214835613645
  0.8353410178926509  0.6656743927003291  0.1256938812490076
  0.8354789198581513  0.6641425328067244  0.6266672402064616
 -0.0019207407417995  0.3398400100612688  0.1257133066779667
  0.0005405804165641  0.3352966490985105  0.6269851481180456
  0.0002844696253056  0.8440308134575424  0.1255436619211534
  0.0026743540073603  0.8391808741938346  0.6219233613298667
  0.3396450708272733  0.3357747823079438  0.1217927883499334
  0.3354748837425579  0.3356470644993225  0.6256298296451216
  0.3394193250868200  0.8369027640508623  0.1223091285199508
  0.3369504236058614  0.8369578627028453  0.6238210718645718
  0.6715544277139669  0.3359353251153766  0.1238508167161751
  0.6699450818868260  0.3358142639369420  0.6250173522911875
  0.6686301757085807  0.8346493744728678  0.1221008821268409
  0.6692045480798028  0.8363672013080363  0.6230292064869755
 -0.0003892017681003  0.3379529180327508  0.3765777053764642
  0.0013244801338466  0.3348906934982775  0.8781449345002038
  0.0009672156686918  0.8483422563572313  0.3734005975461046
  0.0017078469445996  0.8351710607468558  0.8752058136095172
  0.3699547055425385  0.3345618862576916  0.3819384286724729
  0.3366435036297341  0.3356265395895878  0.8767435990239207
  0.3385571679706061  0.8369457260740105  0.3757150425680794
  0.3367911046422581  0.8368761965730472  0.8767118156785240
  0.6690678236313493  0.3367535537666359  0.3768663311816865
  0.6697812556169004  0.3356184217104538  0.8761645401431388
  0.6682540307484472  0.8353382394315720  0.3780422642032933
  0.6695433584202608  0.8361091009001486  0.8759101568012525
  0.1580618129798963  0.1310119203188997  0.3714608818238367
  0.1684329052257649  0.1602683803223506  0.8742342419098589
  0.1679129440154112  0.6670304174655799  0.3754948563619387
  0.1695486162416012  0.6632051648611780  0.8743911185721777
  0.5070393615974617  0.1582613833645245  0.3718687963027305
  0.5039074484780299  0.1626688733072727  0.8729676313186108
  0.5036143073249328  0.6634015756739519  0.3739581057800958
  0.5027619279107771  0.6630320901102276  0.8733218341947698
  0.8396736727434856  0.1630385507601334  0.3710094441518019
  0.8351804943730194  0.1619279218194158  0.8726806530271248
  0.8353754489465951  0.6669462345005999  0.3744765730435221
  0.8354166702213668  0.6627796146135682  0.8734150579672569
  0.1665997309996204  0.4195410348891001  0.2444225153128876
  0.1662522233699697  0.4116961862479089  0.7527903124349897
  0.1698923408537774  0.9062124770298815  0.2484704011024222
  0.1677562617986269  0.9106990215185283  0.7501300265497439
  0.5007393585039114  0.4137715665973858  0.2488018156487932
  0.5001047920150868  0.4120981629714445  0.7503345621792332
  0.5017491888295271  0.9115299751964983  0.2496639652715457
  0.5003551373121835  0.9118636087592090  0.7496157695044594
  0.8317544061294364  0.4150588221113476  0.2507357150065471
  0.8328455531141163  0.4126547340678139  0.7504762492479481
  0.8289930811777390  0.9121196569342280  0.2498995457396209
  0.8325055800539291  0.9109114902810580  0.7488860147756461
 -0.0004731427403826  0.0859061932771297 -0.0058472334395306
  0.0017755125177252  0.0936476675936397  0.5054427817601101
 -0.0000305024167125  0.5891308477795424  0.0000895249485081
 -0.0005880488548525  0.5904309090976987  0.5006095392187364
  0.3358300406197602  0.0871574636532057 -0.0010925166534234
  0.3336720483799842  0.0881661826910391  0.4991056435822604
  0.3343804919102037  0.5866169614527411 -0.0004803687657106
  0.3336522572528308  0.5864319296977609  0.4999325887497216
  0.6671071946144842  0.0874995338711161 -0.0012362285904177
  0.6668090973679910  0.0882795148593427  0.5003825118336740
  0.6666699378492914  0.5866481097864877 -0.0010173178995929
  0.6664886913452271  0.5876131448980884  0.5009253542948199
  0.0428767924329828  0.1724391686793691  0.0886071585265323
  0.0410203869955054  0.1736056274271675  0.4116390523467224
  0.0333637535631507  0.1526170272309998  0.8874890889934842
  0.0345732458957584  0.6600173522825571  0.3972188211932378
  0.0357000236654161  0.6570062826671924  0.8958990544085679
  0.3697295470613348  0.1564655367405188  0.3948613855413534
  0.3705727615250433  0.1570486677732469  0.8951359038145315
  0.3692139945751364  0.6548860552659933  0.3963757980428855
  0.3686228859971827  0.6561246819006818  0.8954868452288348
  0.7013351246849966  0.1584282138877313  0.3970945035763017
  0.7015813554970038  0.1556953169683033  0.8940669174003444
  0.7018756245069249  0.6563581393002214  0.3974289402921865
  0.7016869075996998  0.6558652269126901  0.8951844845291739
  0.2035646424727442  0.0469958091236113  0.2487700021428920
  0.2017738671117982  0.0505682957095972  0.7498493038609088
  0.2031948062787738  0.5572025639456193  0.2498854125820865
  0.2009630088028696  0.5513011785527688  0.7507206859380811
  0.5368375701025047  0.0508295084338184  0.2492693450599671
  0.5340770172644757  0.0518146808382143  0.7493385012932391
  0.5351529369800843  0.5529412820621669  0.2500002274647424
  0.5332540594327403  0.5523508414226057  0.7496717822604175
  0.8507496471128698  0.0545203952743201  0.2490250746720936
  0.8650792955030181  0.0512212454145853  0.7492929495111103
  0.8654757779811121  0.5553454713750973  0.2505015276914284
  0.8669016677149827  0.5525537008610195  0.7501726704514904
  0.0617163602680466  0.4157641390414319  0.2512299652579709
  0.0606526542595263  0.4104889598065651  0.7518151431561220
  0.0660714421655781  0.8958783005232540  0.2485875939089222
  0.0621009239537162  0.9063088178277071  0.7492244789476866
  0.3945375550307639  0.4124559460898960  0.2471746483331153
  0.3942180326663978  0.4087584041035121  0.7501565388854293
  0.3959032360010713  0.9098475856241872  0.2494239535583355
  0.3945106787138237  0.9090579411997941  0.7496862543219821
  0.7258795168521902  0.4117905134915610  0.2513088629266144
  0.7270211749942573  0.4100565310464920  0.7504146311672900
  0.7232348613879535  0.8967830512374196  0.2501281297645467
  0.7266798128138615  0.9068791605967046  0.7488944442727691
  0.2302558505612777  0.0888996944980270 -0.0010731825452672
  0.2278034165475875  0.0918680486596117  0.4983841313711103
  0.2283966398811896  0.5882106218861414  0.0005687642658532
  0.2274660284207671  0.5873365159261855  0.4997127319148339
  0.5611435562352447  0.0906201078830461 -0.0007985100103336
  0.5607401572354255  0.0904999706839490  0.5006971295499478
  0.5607643872545027  0.5896351942603490 -0.0008783590286996
  0.5605197086784653  0.5916031462875995  0.5008303409270007
  0.8932865241058419  0.0854431551862259 -0.0037331658737693
  0.8959287083721197  0.0935177903889104  0.5007064926554787
  0.8941676522254906  0.5916665612433240 -0.0000821648111111
  0.8937699887848950  0.5919326116871336  0.5009083655746346
  0.2056116866206354  0.3441888363953716  0.1475497111325053
  0.2015167316864278  0.3418427262583847  0.6492977181919575
  0.2081973496590317  0.8405732620070906  0.1445163263776681
  0.2037033067010634  0.8422237105261359  0.6463786733452560
  0.5367693240361888  0.3431187260591593  0.1472243193572702
  0.5354880028312358  0.3431018510490402  0.6468793929086619
  0.5358122389895251  0.8416489706054884  0.1461670387881381
  0.5350699777490519  0.8428612284497600  0.6458152009480690
  0.8662353586445812  0.3468007067767283  0.1468711617616634
  0.8676498380029293  0.3439538956446360  0.6466692189169477
  0.8672237629022215  0.8443616426085616  0.1469468340516318
  0.8684433333589704  0.8435211647040214  0.6448837366419247
  0.0329216789585186  0.1548989646897226  0.6147016481098485
  0.0352573649049254  0.6585252015294457  0.1033357902721381
  0.0356696784942112  0.6582897374402735  0.6042273963983075
  0.3707419009690659  0.1566172007884824  0.1026461716410393
  0.3687000891332100  0.1577321559029922  0.6023152677859656
  0.3704243016267281  0.6557251383348838  0.1024480503929622
  0.3679850180183404  0.6556601174637020  0.6034107379649454
  0.7027450287168068  0.1573147295445402  0.1011869387299852
  0.7017341362569475  0.1566061334986165  0.6043526091047848
  0.7018749217621705  0.6556381954300198  0.1021991159174201
  0.7017529050371238  0.6560696737188062  0.6044762380729825
  0.0339010972470191  0.4492084218560966  0.0010379909042380
  0.0335690162932571  0.4500205947567129  0.5011335581781222
  0.0326536591185784  0.9448829319923607 -0.0035864710670227
  0.0369497284889465  0.9538497786082811  0.4999785706235989
  0.3685423039399782  0.4467875866159218 -0.0007620367437104
  0.3676411907468407  0.4462057659132173  0.5010732299427945
  0.3705988678566965  0.9477380174165243 -0.0010212879238938
  0.3674002386479689  0.9483468635546546  0.4999007124809121
  0.7001087140993015  0.4465999768373380 -0.0007559807946287
  0.6987646208695439  0.4469518085734714  0.5009931049974287
  0.6998324056766752  0.9469874050523510 -0.0008561738560041
  0.7004043929065339  0.9482973010580515  0.5001047605716935
  0.2016182027319728  0.3421893029774777  0.8559741023192745
  0.2074463675627633  0.8407943093929746  0.3538440418314412
  0.2031497933387451  0.8417048619869884  0.8538736428169269
  0.5304328322998153  0.3435626730282514  0.3552472729258692
  0.5356263883269300  0.3431765567203758  0.8538699353196912
  0.5351354843575896  0.8422014835280265  0.3543217209280528
  0.5356747535484029  0.8424165068451722  0.8531175767695540
  0.8675879567523577  0.3464439528753143  0.3543380740856814
  0.8679317621022183  0.3432606848235047  0.8541454711173175
  0.8676138693215686  0.8460915697776760  0.3539968502833490
  0.8680394975596680  0.8411475598244695  0.8521176084565742
 
  0.00000000E+00  0.00000000E+00  0.00000000E+00
  0.00000000E+00  0.00000000E+00  0.00000000E+00
  0.00000000E+00  0.00000000E+00  0.00000000E+00
  0.00000000E+00  0.00000000E+00  0.00000000E+00
  0.00000000E+00  0.00000000E+00  0.00000000E+00
  0.00000000E+00  0.00000000E+00  0.00000000E+00
  0.00000000E+00  0.00000000E+00  0.00000000E+00
  0.00000000E+00  0.00000000E+00  0.00000000E+00
  0.00000000E+00  0.00000000E+00  0.00000000E+00
  0.00000000E+00  0.00000000E+00  0.00000000E+00
  0.00000000E+00  0.00000000E+00  0.00000000E+00
  0.00000000E+00  0.00000000E+00  0.00000000E+00
  0.00000000E+00  0.00000000E+00  0.00000000E+00
  0.00000000E+00  0.00000000E+00  0.00000000E+00
  0.00000000E+00  0.00000000E+00  0.00000000E+00
  0.00000000E+00  0.00000000E+00  0.00000000E+00
  0.00000000E+00  0.00000000E+00  0.00000000E+00
  0.00000000E+00  0.00000000E+00  0.00000000E+00
  0.00000000E+00  0.00000000E+00  0.00000000E+00
  0.00000000E+00  0.00000000E+00  0.00000000E+00
  0.00000000E+00  0.00000000E+00  0.00000000E+00
  0.00000000E+00  0.00000000E+00  0.00000000E+00
  0.00000000E+00  0.00000000E+00  0.00000000E+00
  0.00000000E+00  0.00000000E+00  0.00000000E+00
  0.00000000E+00  0.00000000E+00  0.00000000E+00
  0.00000000E+00  0.00000000E+00  0.00000000E+00
  0.00000000E+00  0.00000000E+00  0.00000000E+00
  0.00000000E+00  0.00000000E+00  0.00000000E+00
  0.00000000E+00  0.00000000E+00  0.00000000E+00
  0.00000000E+00  0.00000000E+00  0.00000000E+00
  0.00000000E+00  0.00000000E+00  0.00000000E+00
  0.00000000E+00  0.00000000E+00  0.00000000E+00
  0.00000000E+00  0.00000000E+00  0.00000000E+00
  0.00000000E+00  0.00000000E+00  0.00000000E+00
  0.00000000E+00  0.00000000E+00  0.00000000E+00
  0.00000000E+00  0.00000000E+00  0.00000000E+00
  0.00000000E+00  0.00000000E+00  0.00000000E+00
  0.00000000E+00  0.00000000E+00  0.00000000E+00
  0.00000000E+00  0.00000000E+00  0.00000000E+00
  0.00000000E+00  0.00000000E+00  0.00000000E+00
  0.00000000E+00  0.00000000E+00  0.00000000E+00
  0.00000000E+00  0.00000000E+00  0.00000000E+00
  0.00000000E+00  0.00000000E+00  0.00000000E+00
  0.00000000E+00  0.00000000E+00  0.00000000E+00
  0.00000000E+00  0.00000000E+00  0.00000000E+00
  0.00000000E+00  0.00000000E+00  0.00000000E+00
  0.00000000E+00  0.00000000E+00  0.00000000E+00
  0.00000000E+00  0.00000000E+00  0.00000000E+00
  0.00000000E+00  0.00000000E+00  0.00000000E+00
  0.00000000E+00  0.00000000E+00  0.00000000E+00
  0.00000000E+00  0.00000000E+00  0.00000000E+00
  0.00000000E+00  0.00000000E+00  0.00000000E+00
  0.00000000E+00  0.00000000E+00  0.00000000E+00
  0.00000000E+00  0.00000000E+00  0.00000000E+00
  0.00000000E+00  0.00000000E+00  0.00000000E+00
  0.00000000E+00  0.00000000E+00  0.00000000E+00
  0.00000000E+00  0.00000000E+00  0.00000000E+00
  0.00000000E+00  0.00000000E+00  0.00000000E+00
  0.00000000E+00  0.00000000E+00  0.00000000E+00
  0.00000000E+00  0.00000000E+00  0.00000000E+00
  0.00000000E+00  0.00000000E+00  0.00000000E+00
  0.00000000E+00  0.00000000E+00  0.00000000E+00
  0.00000000E+00  0.00000000E+00  0.00000000E+00
  0.00000000E+00  0.00000000E+00  0.00000000E+00
  0.00000000E+00  0.00000000E+00  0.00000000E+00
  0.00000000E+00  0.00000000E+00  0.00000000E+00
  0.00000000E+00  0.00000000E+00  0.00000000E+00
  0.00000000E+00  0.00000000E+00  0.00000000E+00
  0.00000000E+00  0.00000000E+00  0.00000000E+00
  0.00000000E+00  0.00000000E+00  0.00000000E+00
  0.00000000E+00  0.00000000E+00  0.00000000E+00
  0.00000000E+00  0.00000000E+00  0.00000000E+00
  0.00000000E+00  0.00000000E+00  0.00000000E+00
  0.00000000E+00  0.00000000E+00  0.00000000E+00
  0.00000000E+00  0.00000000E+00  0.00000000E+00
  0.00000000E+00  0.00000000E+00  0.00000000E+00
  0.00000000E+00  0.00000000E+00  0.00000000E+00
  0.00000000E+00  0.00000000E+00  0.00000000E+00
  0.00000000E+00  0.00000000E+00  0.00000000E+00
  0.00000000E+00  0.00000000E+00  0.00000000E+00
  0.00000000E+00  0.00000000E+00  0.00000000E+00
  0.00000000E+00  0.00000000E+00  0.00000000E+00
  0.00000000E+00  0.00000000E+00  0.00000000E+00
  0.00000000E+00  0.00000000E+00  0.00000000E+00
  0.00000000E+00  0.00000000E+00  0.00000000E+00
  0.00000000E+00  0.00000000E+00  0.00000000E+00
  0.00000000E+00  0.00000000E+00  0.00000000E+00
  0.00000000E+00  0.00000000E+00  0.00000000E+00
  0.00000000E+00  0.00000000E+00  0.00000000E+00
  0.00000000E+00  0.00000000E+00  0.00000000E+00
  0.00000000E+00  0.00000000E+00  0.00000000E+00
  0.00000000E+00  0.00000000E+00  0.00000000E+00
  0.00000000E+00  0.00000000E+00  0.00000000E+00
  0.00000000E+00  0.00000000E+00  0.00000000E+00
  0.00000000E+00  0.00000000E+00  0.00000000E+00
  0.00000000E+00  0.00000000E+00  0.00000000E+00
  0.00000000E+00  0.00000000E+00  0.00000000E+00
  0.00000000E+00  0.00000000E+00  0.00000000E+00
  0.00000000E+00  0.00000000E+00  0.00000000E+00
  0.00000000E+00  0.00000000E+00  0.00000000E+00
  0.00000000E+00  0.00000000E+00  0.00000000E+00
  0.00000000E+00  0.00000000E+00  0.00000000E+00
  0.00000000E+00  0.00000000E+00  0.00000000E+00
  0.00000000E+00  0.00000000E+00  0.00000000E+00
  0.00000000E+00  0.00000000E+00  0.00000000E+00
  0.00000000E+00  0.00000000E+00  0.00000000E+00
  0.00000000E+00  0.00000000E+00  0.00000000E+00
  0.00000000E+00  0.00000000E+00  0.00000000E+00
  0.00000000E+00  0.00000000E+00  0.00000000E+00
  0.00000000E+00  0.00000000E+00  0.00000000E+00
  0.00000000E+00  0.00000000E+00  0.00000000E+00
  0.00000000E+00  0.00000000E+00  0.00000000E+00
  0.00000000E+00  0.00000000E+00  0.00000000E+00
  0.00000000E+00  0.00000000E+00  0.00000000E+00
  0.00000000E+00  0.00000000E+00  0.00000000E+00
  0.00000000E+00  0.00000000E+00  0.00000000E+00
  0.00000000E+00  0.00000000E+00  0.00000000E+00
  0.00000000E+00  0.00000000E+00  0.00000000E+00
  0.00000000E+00  0.00000000E+00  0.00000000E+00
  0.00000000E+00  0.00000000E+00  0.00000000E+00
  0.00000000E+00  0.00000000E+00  0.00000000E+00
  0.00000000E+00  0.00000000E+00  0.00000000E+00
  0.00000000E+00  0.00000000E+00  0.00000000E+00
  0.00000000E+00  0.00000000E+00  0.00000000E+00
  0.00000000E+00  0.00000000E+00  0.00000000E+00
  0.00000000E+00  0.00000000E+00  0.00000000E+00
  0.00000000E+00  0.00000000E+00  0.00000000E+00
  0.00000000E+00  0.00000000E+00  0.00000000E+00
  0.00000000E+00  0.00000000E+00  0.00000000E+00
  0.00000000E+00  0.00000000E+00  0.00000000E+00
  0.00000000E+00  0.00000000E+00  0.00000000E+00
  0.00000000E+00  0.00000000E+00  0.00000000E+00
  0.00000000E+00  0.00000000E+00  0.00000000E+00
  0.00000000E+00  0.00000000E+00  0.00000000E+00
  0.00000000E+00  0.00000000E+00  0.00000000E+00
  0.00000000E+00  0.00000000E+00  0.00000000E+00
  0.00000000E+00  0.00000000E+00  0.00000000E+00
  0.00000000E+00  0.00000000E+00  0.00000000E+00
  0.00000000E+00  0.00000000E+00  0.00000000E+00
  0.00000000E+00  0.00000000E+00  0.00000000E+00
  0.00000000E+00  0.00000000E+00  0.00000000E+00
  0.00000000E+00  0.00000000E+00  0.00000000E+00
  0.00000000E+00  0.00000000E+00  0.00000000E+00
  0.00000000E+00  0.00000000E+00  0.00000000E+00
  0.00000000E+00  0.00000000E+00  0.00000000E+00
  0.00000000E+00  0.00000000E+00  0.00000000E+00
  0.00000000E+00  0.00000000E+00  0.00000000E+00
  0.00000000E+00  0.00000000E+00  0.00000000E+00
  0.00000000E+00  0.00000000E+00  0.00000000E+00
  0.00000000E+00  0.00000000E+00  0.00000000E+00
  0.00000000E+00  0.00000000E+00  0.00000000E+00
  0.00000000E+00  0.00000000E+00  0.00000000E+00
  0.00000000E+00  0.00000000E+00  0.00000000E+00
  0.00000000E+00  0.00000000E+00  0.00000000E+00
  0.00000000E+00  0.00000000E+00  0.00000000E+00
  0.00000000E+00  0.00000000E+00  0.00000000E+00
  0.00000000E+00  0.00000000E+00  0.00000000E+00
  0.00000000E+00  0.00000000E+00  0.00000000E+00
  0.00000000E+00  0.00000000E+00  0.00000000E+00
  0.00000000E+00  0.00000000E+00  0.00000000E+00
  0.00000000E+00  0.00000000E+00  0.00000000E+00
  0.00000000E+00  0.00000000E+00  0.00000000E+00
  0.00000000E+00  0.00000000E+00  0.00000000E+00
  0.00000000E+00  0.00000000E+00  0.00000000E+00
  0.00000000E+00  0.00000000E+00  0.00000000E+00
  0.00000000E+00  0.00000000E+00  0.00000000E+00
  0.00000000E+00  0.00000000E+00  0.00000000E+00
  0.00000000E+00  0.00000000E+00  0.00000000E+00
  0.00000000E+00  0.00000000E+00  0.00000000E+00
  0.00000000E+00  0.00000000E+00  0.00000000E+00
  0.00000000E+00  0.00000000E+00  0.00000000E+00
  0.00000000E+00  0.00000000E+00  0.00000000E+00
  0.00000000E+00  0.00000000E+00  0.00000000E+00
  0.00000000E+00  0.00000000E+00  0.00000000E+00
  0.00000000E+00  0.00000000E+00  0.00000000E+00
  0.00000000E+00  0.00000000E+00  0.00000000E+00
  0.00000000E+00  0.00000000E+00  0.00000000E+00
  0.00000000E+00  0.00000000E+00  0.00000000E+00
  0.00000000E+00  0.00000000E+00  0.00000000E+00
  0.00000000E+00  0.00000000E+00  0.00000000E+00
  0.00000000E+00  0.00000000E+00  0.00000000E+00
  0.00000000E+00  0.00000000E+00  0.00000000E+00
  0.00000000E+00  0.00000000E+00  0.00000000E+00
  0.00000000E+00  0.00000000E+00  0.00000000E+00
  0.00000000E+00  0.00000000E+00  0.00000000E+00
  0.00000000E+00  0.00000000E+00  0.00000000E+00
  0.00000000E+00  0.00000000E+00  0.00000000E+00
  0.00000000E+00  0.00000000E+00  0.00000000E+00
  0.00000000E+00  0.00000000E+00  0.00000000E+00
  0.00000000E+00  0.00000000E+00  0.00000000E+00
