Li5 P2 N1 O6                            
   1.00000000000000     
    -0.0149613087244557   -0.0739265199875222    4.8483307986185507
     6.6740632331125198   -0.0861629494847089   -0.0078154304430344
    -0.1056515216024373    5.2460461614501517   -0.0675809814222412
   Li   P    N    O 
     5     2     1     6
Direct
  0.5356133116049016  0.9965321022150593  0.8470125055831284
  0.5400342027775089  0.2724602362330744  0.3037059820167156
  0.5400264646857038  0.7649841027042996  0.3030421522905724
  0.0414715288187720  0.8031092562842299  0.6338172485203819
  0.0323017510818804  0.2233906377147380  0.6486151367680402
  0.6224183521456056  0.5262751363504139  0.8191161385933765
  0.0390001597523419  0.0213045018584142  0.1681732547529914
  0.6361506293792690  0.7236997522426345  0.6788721238772756
  0.1512891743345503  0.2113471328330904  0.3144879393014388
  0.1490213474431230  0.8308383015381121  0.2948430937448193
  0.6547217360695023  0.3181787171145091  0.6856149021449727
  0.5748380194765645  0.5098713409733624  0.1014654837407238
  0.1306540134392147  0.0227148403138638  0.8812925785678477
  0.7167053089910842  0.0224209416241904  0.1751114600977244
 
  0.00000000E+00  0.00000000E+00  0.00000000E+00
  0.00000000E+00  0.00000000E+00  0.00000000E+00
  0.00000000E+00  0.00000000E+00  0.00000000E+00
  0.00000000E+00  0.00000000E+00  0.00000000E+00
  0.00000000E+00  0.00000000E+00  0.00000000E+00
  0.00000000E+00  0.00000000E+00  0.00000000E+00
  0.00000000E+00  0.00000000E+00  0.00000000E+00
  0.00000000E+00  0.00000000E+00  0.00000000E+00
  0.00000000E+00  0.00000000E+00  0.00000000E+00
  0.00000000E+00  0.00000000E+00  0.00000000E+00
  0.00000000E+00  0.00000000E+00  0.00000000E+00
  0.00000000E+00  0.00000000E+00  0.00000000E+00
  0.00000000E+00  0.00000000E+00  0.00000000E+00
  0.00000000E+00  0.00000000E+00  0.00000000E+00
