Li5 P2 N1 O6                            
   1.00000000000000     
    -0.0031002694561709   -0.0713383125343309    4.8703871365916651
     6.5521039983144780   -0.1183750212022810    0.0074744135201158
    -0.1286827540370200    5.2718811180948970   -0.0650626021161781
   Li   P    N    O 
     5     2     1     6
Direct
  0.5355792053733659 -0.0017696868604358  0.8475702288838403
 -0.4632879678541096  0.2768336676917125  0.3032951391271874
  0.5406351538804025  0.7686284467055532  0.3040962528909966
  0.0368520727652339  0.7988083129018931  0.6317959948257906
  0.0313796111268626  0.2189234265650625  0.6478003660746314
  0.6236006812437218  0.5231257062525373  0.8175885391758527
  0.0393171039354491  0.0237841121942778  0.1697764685953630
  0.6382962751636009  0.7205066624182112  0.6738865800248086
  0.1479404080117694  0.2205478135369335  0.3114276439434331
  0.1525247287618432  0.8338397034905753  0.3005780840188385
  0.6503965329602160  0.3082596930934908  0.6877625307528533
  0.5810669248745375  0.5125260694592780  0.0999002162608216
  0.1310091453645112  0.0195215244092564  0.8845352443717276
  0.7189361243926188  0.0235915481416538  0.1751567110538577
 
  0.00000000E+00  0.00000000E+00  0.00000000E+00
  0.00000000E+00  0.00000000E+00  0.00000000E+00
  0.00000000E+00  0.00000000E+00  0.00000000E+00
  0.00000000E+00  0.00000000E+00  0.00000000E+00
  0.00000000E+00  0.00000000E+00  0.00000000E+00
  0.00000000E+00  0.00000000E+00  0.00000000E+00
  0.00000000E+00  0.00000000E+00  0.00000000E+00
  0.00000000E+00  0.00000000E+00  0.00000000E+00
  0.00000000E+00  0.00000000E+00  0.00000000E+00
  0.00000000E+00  0.00000000E+00  0.00000000E+00
  0.00000000E+00  0.00000000E+00  0.00000000E+00
  0.00000000E+00  0.00000000E+00  0.00000000E+00
  0.00000000E+00  0.00000000E+00  0.00000000E+00
  0.00000000E+00  0.00000000E+00  0.00000000E+00
