Li5 P2 N1 O6                            
   1.00000000000000     
     0.1907477561511231    0.2051186117539503    5.0532909778157062
     6.1368638728577167   -0.2584246524299196    0.2392149965416976
    -0.2221369122884753    5.3583459217940446    0.2182869103565346
   Li   P    N    O 
     5     2     1     6
Direct
  0.4915181402721009  0.0001070532016692  0.9006443406928533
 -0.0032915975027312  0.4840614634275138  0.1687508702242216
  0.4962531921798181  0.7590262040573772  0.3335716115847324
  0.0124528177961954  0.7576980591046305  0.6590709858714653
  0.0784158534605151  0.2305386257516602  0.6729836140601463
  0.4972416469855795  0.5624770179545395  0.8348088546277715
 -0.0219673973137126 -0.0017327872978604  0.1808969385448421
  0.6197719673748904  0.7211528271040190  0.6630109941613658
  0.0341287594973277  0.2110070698874278  0.3356495187109917
  0.1139463975003725  0.7925941712687530  0.2925559274605147
  0.6259618080959592  0.4713504452701844  0.0550387300549070
  0.1029302960522993  0.0059362087062358  0.9018822099878570
  0.2168855023034842  0.4860575487923320  0.8098945694157518
  0.6781796132979251 -0.0260089072284820  0.1783158346025868
 
  0.00000000E+00  0.00000000E+00  0.00000000E+00
  0.00000000E+00  0.00000000E+00  0.00000000E+00
  0.00000000E+00  0.00000000E+00  0.00000000E+00
  0.00000000E+00  0.00000000E+00  0.00000000E+00
  0.00000000E+00  0.00000000E+00  0.00000000E+00
  0.00000000E+00  0.00000000E+00  0.00000000E+00
  0.00000000E+00  0.00000000E+00  0.00000000E+00
  0.00000000E+00  0.00000000E+00  0.00000000E+00
  0.00000000E+00  0.00000000E+00  0.00000000E+00
  0.00000000E+00  0.00000000E+00  0.00000000E+00
  0.00000000E+00  0.00000000E+00  0.00000000E+00
  0.00000000E+00  0.00000000E+00  0.00000000E+00
  0.00000000E+00  0.00000000E+00  0.00000000E+00
  0.00000000E+00  0.00000000E+00  0.00000000E+00
