P56 O140
1.0
5.549684 0.000000 0.000000
0.000000 9.243835 -0.114002
0.000000 0.000000 73.275459
P O
56 140
direct
0.397736 0.520879 0.918254 P5+
0.897736 0.025775 0.968410 P5+
0.147736 0.082358 0.933623 P5+
0.647736 0.464297 0.953040 P5+
0.897736 0.720879 0.968254 P5+
0.397736 0.825775 0.918410 P5+
0.647736 0.282358 0.983623 P5+
0.147736 0.264297 0.903040 P5+
0.397736 0.120880 0.818254 P5+
0.897736 0.625775 0.868410 P5+
0.147736 0.682358 0.833623 P5+
0.647736 0.064297 0.853040 P5+
0.897736 0.320879 0.868254 P5+
0.397736 0.425775 0.818410 P5+
0.647736 0.882358 0.883623 P5+
0.147736 0.864297 0.803040 P5+
0.397736 0.720879 0.718254 P5+
0.897736 0.225775 0.768410 P5+
0.147736 0.282358 0.733623 P5+
0.647736 0.664297 0.753040 P5+
0.897736 0.920879 0.768254 P5+
0.397736 0.025775 0.718410 P5+
0.647736 0.482358 0.783623 P5+
0.147736 0.464297 0.703040 P5+
0.397736 0.320880 0.618254 P5+
0.897736 0.825775 0.668410 P5+
0.147736 0.882358 0.633623 P5+
0.647736 0.264297 0.653040 P5+
0.897736 0.520880 0.668254 P5+
0.397736 0.625775 0.618410 P5+
0.647736 0.082358 0.683623 P5+
0.147736 0.064297 0.603040 P5+
0.397736 0.920880 0.518254 P5+
0.897736 0.425775 0.568410 P5+
0.147736 0.482358 0.533623 P5+
0.647736 0.864297 0.553040 P5+
0.897736 0.120879 0.568254 P5+
0.397736 0.225775 0.518410 P5+
0.647736 0.682358 0.583623 P5+
0.147736 0.664297 0.503040 P5+
0.397736 0.520879 0.418254 P5+
0.897736 0.025775 0.468410 P5+
0.147736 0.082358 0.433623 P5+
0.647736 0.464297 0.453040 P5+
0.897736 0.720879 0.468254 P5+
0.397736 0.825775 0.418410 P5+
0.647736 0.282358 0.483623 P5+
0.147736 0.264297 0.403040 P5+
0.397736 0.120880 0.318254 P5+
0.897736 0.625775 0.368410 P5+
0.147736 0.682358 0.333623 P5+
0.647736 0.064297 0.353040 P5+
0.897736 0.320879 0.368254 P5+
0.397736 0.425775 0.318410 P5+
0.647736 0.882358 0.383623 P5+
0.147736 0.864297 0.303040 P5+
0.618645 0.513298 0.907511 O2-
0.118645 0.033357 0.979153 O2-
0.868645 0.346563 0.990827 O2-
0.868645 0.400091 0.945836 O2-
0.509255 0.373327 0.968332 O2-
0.259255 0.673327 0.918332 O2-
0.425991 0.489791 0.939704 O2-
0.925991 0.056864 0.946960 O2-
0.675991 0.126424 0.973862 O2-
0.675991 0.620231 0.962801 O2-
0.118645 0.713298 0.957511 O2-
0.618645 0.833357 0.929153 O2-
0.368645 0.146563 0.940827 O2-
0.368645 0.600091 0.995836 O2-
0.009255 0.173327 0.918332 O2-
0.759255 0.873327 0.968332 O2-
0.925991 0.689791 0.989704 O2-
0.425991 0.256864 0.996960 O2-
0.175991 0.926424 0.923862 O2-
0.175991 0.420231 0.912801 O2-
0.618645 0.113298 0.807511 O2-
0.118645 0.633357 0.879153 O2-
0.868645 0.946563 0.890827 O2-
0.868645 0.000091 0.845836 O2-
0.509255 0.973327 0.868332 O2-
0.259255 0.273327 0.818332 O2-
0.425991 0.089791 0.839704 O2-
0.925991 0.656864 0.846960 O2-
0.675991 0.726424 0.873862 O2-
0.675991 0.220231 0.862801 O2-
0.118645 0.313298 0.857511 O2-
0.618645 0.433357 0.829153 O2-
0.368645 0.746563 0.840827 O2-
0.368645 0.200091 0.895836 O2-
0.009255 0.773327 0.818332 O2-
0.759255 0.473327 0.868332 O2-
0.925991 0.289791 0.889704 O2-
0.425991 0.856864 0.896960 O2-
0.175991 0.526424 0.823862 O2-
0.175991 0.020231 0.812801 O2-
0.618645 0.713298 0.707511 O2-
0.118645 0.233357 0.779153 O2-
0.868645 0.546563 0.790827 O2-
0.868645 0.600091 0.745836 O2-
0.509255 0.573327 0.768332 O2-
0.259255 0.873327 0.718332 O2-
0.425991 0.689791 0.739704 O2-
0.925991 0.256864 0.746960 O2-
0.675991 0.326424 0.773862 O2-
0.675991 0.820231 0.762801 O2-
0.118645 0.913298 0.757511 O2-
0.618645 0.033357 0.729153 O2-
0.368645 0.346563 0.740827 O2-
0.368645 0.800091 0.795836 O2-
0.009255 0.373327 0.718332 O2-
0.759255 0.073327 0.768332 O2-
0.925991 0.889791 0.789704 O2-
0.425991 0.456864 0.796960 O2-
0.175991 0.126424 0.723862 O2-
0.175991 0.620231 0.712801 O2-
0.618645 0.313298 0.607511 O2-
0.118645 0.833357 0.679153 O2-
0.868645 0.146563 0.690827 O2-
0.868645 0.200091 0.645836 O2-
0.509255 0.173327 0.668332 O2-
0.259255 0.473327 0.618332 O2-
0.425991 0.289791 0.639704 O2-
0.925991 0.856864 0.646960 O2-
0.675991 0.926424 0.673862 O2-
0.675991 0.420231 0.662801 O2-
0.118645 0.513298 0.657511 O2-
0.618645 0.633357 0.629153 O2-
0.368645 0.946563 0.640827 O2-
0.368645 0.400091 0.695836 O2-
0.009255 0.973327 0.618332 O2-
0.759255 0.673327 0.668332 O2-
0.925991 0.489791 0.689704 O2-
0.425991 0.056864 0.696960 O2-
0.175991 0.726424 0.623862 O2-
0.175991 0.220231 0.612801 O2-
0.618645 0.913298 0.507511 O2-
0.118645 0.433357 0.579153 O2-
0.868645 0.746563 0.590827 O2-
0.868645 0.800091 0.545836 O2-
0.509255 0.773327 0.568332 O2-
0.259255 0.073327 0.518332 O2-
0.425991 0.889791 0.539704 O2-
0.925991 0.456864 0.546960 O2-
0.675991 0.526424 0.573862 O2-
0.675991 0.020231 0.562801 O2-
0.118645 0.113298 0.557511 O2-
0.618645 0.233357 0.529153 O2-
0.368645 0.546563 0.540827 O2-
0.368645 0.000091 0.595836 O2-
0.009255 0.573327 0.518332 O2-
0.759255 0.273327 0.568332 O2-
0.925991 0.089791 0.589704 O2-
0.425991 0.656864 0.596960 O2-
0.175991 0.326424 0.523862 O2-
0.175991 0.820231 0.512801 O2-
0.618645 0.513298 0.407511 O2-
0.118645 0.033357 0.479153 O2-
0.868645 0.346563 0.490827 O2-
0.868645 0.400091 0.445836 O2-
0.509255 0.373327 0.468332 O2-
0.259255 0.673327 0.418332 O2-
0.425991 0.489791 0.439704 O2-
0.925991 0.056864 0.446960 O2-
0.675991 0.126424 0.473862 O2-
0.675991 0.620231 0.462801 O2-
0.118645 0.713298 0.457511 O2-
0.618645 0.833357 0.429153 O2-
0.368645 0.146563 0.440827 O2-
0.368645 0.600091 0.495836 O2-
0.009255 0.173327 0.418332 O2-
0.759255 0.873327 0.468332 O2-
0.925991 0.689791 0.489704 O2-
0.425991 0.256864 0.496960 O2-
0.175991 0.926424 0.423862 O2-
0.175991 0.420231 0.412801 O2-
0.618645 0.113298 0.307511 O2-
0.118645 0.633357 0.379153 O2-
0.868645 0.946563 0.390827 O2-
0.868645 0.000091 0.345836 O2-
0.509255 0.973327 0.368332 O2-
0.259255 0.273327 0.318332 O2-
0.425991 0.089791 0.339704 O2-
0.925991 0.656864 0.346960 O2-
0.675991 0.726424 0.373862 O2-
0.675991 0.220231 0.362801 O2-
0.118645 0.313298 0.357511 O2-
0.618645 0.433357 0.329153 O2-
0.368645 0.746563 0.340827 O2-
0.368645 0.200091 0.395836 O2-
0.009255 0.773327 0.318332 O2-
0.759255 0.473327 0.368332 O2-
0.925991 0.289791 0.389704 O2-
0.425991 0.856864 0.396960 O2-
0.175991 0.526424 0.323862 O2-
0.175991 0.020231 0.312801 O2-
