Li84 P196
1.0
9.847875 0.000000 0.000000
0.000000 10.597250 -7.628682
0.000000 0.000000 76.286820
Li P
84 196
Selective dynamics
direct
0.307848 0.816050 0.056079 F F F Li
0.192152 0.183950 0.042869 T T T Li
0.807848 0.683950 0.072763 F F F Li
0.692152 0.316050 0.085973 F F F Li
0.025950 0.014795 0.047796 F F F Li
0.474050 0.985205 0.094837 F F F Li
0.525950 0.485205 0.081047 F F F Li
0.974050 0.514795 0.034006 T T T Li
0.301371 0.692124 0.098857 F F F Li
0.198629 0.307876 0.010433 T T T Li
0.801371 0.807876 0.029985 T T T Li
0.698629 0.192124 0.018410 T T T Li
0.307848 0.816050 0.156079 F F F Li
0.192152 0.183950 0.142869 F F F Li
0.807848 0.683950 0.172763 F F F Li
0.692152 0.316050 0.185973 F F F Li
0.025950 0.014795 0.147796 F F F Li
0.474050 0.985205 0.194837 F F F Li
0.525950 0.485205 0.181047 F F F Li
0.974050 0.514795 0.134006 F F F Li
0.301371 0.692124 0.198857 F F F Li
0.198629 0.307876 0.110433 F F F Li
0.801371 0.807876 0.129985 F F F Li
0.698629 0.192124 0.118410 F F F Li
0.307848 0.816050 0.256079 F F F Li
0.192152 0.183950 0.242869 F F F Li
0.807848 0.683950 0.272763 F F F Li
0.692152 0.316050 0.285973 F F F Li
0.025950 0.014795 0.247796 F F F Li
0.474050 0.985205 0.294837 F F F Li
0.525950 0.485205 0.281047 F F F Li
0.974050 0.514795 0.234006 F F F Li
0.301371 0.692124 0.298857 F F F Li
0.198629 0.307876 0.210433 F F F Li
0.801371 0.807876 0.229985 F F F Li
0.698629 0.192124 0.218410 F F F Li
0.307848 0.816050 0.356079 F F F Li
0.192152 0.183950 0.342869 F F F Li
0.807848 0.683950 0.372763 F F F Li
0.692152 0.316050 0.385973 F F F Li
0.025950 0.014795 0.347796 F F F Li
0.474050 0.985205 0.394837 F F F Li
0.525950 0.485205 0.381047 F F F Li
0.974050 0.514795 0.334006 F F F Li
0.301371 0.692124 0.398857 F F F Li
0.198629 0.307876 0.310433 F F F Li
0.801371 0.807876 0.329985 F F F Li
0.698629 0.192124 0.318410 F F F Li
0.307848 0.816050 0.456079 F F F Li
0.192152 0.183950 0.442869 F F F Li
0.807848 0.683950 0.472763 F F F Li
0.692152 0.316050 0.485973 F F F Li
0.025950 0.014795 0.447796 F F F Li
0.474050 0.985205 0.494837 F F F Li
0.525950 0.485205 0.481047 F F F Li
0.974050 0.514795 0.434006 F F F Li
0.301371 0.692124 0.498857 F F F Li
0.198629 0.307876 0.410433 F F F Li
0.801371 0.807876 0.429985 F F F Li
0.698629 0.192124 0.418410 F F F Li
0.307848 0.816050 0.556079 F F F Li
0.192152 0.183950 0.542869 F F F Li
0.807848 0.683950 0.572763 F F F Li
0.692152 0.316050 0.585973 F F F Li
0.025950 0.014795 0.547796 F F F Li
0.474050 0.985205 0.594837 F F F Li
0.525950 0.485205 0.581047 F F F Li
0.974050 0.514795 0.534006 F F F Li
0.301371 0.692124 0.598857 F F F Li
0.198629 0.307876 0.510433 F F F Li
0.801371 0.807876 0.529985 F F F Li
0.698629 0.192124 0.518410 F F F Li
0.307848 0.816050 0.656079 F F F Li
0.192152 0.183950 0.642869 F F F Li
0.807848 0.683950 0.672763 F F F Li
0.692152 0.316050 0.685973 T T T Li
0.025950 0.014795 0.647796 F F F Li
0.474050 0.985205 0.694837 T T T Li
0.525950 0.485205 0.681047 T T T Li
0.974050 0.514795 0.634006 F F F Li
0.301371 0.692124 0.698857 T T T Li
0.198629 0.307876 0.610433 F F F Li
0.801371 0.807876 0.629985 F F F Li
0.698629 0.192124 0.618410 F F F Li
0.875491 0.318848 0.049383 F F F P
0.624509 0.681152 0.035613 T T T P
0.375491 0.181152 0.079460 F F F P
0.124509 0.818848 0.093229 F F F P
0.048522 0.387402 0.091926 F F F P
0.451478 0.612598 0.064446 F F F P
0.548522 0.112598 0.036916 T T T P
0.951478 0.887402 0.064397 F F F P
0.943528 0.565132 0.099314 F F F P
0.556472 0.434868 0.036288 T T T P
0.443528 0.934868 0.029528 F F F P
0.056472 0.065132 0.092555 F F F P
0.134841 0.494288 0.079455 F F F P
0.365159 0.505712 0.030598 T T T P
0.634841 0.005712 0.049387 F F F P
0.865159 0.994288 0.098245 F F F P
0.927027 0.881290 0.009177 T T T P
0.572973 0.118710 0.082919 F F F P
0.427027 0.618710 0.019666 T T T P
0.072973 0.381290 0.045924 F F F P
0.218031 0.994617 0.001755 F F F P
0.281969 0.005383 0.052832 F F F P
0.718031 0.505383 0.027087 T T T P
0.781969 0.494617 0.076010 F F F P
0.070503 0.734192 0.059490 F F F P
0.429497 0.265808 0.062651 F F F P
0.570503 0.765808 0.069353 F F F P
0.929497 0.234192 0.066191 F F F P
0.875491 0.318848 0.149383 F F F P
0.624509 0.681152 0.135613 F F F P
0.375491 0.181152 0.179460 F F F P
0.124509 0.818848 0.193229 F F F P
0.048522 0.387402 0.191926 F F F P
0.451478 0.612598 0.164446 F F F P
0.548522 0.112598 0.136916 F F F P
0.951478 0.887402 0.164397 F F F P
0.943528 0.565132 0.199314 F F F P
0.556472 0.434868 0.136288 F F F P
0.443528 0.934868 0.129528 F F F P
0.056472 0.065132 0.192555 F F F P
0.134841 0.494288 0.179455 F F F P
0.365159 0.505712 0.130598 F F F P
0.634841 0.005712 0.149387 F F F P
0.865159 0.994288 0.198245 F F F P
0.927027 0.881290 0.109177 F F F P
0.572973 0.118710 0.182919 F F F P
0.427027 0.618710 0.119666 F F F P
0.072973 0.381290 0.145924 F F F P
0.218031 0.994617 0.101755 F F F P
0.281969 0.005383 0.152832 F F F P
0.718031 0.505383 0.127087 F F F P
0.781969 0.494617 0.176010 F F F P
0.070503 0.734192 0.159490 F F F P
0.429497 0.265808 0.162651 F F F P
0.570503 0.765808 0.169353 F F F P
0.929497 0.234192 0.166191 F F F P
0.875491 0.318848 0.249383 F F F P
0.624509 0.681152 0.235613 F F F P
0.375491 0.181152 0.279460 F F F P
0.124509 0.818848 0.293229 F F F P
0.048522 0.387402 0.291926 F F F P
0.451478 0.612598 0.264446 F F F P
0.548522 0.112598 0.236916 F F F P
0.951478 0.887402 0.264397 F F F P
0.943528 0.565132 0.299314 F F F P
0.556472 0.434868 0.236288 F F F P
0.443528 0.934868 0.229528 F F F P
0.056472 0.065132 0.292555 F F F P
0.134841 0.494288 0.279455 F F F P
0.365159 0.505712 0.230598 F F F P
0.634841 0.005712 0.249387 F F F P
0.865159 0.994288 0.298245 F F F P
0.927027 0.881290 0.209177 F F F P
0.572973 0.118710 0.282919 F F F P
0.427027 0.618710 0.219666 F F F P
0.072973 0.381290 0.245924 F F F P
0.218031 0.994617 0.201755 F F F P
0.281969 0.005383 0.252832 F F F P
0.718031 0.505383 0.227087 F F F P
0.781969 0.494617 0.276010 F F F P
0.070503 0.734192 0.259490 F F F P
0.429497 0.265808 0.262651 F F F P
0.570503 0.765808 0.269353 F F F P
0.929497 0.234192 0.266191 F F F P
0.875491 0.318848 0.349383 F F F P
0.624509 0.681152 0.335613 F F F P
0.375491 0.181152 0.379460 F F F P
0.124509 0.818848 0.393229 F F F P
0.048522 0.387402 0.391926 F F F P
0.451478 0.612598 0.364446 F F F P
0.548522 0.112598 0.336916 F F F P
0.951478 0.887402 0.364397 F F F P
0.943528 0.565132 0.399314 F F F P
0.556472 0.434868 0.336288 F F F P
0.443528 0.934868 0.329528 F F F P
0.056472 0.065132 0.392555 F F F P
0.134841 0.494288 0.379455 F F F P
0.365159 0.505712 0.330598 F F F P
0.634841 0.005712 0.349387 F F F P
0.865159 0.994288 0.398245 F F F P
0.927027 0.881290 0.309177 F F F P
0.572973 0.118710 0.382919 F F F P
0.427027 0.618710 0.319666 F F F P
0.072973 0.381290 0.345924 F F F P
0.218031 0.994617 0.301755 F F F P
0.281969 0.005383 0.352832 F F F P
0.718031 0.505383 0.327087 F F F P
0.781969 0.494617 0.376010 F F F P
0.070503 0.734192 0.359490 F F F P
0.429497 0.265808 0.362651 F F F P
0.570503 0.765808 0.369353 F F F P
0.929497 0.234192 0.366191 F F F P
0.875491 0.318848 0.449383 F F F P
0.624509 0.681152 0.435613 F F F P
0.375491 0.181152 0.479460 F F F P
0.124509 0.818848 0.493229 F F F P
0.048522 0.387402 0.491926 F F F P
0.451478 0.612598 0.464446 F F F P
0.548522 0.112598 0.436916 F F F P
0.951478 0.887402 0.464397 F F F P
0.943528 0.565132 0.499314 F F F P
0.556472 0.434868 0.436288 F F F P
0.443528 0.934868 0.429528 F F F P
0.056472 0.065132 0.492555 F F F P
0.134841 0.494288 0.479455 F F F P
0.365159 0.505712 0.430598 F F F P
0.634841 0.005712 0.449387 F F F P
0.865159 0.994288 0.498245 F F F P
0.927027 0.881290 0.409177 F F F P
0.572973 0.118710 0.482919 F F F P
0.427027 0.618710 0.419666 F F F P
0.072973 0.381290 0.445924 F F F P
0.218031 0.994617 0.401755 F F F P
0.281969 0.005383 0.452832 F F F P
0.718031 0.505383 0.427087 F F F P
0.781969 0.494617 0.476010 F F F P
0.070503 0.734192 0.459490 F F F P
0.429497 0.265808 0.462651 F F F P
0.570503 0.765808 0.469353 F F F P
0.929497 0.234192 0.466191 F F F P
0.875491 0.318848 0.549383 F F F P
0.624509 0.681152 0.535613 F F F P
0.375491 0.181152 0.579460 F F F P
0.124509 0.818848 0.593229 F F F P
0.048522 0.387402 0.591926 F F F P
0.451478 0.612598 0.564446 F F F P
0.548522 0.112598 0.536916 F F F P
0.951478 0.887402 0.564397 F F F P
0.943528 0.565132 0.599314 F F F P
0.556472 0.434868 0.536288 F F F P
0.443528 0.934868 0.529528 F F F P
0.056472 0.065132 0.592555 F F F P
0.134841 0.494288 0.579455 F F F P
0.365159 0.505712 0.530598 F F F P
0.634841 0.005712 0.549387 F F F P
0.865159 0.994288 0.598245 F F F P
0.927027 0.881290 0.509177 F F F P
0.572973 0.118710 0.582919 F F F P
0.427027 0.618710 0.519666 F F F P
0.072973 0.381290 0.545924 F F F P
0.218031 0.994617 0.501755 F F F P
0.281969 0.005383 0.552832 F F F P
0.718031 0.505383 0.527087 F F F P
0.781969 0.494617 0.576010 F F F P
0.070503 0.734192 0.559490 F F F P
0.429497 0.265808 0.562651 F F F P
0.570503 0.765808 0.569353 F F F P
0.929497 0.234192 0.566191 F F F P
0.875491 0.318848 0.649383 F F F P
0.624509 0.681152 0.635613 F F F P
0.375491 0.181152 0.679460 F F F P
0.124509 0.818848 0.693229 T T T P
0.048522 0.387402 0.691926 F F F P
0.451478 0.612598 0.664446 F F F P
0.548522 0.112598 0.636916 F F F P
0.951478 0.887402 0.664397 F F F P
0.943528 0.565132 0.699314 T T T P
0.556472 0.434868 0.636288 F F F P
0.443528 0.934868 0.629528 F F F P
0.056472 0.065132 0.692555 T T T P
0.134841 0.494288 0.679455 F F F P
0.365159 0.505712 0.630598 F F F P
0.634841 0.005712 0.649387 F F F P
0.865159 0.994288 0.698245 T T T P
0.927027 0.881290 0.609177 F F F P
0.572973 0.118710 0.682919 F F F P
0.427027 0.618710 0.619666 F F F P
0.072973 0.381290 0.645924 F F F P
0.218031 0.994617 0.601755 F F F P
0.281969 0.005383 0.652832 F F F P
0.718031 0.505383 0.627087 F F F P
0.781969 0.494617 0.676010 T T T P
0.070503 0.734192 0.659490 F F F P
0.429497 0.265808 0.662651 F F F P
0.570503 0.765808 0.669353 F F F P
0.929497 0.234192 0.666191 F F F P
