Li1
1.0
-1.672459 1.672459 1.672459
1.672459 -1.672459 1.672459
1.672459 1.672459 -1.672459
Li
1
direct
0.000000 0.000000 0.000000 Li
