P2 N2 O2                                
   1.00000000000000     
    -2.2694481276484182    2.4287765043448943    3.5335769775082113
     2.2694481276484182   -2.4287765043448943    3.5335769775082113
     2.2694481276484182    2.4287765043448943   -3.5335769775082113
   P    N    O 
     2     2     2
Direct
  0.8893904267791661  0.1393904267791660  0.7500000000000000
  0.6106095732208339  0.3606095732208340  0.2500000000000000
  0.2500000000000000  0.1136282146844633  0.8636282146844634
  0.7500000000000000  0.3863717853155366  0.6363717853155366
  0.6305704851099677  0.7500000000000000  0.3805704851099677
  0.8694295148900323  0.2500000000000000  0.1194295148900322
 
  0.00000000E+00  0.00000000E+00  0.00000000E+00
  0.00000000E+00  0.00000000E+00  0.00000000E+00
  0.00000000E+00  0.00000000E+00  0.00000000E+00
  0.00000000E+00  0.00000000E+00  0.00000000E+00
  0.00000000E+00  0.00000000E+00  0.00000000E+00
  0.00000000E+00  0.00000000E+00  0.00000000E+00
