Li71 P24 N1 O94                         
   1.00000000000000     
    14.7359268078353072   -0.0173275439155990   -0.0051613965697218
    -0.0124102153133690   10.5510246715246954    0.0070730202776046
    -0.0043023434522155    0.0082535120647027   12.3542547791880963
   Li   P    N    O 
    71    24     1    94
Direct
  0.1678512283277668  0.4202463845838161 -0.0037470846608643
  0.1619904095358235  0.4339062325144373  0.5210586456406058
  0.1672354277035986  0.9200938082683529  0.0018359034621452
  0.1711000149936279  0.9195289595616138  0.5013813520990722
  0.5040799964230842  0.4208801162958882 -0.0011853278003820
  0.5064657076877667  0.4240381859927987  0.5044816735472998
  0.5081202779314613  0.9211401255549254 -0.0007643029270983
  0.5035042807571557  0.9222764118420086  0.5003301722702338
  0.8355662230291772  0.4225448766344710  0.0000529522719584
  0.8350736242565893  0.4230568453687646  0.5001223731122009
  0.8365518766592197  0.9239111583531372  0.0007643175002963
  0.8368102460867087  0.9253765089960495  0.4986948924308354
 -0.0000144398669960  0.0728793022178010  0.7506892341036149
 -0.0009649313307761  0.5884221541074250  0.2503724708905244
  0.0019471194191026  0.5803751784664596  0.7505596080241005
  0.3359011615293544  0.0744205731357198  0.2477307969410623
  0.3373247969038325  0.0765197228507754  0.7501910880157130
  0.3386164517443024  0.5806161920873339  0.2482106438533250
  0.3367907672070108  0.5771001497407410  0.7505933378448548
  0.6790190925535251  0.0737122043765758  0.2496813174208783
  0.6711663515232260  0.0756478323669238  0.7495281469503904
  0.6708324626255187  0.5803930341591259  0.2496528161636568
  0.6690911839317629  0.5782928608307182  0.7501186566142117
  0.1586914639089709  0.1594605256655944  0.1284631468906901
  0.1677793082569271  0.1614825567959864  0.6283066341740242
  0.1683741511689323  0.6677485727877954  0.1214428026354743
  0.1698344659192987  0.6668011147734140  0.6276281430030179
  0.5077572400043989  0.1608524660210908  0.1271722423993167
  0.5031472500675614  0.1627445246704382  0.6264915437207386
  0.5041572744325312  0.6627163035063230  0.1249174940679198
  0.5024921636449757  0.6635615359776585  0.6264598163148313
  0.8401192217924071  0.1620477027027238  0.1276448905194412
  0.8360192858632280  0.1636756674126100  0.6264652286758896
  0.8355656724187591  0.6656147475588705  0.1254545793326806
  0.8354052325666144  0.6643136514147188  0.6263495642046099
 -0.0016897079630596  0.3349067447380078  0.1232997329712093
  0.0003975180707149  0.3356709257642897  0.6266450107627943
 -0.0004800266778955  0.8463506821694990  0.1256040480116785
  0.0028661163881317  0.8395269043347255  0.6226098133194182
  0.3378060659367385  0.3336309222550743  0.1212037772809129
  0.3353057808638740  0.3359046035368983  0.6253225002719536
  0.3403499808751628  0.8367577064609867  0.1212146045643703
  0.3371598084218869  0.8370777168695185  0.6240713857575215
  0.6716056534343883  0.3361177868512524  0.1236470056193162
  0.6695884501104336  0.3359910588617859  0.6249165645592145
  0.6691590678750875  0.8343013014197540  0.1221684666102609
  0.6691654514897691  0.8360510741464062  0.6228827154822453
 -0.0009823851085003  0.3372924409044878  0.3769643679148859
  0.0007435812823552  0.3361890731956110  0.8757967995504636
  0.0007596008354125  0.8478373815371614  0.3733801203840474
  0.0021912702189740  0.8375607407250856  0.8771886493600376
  0.3696555305346843  0.3343024323390227  0.3815312693655342
  0.3358273204132752  0.3335013095781797  0.8766425637980164
  0.3390983368538597  0.8370808272333734  0.3754690568126702
  0.3379817824806961  0.8365910546640539  0.8773066563202251
  0.6689400950978204  0.3366610529729944  0.3762370405819015
  0.6700083015108166  0.3361703143899722  0.8756332429986418
  0.6678964765805125  0.8349398081786984  0.3784065866494602
  0.6702989356818256  0.8356751285401822  0.8758884088320715
  0.1581247591354178  0.1293346403579694  0.3721754706446443
  0.1625385676226518  0.1669851393810376  0.8730019134908529
  0.1677321431776295  0.6679552998948255  0.3750431462943078
  0.1697566546957541  0.6630216583255827  0.8745403731857394
  0.5069681841754611  0.1579432621208341  0.3720813987200098
  0.5066356638931054  0.1620487417727545  0.8720061791822166
  0.5035993250394062  0.6630039236917978  0.3740374444018698
  0.5029496165431263  0.6627876978435719  0.8733504012192398
  0.8393164395087241  0.1629325512902021  0.3721972117392618
  0.8360769227494835  0.1633674646902775  0.8726026435496270
  0.8352146476627158  0.6665874832727898  0.3744483159267866
  0.8358486446343424  0.6632579545854154  0.8737576902870172
  0.1649730863735718  0.4183618140533089  0.2447176014872705
  0.1661189726807197  0.4136968964504908  0.7514099315974425
  0.1698231321083026  0.9055693974676375  0.2478439038761732
  0.1680234910142735  0.9114341763389170  0.7515254997656186
  0.5003173154073323  0.4133168767850612  0.2484753773804583
  0.5000498304047207  0.4119984649032676  0.7502644848553502
  0.5022237899553396  0.9111254985730118  0.2498835943458141
  0.5012694866824470  0.9114265503529133  0.7493231811329281
  0.8321935543811602  0.4146502860859136  0.2504863341622394
  0.8326828252590981  0.4137801189703573  0.7499819147148326
  0.8287084774147613  0.9118448250755601  0.2504819250970775
  0.8327282519435124  0.9110490873992166  0.7492637168453494
 -0.0010937440295357  0.0908129929453633 -0.0049740703025520
  0.0019493529874366  0.0934678166722025  0.5058776082675290
  0.0000570597070057  0.5886609585056315  0.0000926715342169
 -0.0006426201594327  0.5906863030107751  0.5003067261236086
  0.3396310642511440  0.0852704893423735 -0.0015303922260117
  0.3337192759437418  0.0879547193263283  0.4992813957281247
  0.3344092769154541  0.5855395072331001 -0.0004767487369008
  0.3334691054609245  0.5867574074628439  0.4995170643134906
  0.6680013025629487  0.0878853970955523 -0.0011121192784256
  0.6668467081831743  0.0883051733687266  0.5007454924554675
  0.6669076117049709  0.5864626991510455 -0.0009823450361364
  0.6663924806127461  0.5872424113150345  0.5007457908520530
  0.2296292464057636  0.0904169323652464 -0.0006554107023257
  0.0414200369434518  0.1734336468811921  0.4121797716381389
  0.0305290391860536  0.1544483859427895  0.8864451866661247
  0.0345961692231844  0.6599026539037716  0.3968818019791134
  0.0358157661616205  0.6573246151437974  0.8963179057611067
  0.3694192662413583  0.1561209553633841  0.3948938231094017
  0.3740007840380923  0.1548102869424051  0.8940741195218727
  0.3691255689481885  0.6548379102646805  0.3959446678198952
  0.3688798979534886  0.6551029158141296  0.8957080364444724
  0.7014103122726937  0.1586282261942567  0.3976557302491048
  0.7022963243755334  0.1562204342751814  0.8942837170897615
  0.7017257738545423  0.6559438767437700  0.3973111003001131
  0.7021241705183248  0.6557041351048961  0.8954342140445302
  0.2016898091814094  0.0477693143945226  0.2461734853962265
  0.2019066878374116  0.0518900998350872  0.7524918091415466
  0.2023589737493744  0.5557950579332037  0.2498481631571133
  0.2010124289921285  0.5534037865053770  0.7495751363992312
  0.5378008733921790  0.0504426299369465  0.2498306420177803
  0.5353710286369172  0.0514582017439730  0.7488292395332773
  0.5347789587131829  0.5526693965230659  0.2500571046546503
  0.5331492480314436  0.5525129935890498  0.7495617249013020
  0.8496814130855831  0.0546281130900888  0.2504646780300299
  0.8647246003791130  0.0517877351939942  0.7493374697092210
  0.8657313510859657  0.5552307131911687  0.2503529410043591
  0.8669126383209984  0.5538247628432788  0.7497137670739593
  0.0601630097272389  0.4136869602438655  0.2505393571933274
  0.0606414331452704  0.4122875041718413  0.7506179035728684
  0.0662917647138510  0.8933354949973402  0.2486565060497045
  0.0625243596519430  0.9065088952446314  0.7504204628018372
  0.3941928079408332  0.4114477296162766  0.2463442143305962
  0.3942511654368213  0.4083282382494250  0.7503743443164208
  0.3964708571410981  0.9098415597705175  0.2491037755058001
  0.3955061752089633  0.9087680529184244  0.7498077762377184
  0.7264214055197366  0.4112821034447173  0.2507562413207485
  0.7269823381089606  0.4109898258175560  0.7498714249441573
  0.7231621991475703  0.8956260974197829  0.2506551133561514
  0.7270430552248043  0.9060455368950605  0.7490005949510995
  0.2279382461385161  0.0914974356909016  0.4987885558921737
  0.2285076847667840  0.5873436782312945  0.0005073949229480
  0.2273823617252969  0.5883880694763369  0.4990903525673165
  0.5622266700690552  0.0908162154516030 -0.0008194506139145
  0.5608941792846647  0.0904530284858794  0.5009242679712512
  0.5611069345859037  0.5894521586787139 -0.0009912810438885
  0.5605416622092949  0.5911069226245794  0.5007502142924672
  0.8930024406141388  0.0911134720658132 -0.0022013636986852
  0.8962136147004010  0.0934596365491154  0.5011329858106403
  0.8943708936740020  0.5910882179790422 -0.0001958092619039
  0.8938291386787305  0.5921862870058660  0.5006341414083832
  0.2028337056085888  0.3416631263599162  0.1478308108682786
  0.2012444215124876  0.3433128562445375  0.6480784679617362
  0.2087621971858970  0.8387103605608691  0.1449345994643277
  0.2040543006410295  0.8441121391264438  0.6471513570633955
  0.5368431449811344  0.3428072760284632  0.1470250540093643
  0.5352213677894315  0.3430109771685040  0.6466358912316655
  0.5367005809943632  0.8408408647277958  0.1467725709003285
  0.5353687244181092  0.8424341127928151  0.6451795634524750
  0.8670080847080469  0.3461952832744228  0.1467441851538912
  0.8675125314687593  0.3446698349990727  0.6463249130576011
  0.8670031902556751  0.8450960819810085  0.1470099462282756
  0.8689014441298708  0.8434742875960825  0.6454325213039970
  0.0360013170031485  0.1687681166314207  0.0904116561885260
  0.0331996844157704  0.1547174984729106  0.6152068631106640
  0.0353097791264481  0.6583436548731498  0.1033781227597571
  0.0358460309011329  0.6589853817827028  0.6038043362513057
  0.3726116310823333  0.1547518182775480  0.1035661632918390
  0.3686927904401905  0.1578608324309824  0.6025308542997825
  0.3705350673755760  0.6547141450980969  0.1025676638369276
  0.3680626084081745  0.6558651459828204  0.6031281400399099
  0.7032548151982068  0.1575698457957694  0.1017559313038326
  0.7018655454629347  0.1567456459600012  0.6048086397696885
  0.7021527042534181  0.6553598620572778  0.1024260186358720
  0.7018205451292860  0.6559390744239411  0.6042864243639847
  0.0338226762621551  0.4483911836350307  0.0006462267476691
  0.0333255671775964  0.4501592633151559  0.5008635110464156
  0.0327629874213509  0.9503507894203489 -0.0013082176724819
  0.0369459368107180  0.9535444487103737  0.5002021361632679
  0.3680624639817411  0.4453589198540760 -0.0008074098194526
  0.3669787651969554  0.4462221437192942  0.5006362637152285
  0.3768539781962583  0.9465280793801962 -0.0014720821185455
  0.3675514621249054  0.9481585540867761  0.5000305523150396
  0.7001518832577543  0.4462702054359504 -0.0008082891394650
  0.6986144468828599  0.4464957774293681  0.5006420072295370
  0.7005479812354809  0.9472133263425291 -0.0007783540778660
  0.7004150734431686  0.9482520020361146  0.5002835588391392
  0.2014089238359279  0.3444406736912572  0.8544515795620219
  0.2080985260730245  0.8426991586851382  0.3538128619769832
  0.2037090530553753  0.8414296089889172  0.8544840930593135
  0.5299090461923591  0.3432575268584434  0.3549444153542677
  0.5360245113457275  0.3432530435082816  0.8535278440231878
  0.5349842217876503  0.8419195183313867  0.3547835814826935
  0.5370242462380215  0.8417198241792830  0.8522999044722773
  0.8675952548671698  0.3461955494396447  0.3542753967401217
  0.8676744838098168  0.3447791052269367  0.8536610705921504
  0.8676555150353281  0.8456521520132468  0.3541478468817038
  0.8684702968498328  0.8423721579460861  0.8528663752294044
 
  0.00000000E+00  0.00000000E+00  0.00000000E+00
  0.00000000E+00  0.00000000E+00  0.00000000E+00
  0.00000000E+00  0.00000000E+00  0.00000000E+00
  0.00000000E+00  0.00000000E+00  0.00000000E+00
  0.00000000E+00  0.00000000E+00  0.00000000E+00
  0.00000000E+00  0.00000000E+00  0.00000000E+00
  0.00000000E+00  0.00000000E+00  0.00000000E+00
  0.00000000E+00  0.00000000E+00  0.00000000E+00
  0.00000000E+00  0.00000000E+00  0.00000000E+00
  0.00000000E+00  0.00000000E+00  0.00000000E+00
  0.00000000E+00  0.00000000E+00  0.00000000E+00
  0.00000000E+00  0.00000000E+00  0.00000000E+00
  0.00000000E+00  0.00000000E+00  0.00000000E+00
  0.00000000E+00  0.00000000E+00  0.00000000E+00
  0.00000000E+00  0.00000000E+00  0.00000000E+00
  0.00000000E+00  0.00000000E+00  0.00000000E+00
  0.00000000E+00  0.00000000E+00  0.00000000E+00
  0.00000000E+00  0.00000000E+00  0.00000000E+00
  0.00000000E+00  0.00000000E+00  0.00000000E+00
  0.00000000E+00  0.00000000E+00  0.00000000E+00
  0.00000000E+00  0.00000000E+00  0.00000000E+00
  0.00000000E+00  0.00000000E+00  0.00000000E+00
  0.00000000E+00  0.00000000E+00  0.00000000E+00
  0.00000000E+00  0.00000000E+00  0.00000000E+00
  0.00000000E+00  0.00000000E+00  0.00000000E+00
  0.00000000E+00  0.00000000E+00  0.00000000E+00
  0.00000000E+00  0.00000000E+00  0.00000000E+00
  0.00000000E+00  0.00000000E+00  0.00000000E+00
  0.00000000E+00  0.00000000E+00  0.00000000E+00
  0.00000000E+00  0.00000000E+00  0.00000000E+00
  0.00000000E+00  0.00000000E+00  0.00000000E+00
  0.00000000E+00  0.00000000E+00  0.00000000E+00
  0.00000000E+00  0.00000000E+00  0.00000000E+00
  0.00000000E+00  0.00000000E+00  0.00000000E+00
  0.00000000E+00  0.00000000E+00  0.00000000E+00
  0.00000000E+00  0.00000000E+00  0.00000000E+00
  0.00000000E+00  0.00000000E+00  0.00000000E+00
  0.00000000E+00  0.00000000E+00  0.00000000E+00
  0.00000000E+00  0.00000000E+00  0.00000000E+00
  0.00000000E+00  0.00000000E+00  0.00000000E+00
  0.00000000E+00  0.00000000E+00  0.00000000E+00
  0.00000000E+00  0.00000000E+00  0.00000000E+00
  0.00000000E+00  0.00000000E+00  0.00000000E+00
  0.00000000E+00  0.00000000E+00  0.00000000E+00
  0.00000000E+00  0.00000000E+00  0.00000000E+00
  0.00000000E+00  0.00000000E+00  0.00000000E+00
  0.00000000E+00  0.00000000E+00  0.00000000E+00
  0.00000000E+00  0.00000000E+00  0.00000000E+00
  0.00000000E+00  0.00000000E+00  0.00000000E+00
  0.00000000E+00  0.00000000E+00  0.00000000E+00
  0.00000000E+00  0.00000000E+00  0.00000000E+00
  0.00000000E+00  0.00000000E+00  0.00000000E+00
  0.00000000E+00  0.00000000E+00  0.00000000E+00
  0.00000000E+00  0.00000000E+00  0.00000000E+00
  0.00000000E+00  0.00000000E+00  0.00000000E+00
  0.00000000E+00  0.00000000E+00  0.00000000E+00
  0.00000000E+00  0.00000000E+00  0.00000000E+00
  0.00000000E+00  0.00000000E+00  0.00000000E+00
  0.00000000E+00  0.00000000E+00  0.00000000E+00
  0.00000000E+00  0.00000000E+00  0.00000000E+00
  0.00000000E+00  0.00000000E+00  0.00000000E+00
  0.00000000E+00  0.00000000E+00  0.00000000E+00
  0.00000000E+00  0.00000000E+00  0.00000000E+00
  0.00000000E+00  0.00000000E+00  0.00000000E+00
  0.00000000E+00  0.00000000E+00  0.00000000E+00
  0.00000000E+00  0.00000000E+00  0.00000000E+00
  0.00000000E+00  0.00000000E+00  0.00000000E+00
  0.00000000E+00  0.00000000E+00  0.00000000E+00
  0.00000000E+00  0.00000000E+00  0.00000000E+00
  0.00000000E+00  0.00000000E+00  0.00000000E+00
  0.00000000E+00  0.00000000E+00  0.00000000E+00
  0.00000000E+00  0.00000000E+00  0.00000000E+00
  0.00000000E+00  0.00000000E+00  0.00000000E+00
  0.00000000E+00  0.00000000E+00  0.00000000E+00
  0.00000000E+00  0.00000000E+00  0.00000000E+00
  0.00000000E+00  0.00000000E+00  0.00000000E+00
  0.00000000E+00  0.00000000E+00  0.00000000E+00
  0.00000000E+00  0.00000000E+00  0.00000000E+00
  0.00000000E+00  0.00000000E+00  0.00000000E+00
  0.00000000E+00  0.00000000E+00  0.00000000E+00
  0.00000000E+00  0.00000000E+00  0.00000000E+00
  0.00000000E+00  0.00000000E+00  0.00000000E+00
  0.00000000E+00  0.00000000E+00  0.00000000E+00
  0.00000000E+00  0.00000000E+00  0.00000000E+00
  0.00000000E+00  0.00000000E+00  0.00000000E+00
  0.00000000E+00  0.00000000E+00  0.00000000E+00
  0.00000000E+00  0.00000000E+00  0.00000000E+00
  0.00000000E+00  0.00000000E+00  0.00000000E+00
  0.00000000E+00  0.00000000E+00  0.00000000E+00
  0.00000000E+00  0.00000000E+00  0.00000000E+00
  0.00000000E+00  0.00000000E+00  0.00000000E+00
  0.00000000E+00  0.00000000E+00  0.00000000E+00
  0.00000000E+00  0.00000000E+00  0.00000000E+00
  0.00000000E+00  0.00000000E+00  0.00000000E+00
  0.00000000E+00  0.00000000E+00  0.00000000E+00
  0.00000000E+00  0.00000000E+00  0.00000000E+00
  0.00000000E+00  0.00000000E+00  0.00000000E+00
  0.00000000E+00  0.00000000E+00  0.00000000E+00
  0.00000000E+00  0.00000000E+00  0.00000000E+00
  0.00000000E+00  0.00000000E+00  0.00000000E+00
  0.00000000E+00  0.00000000E+00  0.00000000E+00
  0.00000000E+00  0.00000000E+00  0.00000000E+00
  0.00000000E+00  0.00000000E+00  0.00000000E+00
  0.00000000E+00  0.00000000E+00  0.00000000E+00
  0.00000000E+00  0.00000000E+00  0.00000000E+00
  0.00000000E+00  0.00000000E+00  0.00000000E+00
  0.00000000E+00  0.00000000E+00  0.00000000E+00
  0.00000000E+00  0.00000000E+00  0.00000000E+00
  0.00000000E+00  0.00000000E+00  0.00000000E+00
  0.00000000E+00  0.00000000E+00  0.00000000E+00
  0.00000000E+00  0.00000000E+00  0.00000000E+00
  0.00000000E+00  0.00000000E+00  0.00000000E+00
  0.00000000E+00  0.00000000E+00  0.00000000E+00
  0.00000000E+00  0.00000000E+00  0.00000000E+00
  0.00000000E+00  0.00000000E+00  0.00000000E+00
  0.00000000E+00  0.00000000E+00  0.00000000E+00
  0.00000000E+00  0.00000000E+00  0.00000000E+00
  0.00000000E+00  0.00000000E+00  0.00000000E+00
  0.00000000E+00  0.00000000E+00  0.00000000E+00
  0.00000000E+00  0.00000000E+00  0.00000000E+00
  0.00000000E+00  0.00000000E+00  0.00000000E+00
  0.00000000E+00  0.00000000E+00  0.00000000E+00
  0.00000000E+00  0.00000000E+00  0.00000000E+00
  0.00000000E+00  0.00000000E+00  0.00000000E+00
  0.00000000E+00  0.00000000E+00  0.00000000E+00
  0.00000000E+00  0.00000000E+00  0.00000000E+00
  0.00000000E+00  0.00000000E+00  0.00000000E+00
  0.00000000E+00  0.00000000E+00  0.00000000E+00
  0.00000000E+00  0.00000000E+00  0.00000000E+00
  0.00000000E+00  0.00000000E+00  0.00000000E+00
  0.00000000E+00  0.00000000E+00  0.00000000E+00
  0.00000000E+00  0.00000000E+00  0.00000000E+00
  0.00000000E+00  0.00000000E+00  0.00000000E+00
  0.00000000E+00  0.00000000E+00  0.00000000E+00
  0.00000000E+00  0.00000000E+00  0.00000000E+00
  0.00000000E+00  0.00000000E+00  0.00000000E+00
  0.00000000E+00  0.00000000E+00  0.00000000E+00
  0.00000000E+00  0.00000000E+00  0.00000000E+00
  0.00000000E+00  0.00000000E+00  0.00000000E+00
  0.00000000E+00  0.00000000E+00  0.00000000E+00
  0.00000000E+00  0.00000000E+00  0.00000000E+00
  0.00000000E+00  0.00000000E+00  0.00000000E+00
  0.00000000E+00  0.00000000E+00  0.00000000E+00
  0.00000000E+00  0.00000000E+00  0.00000000E+00
  0.00000000E+00  0.00000000E+00  0.00000000E+00
  0.00000000E+00  0.00000000E+00  0.00000000E+00
  0.00000000E+00  0.00000000E+00  0.00000000E+00
  0.00000000E+00  0.00000000E+00  0.00000000E+00
  0.00000000E+00  0.00000000E+00  0.00000000E+00
  0.00000000E+00  0.00000000E+00  0.00000000E+00
  0.00000000E+00  0.00000000E+00  0.00000000E+00
  0.00000000E+00  0.00000000E+00  0.00000000E+00
  0.00000000E+00  0.00000000E+00  0.00000000E+00
  0.00000000E+00  0.00000000E+00  0.00000000E+00
  0.00000000E+00  0.00000000E+00  0.00000000E+00
  0.00000000E+00  0.00000000E+00  0.00000000E+00
  0.00000000E+00  0.00000000E+00  0.00000000E+00
  0.00000000E+00  0.00000000E+00  0.00000000E+00
  0.00000000E+00  0.00000000E+00  0.00000000E+00
  0.00000000E+00  0.00000000E+00  0.00000000E+00
  0.00000000E+00  0.00000000E+00  0.00000000E+00
  0.00000000E+00  0.00000000E+00  0.00000000E+00
  0.00000000E+00  0.00000000E+00  0.00000000E+00
  0.00000000E+00  0.00000000E+00  0.00000000E+00
  0.00000000E+00  0.00000000E+00  0.00000000E+00
  0.00000000E+00  0.00000000E+00  0.00000000E+00
  0.00000000E+00  0.00000000E+00  0.00000000E+00
  0.00000000E+00  0.00000000E+00  0.00000000E+00
  0.00000000E+00  0.00000000E+00  0.00000000E+00
  0.00000000E+00  0.00000000E+00  0.00000000E+00
  0.00000000E+00  0.00000000E+00  0.00000000E+00
  0.00000000E+00  0.00000000E+00  0.00000000E+00
  0.00000000E+00  0.00000000E+00  0.00000000E+00
  0.00000000E+00  0.00000000E+00  0.00000000E+00
  0.00000000E+00  0.00000000E+00  0.00000000E+00
  0.00000000E+00  0.00000000E+00  0.00000000E+00
  0.00000000E+00  0.00000000E+00  0.00000000E+00
  0.00000000E+00  0.00000000E+00  0.00000000E+00
  0.00000000E+00  0.00000000E+00  0.00000000E+00
  0.00000000E+00  0.00000000E+00  0.00000000E+00
  0.00000000E+00  0.00000000E+00  0.00000000E+00
  0.00000000E+00  0.00000000E+00  0.00000000E+00
  0.00000000E+00  0.00000000E+00  0.00000000E+00
  0.00000000E+00  0.00000000E+00  0.00000000E+00
  0.00000000E+00  0.00000000E+00  0.00000000E+00
  0.00000000E+00  0.00000000E+00  0.00000000E+00
  0.00000000E+00  0.00000000E+00  0.00000000E+00
  0.00000000E+00  0.00000000E+00  0.00000000E+00
  0.00000000E+00  0.00000000E+00  0.00000000E+00
  0.00000000E+00  0.00000000E+00  0.00000000E+00
