Li140 P140 O420
1.0
11.197969 0.000000 -7.200064
0.000000 5.521558 0.000000
0.000000 0.000000 176.981687
Li P O
140 140 420
Selective dynamics
direct
0.873522 0.494607 0.068332 F F F Li
0.873522 0.505393 0.012776 F F F Li
0.111170 0.484419 0.081197 F F F Li
0.111170 0.515581 0.025641 F F F Li
0.347043 0.505784 0.094025 F F F Li
0.347043 0.494216 0.038469 F F F Li
0.581703 0.507224 0.106813 F F F Li
0.581703 0.492776 0.051257 F F F Li
0.729106 0.992783 0.004259 T T T Li
0.729106 0.007217 0.059815 F F F Li
0.375737 0.521194 0.012784 T T T Li
0.375737 0.478806 0.068339 F F F Li
0.612275 0.476313 0.025611 F F F Li
0.612275 0.523687 0.081166 F F F Li
0.848182 0.533250 0.038580 F F F Li
0.848182 0.466750 0.094136 F F F Li
0.084520 0.477737 0.051532 F F F Li
0.084520 0.522263 0.107087 F F F Li
0.233171 0.960889 0.060045 F F F Li
0.233171 0.039111 0.004489 T T T Li
0.873522 0.494607 0.179443 F F F Li
0.873522 0.505393 0.123887 F F F Li
0.111170 0.484419 0.192308 F F F Li
0.111170 0.515581 0.136752 F F F Li
0.347043 0.505784 0.205136 F F F Li
0.347043 0.494216 0.149580 F F F Li
0.581703 0.507224 0.217924 F F F Li
0.581703 0.492776 0.162368 F F F Li
0.729106 0.992783 0.115370 F F F Li
0.729106 0.007217 0.170926 F F F Li
0.375737 0.521194 0.123895 F F F Li
0.375737 0.478806 0.179450 F F F Li
0.612275 0.476313 0.136722 F F F Li
0.612275 0.523687 0.192277 F F F Li
0.848182 0.533250 0.149691 F F F Li
0.848182 0.466750 0.205247 F F F Li
0.084520 0.477737 0.162643 F F F Li
0.084520 0.522263 0.218198 F F F Li
0.233171 0.960889 0.171156 F F F Li
0.233171 0.039111 0.115600 F F F Li
0.873522 0.494607 0.290554 F F F Li
0.873522 0.505393 0.234999 F F F Li
0.111170 0.484419 0.303419 F F F Li
0.111170 0.515581 0.247863 F F F Li
0.347043 0.505784 0.316247 F F F Li
0.347043 0.494216 0.260692 F F F Li
0.581703 0.507224 0.329035 F F F Li
0.581703 0.492776 0.273479 F F F Li
0.729106 0.992783 0.226482 F F F Li
0.729106 0.007217 0.282037 F F F Li
0.375737 0.521194 0.235006 F F F Li
0.375737 0.478806 0.290561 F F F Li
0.612275 0.476313 0.247833 F F F Li
0.612275 0.523687 0.303389 F F F Li
0.848182 0.533250 0.260802 F F F Li
0.848182 0.466750 0.316358 F F F Li
0.084520 0.477737 0.273754 F F F Li
0.084520 0.522263 0.329309 F F F Li
0.233171 0.960889 0.282267 F F F Li
0.233171 0.039111 0.226711 F F F Li
0.873522 0.494607 0.401665 F F F Li
0.873522 0.505393 0.346110 F F F Li
0.111170 0.484419 0.414530 F F F Li
0.111170 0.515581 0.358975 F F F Li
0.347043 0.505784 0.427358 F F F Li
0.347043 0.494216 0.371803 F F F Li
0.581703 0.507224 0.440146 F F F Li
0.581703 0.492776 0.384591 F F F Li
0.729106 0.992783 0.337593 F F F Li
0.729106 0.007217 0.393148 F F F Li
0.375737 0.521194 0.346117 F F F Li
0.375737 0.478806 0.401673 F F F Li
0.612275 0.476313 0.358944 F F F Li
0.612275 0.523687 0.414500 F F F Li
0.848182 0.533250 0.371913 F F F Li
0.848182 0.466750 0.427469 F F F Li
0.084520 0.477737 0.384865 F F F Li
0.084520 0.522263 0.440420 F F F Li
0.233171 0.960889 0.393378 F F F Li
0.233171 0.039111 0.337822 F F F Li
0.873522 0.494607 0.512776 F F F Li
0.873522 0.505393 0.457221 F F F Li
0.111170 0.484419 0.525641 F F F Li
0.111170 0.515581 0.470086 F F F Li
0.347043 0.505784 0.538469 F F F Li
0.347043 0.494216 0.482914 F F F Li
0.581703 0.507224 0.551257 F F F Li
0.581703 0.492776 0.495702 F F F Li
0.729106 0.992783 0.448704 F F F Li
0.729106 0.007217 0.504259 F F F Li
0.375737 0.521194 0.457228 F F F Li
0.375737 0.478806 0.512784 F F F Li
0.612275 0.476313 0.470055 F F F Li
0.612275 0.523687 0.525611 F F F Li
0.848182 0.533250 0.483024 F F F Li
0.848182 0.466750 0.538580 F F F Li
0.084520 0.477737 0.495976 F F F Li
0.084520 0.522263 0.551531 F F F Li
0.233171 0.960889 0.504489 F F F Li
0.233171 0.039111 0.448933 F F F Li
0.873522 0.494607 0.623888 F F F Li
0.873522 0.505393 0.568332 F F F Li
0.111170 0.484419 0.636752 F F F Li
0.111170 0.515581 0.581197 F F F Li
0.347043 0.505784 0.649581 F F F Li
0.347043 0.494216 0.594025 F F F Li
0.581703 0.507224 0.662368 F F F Li
0.581703 0.492776 0.606813 F F F Li
0.729106 0.992783 0.559815 F F F Li
0.729106 0.007217 0.615370 F F F Li
0.375737 0.521194 0.568339 F F F Li
0.375737 0.478806 0.623895 F F F Li
0.612275 0.476313 0.581166 F F F Li
0.612275 0.523687 0.636722 F F F Li
0.848182 0.533250 0.594136 F F F Li
0.848182 0.466750 0.649691 F F F Li
0.084520 0.477737 0.607087 F F F Li
0.084520 0.522263 0.662643 F F F Li
0.233171 0.960889 0.615600 F F F Li
0.233171 0.039111 0.560045 F F F Li
0.873522 0.494607 0.734999 F F F Li
0.873522 0.505393 0.679443 F F F Li
0.111170 0.484419 0.747864 F F F Li
0.111170 0.515581 0.692308 F F F Li
0.347043 0.505784 0.760692 F F F Li
0.347043 0.494216 0.705136 F F F Li
0.581703 0.507224 0.773479 T T T Li
0.581703 0.492776 0.717924 F F F Li
0.729106 0.992783 0.670926 F F F Li
0.729106 0.007217 0.726482 F F F Li
0.375737 0.521194 0.679450 F F F Li
0.375737 0.478806 0.735006 F F F Li
0.612275 0.476313 0.692277 F F F Li
0.612275 0.523687 0.747833 F F F Li
0.848182 0.533250 0.705247 F F F Li
0.848182 0.466750 0.760802 F F F Li
0.084520 0.477737 0.718198 F F F Li
0.084520 0.522263 0.773754 T T T Li
0.233171 0.960889 0.726711 F F F Li
0.233171 0.039111 0.671156 F F F Li
0.999221 0.185377 0.088576 F F F P
0.999221 0.814623 0.033020 F F F P
0.205613 0.843317 0.098894 F F F P
0.205613 0.156683 0.043339 F F F P
0.401137 0.188444 0.110425 F F F P
0.401137 0.811556 0.054870 F F F P
0.591605 0.828977 0.011675 T T T P
0.591605 0.171023 0.067231 F F F P
0.791599 0.159739 0.022780 F F F P
0.791599 0.840261 0.078335 F F F P
0.665080 0.843930 0.041259 F F F P
0.665080 0.156070 0.096815 F F F P
0.865452 0.174322 0.052356 F F F P
0.865452 0.825678 0.107912 F F F P
0.056323 0.812278 0.064803 F F F P
0.056323 0.187722 0.009247 T T T P
0.252134 0.151901 0.076291 F F F P
0.252134 0.848099 0.020736 F F F P
0.458420 0.809867 0.086624 F F F P
0.458420 0.190133 0.031068 F F F P
0.999221 0.185377 0.199687 F F F P
0.999221 0.814623 0.144131 F F F P
0.205613 0.843317 0.210005 F F F P
0.205613 0.156683 0.154450 F F F P
0.401137 0.188444 0.221536 F F F P
0.401137 0.811556 0.165981 F F F P
0.591605 0.828977 0.122786 F F F P
0.591605 0.171023 0.178342 F F F P
0.791599 0.159739 0.133891 F F F P
0.791599 0.840261 0.189446 F F F P
0.665080 0.843930 0.152371 F F F P
0.665080 0.156070 0.207926 F F F P
0.865452 0.174322 0.163467 F F F P
0.865452 0.825678 0.219023 F F F P
0.056323 0.812278 0.175914 F F F P
0.056323 0.187722 0.120358 F F F P
0.252134 0.151901 0.187403 F F F P
0.252134 0.848099 0.131847 F F F P
0.458420 0.809867 0.197735 F F F P
0.458420 0.190133 0.142179 F F F P
0.999221 0.185377 0.310798 F F F P
0.999221 0.814623 0.255242 F F F P
0.205613 0.843317 0.321116 F F F P
0.205613 0.156683 0.265561 F F F P
0.401137 0.188444 0.332648 F F F P
0.401137 0.811556 0.277092 F F F P
0.591605 0.828977 0.233898 F F F P
0.591605 0.171023 0.289453 F F F P
0.791599 0.159739 0.245002 F F F P
0.791599 0.840261 0.300557 F F F P
0.665080 0.843930 0.263482 F F F P
0.665080 0.156070 0.319037 F F F P
0.865452 0.174322 0.274578 F F F P
0.865452 0.825678 0.330134 F F F P
0.056323 0.812278 0.287025 F F F P
0.056323 0.187722 0.231469 F F F P
0.252134 0.151901 0.298514 F F F P
0.252134 0.848099 0.242958 F F F P
0.458420 0.809867 0.308846 F F F P
0.458420 0.190133 0.253290 F F F P
0.999221 0.185377 0.421909 F F F P
0.999221 0.814623 0.366353 F F F P
0.205613 0.843317 0.432227 F F F P
0.205613 0.156683 0.376672 F F F P
0.401137 0.188444 0.443759 F F F P
0.401137 0.811556 0.388203 F F F P
0.591605 0.828977 0.345009 F F F P
0.591605 0.171023 0.400564 F F F P
0.791599 0.159739 0.356113 F F F P
0.791599 0.840261 0.411668 F F F P
0.665080 0.843930 0.374593 F F F P
0.665080 0.156070 0.430148 F F F P
0.865452 0.174322 0.385690 F F F P
0.865452 0.825678 0.441245 F F F P
0.056323 0.812278 0.398136 F F F P
0.056323 0.187722 0.342580 F F F P
0.252134 0.151901 0.409625 F F F P
0.252134 0.848099 0.354069 F F F P
0.458420 0.809867 0.419957 F F F P
0.458420 0.190133 0.364401 F F F P
0.999221 0.185377 0.533020 F F F P
0.999221 0.814623 0.477464 F F F P
0.205613 0.843317 0.543339 F F F P
0.205613 0.156683 0.487783 F F F P
0.401137 0.188444 0.554870 F F F P
0.401137 0.811556 0.499314 F F F P
0.591605 0.828977 0.456120 F F F P
0.591605 0.171023 0.511675 F F F P
0.791599 0.159739 0.467224 F F F P
0.791599 0.840261 0.522780 F F F P
0.665080 0.843930 0.485704 F F F P
0.665080 0.156070 0.541259 F F F P
0.865452 0.174322 0.496801 F F F P
0.865452 0.825678 0.552356 F F F P
0.056323 0.812278 0.509247 F F F P
0.056323 0.187722 0.453691 F F F P
0.252134 0.151901 0.520736 F F F P
0.252134 0.848099 0.465180 F F F P
0.458420 0.809867 0.531068 F F F P
0.458420 0.190133 0.475512 F F F P
0.999221 0.185377 0.644131 F F F P
0.999221 0.814623 0.588576 F F F P
0.205613 0.843317 0.654450 F F F P
0.205613 0.156683 0.598894 F F F P
0.401137 0.188444 0.665981 F F F P
0.401137 0.811556 0.610425 F F F P
0.591605 0.828977 0.567231 F F F P
0.591605 0.171023 0.622787 F F F P
0.791599 0.159739 0.578335 F F F P
0.791599 0.840261 0.633891 F F F P
0.665080 0.843930 0.596815 F F F P
0.665080 0.156070 0.652370 F F F P
0.865452 0.174322 0.607912 F F F P
0.865452 0.825678 0.663467 F F F P
0.056323 0.812278 0.620358 F F F P
0.056323 0.187722 0.564802 F F F P
0.252134 0.151901 0.631847 F F F P
0.252134 0.848099 0.576292 F F F P
0.458420 0.809867 0.642179 F F F P
0.458420 0.190133 0.586624 F F F P
0.999221 0.185377 0.755242 F F F P
0.999221 0.814623 0.699687 F F F P
0.205613 0.843317 0.765561 T T T P
0.205613 0.156683 0.710005 F F F P
0.401137 0.188444 0.777092 T T T P
0.401137 0.811556 0.721536 F F F P
0.591605 0.828977 0.678342 F F F P
0.591605 0.171023 0.733898 F F F P
0.791599 0.159739 0.689446 F F F P
0.791599 0.840261 0.745002 F F F P
0.665080 0.843930 0.707926 F F F P
0.665080 0.156070 0.763482 T T T P
0.865452 0.174322 0.719023 F F F P
0.865452 0.825678 0.774578 T T T P
0.056323 0.812278 0.731469 F F F P
0.056323 0.187722 0.675914 F F F P
0.252134 0.151901 0.742958 F F F P
0.252134 0.848099 0.687403 F F F P
0.458420 0.809867 0.753290 F F F P
0.458420 0.190133 0.697735 F F F P
0.129985 0.069000 0.092465 F F F O
0.129985 0.931000 0.036909 F F F O
0.340179 0.951087 0.104155 F F F O
0.340179 0.048913 0.048600 F F F O
0.518650 0.080018 0.008069 F F F O
0.518650 0.919982 0.063625 F F F O
0.706904 0.926681 0.021003 F F F O
0.706904 0.073319 0.076559 F F F O
0.919848 0.942022 0.086102 F F F O
0.919848 0.057978 0.030546 F F F O
0.749936 0.076781 0.043043 F F F O
0.749936 0.923219 0.098599 F F F O
0.936774 0.921841 0.056241 F F F O
0.936774 0.078159 0.000686 F F F O
0.116799 0.049265 0.071147 F F F O
0.116799 0.950735 0.015591 F F F O
0.325432 0.918787 0.082250 F F F O
0.325432 0.081213 0.026694 F F F O
0.536371 0.944691 0.033455 F F F O
0.536371 0.055309 0.089011 F F F O
0.970827 0.322795 0.080320 F F F O
0.970827 0.677205 0.024764 F F F O
0.994909 0.313918 0.095871 F F F O
0.994909 0.686082 0.040316 F F F O
0.204625 0.643576 0.093124 F F F O
0.204625 0.356424 0.037568 F F F O
0.171056 0.795305 0.105558 F F F O
0.171056 0.204695 0.050003 F F F O
0.439658 0.351974 0.105713 F F F O
0.439658 0.648026 0.050157 F F F O
0.322583 0.281781 0.002373 T T T O
0.322583 0.718219 0.057929 F F F O
0.630670 0.751546 0.005497 T T T O
0.630670 0.248454 0.061052 F F F O
0.527520 0.656290 0.014157 T T T O
0.527520 0.343710 0.069713 F F F O
0.790584 0.215121 0.014401 F F F O
0.790584 0.784879 0.069957 F F F O
0.761105 0.355777 0.027053 F F F O
0.761105 0.644223 0.082608 F F F O
0.697609 0.649890 0.037048 F F F O
0.697609 0.350110 0.092604 F F F O
0.665087 0.785996 0.049573 F F F O
0.665087 0.214004 0.105129 F F F O
0.931406 0.340793 0.049839 F F F O
0.931406 0.659207 0.105395 F F F O
0.824688 0.258044 0.058368 F F F O
0.824688 0.741956 0.002812 F F F O
0.135280 0.725734 0.061683 F F F O
0.135280 0.274266 0.006127 F F F O
0.019880 0.642950 0.069508 F F F O
0.019880 0.357050 0.013952 T T T O
0.286380 0.205272 0.069638 F F F O
0.286380 0.794728 0.014082 F F F O
0.257004 0.347295 0.082347 F F F O
0.257004 0.652705 0.026792 F F F O
0.467181 0.677470 0.079592 F F F O
0.467181 0.322530 0.024036 F F F O
0.484690 0.678914 0.094934 F F F O
0.484690 0.321086 0.039378 F F F O
0.129985 0.069000 0.203576 F F F O
0.129985 0.931000 0.148020 F F F O
0.340179 0.951087 0.215266 F F F O
0.340179 0.048913 0.159711 F F F O
0.518650 0.080018 0.119180 F F F O
0.518650 0.919982 0.174736 F F F O
0.706904 0.926681 0.132114 F F F O
0.706904 0.073319 0.187670 F F F O
0.919848 0.942022 0.197213 F F F O
0.919848 0.057978 0.141657 F F F O
0.749936 0.076781 0.154154 F F F O
0.749936 0.923219 0.209710 F F F O
0.936774 0.921841 0.167352 F F F O
0.936774 0.078159 0.111797 F F F O
0.116799 0.049265 0.182258 F F F O
0.116799 0.950735 0.126702 F F F O
0.325432 0.918787 0.193361 F F F O
0.325432 0.081213 0.137805 F F F O
0.536371 0.944691 0.144566 F F F O
0.536371 0.055309 0.200122 F F F O
0.970827 0.322795 0.191431 F F F O
0.970827 0.677205 0.135875 F F F O
0.994909 0.313918 0.206982 F F F O
0.994909 0.686082 0.151427 F F F O
0.204625 0.643576 0.204235 F F F O
0.204625 0.356424 0.148680 F F F O
0.171056 0.795305 0.216669 F F F O
0.171056 0.204695 0.161114 F F F O
0.439658 0.351974 0.216824 F F F O
0.439658 0.648026 0.161268 F F F O
0.322583 0.281781 0.113484 F F F O
0.322583 0.718219 0.169040 F F F O
0.630670 0.751546 0.116608 F F F O
0.630670 0.248454 0.172164 F F F O
0.527520 0.656290 0.125268 F F F O
0.527520 0.343710 0.180824 F F F O
0.790584 0.215121 0.125512 F F F O
0.790584 0.784879 0.181068 F F F O
0.761105 0.355777 0.138164 F F F O
0.761105 0.644223 0.193719 F F F O
0.697609 0.649890 0.148159 F F F O
0.697609 0.350110 0.203715 F F F O
0.665087 0.785996 0.160685 F F F O
0.665087 0.214004 0.216240 F F F O
0.931406 0.340793 0.160950 F F F O
0.931406 0.659207 0.216506 F F F O
0.824688 0.258044 0.169479 F F F O
0.824688 0.741956 0.113923 F F F O
0.135280 0.725734 0.172794 F F F O
0.135280 0.274266 0.117238 F F F O
0.019880 0.642950 0.180619 F F F O
0.019880 0.357050 0.125063 F F F O
0.286380 0.205272 0.180749 F F F O
0.286380 0.794728 0.125193 F F F O
0.257004 0.347295 0.193459 F F F O
0.257004 0.652705 0.137903 F F F O
0.467181 0.677470 0.190703 F F F O
0.467181 0.322530 0.135147 F F F O
0.484690 0.678914 0.206045 F F F O
0.484690 0.321086 0.150489 F F F O
0.129985 0.069000 0.314687 F F F O
0.129985 0.931000 0.259131 F F F O
0.340179 0.951087 0.326377 F F F O
0.340179 0.048913 0.270822 F F F O
0.518650 0.080018 0.230291 F F F O
0.518650 0.919982 0.285847 F F F O
0.706904 0.926681 0.243225 F F F O
0.706904 0.073319 0.298781 F F F O
0.919848 0.942022 0.308324 F F F O
0.919848 0.057978 0.252768 F F F O
0.749936 0.076781 0.265265 F F F O
0.749936 0.923219 0.320821 F F F O
0.936774 0.921841 0.278463 F F F O
0.936774 0.078159 0.222908 F F F O
0.116799 0.049265 0.293369 F F F O
0.116799 0.950735 0.237814 F F F O
0.325432 0.918787 0.304472 F F F O
0.325432 0.081213 0.248916 F F F O
0.536371 0.944691 0.255677 F F F O
0.536371 0.055309 0.311233 F F F O
0.970827 0.322795 0.302542 F F F O
0.970827 0.677205 0.246986 F F F O
0.994909 0.313918 0.318093 F F F O
0.994909 0.686082 0.262538 F F F O
0.204625 0.643576 0.315346 F F F O
0.204625 0.356424 0.259791 F F F O
0.171056 0.795305 0.327780 F F F O
0.171056 0.204695 0.272225 F F F O
0.439658 0.351974 0.327935 F F F O
0.439658 0.648026 0.272379 F F F O
0.322583 0.281781 0.224595 F F F O
0.322583 0.718219 0.280151 F F F O
0.630670 0.751546 0.227719 F F F O
0.630670 0.248454 0.283275 F F F O
0.527520 0.656290 0.236379 F F F O
0.527520 0.343710 0.291935 F F F O
0.790584 0.215121 0.236623 F F F O
0.790584 0.784879 0.292179 F F F O
0.761105 0.355777 0.249275 F F F O
0.761105 0.644223 0.304831 F F F O
0.697609 0.649890 0.259270 F F F O
0.697609 0.350110 0.314826 F F F O
0.665087 0.785996 0.271796 F F F O
0.665087 0.214004 0.327351 F F F O
0.931406 0.340793 0.272061 F F F O
0.931406 0.659207 0.327617 F F F O
0.824688 0.258044 0.280590 F F F O
0.824688 0.741956 0.225034 F F F O
0.135280 0.725734 0.283905 F F F O
0.135280 0.274266 0.228349 F F F O
0.019880 0.642950 0.291730 F F F O
0.019880 0.357050 0.236174 F F F O
0.286380 0.205272 0.291860 F F F O
0.286380 0.794728 0.236305 F F F O
0.257004 0.347295 0.304570 F F F O
0.257004 0.652705 0.249014 F F F O
0.467181 0.677470 0.301814 F F F O
0.467181 0.322530 0.246258 F F F O
0.484690 0.678914 0.317156 F F F O
0.484690 0.321086 0.261600 F F F O
0.129985 0.069000 0.425798 F F F O
0.129985 0.931000 0.370242 F F F O
0.340179 0.951087 0.437488 F F F O
0.340179 0.048913 0.381933 F F F O
0.518650 0.080018 0.341403 F F F O
0.518650 0.919982 0.396958 F F F O
0.706904 0.926681 0.354336 F F F O
0.706904 0.073319 0.409892 F F F O
0.919848 0.942022 0.419435 F F F O
0.919848 0.057978 0.363879 F F F O
0.749936 0.076781 0.376377 F F F O
0.749936 0.923219 0.431932 F F F O
0.936774 0.921841 0.389575 F F F O
0.936774 0.078159 0.334019 F F F O
0.116799 0.049265 0.404480 F F F O
0.116799 0.950735 0.348925 F F F O
0.325432 0.918787 0.415583 F F F O
0.325432 0.081213 0.360028 F F F O
0.536371 0.944691 0.366788 F F F O
0.536371 0.055309 0.422344 F F F O
0.970827 0.322795 0.413653 F F F O
0.970827 0.677205 0.358098 F F F O
0.994909 0.313918 0.429205 F F F O
0.994909 0.686082 0.373649 F F F O
0.204625 0.643576 0.426457 F F F O
0.204625 0.356424 0.370902 F F F O
0.171056 0.795305 0.438892 F F F O
0.171056 0.204695 0.383336 F F F O
0.439658 0.351974 0.439046 F F F O
0.439658 0.648026 0.383490 F F F O
0.322583 0.281781 0.335706 F F F O
0.322583 0.718219 0.391262 F F F O
0.630670 0.751546 0.338830 F F F O
0.630670 0.248454 0.394386 F F F O
0.527520 0.656290 0.347491 F F F O
0.527520 0.343710 0.403046 F F F O
0.790584 0.215121 0.347734 F F F O
0.790584 0.784879 0.403290 F F F O
0.761105 0.355777 0.360386 F F F O
0.761105 0.644223 0.415942 F F F O
0.697609 0.649890 0.370381 F F F O
0.697609 0.350110 0.425937 F F F O
0.665087 0.785996 0.382907 F F F O
0.665087 0.214004 0.438462 F F F O
0.931406 0.340793 0.383172 F F F O
0.931406 0.659207 0.438728 F F F O
0.824688 0.258044 0.391701 F F F O
0.824688 0.741956 0.336145 F F F O
0.135280 0.725734 0.395016 F F F O
0.135280 0.274266 0.339460 F F F O
0.019880 0.642950 0.402841 F F F O
0.019880 0.357050 0.347285 F F F O
0.286380 0.205272 0.402971 F F F O
0.286380 0.794728 0.347416 F F F O
0.257004 0.347295 0.415681 F F F O
0.257004 0.652705 0.360125 F F F O
0.467181 0.677470 0.412925 F F F O
0.467181 0.322530 0.357370 F F F O
0.484690 0.678914 0.428267 F F F O
0.484690 0.321086 0.372711 F F F O
0.129985 0.069000 0.536909 F F F O
0.129985 0.931000 0.481353 F F F O
0.340179 0.951087 0.548600 F F F O
0.340179 0.048913 0.493044 F F F O
0.518650 0.080018 0.452514 F F F O
0.518650 0.919982 0.508069 F F F O
0.706904 0.926681 0.465447 F F F O
0.706904 0.073319 0.521003 F F F O
0.919848 0.942022 0.530546 F F F O
0.919848 0.057978 0.474991 F F F O
0.749936 0.076781 0.487488 F F F O
0.749936 0.923219 0.543043 F F F O
0.936774 0.921841 0.500686 F F F O
0.936774 0.078159 0.445130 F F F O
0.116799 0.049265 0.515591 F F F O
0.116799 0.950735 0.460036 F F F O
0.325432 0.918787 0.526694 F F F O
0.325432 0.081213 0.471139 F F F O
0.536371 0.944691 0.477899 F F F O
0.536371 0.055309 0.533455 F F F O
0.970827 0.322795 0.524764 F F F O
0.970827 0.677205 0.469209 F F F O
0.994909 0.313918 0.540316 F F F O
0.994909 0.686082 0.484760 F F F O
0.204625 0.643576 0.537569 F F F O
0.204625 0.356424 0.482013 F F F O
0.171056 0.795305 0.550003 F F F O
0.171056 0.204695 0.494447 F F F O
0.439658 0.351974 0.550157 F F F O
0.439658 0.648026 0.494602 F F F O
0.322583 0.281781 0.446817 F F F O
0.322583 0.718219 0.502373 F F F O
0.630670 0.751546 0.449941 F F F O
0.630670 0.248454 0.505497 F F F O
0.527520 0.656290 0.458602 F F F O
0.527520 0.343710 0.514157 F F F O
0.790584 0.215121 0.458845 F F F O
0.790584 0.784879 0.514401 F F F O
0.761105 0.355777 0.471497 F F F O
0.761105 0.644223 0.527053 F F F O
0.697609 0.649890 0.481492 F F F O
0.697609 0.350110 0.537048 F F F O
0.665087 0.785996 0.494018 F F F O
0.665087 0.214004 0.549573 F F F O
0.931406 0.340793 0.494284 F F F O
0.931406 0.659207 0.549839 F F F O
0.824688 0.258044 0.502812 F F F O
0.824688 0.741956 0.447257 F F F O
0.135280 0.725734 0.506127 F F F O
0.135280 0.274266 0.450571 F F F O
0.019880 0.642950 0.513952 F F F O
0.019880 0.357050 0.458396 F F F O
0.286380 0.205272 0.514082 F F F O
0.286380 0.794728 0.458527 F F F O
0.257004 0.347295 0.526792 F F F O
0.257004 0.652705 0.471236 F F F O
0.467181 0.677470 0.524036 F F F O
0.467181 0.322530 0.468481 F F F O
0.484690 0.678914 0.539378 F F F O
0.484690 0.321086 0.483822 F F F O
0.129985 0.069000 0.648020 F F F O
0.129985 0.931000 0.592465 F F F O
0.340179 0.951087 0.659711 F F F O
0.340179 0.048913 0.604155 F F F O
0.518650 0.080018 0.563625 F F F O
0.518650 0.919982 0.619180 F F F O
0.706904 0.926681 0.576558 F F F O
0.706904 0.073319 0.632114 F F F O
0.919848 0.942022 0.641657 F F F O
0.919848 0.057978 0.586102 F F F O
0.749936 0.076781 0.598599 F F F O
0.749936 0.923219 0.654154 F F F O
0.936774 0.921841 0.611797 F F F O
0.936774 0.078159 0.556241 F F F O
0.116799 0.049265 0.626703 F F F O
0.116799 0.950735 0.571147 F F F O
0.325432 0.918787 0.637805 F F F O
0.325432 0.081213 0.582250 F F F O
0.536371 0.944691 0.589010 F F F O
0.536371 0.055309 0.644566 F F F O
0.970827 0.322795 0.635875 F F F O
0.970827 0.677205 0.580320 F F F O
0.994909 0.313918 0.651427 F F F O
0.994909 0.686082 0.595871 F F F O
0.204625 0.643576 0.648680 F F F O
0.204625 0.356424 0.593124 F F F O
0.171056 0.795305 0.661114 F F F O
0.171056 0.204695 0.605558 F F F O
0.439658 0.351974 0.661268 F F F O
0.439658 0.648026 0.605713 F F F O
0.322583 0.281781 0.557929 F F F O
0.322583 0.718219 0.613484 F F F O
0.630670 0.751546 0.561053 F F F O
0.630670 0.248454 0.616608 F F F O
0.527520 0.656290 0.569713 F F F O
0.527520 0.343710 0.625268 F F F O
0.790584 0.215121 0.569956 F F F O
0.790584 0.784879 0.625512 F F F O
0.761105 0.355777 0.582608 F F F O
0.761105 0.644223 0.638164 F F F O
0.697609 0.649890 0.592604 F F F O
0.697609 0.350110 0.648159 F F F O
0.665087 0.785996 0.605129 F F F O
0.665087 0.214004 0.660685 F F F O
0.931406 0.340793 0.605395 F F F O
0.931406 0.659207 0.660950 F F F O
0.824688 0.258044 0.613923 F F F O
0.824688 0.741956 0.558368 F F F O
0.135280 0.725734 0.617238 F F F O
0.135280 0.274266 0.561682 F F F O
0.019880 0.642950 0.625063 F F F O
0.019880 0.357050 0.569508 F F F O
0.286380 0.205272 0.625193 F F F O
0.286380 0.794728 0.569638 F F F O
0.257004 0.347295 0.637903 F F F O
0.257004 0.652705 0.582348 F F F O
0.467181 0.677470 0.635147 F F F O
0.467181 0.322530 0.579592 F F F O
0.484690 0.678914 0.650489 F F F O
0.484690 0.321086 0.594934 F F F O
0.129985 0.069000 0.759131 F F F O
0.129985 0.931000 0.703576 F F F O
0.340179 0.951087 0.770822 T T T O
0.340179 0.048913 0.715266 F F F O
0.518650 0.080018 0.674736 F F F O
0.518650 0.919982 0.730291 F F F O
0.706904 0.926681 0.687670 F F F O
0.706904 0.073319 0.743225 F F F O
0.919848 0.942022 0.752768 F F F O
0.919848 0.057978 0.697213 F F F O
0.749936 0.076781 0.709710 F F F O
0.749936 0.923219 0.765265 T T T O
0.936774 0.921841 0.722908 F F F O
0.936774 0.078159 0.667352 F F F O
0.116799 0.049265 0.737814 F F F O
0.116799 0.950735 0.682258 F F F O
0.325432 0.918787 0.748916 F F F O
0.325432 0.081213 0.693361 F F F O
0.536371 0.944691 0.700122 F F F O
0.536371 0.055309 0.755677 F F F O
0.970827 0.322795 0.746986 F F F O
0.970827 0.677205 0.691431 F F F O
0.994909 0.313918 0.762538 F F F O
0.994909 0.686082 0.706982 F F F O
0.204625 0.643576 0.759791 F F F O
0.204625 0.356424 0.704235 F F F O
0.171056 0.795305 0.772225 T T T O
0.171056 0.204695 0.716669 F F F O
0.439658 0.351974 0.772379 T T T O
0.439658 0.648026 0.716824 F F F O
0.322583 0.281781 0.669040 F F F O
0.322583 0.718219 0.724595 F F F O
0.630670 0.751546 0.672164 F F F O
0.630670 0.248454 0.727719 F F F O
0.527520 0.656290 0.680824 F F F O
0.527520 0.343710 0.736379 F F F O
0.790584 0.215121 0.681068 F F F O
0.790584 0.784879 0.736623 F F F O
0.761105 0.355777 0.693719 F F F O
0.761105 0.644223 0.749275 F F F O
0.697609 0.649890 0.703715 F F F O
0.697609 0.350110 0.759270 F F F O
0.665087 0.785996 0.716240 F F F O
0.665087 0.214004 0.771796 T T T O
0.931406 0.340793 0.716506 F F F O
0.931406 0.659207 0.772061 T T T O
0.824688 0.258044 0.725034 F F F O
0.824688 0.741956 0.669479 F F F O
0.135280 0.725734 0.728349 F F F O
0.135280 0.274266 0.672794 F F F O
0.019880 0.642950 0.736174 F F F O
0.019880 0.357050 0.680619 F F F O
0.286380 0.205272 0.736304 F F F O
0.286380 0.794728 0.680749 F F F O
0.257004 0.347295 0.749014 F F F O
0.257004 0.652705 0.693459 F F F O
0.467181 0.677470 0.746258 F F F O
0.467181 0.322530 0.690703 F F F O
0.484690 0.678914 0.761600 F F F O
0.484690 0.321086 0.706045 F F F O
