Li56 P28 O98
1.0
5.260542 0.000000 0.001820
-2.598943 6.542399 -1.582932
0.000000 0.000000 86.620060
Li P O
56 28 98
direct
0.255537 0.144977 0.066575 Li+
0.744463 0.855023 0.064169 Li+
0.604323 0.588727 0.090207 Li+
0.395677 0.411273 0.040537 Li+
0.972231 0.327738 0.086244 Li+
0.027769 0.672262 0.044500 Li+
0.943048 0.241886 0.020292 Li+
0.056952 0.758114 0.010452 Li+
0.255537 0.144977 0.166575 Li+
0.744463 0.855023 0.164169 Li+
0.604323 0.588727 0.190207 Li+
0.395677 0.411273 0.140537 Li+
0.972231 0.327738 0.186244 Li+
0.027769 0.672262 0.144500 Li+
0.943048 0.241886 0.120292 Li+
0.056952 0.758114 0.110452 Li+
0.255537 0.144977 0.266575 Li+
0.744463 0.855023 0.264169 Li+
0.604323 0.588727 0.290207 Li+
0.395677 0.411273 0.240537 Li+
0.972231 0.327738 0.286244 Li+
0.027769 0.672262 0.244500 Li+
0.943048 0.241886 0.220292 Li+
0.056952 0.758114 0.210452 Li+
0.255537 0.144977 0.366575 Li+
0.744463 0.855023 0.364169 Li+
0.604323 0.588727 0.390207 Li+
0.395677 0.411273 0.340537 Li+
0.972231 0.327738 0.386244 Li+
0.027769 0.672262 0.344500 Li+
0.943048 0.241886 0.320292 Li+
0.056952 0.758114 0.310452 Li+
0.255537 0.144977 0.466575 Li+
0.744463 0.855023 0.464169 Li+
0.604323 0.588727 0.490207 Li+
0.395677 0.411273 0.440537 Li+
0.972231 0.327738 0.486244 Li+
0.027769 0.672262 0.444500 Li+
0.943048 0.241886 0.420292 Li+
0.056952 0.758114 0.410452 Li+
0.255537 0.144977 0.566575 Li+
0.744463 0.855023 0.564169 Li+
0.604323 0.588727 0.590207 Li+
0.395677 0.411273 0.540537 Li+
0.972231 0.327738 0.586244 Li+
0.027769 0.672262 0.544500 Li+
0.943048 0.241886 0.520292 Li+
0.056952 0.758114 0.510452 Li+
0.255537 0.144977 0.666575 Li+
0.744463 0.855023 0.664169 Li+
0.604323 0.588727 0.690207 Li+
0.395677 0.411273 0.640537 Li+
0.972231 0.327738 0.686244 Li+
0.027769 0.672262 0.644500 Li+
0.943048 0.241886 0.620292 Li+
0.056952 0.758114 0.610452 Li+
0.426010 0.213298 0.002176 P5+
0.573990 0.786702 0.028568 P5+
0.215728 0.779241 0.080822 P5+
0.784272 0.220759 0.049922 P5+
0.426010 0.213298 0.102176 P5+
0.573990 0.786702 0.128568 P5+
0.215728 0.779241 0.180822 P5+
0.784272 0.220759 0.149922 P5+
0.426010 0.213298 0.202176 P5+
0.573990 0.786702 0.228568 P5+
0.215728 0.779241 0.280822 P5+
0.784272 0.220759 0.249922 P5+
0.426010 0.213298 0.302176 P5+
0.573990 0.786702 0.328568 P5+
0.215728 0.779241 0.380822 P5+
0.784272 0.220759 0.349922 P5+
0.426010 0.213298 0.402176 P5+
0.573990 0.786702 0.428568 P5+
0.215728 0.779241 0.480822 P5+
0.784272 0.220759 0.449922 P5+
0.426010 0.213298 0.502176 P5+
0.573990 0.786702 0.528568 P5+
0.215728 0.779241 0.580822 P5+
0.784272 0.220759 0.549922 P5+
0.426010 0.213298 0.602176 P5+
0.573990 0.786702 0.628568 P5+
0.215728 0.779241 0.680822 P5+
0.784272 0.220759 0.649922 P5+
0.480088 0.741759 0.077938 O2-
0.993870 0.605720 0.086304 O2-
0.006130 0.394280 0.044440 O2-
0.117089 0.848591 0.067174 O2-
0.267439 0.743350 0.027726 O2-
0.732561 0.256650 0.003017 O2-
0.685156 0.732189 0.012753 O2-
0.314844 0.267811 0.017991 O2-
0.661778 0.702403 0.041722 O2-
0.338222 0.297597 0.089022 O2-
0.266931 0.962384 0.096983 O2-
0.733069 0.037616 0.033761 O2-
0.882911 0.151409 0.063570 O2-
0.519912 0.258241 0.052806 O2-
0.480088 0.741759 0.177938 O2-
0.993870 0.605720 0.186304 O2-
0.006130 0.394280 0.144440 O2-
0.117089 0.848591 0.167174 O2-
0.267439 0.743350 0.127726 O2-
0.732561 0.256650 0.103017 O2-
0.685156 0.732189 0.112753 O2-
0.314844 0.267811 0.117991 O2-
0.661778 0.702403 0.141722 O2-
0.338222 0.297597 0.189022 O2-
0.266931 0.962384 0.196983 O2-
0.733069 0.037616 0.133761 O2-
0.882911 0.151409 0.163570 O2-
0.519912 0.258241 0.152806 O2-
0.480088 0.741759 0.277938 O2-
0.993870 0.605720 0.286304 O2-
0.006130 0.394280 0.244440 O2-
0.117089 0.848591 0.267174 O2-
0.267439 0.743350 0.227726 O2-
0.732561 0.256650 0.203017 O2-
0.685156 0.732189 0.212753 O2-
0.314844 0.267811 0.217991 O2-
0.661778 0.702403 0.241722 O2-
0.338222 0.297597 0.289022 O2-
0.266931 0.962384 0.296983 O2-
0.733069 0.037616 0.233761 O2-
0.882911 0.151409 0.263570 O2-
0.519912 0.258241 0.252806 O2-
0.480088 0.741759 0.377938 O2-
0.993870 0.605720 0.386304 O2-
0.006130 0.394280 0.344440 O2-
0.117089 0.848591 0.367174 O2-
0.267439 0.743350 0.327726 O2-
0.732561 0.256650 0.303017 O2-
0.685156 0.732189 0.312753 O2-
0.314844 0.267811 0.317991 O2-
0.661778 0.702403 0.341722 O2-
0.338222 0.297597 0.389022 O2-
0.266931 0.962384 0.396983 O2-
0.733069 0.037616 0.333761 O2-
0.882911 0.151409 0.363570 O2-
0.519912 0.258241 0.352806 O2-
0.480088 0.741759 0.477938 O2-
0.993870 0.605720 0.486304 O2-
0.006130 0.394280 0.444440 O2-
0.117089 0.848591 0.467174 O2-
0.267439 0.743350 0.427726 O2-
0.732561 0.256650 0.403017 O2-
0.685156 0.732189 0.412753 O2-
0.314844 0.267811 0.417991 O2-
0.661778 0.702403 0.441722 O2-
0.338222 0.297597 0.489022 O2-
0.266931 0.962384 0.496983 O2-
0.733069 0.037616 0.433761 O2-
0.882911 0.151409 0.463570 O2-
0.519912 0.258241 0.452806 O2-
0.480088 0.741759 0.577938 O2-
0.993870 0.605720 0.586304 O2-
0.006130 0.394280 0.544440 O2-
0.117089 0.848591 0.567174 O2-
0.267439 0.743350 0.527726 O2-
0.732561 0.256650 0.503017 O2-
0.685156 0.732189 0.512753 O2-
0.314844 0.267811 0.517991 O2-
0.661778 0.702403 0.541722 O2-
0.338222 0.297597 0.589022 O2-
0.266931 0.962384 0.596983 O2-
0.733069 0.037616 0.533761 O2-
0.882911 0.151409 0.563570 O2-
0.519912 0.258241 0.552806 O2-
0.480088 0.741759 0.677938 O2-
0.993870 0.605720 0.686304 O2-
0.006130 0.394280 0.644440 O2-
0.117089 0.848591 0.667174 O2-
0.267439 0.743350 0.627726 O2-
0.732561 0.256650 0.603017 O2-
0.685156 0.732189 0.612753 O2-
0.314844 0.267811 0.617991 O2-
0.661778 0.702403 0.641722 O2-
0.338222 0.297597 0.689022 O2-
0.266931 0.962384 0.696983 O2-
0.733069 0.037616 0.633761 O2-
0.882911 0.151409 0.663570 O2-
0.519912 0.258241 0.652806 O2-
