Li56 P28 O98
1.0
4.907295 0.000000 -1.895193
-0.730671 8.419349 5.315209
0.000000 0.000000 79.370284
Li P O
56 28 98
direct
0.744463 0.987971 0.032800 Li+
0.255537 0.012029 0.056972 Li+
0.395677 0.751653 0.013943 Li+
0.604323 0.248347 0.075830 Li+
0.027769 0.791276 0.034067 Li+
0.972231 0.208724 0.055706 Li+
0.056952 0.450796 0.072824 Li+
0.943048 0.549204 0.016948 Li+
0.744463 0.987971 0.123709 Li+
0.255537 0.012029 0.147881 Li+
0.395677 0.751653 0.104852 Li+
0.604323 0.248347 0.166739 Li+
0.027769 0.791276 0.124976 Li+
0.972231 0.208724 0.146615 Li+
0.056952 0.450796 0.163733 Li+
0.943048 0.549204 0.107857 Li+
0.744463 0.987971 0.214618 Li+
0.255537 0.012029 0.238791 Li+
0.395677 0.751653 0.195761 Li+
0.604323 0.248347 0.257648 Li+
0.027769 0.791276 0.215885 Li+
0.972231 0.208724 0.237524 Li+
0.056952 0.450796 0.254642 Li+
0.943048 0.549204 0.198766 Li+
0.744463 0.987971 0.305527 Li+
0.255537 0.012029 0.329700 Li+
0.395677 0.751653 0.286670 Li+
0.604323 0.248347 0.348557 Li+
0.027769 0.791276 0.306794 Li+
0.972231 0.208724 0.328433 Li+
0.056952 0.450796 0.345552 Li+
0.943048 0.549204 0.289675 Li+
0.744463 0.987971 0.396436 Li+
0.255537 0.012029 0.420609 Li+
0.395677 0.751653 0.377579 Li+
0.604323 0.248347 0.439466 Li+
0.027769 0.791276 0.397703 Li+
0.972231 0.208724 0.419342 Li+
0.056952 0.450796 0.436461 Li+
0.943048 0.549204 0.380585 Li+
0.744463 0.987971 0.487345 Li+
0.255537 0.012029 0.511518 Li+
0.395677 0.751653 0.468488 Li+
0.604323 0.248347 0.530375 Li+
0.027769 0.791276 0.488612 Li+
0.972231 0.208724 0.510251 Li+
0.056952 0.450796 0.527370 Li+
0.943048 0.549204 0.471494 Li+
0.744463 0.987971 0.578255 Li+
0.255537 0.012029 0.602427 Li+
0.395677 0.751653 0.559397 Li+
0.604323 0.248347 0.621284 Li+
0.027769 0.791276 0.579521 Li+
0.972231 0.208724 0.601160 Li+
0.056952 0.450796 0.618279 Li+
0.943048 0.549204 0.562403 Li+
0.573990 0.631956 0.058954 P5+
0.426010 0.368044 0.030818 P5+
0.784272 0.845502 0.079001 P5+
0.215728 0.154498 0.010772 P5+
0.573990 0.631956 0.149863 P5+
0.426010 0.368044 0.121727 P5+
0.784272 0.845502 0.169910 P5+
0.215728 0.154498 0.101681 P5+
0.573990 0.631956 0.240772 P5+
0.426010 0.368044 0.212637 P5+
0.784272 0.845502 0.260819 P5+
0.215728 0.154498 0.192590 P5+
0.573990 0.631956 0.331681 P5+
0.426010 0.368044 0.303546 P5+
0.784272 0.845502 0.351728 P5+
0.215728 0.154498 0.283499 P5+
0.573990 0.631956 0.422590 P5+
0.426010 0.368044 0.394455 P5+
0.784272 0.845502 0.442637 P5+
0.215728 0.154498 0.374408 P5+
0.573990 0.631956 0.513499 P5+
0.426010 0.368044 0.485364 P5+
0.784272 0.845502 0.533546 P5+
0.215728 0.154498 0.465317 P5+
0.573990 0.631956 0.604409 P5+
0.426010 0.368044 0.576273 P5+
0.784272 0.845502 0.624455 P5+
0.215728 0.154498 0.556226 P5+
0.519912 0.874340 0.079786 O2-
0.006130 0.790684 0.008850 O2-
0.993870 0.209316 0.080923 O2-
0.882911 0.981976 0.060289 O2-
0.732561 0.376455 0.033995 O2-
0.267439 0.623545 0.055778 O2-
0.314844 0.526190 0.021397 O2-
0.685156 0.473810 0.068375 O2-
0.338222 0.236504 0.050440 O2-
0.661778 0.763496 0.039332 O2-
0.733069 0.683894 0.077043 O2-
0.266931 0.316106 0.012730 O2-
0.117089 0.018024 0.029483 O2-
0.480088 0.125660 0.009986 O2-
0.519912 0.874340 0.170695 O2-
0.006130 0.790684 0.099759 O2-
0.993870 0.209316 0.171832 O2-
0.882911 0.981976 0.151198 O2-
0.732561 0.376455 0.124904 O2-
0.267439 0.623545 0.146687 O2-
0.314844 0.526190 0.112306 O2-
0.685156 0.473810 0.159284 O2-
0.338222 0.236504 0.141349 O2-
0.661778 0.763496 0.130241 O2-
0.733069 0.683894 0.167952 O2-
0.266931 0.316106 0.103639 O2-
0.117089 0.018024 0.120392 O2-
0.480088 0.125660 0.100895 O2-
0.519912 0.874340 0.261605 O2-
0.006130 0.790684 0.190668 O2-
0.993870 0.209316 0.262741 O2-
0.882911 0.981976 0.242107 O2-
0.732561 0.376455 0.215813 O2-
0.267439 0.623545 0.237596 O2-
0.314844 0.526190 0.203215 O2-
0.685156 0.473810 0.250193 O2-
0.338222 0.236504 0.232258 O2-
0.661778 0.763496 0.221151 O2-
0.733069 0.683894 0.258861 O2-
0.266931 0.316106 0.194548 O2-
0.117089 0.018024 0.211301 O2-
0.480088 0.125660 0.191804 O2-
0.519912 0.874340 0.352514 O2-
0.006130 0.790684 0.281577 O2-
0.993870 0.209316 0.353650 O2-
0.882911 0.981976 0.333016 O2-
0.732561 0.376455 0.306722 O2-
0.267439 0.623545 0.328505 O2-
0.314844 0.526190 0.294125 O2-
0.685156 0.473810 0.341102 O2-
0.338222 0.236504 0.323167 O2-
0.661778 0.763496 0.312060 O2-
0.733069 0.683894 0.349770 O2-
0.266931 0.316106 0.285457 O2-
0.117089 0.018024 0.302210 O2-
0.480088 0.125660 0.282713 O2-
0.519912 0.874340 0.443423 O2-
0.006130 0.790684 0.372486 O2-
0.993870 0.209316 0.444559 O2-
0.882911 0.981976 0.423926 O2-
0.732561 0.376455 0.397631 O2-
0.267439 0.623545 0.419414 O2-
0.314844 0.526190 0.385034 O2-
0.685156 0.473810 0.432012 O2-
0.338222 0.236504 0.414077 O2-
0.661778 0.763496 0.402969 O2-
0.733069 0.683894 0.440679 O2-
0.266931 0.316106 0.376366 O2-
0.117089 0.018024 0.393120 O2-
0.480088 0.125660 0.373623 O2-
0.519912 0.874340 0.534332 O2-
0.006130 0.790684 0.463395 O2-
0.993870 0.209316 0.535468 O2-
0.882911 0.981976 0.514835 O2-
0.732561 0.376455 0.488540 O2-
0.267439 0.623545 0.510323 O2-
0.314844 0.526190 0.475943 O2-
0.685156 0.473810 0.522921 O2-
0.338222 0.236504 0.504986 O2-
0.661778 0.763496 0.493878 O2-
0.733069 0.683894 0.531588 O2-
0.266931 0.316106 0.467275 O2-
0.117089 0.018024 0.484029 O2-
0.480088 0.125660 0.464532 O2-
0.519912 0.874340 0.625241 O2-
0.006130 0.790684 0.554304 O2-
0.993870 0.209316 0.626377 O2-
0.882911 0.981976 0.605744 O2-
0.732561 0.376455 0.579449 O2-
0.267439 0.623545 0.601232 O2-
0.314844 0.526190 0.566852 O2-
0.685156 0.473810 0.613830 O2-
0.338222 0.236504 0.595895 O2-
0.661778 0.763496 0.584787 O2-
0.733069 0.683894 0.622497 O2-
0.266931 0.316106 0.558184 O2-
0.117089 0.018024 0.574938 O2-
0.480088 0.125660 0.555441 O2-
