Li71 P24 N1 O94                         
   1.00000000000000     
    14.7041084631087777   -0.0040411311332944   -0.0102108806359257
    -0.0028815790801355   10.5594364807725221   -0.0092793900174436
    -0.0085289055528370   -0.0108142237226261   12.3305124049394088
   Li   P    N    O 
    71    24     1    94
Direct
  0.1695437855789586  0.4201359828364044 -0.0058296511556109
  0.1695508584661261  0.4223135851291694  0.5004136509862729
  0.1738857706017718  0.9261385064074545  0.0046522367482116
  0.1708542397120988  0.9223351862225971  0.4994299954509177
  0.5030608731693992  0.4223040682376089  0.0000200403136343
  0.5027868110392518  0.4222307540655230  0.4992402353236608
  0.5021193740220236  0.9222352901771621  0.0000354439655132
  0.5021839284421148  0.9223486001519419  0.4994813246360525
  0.8364731761645717  0.4231343783176033 -0.0006382244352107
  0.8360710842362533  0.4227905954440794  0.5006063533991031
  0.8341116947211957  0.9180148101416969  0.0005348036933195
  0.8363747455925771  0.9216446675439219  0.5004078378976009
  0.0023687940864229  0.0654787709087780  0.2697155184532164
  0.0037114703353628  0.0763601330083454  0.7453478599312771
  0.0042101867376368  0.5792977582968487  0.2527796568683546
  0.0037232116193575  0.5777303121363403  0.7491077462181123
  0.3311819378887120  0.0800465463770929  0.2446463113143789
  0.3369543286545065  0.0778930468146404  0.7507269939172065
  0.3350992247149071  0.5755045696748902  0.2492562886756881
  0.3369009354428479  0.5777625942918964  0.7501649579698721
  0.6684420215326904  0.0782469947687627  0.2504455839354566
  0.6685942947425147  0.0777259701491119  0.7497698437373665
  0.6699061347718354  0.5767367536754531  0.2498628234648464
  0.6688680882287704  0.5779846468367533  0.7498130027917674
  0.1705899010254531  0.1636318204367793  0.6262890867743519
  0.1704063530380786  0.6615816665395058  0.1259265481019237
  0.1700005763148553  0.6636281398151002  0.6263817174192247
  0.5020408397874281  0.1624239691422729  0.1260255796186229
  0.5023007273979109  0.1630949518405896  0.6261315330848772
  0.5022079819978124  0.6630522734963185  0.1267359214396341
  0.5026824617587164  0.6632633737293295  0.6260460606082962
  0.8340850633939791  0.1639585180903772  0.1281752330472516
  0.8355952342282759  0.1635329677819866  0.6264461381171711
  0.8363147629963307  0.6627630920582884  0.1267029599871597
  0.8358914648233280  0.6637031574104763  0.6266622173741246
  0.0049901079402110  0.3573484739085191  0.1252467179351837
  0.0028722844726999  0.3368391658824713  0.6241104913681580
  0.0038205664547238  0.8339539618650429  0.1252161417954918
  0.0035260083076775  0.8363666141553076  0.6237758939296286
  0.3374161718381027  0.3323753230023361  0.1216216653212474
  0.3364569315010983  0.3365816001067604  0.6229692092714808
  0.3362892653600990  0.8372690181242266  0.1231276988992493
  0.3361065136766117  0.8369438780782410  0.6230677018860302
  0.6687270292836768  0.3368496063596296  0.1230362365701745
  0.6689419556254307  0.3370170129350278  0.6231738321497332
  0.6686563217039483  0.8370372817047644  0.1242478640230772
  0.6692204798929803  0.8370472318360132  0.6235858315858007
  0.0026924932901025  0.3364700815918771  0.3798824267920116
  0.0021274986476701  0.3395447571564071  0.8733299928326873
  0.0045671990052541  0.8338914487409267  0.3776989936086600
  0.0033892699856682  0.8336368786995012  0.8729070238357668
  0.3349287116732388  0.3365831553410746  0.3748285580781639
  0.3370875166114047  0.3353224579324209  0.8770069124232716
  0.3349839778998340  0.8368031406543681  0.3753526343046277
  0.3362616029633651  0.8373654950831566  0.8765841920577856
  0.6699218415681188  0.3367080045783321  0.3758047044382486
  0.6690290573376296  0.3374416757699190  0.8760908851109743
  0.6691079828852364  0.8370474430609873  0.3759767134993279
  0.6688000529316076  0.8369082243761747  0.8760500930670536
  0.1709116937492609  0.1631323168097132  0.3713265197309769
  0.1739654597163278  0.1638937750929694  0.8758517982212164
  0.1689894962571643  0.6629820439769812  0.3764501558580912
  0.1706546228880445  0.6637239775285128  0.8734106413018099
  0.5015717794731422  0.1633019745196693  0.3732524579443716
  0.5024262179114477  0.1630831040071170  0.8738777235384352
  0.5023038767683673  0.6632957316736455  0.3732240096815395
  0.5024251669098275  0.6634418718655807  0.8738957258639429
  0.8356546192990735  0.1632422621627805  0.3750669088533364
  0.8336635406462926  0.1656354733535353  0.8711748411145056
  0.8364306423390194  0.6630014964252059  0.3739033444540871
  0.8355108628832650  0.6636581413925420  0.8729885040026676
  0.1654798664877315  0.4129743996039051  0.2522091599034569
  0.1673901264202962  0.4124932131290274  0.7484523534787824
  0.1673774073925381  0.9108899189204739  0.2519902402214819
  0.1672041050160826  0.9126469913820341  0.7500408523886406
  0.5011126197519317  0.4119774553156051  0.2499855949777227
  0.5004396752541206  0.4122534382584513  0.7497481296603875
  0.5000373541539116  0.9125656900933737  0.2500692331278929
  0.5004641737304738  0.9120194265443718  0.7495981308225932
  0.8352606762582598  0.4111000339662638  0.2504365574637369
  0.8334368283049264  0.4126525400222801  0.7496561470882619
  0.8347311903612278  0.9123023280684501  0.2496810363051992
  0.8340604143510205  0.9129233164189066  0.7504975498902831
 -0.0007098871360087  0.0850168890742088 -0.0065854531511380
  0.0002138761456647  0.0873813605000272  0.5020243406701537
 -0.0004701749033041  0.5887224318204931 -0.0015145867899198
 -0.0002858168264313  0.5875512324638280  0.5013387521197634
  0.3339027642489098  0.0863960551750769 -0.0013532353190408
  0.3333051685930956  0.0880415284294042  0.4996914526651131
  0.3342343901941257  0.5873970463032577 -0.0005712741448987
  0.3337634934117810  0.5875685878296756  0.4999809957415295
  0.6673628704235230  0.0877487935165542 -0.0000283444616169
  0.6670966597731592  0.0877061634205577  0.5000259794367415
  0.6674542918261638  0.5883280078662148  0.0001856565763795
  0.6672848685122473  0.5881447902601019  0.4997033882085967
  0.2046359243825319  0.3562406363271988  0.1396112219920931
  0.0354413354231309  0.1569944519128053  0.3986969590867471
  0.0359001258258062  0.1581459533554639  0.8935124401138949
  0.0349986289711929  0.6560926662854323  0.3975705673768565
  0.0352907727390500  0.6577194771844237  0.8952663375595725
  0.3683636694397087  0.1575862270049840  0.3962926666071843
  0.3708656501221481  0.1560752087821038  0.8949969084209847
  0.3686212764992017  0.6565939636439713  0.3961178393080694
  0.3691872965692072  0.6577859197485298  0.8959942113538213
  0.7028573229134281  0.1567428607156985  0.3964418184869052
  0.7026699030785417  0.1570127970717935  0.8962639191782134
  0.7029166658939006  0.6571084126992142  0.3959924085053117
  0.7026452834774850  0.6574596080466769  0.8963671726640020
  0.2008729791034483  0.0484294083904018  0.2564341369612129
  0.2004787829130323  0.0527118163274784  0.7495207159182286
  0.1979077790087685  0.5545631954426054  0.2530980213912464
  0.2007200958588001  0.5527273281384563  0.7492820866875061
  0.5347444859907393  0.0522911693505463  0.2502290851211179
  0.5343888326971482  0.0521265667761265  0.7496886527505962
  0.5353574694824919  0.5520594324245340  0.2500104673750710
  0.5341899645574426  0.5525026001230492  0.7498621793396957
  0.8700695862654440  0.0524089527775456  0.2496334899821675
  0.8682099182605311  0.0530493015620448  0.7508678200818184
  0.8686920544777545  0.5513437785215236  0.2499945750776640
  0.8676953948043046  0.5524753344366042  0.7500568815180652
  0.0584902466005542  0.4093616849027527  0.2556295048463618
  0.0612598771768391  0.4099008833157105  0.7491057331182946
  0.0604256620441348  0.9075538447224584  0.2502457889523197
  0.0608618474151385  0.9100780774626489  0.7500505570126974
  0.3954989824293220  0.4092326170025477  0.2501931167997669
  0.3946003113965151  0.4092451057026067  0.7497401379928499
  0.3943315552783443  0.9100478886502590  0.2499471925359281
  0.3946434434890059  0.9089304826941220  0.7494030725072863
  0.7294879525899638  0.4077267409253208  0.2483030035769554
  0.7276261506853623  0.4098952696767454  0.7497370270797908
  0.7289926071729279  0.9111122590693689  0.2498812231698831
  0.7282767311759429  0.9101011120474026  0.7504187211144646
  0.2294993976033435  0.0866444220812265 -0.0046527781032459
  0.2274042295431930  0.0906707228863911  0.5004277277832859
  0.2282401402994777  0.5898897351343356 -0.0013938141872496
  0.2278223651871187  0.5900971613850299  0.5009142198869596
  0.5618204670228093  0.0903467869433391 -0.0000324722278018
  0.5613055541203748  0.0905420410877997  0.4996986095030947
  0.5616767636396865  0.5909742374218464  0.0002374387010101
  0.5614546509200445  0.5909136022126285  0.4995749056699305
  0.8938310047811699  0.0917772436797716  0.0000761951460326
  0.8942556409754029  0.0899935277935080  0.5010624926595003
  0.8936084540572609  0.5923421498147233 -0.0008063378276679
  0.8937807304660489  0.5909837523286319  0.5008215924651843
  0.2019995041422328  0.3438380137589768  0.6442872955967439
  0.2018527362652800  0.8412996767726494  0.1477225290731996
  0.2017734666071322  0.8432490786126799  0.6459890174035261
  0.5364135346270154  0.3428275412060438  0.1460414255132329
  0.5357534875405811  0.3432063787542287  0.6457942293923249
  0.5357504185076066  0.8430607976900749  0.1464192551586463
  0.5359327984033111  0.8430179695371507  0.6456838960106416
  0.8727619323060297  0.3413247598050741  0.1471598634811403
  0.8687987187118404  0.3430574668446080  0.6461443696083103
  0.8696051725173147  0.8431518054026039  0.1456325120175994
  0.8695345196041556  0.8436121587456390  0.6469599439047422
  0.0353731129260600  0.1567237738990009  0.6055629519745719
  0.0353977121718072  0.6552908776207599  0.1032177933520177
  0.0352254800143358  0.6573818842778146  0.6047898845021089
  0.3711857497659152  0.1548294277674696  0.1019805346073993
  0.3689474742364778  0.1567020573655021  0.6039058288563719
  0.3686349364810662  0.6564880687283458  0.1039625363637908
  0.3692692066966808  0.6569586528487826  0.6037975318479805
  0.7031329924660229  0.1570716620890851  0.1037816169763971
  0.7024542413741485  0.1569266548453513  0.6040332313917124
  0.7031019203529466  0.6574558414090975  0.1040952844469676
  0.7026480777969775  0.6573649821045002  0.6037180826666001
  0.0318211298708280  0.4480620962236405 -0.0034932932491613
  0.0331402810349908  0.4476162789075399  0.5020578041947172
  0.0345153404247170  0.9469403398335045 -0.0000699562274670
  0.0338505110958978  0.9474411043445994  0.5007487001559182
  0.3696025756301162  0.4484364553057300 -0.0015705266793581
  0.3676447330925148  0.4475670491342751  0.4996837953729186
  0.3693239693240399  0.9460520300129770 -0.0008753470381428
  0.3669833150696177  0.9477701107124179  0.4994397114185368
  0.7015669391039844  0.4482598805196298 -0.0000032951069727
  0.7011687001101881  0.4480713279145058  0.4996396386242716
  0.7014986825445610  0.9477195304162152  0.0000576986272614
  0.7012193945219606  0.9476958927448308  0.4999920773040669
  0.2000299876287630  0.3439195903663194  0.3567094925332242
  0.2029436295199748  0.3427036179380222  0.8513089084689105
  0.2001255569483519  0.8379352954248516  0.3555765381566444
  0.2018643139150219  0.8431283844496850  0.8535862227938736
  0.5369490392500875  0.3428391744574588  0.3536062077922982
  0.5362284058869700  0.3433213332434647  0.8533640751709928
  0.5356668560237139  0.8432371672372803  0.3537877919454072
  0.5361580504539073  0.8429739447889855  0.8532187981446195
  0.8691007713519104  0.3424351153096008  0.3549163554138642
  0.8687215004215744  0.3432469557904592  0.8534872837034877
  0.8702125599894671  0.8433778492248091  0.3533039143209487
  0.8696084997396463  0.8442263395340237  0.8545590170768458
 
  0.00000000E+00  0.00000000E+00  0.00000000E+00
  0.00000000E+00  0.00000000E+00  0.00000000E+00
  0.00000000E+00  0.00000000E+00  0.00000000E+00
  0.00000000E+00  0.00000000E+00  0.00000000E+00
  0.00000000E+00  0.00000000E+00  0.00000000E+00
  0.00000000E+00  0.00000000E+00  0.00000000E+00
  0.00000000E+00  0.00000000E+00  0.00000000E+00
  0.00000000E+00  0.00000000E+00  0.00000000E+00
  0.00000000E+00  0.00000000E+00  0.00000000E+00
  0.00000000E+00  0.00000000E+00  0.00000000E+00
  0.00000000E+00  0.00000000E+00  0.00000000E+00
  0.00000000E+00  0.00000000E+00  0.00000000E+00
  0.00000000E+00  0.00000000E+00  0.00000000E+00
  0.00000000E+00  0.00000000E+00  0.00000000E+00
  0.00000000E+00  0.00000000E+00  0.00000000E+00
  0.00000000E+00  0.00000000E+00  0.00000000E+00
  0.00000000E+00  0.00000000E+00  0.00000000E+00
  0.00000000E+00  0.00000000E+00  0.00000000E+00
  0.00000000E+00  0.00000000E+00  0.00000000E+00
  0.00000000E+00  0.00000000E+00  0.00000000E+00
  0.00000000E+00  0.00000000E+00  0.00000000E+00
  0.00000000E+00  0.00000000E+00  0.00000000E+00
  0.00000000E+00  0.00000000E+00  0.00000000E+00
  0.00000000E+00  0.00000000E+00  0.00000000E+00
  0.00000000E+00  0.00000000E+00  0.00000000E+00
  0.00000000E+00  0.00000000E+00  0.00000000E+00
  0.00000000E+00  0.00000000E+00  0.00000000E+00
  0.00000000E+00  0.00000000E+00  0.00000000E+00
  0.00000000E+00  0.00000000E+00  0.00000000E+00
  0.00000000E+00  0.00000000E+00  0.00000000E+00
  0.00000000E+00  0.00000000E+00  0.00000000E+00
  0.00000000E+00  0.00000000E+00  0.00000000E+00
  0.00000000E+00  0.00000000E+00  0.00000000E+00
  0.00000000E+00  0.00000000E+00  0.00000000E+00
  0.00000000E+00  0.00000000E+00  0.00000000E+00
  0.00000000E+00  0.00000000E+00  0.00000000E+00
  0.00000000E+00  0.00000000E+00  0.00000000E+00
  0.00000000E+00  0.00000000E+00  0.00000000E+00
  0.00000000E+00  0.00000000E+00  0.00000000E+00
  0.00000000E+00  0.00000000E+00  0.00000000E+00
  0.00000000E+00  0.00000000E+00  0.00000000E+00
  0.00000000E+00  0.00000000E+00  0.00000000E+00
  0.00000000E+00  0.00000000E+00  0.00000000E+00
  0.00000000E+00  0.00000000E+00  0.00000000E+00
  0.00000000E+00  0.00000000E+00  0.00000000E+00
  0.00000000E+00  0.00000000E+00  0.00000000E+00
  0.00000000E+00  0.00000000E+00  0.00000000E+00
  0.00000000E+00  0.00000000E+00  0.00000000E+00
  0.00000000E+00  0.00000000E+00  0.00000000E+00
  0.00000000E+00  0.00000000E+00  0.00000000E+00
  0.00000000E+00  0.00000000E+00  0.00000000E+00
  0.00000000E+00  0.00000000E+00  0.00000000E+00
  0.00000000E+00  0.00000000E+00  0.00000000E+00
  0.00000000E+00  0.00000000E+00  0.00000000E+00
  0.00000000E+00  0.00000000E+00  0.00000000E+00
  0.00000000E+00  0.00000000E+00  0.00000000E+00
  0.00000000E+00  0.00000000E+00  0.00000000E+00
  0.00000000E+00  0.00000000E+00  0.00000000E+00
  0.00000000E+00  0.00000000E+00  0.00000000E+00
  0.00000000E+00  0.00000000E+00  0.00000000E+00
  0.00000000E+00  0.00000000E+00  0.00000000E+00
  0.00000000E+00  0.00000000E+00  0.00000000E+00
  0.00000000E+00  0.00000000E+00  0.00000000E+00
  0.00000000E+00  0.00000000E+00  0.00000000E+00
  0.00000000E+00  0.00000000E+00  0.00000000E+00
  0.00000000E+00  0.00000000E+00  0.00000000E+00
  0.00000000E+00  0.00000000E+00  0.00000000E+00
  0.00000000E+00  0.00000000E+00  0.00000000E+00
  0.00000000E+00  0.00000000E+00  0.00000000E+00
  0.00000000E+00  0.00000000E+00  0.00000000E+00
  0.00000000E+00  0.00000000E+00  0.00000000E+00
  0.00000000E+00  0.00000000E+00  0.00000000E+00
  0.00000000E+00  0.00000000E+00  0.00000000E+00
  0.00000000E+00  0.00000000E+00  0.00000000E+00
  0.00000000E+00  0.00000000E+00  0.00000000E+00
  0.00000000E+00  0.00000000E+00  0.00000000E+00
  0.00000000E+00  0.00000000E+00  0.00000000E+00
  0.00000000E+00  0.00000000E+00  0.00000000E+00
  0.00000000E+00  0.00000000E+00  0.00000000E+00
  0.00000000E+00  0.00000000E+00  0.00000000E+00
  0.00000000E+00  0.00000000E+00  0.00000000E+00
  0.00000000E+00  0.00000000E+00  0.00000000E+00
  0.00000000E+00  0.00000000E+00  0.00000000E+00
  0.00000000E+00  0.00000000E+00  0.00000000E+00
  0.00000000E+00  0.00000000E+00  0.00000000E+00
  0.00000000E+00  0.00000000E+00  0.00000000E+00
  0.00000000E+00  0.00000000E+00  0.00000000E+00
  0.00000000E+00  0.00000000E+00  0.00000000E+00
  0.00000000E+00  0.00000000E+00  0.00000000E+00
  0.00000000E+00  0.00000000E+00  0.00000000E+00
  0.00000000E+00  0.00000000E+00  0.00000000E+00
  0.00000000E+00  0.00000000E+00  0.00000000E+00
  0.00000000E+00  0.00000000E+00  0.00000000E+00
  0.00000000E+00  0.00000000E+00  0.00000000E+00
  0.00000000E+00  0.00000000E+00  0.00000000E+00
  0.00000000E+00  0.00000000E+00  0.00000000E+00
  0.00000000E+00  0.00000000E+00  0.00000000E+00
  0.00000000E+00  0.00000000E+00  0.00000000E+00
  0.00000000E+00  0.00000000E+00  0.00000000E+00
  0.00000000E+00  0.00000000E+00  0.00000000E+00
  0.00000000E+00  0.00000000E+00  0.00000000E+00
  0.00000000E+00  0.00000000E+00  0.00000000E+00
  0.00000000E+00  0.00000000E+00  0.00000000E+00
  0.00000000E+00  0.00000000E+00  0.00000000E+00
  0.00000000E+00  0.00000000E+00  0.00000000E+00
  0.00000000E+00  0.00000000E+00  0.00000000E+00
  0.00000000E+00  0.00000000E+00  0.00000000E+00
  0.00000000E+00  0.00000000E+00  0.00000000E+00
  0.00000000E+00  0.00000000E+00  0.00000000E+00
  0.00000000E+00  0.00000000E+00  0.00000000E+00
  0.00000000E+00  0.00000000E+00  0.00000000E+00
  0.00000000E+00  0.00000000E+00  0.00000000E+00
  0.00000000E+00  0.00000000E+00  0.00000000E+00
  0.00000000E+00  0.00000000E+00  0.00000000E+00
  0.00000000E+00  0.00000000E+00  0.00000000E+00
  0.00000000E+00  0.00000000E+00  0.00000000E+00
  0.00000000E+00  0.00000000E+00  0.00000000E+00
  0.00000000E+00  0.00000000E+00  0.00000000E+00
  0.00000000E+00  0.00000000E+00  0.00000000E+00
  0.00000000E+00  0.00000000E+00  0.00000000E+00
  0.00000000E+00  0.00000000E+00  0.00000000E+00
  0.00000000E+00  0.00000000E+00  0.00000000E+00
  0.00000000E+00  0.00000000E+00  0.00000000E+00
  0.00000000E+00  0.00000000E+00  0.00000000E+00
  0.00000000E+00  0.00000000E+00  0.00000000E+00
  0.00000000E+00  0.00000000E+00  0.00000000E+00
  0.00000000E+00  0.00000000E+00  0.00000000E+00
  0.00000000E+00  0.00000000E+00  0.00000000E+00
  0.00000000E+00  0.00000000E+00  0.00000000E+00
  0.00000000E+00  0.00000000E+00  0.00000000E+00
  0.00000000E+00  0.00000000E+00  0.00000000E+00
  0.00000000E+00  0.00000000E+00  0.00000000E+00
  0.00000000E+00  0.00000000E+00  0.00000000E+00
  0.00000000E+00  0.00000000E+00  0.00000000E+00
  0.00000000E+00  0.00000000E+00  0.00000000E+00
  0.00000000E+00  0.00000000E+00  0.00000000E+00
  0.00000000E+00  0.00000000E+00  0.00000000E+00
  0.00000000E+00  0.00000000E+00  0.00000000E+00
  0.00000000E+00  0.00000000E+00  0.00000000E+00
  0.00000000E+00  0.00000000E+00  0.00000000E+00
  0.00000000E+00  0.00000000E+00  0.00000000E+00
  0.00000000E+00  0.00000000E+00  0.00000000E+00
  0.00000000E+00  0.00000000E+00  0.00000000E+00
  0.00000000E+00  0.00000000E+00  0.00000000E+00
  0.00000000E+00  0.00000000E+00  0.00000000E+00
  0.00000000E+00  0.00000000E+00  0.00000000E+00
  0.00000000E+00  0.00000000E+00  0.00000000E+00
  0.00000000E+00  0.00000000E+00  0.00000000E+00
  0.00000000E+00  0.00000000E+00  0.00000000E+00
  0.00000000E+00  0.00000000E+00  0.00000000E+00
  0.00000000E+00  0.00000000E+00  0.00000000E+00
  0.00000000E+00  0.00000000E+00  0.00000000E+00
  0.00000000E+00  0.00000000E+00  0.00000000E+00
  0.00000000E+00  0.00000000E+00  0.00000000E+00
  0.00000000E+00  0.00000000E+00  0.00000000E+00
  0.00000000E+00  0.00000000E+00  0.00000000E+00
  0.00000000E+00  0.00000000E+00  0.00000000E+00
  0.00000000E+00  0.00000000E+00  0.00000000E+00
  0.00000000E+00  0.00000000E+00  0.00000000E+00
  0.00000000E+00  0.00000000E+00  0.00000000E+00
  0.00000000E+00  0.00000000E+00  0.00000000E+00
  0.00000000E+00  0.00000000E+00  0.00000000E+00
  0.00000000E+00  0.00000000E+00  0.00000000E+00
  0.00000000E+00  0.00000000E+00  0.00000000E+00
  0.00000000E+00  0.00000000E+00  0.00000000E+00
  0.00000000E+00  0.00000000E+00  0.00000000E+00
  0.00000000E+00  0.00000000E+00  0.00000000E+00
  0.00000000E+00  0.00000000E+00  0.00000000E+00
  0.00000000E+00  0.00000000E+00  0.00000000E+00
  0.00000000E+00  0.00000000E+00  0.00000000E+00
  0.00000000E+00  0.00000000E+00  0.00000000E+00
  0.00000000E+00  0.00000000E+00  0.00000000E+00
  0.00000000E+00  0.00000000E+00  0.00000000E+00
  0.00000000E+00  0.00000000E+00  0.00000000E+00
  0.00000000E+00  0.00000000E+00  0.00000000E+00
  0.00000000E+00  0.00000000E+00  0.00000000E+00
  0.00000000E+00  0.00000000E+00  0.00000000E+00
  0.00000000E+00  0.00000000E+00  0.00000000E+00
  0.00000000E+00  0.00000000E+00  0.00000000E+00
  0.00000000E+00  0.00000000E+00  0.00000000E+00
  0.00000000E+00  0.00000000E+00  0.00000000E+00
  0.00000000E+00  0.00000000E+00  0.00000000E+00
  0.00000000E+00  0.00000000E+00  0.00000000E+00
  0.00000000E+00  0.00000000E+00  0.00000000E+00
  0.00000000E+00  0.00000000E+00  0.00000000E+00
  0.00000000E+00  0.00000000E+00  0.00000000E+00
  0.00000000E+00  0.00000000E+00  0.00000000E+00
  0.00000000E+00  0.00000000E+00  0.00000000E+00
  0.00000000E+00  0.00000000E+00  0.00000000E+00
  0.00000000E+00  0.00000000E+00  0.00000000E+00
