(1, 0, 2)                               
   1.00000000000000     
     2.7573034884573269    0.0000852551534675   -1.5917647761162432
     0.0293984785710576    7.6931334886220482   -6.3165693033640489
    -0.1881870239280036    0.0665199462405962   50.6105291108985185
   Li   O 
    28    28
Selective dynamics
Direct
  0.0046277003189581  0.5535887601300560  0.0385276710349662   T   T   T
  0.0353054784668261 -0.0181278734981331  0.0333604782453429   T   T   T
  0.3022157055058735  0.7453169835070748  0.0372001168840554   T   T   T
  0.7077965843753672  0.2313774002773861  0.0236340891676650   T   T   T
  0.0000000000000000  0.5000000000000000  0.0937500000000000   F   F   F
  0.0000000000000000  0.0000000000000000  0.0937500000000000   F   F   F
  0.3333330000000032  0.7500000000000000  0.1041669999999968   F   F   F
  0.6666669999999968  0.2500000000000000  0.0833330000000032   F   F   F
  0.0000000000000000  0.5000000000000000  0.1562500000000000   F   F   F
  0.0000000000000000  0.0000000000000000  0.1562500000000000   F   F   F
  0.3333330000000032  0.7500000000000000  0.1666669999999968   F   F   F
  0.6666669999999968  0.2500000000000000  0.1458330000000032   F   F   F
  0.0000000000000000  0.5000000000000000  0.2187500000000000   F   F   F
  0.0000000000000000  0.0000000000000000  0.2187500000000000   F   F   F
  0.3333330000000032  0.7500000000000000  0.2291669999999968   F   F   F
  0.6666669999999968  0.2500000000000000  0.2083330000000032   F   F   F
  0.0000000000000000  0.5000000000000000  0.2812500000000000   F   F   F
  0.0000000000000000  0.0000000000000000  0.2812500000000000   F   F   F
  0.3333330000000032  0.7500000000000000  0.2916669999999968   F   F   F
  0.6666669999999968  0.2500000000000000  0.2708330000000032   F   F   F
  0.0000000000000000  0.5000000000000000  0.3437500000000000   F   F   F
  0.0000000000000000  0.0000000000000000  0.3437500000000000   F   F   F
  0.3333330000000032  0.7500000000000000  0.3541669999999968   F   F   F
  0.6666669999999968  0.2500000000000000  0.3333330000000032   F   F   F
 -0.0046386522549212  0.4465345497056051  0.3989822748441921   T   T   T
 -0.0354909084670603  0.0182042135977433  0.4041263524831705   T   T   T
  0.2922697480185041  0.7685509001030819  0.4138477953858175   T   T   T
  0.6975869686460602  0.2548857623967301  0.4002987366612379   T   T   T
  0.3333330000000032  0.1493099999999998  0.0290800000000004   F   F   F
  0.6898136234189438  0.6595826864475099  0.0123992789063221   T   T   T
  0.6738514965311349  0.8590893124135255  0.0353568385956901   T   T   T
  0.3333330000000032  0.3506900000000002  0.0542530000000028   F   F   F
  0.3333330000000032  0.1493099999999998  0.0915800000000004   F   F   F
  0.6666669999999968  0.6493099999999998  0.0707469999999972   F   F   F
  0.6666669999999968  0.8506900000000002  0.0959199999999996   F   F   F
  0.3333330000000032  0.3506900000000002  0.1167530000000028   F   F   F
  0.3333330000000032  0.1493099999999998  0.1540800000000004   F   F   F
  0.6666669999999968  0.6493099999999998  0.1332469999999972   F   F   F
  0.6666669999999968  0.8506900000000002  0.1584199999999996   F   F   F
  0.3333330000000032  0.3506900000000002  0.1792530000000028   F   F   F
  0.3333330000000032  0.1493099999999998  0.2165800000000004   F   F   F
  0.6666669999999968  0.6493099999999998  0.1957469999999972   F   F   F
  0.6666669999999968  0.8506900000000002  0.2209199999999996   F   F   F
  0.3333330000000032  0.3506900000000002  0.2417530000000028   F   F   F
  0.3333330000000032  0.1493099999999998  0.2790800000000004   F   F   F
  0.6666669999999968  0.6493099999999998  0.2582469999999972   F   F   F
  0.6666669999999968  0.8506900000000002  0.2834199999999996   F   F   F
  0.3333330000000032  0.3506900000000002  0.3042530000000028   F   F   F
  0.3333330000000032  0.1493099999999998  0.3415800000000004   F   F   F
  0.6666669999999968  0.6493099999999998  0.3207469999999972   F   F   F
  0.6666669999999968  0.8506900000000002  0.3459199999999996   F   F   F
  0.3333330000000032  0.3506900000000002  0.3667530000000028   F   F   F
  0.3260475520673455  0.1409377582124224  0.4021409773402473   T   T   T
  0.6666669999999968  0.6493099999999998  0.3832469999999972   F   F   F
  0.6666669999999968  0.8506900000000002  0.4084199999999996   F   F   F
  0.3103343106333323  0.3405381849393820  0.4251126646545679   T   T   T
 
  0.00000000E+00  0.00000000E+00  0.00000000E+00
  0.00000000E+00  0.00000000E+00  0.00000000E+00
  0.00000000E+00  0.00000000E+00  0.00000000E+00
  0.00000000E+00  0.00000000E+00  0.00000000E+00
  0.00000000E+00  0.00000000E+00  0.00000000E+00
  0.00000000E+00  0.00000000E+00  0.00000000E+00
  0.00000000E+00  0.00000000E+00  0.00000000E+00
  0.00000000E+00  0.00000000E+00  0.00000000E+00
  0.00000000E+00  0.00000000E+00  0.00000000E+00
  0.00000000E+00  0.00000000E+00  0.00000000E+00
  0.00000000E+00  0.00000000E+00  0.00000000E+00
  0.00000000E+00  0.00000000E+00  0.00000000E+00
  0.00000000E+00  0.00000000E+00  0.00000000E+00
  0.00000000E+00  0.00000000E+00  0.00000000E+00
  0.00000000E+00  0.00000000E+00  0.00000000E+00
  0.00000000E+00  0.00000000E+00  0.00000000E+00
  0.00000000E+00  0.00000000E+00  0.00000000E+00
  0.00000000E+00  0.00000000E+00  0.00000000E+00
  0.00000000E+00  0.00000000E+00  0.00000000E+00
  0.00000000E+00  0.00000000E+00  0.00000000E+00
  0.00000000E+00  0.00000000E+00  0.00000000E+00
  0.00000000E+00  0.00000000E+00  0.00000000E+00
  0.00000000E+00  0.00000000E+00  0.00000000E+00
  0.00000000E+00  0.00000000E+00  0.00000000E+00
  0.00000000E+00  0.00000000E+00  0.00000000E+00
  0.00000000E+00  0.00000000E+00  0.00000000E+00
  0.00000000E+00  0.00000000E+00  0.00000000E+00
  0.00000000E+00  0.00000000E+00  0.00000000E+00
  0.00000000E+00  0.00000000E+00  0.00000000E+00
  0.00000000E+00  0.00000000E+00  0.00000000E+00
  0.00000000E+00  0.00000000E+00  0.00000000E+00
  0.00000000E+00  0.00000000E+00  0.00000000E+00
  0.00000000E+00  0.00000000E+00  0.00000000E+00
  0.00000000E+00  0.00000000E+00  0.00000000E+00
  0.00000000E+00  0.00000000E+00  0.00000000E+00
  0.00000000E+00  0.00000000E+00  0.00000000E+00
  0.00000000E+00  0.00000000E+00  0.00000000E+00
  0.00000000E+00  0.00000000E+00  0.00000000E+00
  0.00000000E+00  0.00000000E+00  0.00000000E+00
  0.00000000E+00  0.00000000E+00  0.00000000E+00
  0.00000000E+00  0.00000000E+00  0.00000000E+00
  0.00000000E+00  0.00000000E+00  0.00000000E+00
  0.00000000E+00  0.00000000E+00  0.00000000E+00
  0.00000000E+00  0.00000000E+00  0.00000000E+00
  0.00000000E+00  0.00000000E+00  0.00000000E+00
  0.00000000E+00  0.00000000E+00  0.00000000E+00
  0.00000000E+00  0.00000000E+00  0.00000000E+00
  0.00000000E+00  0.00000000E+00  0.00000000E+00
  0.00000000E+00  0.00000000E+00  0.00000000E+00
  0.00000000E+00  0.00000000E+00  0.00000000E+00
  0.00000000E+00  0.00000000E+00  0.00000000E+00
  0.00000000E+00  0.00000000E+00  0.00000000E+00
  0.00000000E+00  0.00000000E+00  0.00000000E+00
  0.00000000E+00  0.00000000E+00  0.00000000E+00
  0.00000000E+00  0.00000000E+00  0.00000000E+00
  0.00000000E+00  0.00000000E+00  0.00000000E+00
