(1, 0, 2)
1.0
2.754274 0.000000 -1.590181
-0.000000 7.703522 -6.360724
0.000000 0.000000 50.885790
Li O
28 28
Selective dynamics
direct
0.000000 0.500000 0.031250 T T T Li+
0.000000 0.000000 0.031250 T T T Li+
0.333333 0.750000 0.041667 T T T Li+
0.666667 0.250000 0.020833 T T T Li+
0.000000 0.500000 0.093750 F F F Li+
0.000000 0.000000 0.093750 F F F Li+
0.333333 0.750000 0.104167 F F F Li+
0.666667 0.250000 0.083333 F F F Li+
0.000000 0.500000 0.156250 F F F Li+
0.000000 0.000000 0.156250 F F F Li+
0.333333 0.750000 0.166667 F F F Li+
0.666667 0.250000 0.145833 F F F Li+
0.000000 0.500000 0.218750 F F F Li+
0.000000 0.000000 0.218750 F F F Li+
0.333333 0.750000 0.229167 F F F Li+
0.666667 0.250000 0.208333 F F F Li+
0.000000 0.500000 0.281250 F F F Li+
0.000000 0.000000 0.281250 F F F Li+
0.333333 0.750000 0.291667 F F F Li+
0.666667 0.250000 0.270833 F F F Li+
0.000000 0.500000 0.343750 F F F Li+
0.000000 0.000000 0.343750 F F F Li+
0.333333 0.750000 0.354167 F F F Li+
0.666667 0.250000 0.333333 F F F Li+
0.000000 0.500000 0.406250 T T T Li+
0.000000 0.000000 0.406250 T T T Li+
0.333333 0.750000 0.416667 T T T Li+
0.666667 0.250000 0.395833 T T T Li+
0.333333 0.149310 0.029080 F F F O-
0.666667 0.649310 0.008247 T T T O-
0.666667 0.850690 0.033420 T T T O-
0.333333 0.350690 0.054253 F F F O-
0.333333 0.149310 0.091580 F F F O-
0.666667 0.649310 0.070747 F F F O-
0.666667 0.850690 0.095920 F F F O-
0.333333 0.350690 0.116753 F F F O-
0.333333 0.149310 0.154080 F F F O-
0.666667 0.649310 0.133247 F F F O-
0.666667 0.850690 0.158420 F F F O-
0.333333 0.350690 0.179253 F F F O-
0.333333 0.149310 0.216580 F F F O-
0.666667 0.649310 0.195747 F F F O-
0.666667 0.850690 0.220920 F F F O-
0.333333 0.350690 0.241753 F F F O-
0.333333 0.149310 0.279080 F F F O-
0.666667 0.649310 0.258247 F F F O-
0.666667 0.850690 0.283420 F F F O-
0.333333 0.350690 0.304253 F F F O-
0.333333 0.149310 0.341580 F F F O-
0.666667 0.649310 0.320747 F F F O-
0.666667 0.850690 0.345920 F F F O-
0.333333 0.350690 0.366753 F F F O-
0.333333 0.149310 0.404080 T T T O-
0.666667 0.649310 0.383247 F F F O-
0.666667 0.850690 0.408420 F F F O-
0.333333 0.350690 0.429253 T T T O-
