Li73 P24 N1 O95                         
   1.00000000000000     
    14.7270932812820128   -0.0144372024358599   -0.0000012328711069
    -0.0103364282630743   10.5689114309622152    0.0000007897529186
    -0.0000010229786243    0.0000009207750335   12.3094191957316088
   Li   P    N    O 
    73    24     1    95
Direct
  0.1451421448033356  0.4543257079844309 -0.0000009393615471
  0.1701885032328307  0.4206917336728792  0.4999994355230415
  0.1677482839631032  0.9211172660743822 -0.0000000993071088
  0.1694804885127890  0.9211234009524317  0.4999999863375583
  0.5068047221564344  0.4223708228687248 -0.0000002280592983
  0.5058603647244782  0.4239848777155324  0.4999998388853245
  0.5042901752028325  0.9209511993098857  0.0000007040271515
  0.5036332006415789  0.9220682933731772  0.5000010066480234
  0.8654916669928985  0.4274705126487473 -0.0000000240164270
  0.8367772576124616  0.4236378902926449  0.5000004487032258
  0.8359490220663158  0.9188200870093074 -0.0000013502083965
  0.8364809891461981  0.9223063397077136  0.5000000288721518
  0.0006004707500714  0.0760744258240532  0.2505859785376236
  0.0006000562763496  0.0760743997465891  0.7494136232004559
  0.0030299899516304  0.5741378194345000  0.2419251432293776
  0.0030300455188872  0.5741377488348141  0.7580748998305463
  0.3371396050021246  0.0760562045670075  0.2519175952002434
  0.3371396435096189  0.0760555251369445  0.7480830102807127
  0.3366913228025652  0.5780781759400756  0.2511924360366192
  0.3366909980335422  0.5780780343005547  0.7488063560572393
  0.6703689114988519  0.0780161937412139  0.2506561879832036
  0.6703689068287328  0.0780145321729155  0.7493446660972750
  0.6721714947598222  0.5785501616311493  0.2501972067868269
  0.6721716534835109  0.5785497439939934  0.7498028461954539
  0.1632754570323356  0.1567016430881649  0.1338813865838931
  0.1696812447263028  0.1623532863080894  0.6255386167558874
  0.1649309865511034  0.6668579209078337  0.1260023108394463
  0.1693559344111004  0.6606059656460529  0.6270804294026430
  0.5067757169677112  0.1634088091527658  0.1274446322215807
  0.5043624308462876  0.1633808606681890  0.6258736517598491
  0.5050025829240357  0.6624189331345104  0.1264610753916221
  0.5039810535906717  0.6639106588018734  0.6258859162946513
  0.8351919465520373  0.1624553292544318  0.1259791288580294
  0.8361227986165322  0.1643553634733435  0.6252976161799446
  0.8341767098211090  0.6659885152191384  0.1273030241300871
  0.8380642295915046  0.6628140146325617  0.6265780044171170
  0.0003406348486978  0.3345427961475921  0.1226634413794748
  0.0022159703322801  0.3359606573231343  0.6239859390827094
  0.0005780461271889  0.8352788654999623  0.1231821082262148
  0.0026331696902709  0.8345846790236952  0.6241781823807815
  0.3487199252519212  0.3384786662900263  0.1348718581027025
  0.3381690060985355  0.3363929537107787  0.6215487399220208
  0.3359947200009850  0.8333892155483333  0.1245732764089913
  0.3364414290321189  0.8360639219693987  0.6232838264908163
  0.6738660756719096  0.3385919429594215  0.1224947810507857
  0.6713609609230839  0.3370289129676838  0.6222603404787947
  0.6697456872506699  0.8368729760180997  0.1241998196378267
  0.6698261436204259  0.8367030812302925  0.6232570897214502
  0.0022156351987671  0.3359610952982574  0.3760141434868240
  0.0003406579106110  0.3345426281364318  0.8773369737325669
  0.0026330255820766  0.8345849851677614  0.3758221444109685
  0.0005782081802736  0.8352790970244710  0.8768183013867002
  0.3381691415534807  0.3363926900236608  0.3784512074352100
  0.3487195751413298  0.3384778774260254  0.8651277520797642
  0.3364417750836480  0.8360638060503813  0.3767168109705940
  0.3359947132235788  0.8333889647532048  0.8754268124782949
  0.6713610848545167  0.3370293226722015  0.3777396494064604
  0.6738663717585774  0.3385920875795246  0.8775053487677068
  0.6698261219731854  0.8367037353067076  0.3767437302494961
  0.6697453738480376  0.8368724774928481  0.8758013509199133
  0.1696815213834840  0.1623532024859574  0.3744617011087625
  0.1632753795583763  0.1567017213202384  0.8661184877833165
  0.1693551276252742  0.6606061567118861  0.3729180475386356
  0.1649301793911749  0.6668588271653146  0.8739952548442819
  0.5043622437460669  0.1633810215222937  0.3741268997442622
  0.5067756535503016  0.1634081282684550  0.8725553488447119
  0.5039822337404511  0.6639118121957543  0.3741137476873088
  0.5050026611082165  0.6624189940702410  0.8735378951388135
  0.8361233172685573  0.1643563389372638  0.3747018613170200
  0.8351921310752527  0.1624553615937094  0.8740208438186569
  0.8380644016389327  0.6628144461331795  0.3734219485358375
  0.8341770254055526  0.6659879056730795  0.8726965326202081
  0.2434401426508572  0.2952192149477584  0.0000015192934083
  0.1690611090562769  0.4095395314358816  0.2476953953831766
  0.1690608585877848  0.4095399746830529  0.7523041553223735
  0.1673293446922127  0.9112765996385456  0.2506074056188693
  0.1673292932878680  0.9112769381674644  0.7493924953140783
  0.5033519139381539  0.4139292217848478  0.2525169471942470
  0.5033514208242293  0.4139281079351020  0.7474828203044956
  0.5002619897431271  0.9120396588218641  0.2499938443925883
  0.5002617971514244  0.9120388428405144  0.7500064556488859
  0.8329504607572805  0.4112413549728808  0.2516903093389460
  0.8329505470984367  0.4112411293733254  0.7483096984654032
  0.8327094386493201  0.9134979602846167  0.2513129471348439
  0.8327094171949041  0.9134979321006498  0.7486871267385335
 -0.0006014360774561  0.0855461173196695 -0.0000000675706545
  0.0008933268891507  0.0868049004549355  0.4999999011119202
 -0.0042154697810356  0.5889803359051211 -0.0000000774693491
  0.0017348405117438  0.5864218579160205  0.4999999732990019
  0.3360624257667568  0.0889438750110107 -0.0000003755836285
  0.3347601773043749  0.0872424409299769  0.5000002939870180
  0.3319566223619297  0.5843183570981041 -0.0000005974312141
  0.3345844579052552  0.5872915000802894  0.4999994663321781
  0.6662018938579394  0.0870633750747893 -0.0000001041294811
  0.6670935897822324  0.0875549183404027  0.5000001886202603
  0.6667133836082374  0.5879766492483508 -0.0000006089781387
  0.6683218001645578  0.5891583892822990  0.5000000628374769
  0.0175578296404813  0.4438561129415718  0.0000000426186240
  0.0364954133468331  0.1560217436854515  0.3961029558081179
  0.0348280627400846  0.1531932396747381  0.8953673645861198
  0.0369126560486864  0.6550006650758130  0.3956629504561969
  0.0347008731511616  0.6627870985892950  0.8961012235534419
  0.3703237813075547  0.1564491722341909  0.3961722250165776
  0.3713239647486440  0.1586063159784135  0.8962929040939599
  0.3693953897946937  0.6570937101439390  0.3961618617634207
  0.3699856517193877  0.6507970043971391  0.8963607500914026
  0.7021814689873306  0.1569439527936982  0.3962367511175152
  0.7007415705942555  0.1562603493347832  0.8958920444949700
  0.7036925902140709  0.6581598522994305  0.3961537134964212
  0.7003076309008549  0.6581906577032078  0.8957049267716071
  0.2021253946137976  0.0511502556238920  0.2516955598215796
  0.2021252531105385  0.0511502660632810  0.7483043269206536
  0.2022168007695896  0.5495452000456370  0.2468816581270109
  0.2022165322819152  0.5495457306480827  0.7531170343898703
  0.5338615126872915  0.0521002197691421  0.2502736729874280
  0.5338613284741001  0.0520998544368869  0.7497268240202403
  0.5373101754172915  0.5533147015659782  0.2515172282618093
  0.5373092594402983  0.5533138576001166  0.7484816044005868
  0.8660780482105704  0.0536808668017629  0.2518002413029561
  0.8660788456175930  0.0536806980842462  0.7482000009213842
  0.8673330977749933  0.5509310858542984  0.2499187736766442
  0.8673332485180778  0.5509306457249894  0.7500810950688779
  0.0640727269783875  0.4037911647371316  0.2495213348328721
  0.0640722305554815  0.4037915545734337  0.7504784491489382
  0.0618483255326223  0.9096013223438154  0.2503422059229851
  0.0618482306149394  0.9096014325200580  0.7496578718767301
  0.3974000064816630  0.4131488198463121  0.2557034514817346
  0.3973999431696729  0.4131487351502897  0.7442964182277426
  0.3943443991952064  0.9088046703868823  0.2497941627320664
  0.3943439487035238  0.9088046256860548  0.7502062492051093
  0.7270771439804014  0.4099501229839995  0.2521647197593717
  0.7270774488875185  0.4099498932961878  0.7478356674952628
  0.7268541388622014  0.9102975459317021  0.2514593583538923
  0.7268539976145368  0.9102978634190674  0.7485413592912546
  0.2295715978305870  0.1040890260724531  0.0000000025072857
  0.2290016212112652  0.0900735805044433  0.5000003674839587
  0.2267025323201974  0.5944686416526295 -0.0000008107435399
  0.2287596567152270  0.5879993656732670  0.4999988348204487
  0.5601587418066789  0.0894709306841075  0.0000001492691502
  0.5612315942355942  0.0898192997704433  0.5000001462830195
  0.5602761749676901  0.5904877825067127 -0.0000013179489478
  0.5623820352266228  0.5923816688303953  0.4999999895037002
  0.8937947623401277  0.0883811909631556  0.0000000033904948
  0.8952459894033147  0.0900531369117789  0.4999998581946642
  0.8896762157442458  0.6132224142783042 -0.0000000299104280
  0.8960151635339711  0.5899603192744652  0.5000000066503969
  0.2052869296186869  0.3405932570137607  0.1421378462401309
  0.2064481932426503  0.3402261079589158  0.6496957182195424
  0.2032485730413154  0.8445794210032045  0.1457816882069996
  0.2027748597498560  0.8410116905130557  0.6462311082985845
  0.5348128698227006  0.3442889061430557  0.1470628714822852
  0.5385521040920039  0.3432854878572938  0.6447400814754229
  0.5348780648316270  0.8433054854609593  0.1457008745662910
  0.5354946651995666  0.8430229776470274  0.6462213028765279
  0.8668756477621991  0.3385815210029564  0.1499497937338165
  0.8681570802571373  0.3439649924348269  0.6431639938731820
  0.8674814441992843  0.8457001622878506  0.1472560473525008
  0.8685857107956966  0.8439498568540711  0.6452306631524756
  0.0348281168028600  0.1531933667198578  0.1046325849430539
  0.0364953492441971  0.1560216698728849  0.6038968849930320
  0.0347010237021085  0.6627870520632489  0.1038985944498000
  0.0369129711988547  0.6550007601019529  0.6043368132098359
  0.3713239625500208  0.1586079073367701  0.1037060682695516
  0.3703236607368110  0.1564490213658372  0.6038284859377736
  0.3699843918783465  0.6507975123869992  0.1036383769437911
  0.3693951695331686  0.6570927070024357  0.6038370886228681
  0.7007404184332183  0.1562590881753738  0.1041089721333462
  0.7021811279525849  0.1569435832119476  0.6037640031545936
  0.7003063128696577  0.6581904527436461  0.1042944176021468
  0.7036926916259648  0.6581596658681159  0.6038463736016887
  0.0356265023486776  0.4463234996179662  0.4999999919680713
  0.0339835795432018  0.9462239567734128  0.0000000177524754
  0.0344958049448688  0.9468129802241338  0.4999999699232056
  0.3602226570268851  0.4401824443530848 -0.0000005830705909
  0.3693496539923122  0.4479832694838045  0.5000004215170554
  0.3644445257025437  0.9481423792656875  0.0000012960494284
  0.3680552418182949  0.9472594796662743  0.5000004716124875
  0.6995473266084451  0.4486806181311154  0.0000000433553763
  0.7012692378685594  0.4491598202591001  0.5000000096994642
  0.6996676754996811  0.9473044188166022  0.0000000935336320
  0.7006462796289844  0.9477743477001020  0.5000002946717246
  0.2064485577399338  0.3402258399946048  0.3503040663269438
  0.2052860367045910  0.3405949101602345  0.8578633318501622
  0.2027750432976330  0.8410117406218405  0.3537689197223698
  0.2032485469011583  0.8445795325955546  0.8542182359246320
  0.5385520682150858  0.3432857699301189  0.3552597840158939
  0.5348127741413448  0.3442883774157868  0.8529370368229892
  0.5354946490365009  0.8430255670154431  0.3537792657407496
  0.5348782318298690  0.8433051119221430  0.8543001578396794
  0.8681570384256129  0.3439662187728995  0.3568353178180843
  0.8668753737857097  0.3385814484730708  0.8500500690478998
  0.8685856851718079  0.8439498861786841  0.3547693458541455
  0.8674814809310606  0.8456994319698883  0.8527436844111227
 
  0.00000000E+00  0.00000000E+00  0.00000000E+00
  0.00000000E+00  0.00000000E+00  0.00000000E+00
  0.00000000E+00  0.00000000E+00  0.00000000E+00
  0.00000000E+00  0.00000000E+00  0.00000000E+00
  0.00000000E+00  0.00000000E+00  0.00000000E+00
  0.00000000E+00  0.00000000E+00  0.00000000E+00
  0.00000000E+00  0.00000000E+00  0.00000000E+00
  0.00000000E+00  0.00000000E+00  0.00000000E+00
  0.00000000E+00  0.00000000E+00  0.00000000E+00
  0.00000000E+00  0.00000000E+00  0.00000000E+00
  0.00000000E+00  0.00000000E+00  0.00000000E+00
  0.00000000E+00  0.00000000E+00  0.00000000E+00
  0.00000000E+00  0.00000000E+00  0.00000000E+00
  0.00000000E+00  0.00000000E+00  0.00000000E+00
  0.00000000E+00  0.00000000E+00  0.00000000E+00
  0.00000000E+00  0.00000000E+00  0.00000000E+00
  0.00000000E+00  0.00000000E+00  0.00000000E+00
  0.00000000E+00  0.00000000E+00  0.00000000E+00
  0.00000000E+00  0.00000000E+00  0.00000000E+00
  0.00000000E+00  0.00000000E+00  0.00000000E+00
  0.00000000E+00  0.00000000E+00  0.00000000E+00
  0.00000000E+00  0.00000000E+00  0.00000000E+00
  0.00000000E+00  0.00000000E+00  0.00000000E+00
  0.00000000E+00  0.00000000E+00  0.00000000E+00
  0.00000000E+00  0.00000000E+00  0.00000000E+00
  0.00000000E+00  0.00000000E+00  0.00000000E+00
  0.00000000E+00  0.00000000E+00  0.00000000E+00
  0.00000000E+00  0.00000000E+00  0.00000000E+00
  0.00000000E+00  0.00000000E+00  0.00000000E+00
  0.00000000E+00  0.00000000E+00  0.00000000E+00
  0.00000000E+00  0.00000000E+00  0.00000000E+00
  0.00000000E+00  0.00000000E+00  0.00000000E+00
  0.00000000E+00  0.00000000E+00  0.00000000E+00
  0.00000000E+00  0.00000000E+00  0.00000000E+00
  0.00000000E+00  0.00000000E+00  0.00000000E+00
  0.00000000E+00  0.00000000E+00  0.00000000E+00
  0.00000000E+00  0.00000000E+00  0.00000000E+00
  0.00000000E+00  0.00000000E+00  0.00000000E+00
  0.00000000E+00  0.00000000E+00  0.00000000E+00
  0.00000000E+00  0.00000000E+00  0.00000000E+00
  0.00000000E+00  0.00000000E+00  0.00000000E+00
  0.00000000E+00  0.00000000E+00  0.00000000E+00
  0.00000000E+00  0.00000000E+00  0.00000000E+00
  0.00000000E+00  0.00000000E+00  0.00000000E+00
  0.00000000E+00  0.00000000E+00  0.00000000E+00
  0.00000000E+00  0.00000000E+00  0.00000000E+00
  0.00000000E+00  0.00000000E+00  0.00000000E+00
  0.00000000E+00  0.00000000E+00  0.00000000E+00
  0.00000000E+00  0.00000000E+00  0.00000000E+00
  0.00000000E+00  0.00000000E+00  0.00000000E+00
  0.00000000E+00  0.00000000E+00  0.00000000E+00
  0.00000000E+00  0.00000000E+00  0.00000000E+00
  0.00000000E+00  0.00000000E+00  0.00000000E+00
  0.00000000E+00  0.00000000E+00  0.00000000E+00
  0.00000000E+00  0.00000000E+00  0.00000000E+00
  0.00000000E+00  0.00000000E+00  0.00000000E+00
  0.00000000E+00  0.00000000E+00  0.00000000E+00
  0.00000000E+00  0.00000000E+00  0.00000000E+00
  0.00000000E+00  0.00000000E+00  0.00000000E+00
  0.00000000E+00  0.00000000E+00  0.00000000E+00
  0.00000000E+00  0.00000000E+00  0.00000000E+00
  0.00000000E+00  0.00000000E+00  0.00000000E+00
  0.00000000E+00  0.00000000E+00  0.00000000E+00
  0.00000000E+00  0.00000000E+00  0.00000000E+00
  0.00000000E+00  0.00000000E+00  0.00000000E+00
  0.00000000E+00  0.00000000E+00  0.00000000E+00
  0.00000000E+00  0.00000000E+00  0.00000000E+00
  0.00000000E+00  0.00000000E+00  0.00000000E+00
  0.00000000E+00  0.00000000E+00  0.00000000E+00
  0.00000000E+00  0.00000000E+00  0.00000000E+00
  0.00000000E+00  0.00000000E+00  0.00000000E+00
  0.00000000E+00  0.00000000E+00  0.00000000E+00
  0.00000000E+00  0.00000000E+00  0.00000000E+00
  0.00000000E+00  0.00000000E+00  0.00000000E+00
  0.00000000E+00  0.00000000E+00  0.00000000E+00
  0.00000000E+00  0.00000000E+00  0.00000000E+00
  0.00000000E+00  0.00000000E+00  0.00000000E+00
  0.00000000E+00  0.00000000E+00  0.00000000E+00
  0.00000000E+00  0.00000000E+00  0.00000000E+00
  0.00000000E+00  0.00000000E+00  0.00000000E+00
  0.00000000E+00  0.00000000E+00  0.00000000E+00
  0.00000000E+00  0.00000000E+00  0.00000000E+00
  0.00000000E+00  0.00000000E+00  0.00000000E+00
  0.00000000E+00  0.00000000E+00  0.00000000E+00
  0.00000000E+00  0.00000000E+00  0.00000000E+00
  0.00000000E+00  0.00000000E+00  0.00000000E+00
  0.00000000E+00  0.00000000E+00  0.00000000E+00
  0.00000000E+00  0.00000000E+00  0.00000000E+00
  0.00000000E+00  0.00000000E+00  0.00000000E+00
  0.00000000E+00  0.00000000E+00  0.00000000E+00
  0.00000000E+00  0.00000000E+00  0.00000000E+00
  0.00000000E+00  0.00000000E+00  0.00000000E+00
  0.00000000E+00  0.00000000E+00  0.00000000E+00
  0.00000000E+00  0.00000000E+00  0.00000000E+00
  0.00000000E+00  0.00000000E+00  0.00000000E+00
  0.00000000E+00  0.00000000E+00  0.00000000E+00
  0.00000000E+00  0.00000000E+00  0.00000000E+00
  0.00000000E+00  0.00000000E+00  0.00000000E+00
  0.00000000E+00  0.00000000E+00  0.00000000E+00
  0.00000000E+00  0.00000000E+00  0.00000000E+00
  0.00000000E+00  0.00000000E+00  0.00000000E+00
  0.00000000E+00  0.00000000E+00  0.00000000E+00
  0.00000000E+00  0.00000000E+00  0.00000000E+00
  0.00000000E+00  0.00000000E+00  0.00000000E+00
  0.00000000E+00  0.00000000E+00  0.00000000E+00
  0.00000000E+00  0.00000000E+00  0.00000000E+00
  0.00000000E+00  0.00000000E+00  0.00000000E+00
  0.00000000E+00  0.00000000E+00  0.00000000E+00
  0.00000000E+00  0.00000000E+00  0.00000000E+00
  0.00000000E+00  0.00000000E+00  0.00000000E+00
  0.00000000E+00  0.00000000E+00  0.00000000E+00
  0.00000000E+00  0.00000000E+00  0.00000000E+00
  0.00000000E+00  0.00000000E+00  0.00000000E+00
  0.00000000E+00  0.00000000E+00  0.00000000E+00
  0.00000000E+00  0.00000000E+00  0.00000000E+00
  0.00000000E+00  0.00000000E+00  0.00000000E+00
  0.00000000E+00  0.00000000E+00  0.00000000E+00
  0.00000000E+00  0.00000000E+00  0.00000000E+00
  0.00000000E+00  0.00000000E+00  0.00000000E+00
  0.00000000E+00  0.00000000E+00  0.00000000E+00
  0.00000000E+00  0.00000000E+00  0.00000000E+00
  0.00000000E+00  0.00000000E+00  0.00000000E+00
  0.00000000E+00  0.00000000E+00  0.00000000E+00
  0.00000000E+00  0.00000000E+00  0.00000000E+00
  0.00000000E+00  0.00000000E+00  0.00000000E+00
  0.00000000E+00  0.00000000E+00  0.00000000E+00
  0.00000000E+00  0.00000000E+00  0.00000000E+00
  0.00000000E+00  0.00000000E+00  0.00000000E+00
  0.00000000E+00  0.00000000E+00  0.00000000E+00
  0.00000000E+00  0.00000000E+00  0.00000000E+00
  0.00000000E+00  0.00000000E+00  0.00000000E+00
  0.00000000E+00  0.00000000E+00  0.00000000E+00
  0.00000000E+00  0.00000000E+00  0.00000000E+00
  0.00000000E+00  0.00000000E+00  0.00000000E+00
  0.00000000E+00  0.00000000E+00  0.00000000E+00
  0.00000000E+00  0.00000000E+00  0.00000000E+00
  0.00000000E+00  0.00000000E+00  0.00000000E+00
  0.00000000E+00  0.00000000E+00  0.00000000E+00
  0.00000000E+00  0.00000000E+00  0.00000000E+00
  0.00000000E+00  0.00000000E+00  0.00000000E+00
  0.00000000E+00  0.00000000E+00  0.00000000E+00
  0.00000000E+00  0.00000000E+00  0.00000000E+00
  0.00000000E+00  0.00000000E+00  0.00000000E+00
  0.00000000E+00  0.00000000E+00  0.00000000E+00
  0.00000000E+00  0.00000000E+00  0.00000000E+00
  0.00000000E+00  0.00000000E+00  0.00000000E+00
  0.00000000E+00  0.00000000E+00  0.00000000E+00
  0.00000000E+00  0.00000000E+00  0.00000000E+00
  0.00000000E+00  0.00000000E+00  0.00000000E+00
  0.00000000E+00  0.00000000E+00  0.00000000E+00
  0.00000000E+00  0.00000000E+00  0.00000000E+00
  0.00000000E+00  0.00000000E+00  0.00000000E+00
  0.00000000E+00  0.00000000E+00  0.00000000E+00
  0.00000000E+00  0.00000000E+00  0.00000000E+00
  0.00000000E+00  0.00000000E+00  0.00000000E+00
  0.00000000E+00  0.00000000E+00  0.00000000E+00
  0.00000000E+00  0.00000000E+00  0.00000000E+00
  0.00000000E+00  0.00000000E+00  0.00000000E+00
  0.00000000E+00  0.00000000E+00  0.00000000E+00
  0.00000000E+00  0.00000000E+00  0.00000000E+00
  0.00000000E+00  0.00000000E+00  0.00000000E+00
  0.00000000E+00  0.00000000E+00  0.00000000E+00
  0.00000000E+00  0.00000000E+00  0.00000000E+00
  0.00000000E+00  0.00000000E+00  0.00000000E+00
  0.00000000E+00  0.00000000E+00  0.00000000E+00
  0.00000000E+00  0.00000000E+00  0.00000000E+00
  0.00000000E+00  0.00000000E+00  0.00000000E+00
  0.00000000E+00  0.00000000E+00  0.00000000E+00
  0.00000000E+00  0.00000000E+00  0.00000000E+00
  0.00000000E+00  0.00000000E+00  0.00000000E+00
  0.00000000E+00  0.00000000E+00  0.00000000E+00
  0.00000000E+00  0.00000000E+00  0.00000000E+00
  0.00000000E+00  0.00000000E+00  0.00000000E+00
  0.00000000E+00  0.00000000E+00  0.00000000E+00
  0.00000000E+00  0.00000000E+00  0.00000000E+00
  0.00000000E+00  0.00000000E+00  0.00000000E+00
  0.00000000E+00  0.00000000E+00  0.00000000E+00
  0.00000000E+00  0.00000000E+00  0.00000000E+00
  0.00000000E+00  0.00000000E+00  0.00000000E+00
  0.00000000E+00  0.00000000E+00  0.00000000E+00
  0.00000000E+00  0.00000000E+00  0.00000000E+00
  0.00000000E+00  0.00000000E+00  0.00000000E+00
  0.00000000E+00  0.00000000E+00  0.00000000E+00
  0.00000000E+00  0.00000000E+00  0.00000000E+00
  0.00000000E+00  0.00000000E+00  0.00000000E+00
  0.00000000E+00  0.00000000E+00  0.00000000E+00
  0.00000000E+00  0.00000000E+00  0.00000000E+00
  0.00000000E+00  0.00000000E+00  0.00000000E+00
  0.00000000E+00  0.00000000E+00  0.00000000E+00
  0.00000000E+00  0.00000000E+00  0.00000000E+00
  0.00000000E+00  0.00000000E+00  0.00000000E+00
  0.00000000E+00  0.00000000E+00  0.00000000E+00
  0.00000000E+00  0.00000000E+00  0.00000000E+00
