Li73 P24 N1 O95                         
   1.00000000000000     
    14.7307894093400158   -0.0000546915204991   -0.0116192739570910
    -0.0000186444751499   10.5612746453572992   -0.0126002482270843
    -0.0096412008512607   -0.0147204458135600   12.3075993804178072
   Li   P    N    O 
    73    24     1    95
Direct
  0.1831847572216321  0.4301369076644891  0.9908102238759788
  0.1735275847969743  0.4224200281069395  0.4951081233751483
  0.1707039981335149  0.9210883146266229 -0.0004053403847237
  0.1706360801718264  0.9218208795031081  0.4981839089501087
  0.5029252029020160  0.4232537854357805 -0.0007531079713672
  0.5031543720394297  0.4231563060241241  0.4987679641226255
  0.5028405522640943  0.9216318328260913  0.9989413710125553
  0.5030234432718643  0.9222806231451215  0.4991176720123410
  0.8385074903406156  0.4207716424048188 -0.0001516693204759
  0.8368787047728817  0.4223878204679649  0.4994587218798785
  0.8359535210685292  0.9215837661869876 -0.0014611568614449
  0.8364156298469221  0.9213420464954573  0.4997230179462728
  0.0084940890957626  0.0589896573011278  0.2547336218474904
  0.0035802137934414  0.0802573867897130  0.7494847756987500
  0.0026858904324384  0.5670845880776554  0.2465586791923119
  0.0044112987069990  0.5786176012207089  0.7486292513216340
  0.3369740104073511  0.0770805043531457  0.2503547287513023
  0.3367455461633567  0.0784427454106220  0.7487661936691344
  0.3342283587865138  0.5751213015073169  0.2489524804070075
  0.3376702535696214  0.5786938392647726  0.7485600879851415
  0.6681900085640501  0.0779965178243405  0.2498189334827535
  0.6692834378409631  0.0780854288567828  0.7492321894699360
  0.6695827899832902  0.5796720184017047  0.2499580448031292
  0.6709159713333660  0.5774736017586745  0.7490689758599320
  0.1751839642090584  0.1597291676748250  0.1290477470718595
  0.1705313607401136  0.1644821202643836  0.6239726726379734
  0.1700519568280927  0.6588543440347596  0.1270599280684951
  0.1700516925209111  0.6641805293517135  0.6246971003177111
  0.5026274774927832  0.1638553697161154  0.1255530557503094
  0.5026664523380718  0.1635482228477329  0.6252489166225321
  0.5042350293504756  0.6633065630501107  0.1257707680863563
  0.5036765507010746  0.6636955488211634  0.6254050018602166
  0.8293016626890712  0.1595349884489785  0.1220365947433422
  0.8360649289227510  0.1630256606184741  0.6259836090086458
  0.8377840182067394  0.6621781198491998  0.1237420862456790
  0.8372744253962456  0.6631745331278426  0.6257108599733204
  0.9650471170049618  0.2718271315718230  0.2180823812352858
  0.0036079986489390  0.3371766448044462  0.6239051470821878
  0.0037445123310764  0.8332872675960309  0.1223661647954723
  0.0034588339041494  0.8385534000370423  0.6238011878252262
  0.3338301980740345  0.3382978276954887  0.1232139481167759
  0.3371984171480173  0.3372817513343682  0.6215179397486329
  0.3376062891008642  0.8360268613691024  0.1226592453064161
  0.3363503476871259  0.8371063239830019  0.6226201448683570
  0.6694370737215477  0.3374209279668078  0.1229655018577953
  0.6699084193554954  0.3368868779941505  0.6227169495498744
  0.6699845460864879  0.8372996818076898  0.1229413345842610
  0.6697479703015674  0.8369120714823876  0.6230658621773224
  0.0093388223113728  0.3437757392732033  0.3869306914961458
  0.0032974618128539  0.3386578946273606  0.8729352530671637
  0.0039322789600889  0.8320271730452018  0.3765582043087844
  0.0028204733684297  0.8410481575996901  0.8751315611205642
  0.3370065520471690  0.3371836811572806  0.3734199971131237
  0.3385705280937163  0.3369213996924984  0.8738325490612265
  0.3377137107990121  0.8352741108814737  0.3754980647732979
  0.3369182781595599  0.8375777247137435  0.8749265810226887
  0.6673016436112013  0.3363495019290124  0.3776634705999119
  0.6698821029819718  0.3373672838603601  0.8756618903413026
  0.6701054681473803  0.8373237779656925  0.3752531167043516
  0.6698583009009160  0.8367413290281508  0.8748261613472834
  0.1696356562961120  0.1656865262804361  0.3713763581052807
  0.1710095203916865  0.1646768980519609  0.8736563430039425
  0.1698835628776922  0.6578987197770407  0.3702446236102157
  0.1693801123392299  0.6667317608565154  0.8709768876011256
  0.5026501134640982  0.1635405744890260  0.3730102317012575
  0.5025746348435092  0.1638649597243417  0.8724593786275985
  0.5034059080124157  0.6631419508101831  0.3727483887719823
  0.5050303018446193  0.6639165917298830  0.8722838799580337
  0.8343539203758809  0.1613749531092283  0.3749818379451030
  0.8356093477766202  0.1635421523827789  0.8730035827733719
  0.8372431132713068  0.6634175994759950  0.3730704501521351
  0.8377258512375330  0.6625765474925808  0.8725569378421826
  0.0636119175373438  0.3411114229402379  0.0984820797640679
  0.1616636026490938  0.4086079502734953  0.2488868964298798
  0.1688299167072125  0.4127895871494524  0.7471738267237390
  0.1693114563934481  0.9070595738004412  0.2495084853612137
  0.1674643529708111  0.9148239792446007  0.7489036896838078
  0.5010209130454539  0.4126868559192394  0.2485570666610752
  0.5015027683021074  0.4127011078694011  0.7486148412275603
  0.5009181021722920  0.9124004299549311  0.2491580969868805
  0.5007516611838874  0.9129177497356863  0.7489771458516800
  0.8287921779029652  0.4128164227482349  0.2494943784390581
  0.8343569411077841  0.4116470995916733  0.7488203344893591
  0.8350394777809880  0.9131239279909885  0.2487020609480678
  0.8340204382714185  0.9130185412676662  0.7493952128294386
 -0.0005751112290267  0.0893023685241837  0.0022025435188798
 -0.0002207463375862  0.0869313654141087  0.4988210852713447
  0.0032552106227807  0.5901028066340731  0.9951497167663943
  0.0015686102604273  0.5890952564674727  0.5013910201129355
  0.3340980506666243  0.0876787786412886  0.9995233577821832
  0.3340078884194257  0.0875252799915942  0.4987715452739634
  0.3360650454881979  0.5910569250611289  0.9979375828347676
  0.3349425194018865  0.5882496630826388  0.4989882982228500
  0.6655904153844817  0.0871965784193273  0.9988609872155059
  0.6670030374466174  0.0874515777199238  0.4996111643827665
  0.6682545767686366  0.5880926660433804  0.9990774756635847
  0.6680459005811485  0.5884515599105072  0.4996717225640976
  0.0552783267244150  0.3979211958147000  0.2479589253545282
  0.0334018579157443  0.1551910890899830  0.3935324062942726
  0.0365077121777281  0.1605571258629736  0.9006282293249026
  0.0365143778593309  0.6564194249319846  0.3972140689880184
  0.0350665868004043  0.6639964820121094  0.8920903127256985
  0.3699692271736749  0.1560229358884944  0.3952030602766959
  0.3691198970985139  0.1570568539348672  0.8957596353630332
  0.3705933923939388  0.6567249255095571  0.3952252025791064
  0.3724094146729436  0.6588048630129897  0.8941574586266362
  0.7020378735971549  0.1567078438676396  0.3957111838623366
  0.7017756136560925  0.1570447871810335  0.8959219068769140
  0.7034002467081036  0.6582082458991150  0.3962520945248577
  0.7034378941342342  0.6570506461485027  0.8951072758472561
  0.2002145990862348  0.0484164038226330  0.2501526203915189
  0.2013463024555653  0.0547875776053768  0.7488772904333475
  0.2017302687115022  0.5484093206744790  0.2479843633377109
  0.2017976771512031  0.5532041728555634  0.7484457663229116
  0.5342435478262123  0.0526462457063984  0.2493088732508184
  0.5342828831285382  0.0530780966977141  0.7490437019697982
  0.5353481390622216  0.5524832807464386  0.2491862048566526
  0.5357930886818557  0.5524399700326181  0.7487365728176242
  0.8700346781933092  0.0534612657621917  0.2484756438042590
  0.8682097192102186  0.0529759237541002  0.7498450915223714
  0.8630416676422616  0.5518844080804943  0.2484211347782856
  0.8683582430292169  0.5514661748517076  0.7489568480406075
  0.0631499538939648  0.4089767395748188  0.7481692950467111
  0.0634673392951673  0.9001311884973651  0.2496977144845854
  0.0616427854288847  0.9135082767174594  0.7496326329208957
  0.3955409503350597  0.4101693382047285  0.2476749697986337
  0.3958094732716286  0.4104489256894104  0.7481997060356912
  0.3952722047983391  0.9093089023230582  0.2491776333709925
  0.3950387463001948  0.9101630102185323  0.7489818346163755
  0.7235371380715639  0.4104688322585145  0.2531649829599623
  0.7286339619630731  0.4088997995004049  0.7491281664372412
  0.7293722204725722  0.9118450996176084  0.2490387675175789
  0.7283125049305653  0.9106787590783644  0.7491394514674219
  0.2282439941919469  0.0894366417916255  0.9993185726516812
  0.2282535166941960  0.0901505148321699  0.4981269051567505
  0.2304920311345066  0.5979004149301470  0.9967074192599754
  0.2292930201515730  0.5913192712513335  0.4989973526865710
  0.5600339493996062  0.0897225820861052  0.9981632127091556
  0.5613591691777555  0.0902829848129245  0.4993956866099391
  0.5625279762260843  0.5906359783743657  0.9989398397106728
  0.5623614682772684  0.5908882645655622  0.4992405402745226
  0.8938531324146820  0.0906805410959577 -0.0002041442184424
  0.8940202482271628  0.0893088439009993  0.4999904682556486
  0.8974190223745551  0.5871548741860781  0.9973309187872150
  0.8955952140052710  0.5896188517310758  0.4997079547840556
  0.2002939888897321  0.3424641675266152  0.1387263259363660
  0.2038957979867463  0.3441575037267350  0.6430409407050589
  0.2047389744207790  0.8402685426481751  0.1448959798805761
  0.2021429013185596  0.8448336454858930  0.6450752224212560
  0.5364274618353708  0.3433732079483180  0.1446001596267278
  0.5366730209951081  0.3429972429158145  0.6448125125699159
  0.5365903362102940  0.8434422873181511  0.1452447566224079
  0.5361446577859174  0.8436816031242197  0.6450658773144742
  0.8604476592799677  0.3391950399890578  0.1456679998029328
  0.8694407685369359  0.3423798509997762  0.6446866723076645
  0.8697555293786019  0.8436612771209981  0.1446356702569646
  0.8692872370735728  0.8436749025435054  0.6455393325565104
  0.0325488815492546  0.1583670419215130  0.1088597502072584
  0.0359298854642773  0.1576339346247860  0.6017147748854192
  0.0372695045486888  0.6575816155119872  0.1001271655447675
  0.0353692524403022  0.6605183441984905  0.6051507022483584
  0.3686411924965955  0.1571059284991345  0.1038556522688122
  0.3691154419248994  0.1570218784787481  0.6029462279831705
  0.3719407575839946  0.6580233818906770  0.1024642911752905
  0.3701716737377007  0.6577429292315075  0.6031879179210053
  0.6996527351561572  0.1559870656603614  0.1037636110313117
  0.7025157422701016  0.1568694783824338  0.6034916337586093
  0.7035053502904730  0.6579117055515616  0.1029470025618284
  0.7032562218830989  0.6574182653545830  0.6039625333082334
  0.0424401338341710  0.4534776403091866  0.9874959667386535
  0.0368215075340108  0.4500901844526158  0.5056143615282815
  0.0346084097494749  0.9503346694834667  0.0022141579089313
  0.0341941954345279  0.9473351877962054  0.4986642042965096
  0.3667044538050321  0.4494132553081871  0.9976901343208567
  0.3687677430505715  0.4482563527674128  0.4990953444876986
  0.3682003447079538  0.9478588119698241  0.9992863781709129
  0.3677664157490893  0.9474298599967425  0.4992481718163282
  0.7022871510926720  0.4482192717856673  0.9993589467559064
  0.7019627001534792  0.4483870817187477  0.4995482160536285
  0.7003719792278851  0.9476703799952765 -0.0011282952540330
  0.7010846462646729  0.9476024527650269  0.4992840040294684
  0.2077950634327038  0.3399286837362640  0.3497615951792609
  0.2054874137575873  0.3433321034234062  0.8503614044679700
  0.2049535893028537  0.8393719687557194  0.3533968224107760
  0.2029681370030705  0.8456341248680246  0.8525783757421918
  0.5353981734344616  0.3432047635609088  0.3528803394039029
  0.5361323233386586  0.3435888237386174  0.8529049758672930
  0.5365543107397238  0.8434482202429807  0.3529640368723071
  0.5364096548147714  0.8439850930596896  0.8527562153276422
  0.8689307231723667  0.3400524328806865  0.3499202853291744
  0.8698239163016694  0.3421105408127154  0.8524334653824013
  0.8702833430028872  0.8442279333304876  0.3525827221366726
  0.8690142062226203  0.8440138661558441  0.8534748099256575
 
  0.00000000E+00  0.00000000E+00  0.00000000E+00
  0.00000000E+00  0.00000000E+00  0.00000000E+00
  0.00000000E+00  0.00000000E+00  0.00000000E+00
  0.00000000E+00  0.00000000E+00  0.00000000E+00
  0.00000000E+00  0.00000000E+00  0.00000000E+00
  0.00000000E+00  0.00000000E+00  0.00000000E+00
  0.00000000E+00  0.00000000E+00  0.00000000E+00
  0.00000000E+00  0.00000000E+00  0.00000000E+00
  0.00000000E+00  0.00000000E+00  0.00000000E+00
  0.00000000E+00  0.00000000E+00  0.00000000E+00
  0.00000000E+00  0.00000000E+00  0.00000000E+00
  0.00000000E+00  0.00000000E+00  0.00000000E+00
  0.00000000E+00  0.00000000E+00  0.00000000E+00
  0.00000000E+00  0.00000000E+00  0.00000000E+00
  0.00000000E+00  0.00000000E+00  0.00000000E+00
  0.00000000E+00  0.00000000E+00  0.00000000E+00
  0.00000000E+00  0.00000000E+00  0.00000000E+00
  0.00000000E+00  0.00000000E+00  0.00000000E+00
  0.00000000E+00  0.00000000E+00  0.00000000E+00
  0.00000000E+00  0.00000000E+00  0.00000000E+00
  0.00000000E+00  0.00000000E+00  0.00000000E+00
  0.00000000E+00  0.00000000E+00  0.00000000E+00
  0.00000000E+00  0.00000000E+00  0.00000000E+00
  0.00000000E+00  0.00000000E+00  0.00000000E+00
  0.00000000E+00  0.00000000E+00  0.00000000E+00
  0.00000000E+00  0.00000000E+00  0.00000000E+00
  0.00000000E+00  0.00000000E+00  0.00000000E+00
  0.00000000E+00  0.00000000E+00  0.00000000E+00
  0.00000000E+00  0.00000000E+00  0.00000000E+00
  0.00000000E+00  0.00000000E+00  0.00000000E+00
  0.00000000E+00  0.00000000E+00  0.00000000E+00
  0.00000000E+00  0.00000000E+00  0.00000000E+00
  0.00000000E+00  0.00000000E+00  0.00000000E+00
  0.00000000E+00  0.00000000E+00  0.00000000E+00
  0.00000000E+00  0.00000000E+00  0.00000000E+00
  0.00000000E+00  0.00000000E+00  0.00000000E+00
  0.00000000E+00  0.00000000E+00  0.00000000E+00
  0.00000000E+00  0.00000000E+00  0.00000000E+00
  0.00000000E+00  0.00000000E+00  0.00000000E+00
  0.00000000E+00  0.00000000E+00  0.00000000E+00
  0.00000000E+00  0.00000000E+00  0.00000000E+00
  0.00000000E+00  0.00000000E+00  0.00000000E+00
  0.00000000E+00  0.00000000E+00  0.00000000E+00
  0.00000000E+00  0.00000000E+00  0.00000000E+00
  0.00000000E+00  0.00000000E+00  0.00000000E+00
  0.00000000E+00  0.00000000E+00  0.00000000E+00
  0.00000000E+00  0.00000000E+00  0.00000000E+00
  0.00000000E+00  0.00000000E+00  0.00000000E+00
  0.00000000E+00  0.00000000E+00  0.00000000E+00
  0.00000000E+00  0.00000000E+00  0.00000000E+00
  0.00000000E+00  0.00000000E+00  0.00000000E+00
  0.00000000E+00  0.00000000E+00  0.00000000E+00
  0.00000000E+00  0.00000000E+00  0.00000000E+00
  0.00000000E+00  0.00000000E+00  0.00000000E+00
  0.00000000E+00  0.00000000E+00  0.00000000E+00
  0.00000000E+00  0.00000000E+00  0.00000000E+00
  0.00000000E+00  0.00000000E+00  0.00000000E+00
  0.00000000E+00  0.00000000E+00  0.00000000E+00
  0.00000000E+00  0.00000000E+00  0.00000000E+00
  0.00000000E+00  0.00000000E+00  0.00000000E+00
  0.00000000E+00  0.00000000E+00  0.00000000E+00
  0.00000000E+00  0.00000000E+00  0.00000000E+00
  0.00000000E+00  0.00000000E+00  0.00000000E+00
  0.00000000E+00  0.00000000E+00  0.00000000E+00
  0.00000000E+00  0.00000000E+00  0.00000000E+00
  0.00000000E+00  0.00000000E+00  0.00000000E+00
  0.00000000E+00  0.00000000E+00  0.00000000E+00
  0.00000000E+00  0.00000000E+00  0.00000000E+00
  0.00000000E+00  0.00000000E+00  0.00000000E+00
  0.00000000E+00  0.00000000E+00  0.00000000E+00
  0.00000000E+00  0.00000000E+00  0.00000000E+00
  0.00000000E+00  0.00000000E+00  0.00000000E+00
  0.00000000E+00  0.00000000E+00  0.00000000E+00
  0.00000000E+00  0.00000000E+00  0.00000000E+00
  0.00000000E+00  0.00000000E+00  0.00000000E+00
  0.00000000E+00  0.00000000E+00  0.00000000E+00
  0.00000000E+00  0.00000000E+00  0.00000000E+00
  0.00000000E+00  0.00000000E+00  0.00000000E+00
  0.00000000E+00  0.00000000E+00  0.00000000E+00
  0.00000000E+00  0.00000000E+00  0.00000000E+00
  0.00000000E+00  0.00000000E+00  0.00000000E+00
  0.00000000E+00  0.00000000E+00  0.00000000E+00
  0.00000000E+00  0.00000000E+00  0.00000000E+00
  0.00000000E+00  0.00000000E+00  0.00000000E+00
  0.00000000E+00  0.00000000E+00  0.00000000E+00
  0.00000000E+00  0.00000000E+00  0.00000000E+00
  0.00000000E+00  0.00000000E+00  0.00000000E+00
  0.00000000E+00  0.00000000E+00  0.00000000E+00
  0.00000000E+00  0.00000000E+00  0.00000000E+00
  0.00000000E+00  0.00000000E+00  0.00000000E+00
  0.00000000E+00  0.00000000E+00  0.00000000E+00
  0.00000000E+00  0.00000000E+00  0.00000000E+00
  0.00000000E+00  0.00000000E+00  0.00000000E+00
  0.00000000E+00  0.00000000E+00  0.00000000E+00
  0.00000000E+00  0.00000000E+00  0.00000000E+00
  0.00000000E+00  0.00000000E+00  0.00000000E+00
  0.00000000E+00  0.00000000E+00  0.00000000E+00
  0.00000000E+00  0.00000000E+00  0.00000000E+00
  0.00000000E+00  0.00000000E+00  0.00000000E+00
  0.00000000E+00  0.00000000E+00  0.00000000E+00
  0.00000000E+00  0.00000000E+00  0.00000000E+00
  0.00000000E+00  0.00000000E+00  0.00000000E+00
  0.00000000E+00  0.00000000E+00  0.00000000E+00
  0.00000000E+00  0.00000000E+00  0.00000000E+00
  0.00000000E+00  0.00000000E+00  0.00000000E+00
  0.00000000E+00  0.00000000E+00  0.00000000E+00
  0.00000000E+00  0.00000000E+00  0.00000000E+00
  0.00000000E+00  0.00000000E+00  0.00000000E+00
  0.00000000E+00  0.00000000E+00  0.00000000E+00
  0.00000000E+00  0.00000000E+00  0.00000000E+00
  0.00000000E+00  0.00000000E+00  0.00000000E+00
  0.00000000E+00  0.00000000E+00  0.00000000E+00
  0.00000000E+00  0.00000000E+00  0.00000000E+00
  0.00000000E+00  0.00000000E+00  0.00000000E+00
  0.00000000E+00  0.00000000E+00  0.00000000E+00
  0.00000000E+00  0.00000000E+00  0.00000000E+00
  0.00000000E+00  0.00000000E+00  0.00000000E+00
  0.00000000E+00  0.00000000E+00  0.00000000E+00
  0.00000000E+00  0.00000000E+00  0.00000000E+00
  0.00000000E+00  0.00000000E+00  0.00000000E+00
  0.00000000E+00  0.00000000E+00  0.00000000E+00
  0.00000000E+00  0.00000000E+00  0.00000000E+00
  0.00000000E+00  0.00000000E+00  0.00000000E+00
  0.00000000E+00  0.00000000E+00  0.00000000E+00
  0.00000000E+00  0.00000000E+00  0.00000000E+00
  0.00000000E+00  0.00000000E+00  0.00000000E+00
  0.00000000E+00  0.00000000E+00  0.00000000E+00
  0.00000000E+00  0.00000000E+00  0.00000000E+00
  0.00000000E+00  0.00000000E+00  0.00000000E+00
  0.00000000E+00  0.00000000E+00  0.00000000E+00
  0.00000000E+00  0.00000000E+00  0.00000000E+00
  0.00000000E+00  0.00000000E+00  0.00000000E+00
  0.00000000E+00  0.00000000E+00  0.00000000E+00
  0.00000000E+00  0.00000000E+00  0.00000000E+00
  0.00000000E+00  0.00000000E+00  0.00000000E+00
  0.00000000E+00  0.00000000E+00  0.00000000E+00
  0.00000000E+00  0.00000000E+00  0.00000000E+00
  0.00000000E+00  0.00000000E+00  0.00000000E+00
  0.00000000E+00  0.00000000E+00  0.00000000E+00
  0.00000000E+00  0.00000000E+00  0.00000000E+00
  0.00000000E+00  0.00000000E+00  0.00000000E+00
  0.00000000E+00  0.00000000E+00  0.00000000E+00
  0.00000000E+00  0.00000000E+00  0.00000000E+00
  0.00000000E+00  0.00000000E+00  0.00000000E+00
  0.00000000E+00  0.00000000E+00  0.00000000E+00
  0.00000000E+00  0.00000000E+00  0.00000000E+00
  0.00000000E+00  0.00000000E+00  0.00000000E+00
  0.00000000E+00  0.00000000E+00  0.00000000E+00
  0.00000000E+00  0.00000000E+00  0.00000000E+00
  0.00000000E+00  0.00000000E+00  0.00000000E+00
  0.00000000E+00  0.00000000E+00  0.00000000E+00
  0.00000000E+00  0.00000000E+00  0.00000000E+00
  0.00000000E+00  0.00000000E+00  0.00000000E+00
  0.00000000E+00  0.00000000E+00  0.00000000E+00
  0.00000000E+00  0.00000000E+00  0.00000000E+00
  0.00000000E+00  0.00000000E+00  0.00000000E+00
  0.00000000E+00  0.00000000E+00  0.00000000E+00
  0.00000000E+00  0.00000000E+00  0.00000000E+00
  0.00000000E+00  0.00000000E+00  0.00000000E+00
  0.00000000E+00  0.00000000E+00  0.00000000E+00
  0.00000000E+00  0.00000000E+00  0.00000000E+00
  0.00000000E+00  0.00000000E+00  0.00000000E+00
  0.00000000E+00  0.00000000E+00  0.00000000E+00
  0.00000000E+00  0.00000000E+00  0.00000000E+00
  0.00000000E+00  0.00000000E+00  0.00000000E+00
  0.00000000E+00  0.00000000E+00  0.00000000E+00
  0.00000000E+00  0.00000000E+00  0.00000000E+00
  0.00000000E+00  0.00000000E+00  0.00000000E+00
  0.00000000E+00  0.00000000E+00  0.00000000E+00
  0.00000000E+00  0.00000000E+00  0.00000000E+00
  0.00000000E+00  0.00000000E+00  0.00000000E+00
  0.00000000E+00  0.00000000E+00  0.00000000E+00
  0.00000000E+00  0.00000000E+00  0.00000000E+00
  0.00000000E+00  0.00000000E+00  0.00000000E+00
  0.00000000E+00  0.00000000E+00  0.00000000E+00
  0.00000000E+00  0.00000000E+00  0.00000000E+00
  0.00000000E+00  0.00000000E+00  0.00000000E+00
  0.00000000E+00  0.00000000E+00  0.00000000E+00
  0.00000000E+00  0.00000000E+00  0.00000000E+00
  0.00000000E+00  0.00000000E+00  0.00000000E+00
  0.00000000E+00  0.00000000E+00  0.00000000E+00
  0.00000000E+00  0.00000000E+00  0.00000000E+00
  0.00000000E+00  0.00000000E+00  0.00000000E+00
  0.00000000E+00  0.00000000E+00  0.00000000E+00
  0.00000000E+00  0.00000000E+00  0.00000000E+00
  0.00000000E+00  0.00000000E+00  0.00000000E+00
  0.00000000E+00  0.00000000E+00  0.00000000E+00
  0.00000000E+00  0.00000000E+00  0.00000000E+00
  0.00000000E+00  0.00000000E+00  0.00000000E+00
  0.00000000E+00  0.00000000E+00  0.00000000E+00
  0.00000000E+00  0.00000000E+00  0.00000000E+00
  0.00000000E+00  0.00000000E+00  0.00000000E+00
  0.00000000E+00  0.00000000E+00  0.00000000E+00
