Li73 P24 N1 O95                         
   1.00000000000000     
    14.7830814127319456   -0.0155445546907269   -0.0166214880165834
    -0.0110872639010454   10.5348681622498503   -0.0003210248538719
    -0.0138352775632047   -0.0003322701316400   12.3125472475028417
   Li   P    N    O 
    73    24     1    95
Direct
  0.2226481986971613  0.4188394184062328 -0.0045445149371252
  0.1697336604549261  0.4184301700619745  0.4968954809720786
  0.1692399754248153  0.9193720793374636 -0.0001093916106462
  0.1685429093730568  0.9204923128788973  0.4992000265618817
  0.5043048907472022  0.4229442039323411  0.0001116335870603
  0.5034480299603779  0.4224844075168078  0.5002487554280084
  0.5029840977329978  0.9190331742338297 -0.0004734779058714
  0.5027768710286585  0.9209757720110423  0.4995248050607750
  0.8333083842551374  0.4273205212210147 -0.0023225378365601
  0.8366696162080530  0.4234699796856203  0.4991971373970147
  0.8369427169656387  0.9239561087956527 -0.0010201650302766
  0.8371674895811949  0.9240205961166662  0.4993897205003837
  0.0059638581821979  0.0825124057318878  0.2497567891951982
  0.0026821755611253  0.0760218667479969  0.7462758905775176
  0.0046175246501094  0.5672751488675933  0.2470937912766744
  0.0029162425366647  0.5751688003082714  0.7491470102317630
  0.3384145175722726  0.0743283509747591  0.2521366949520356
  0.3362189721571376  0.0739171538196224  0.7486975187075052
  0.3365663383450881  0.5750691155535618  0.2511336263939163
  0.3377247193126008  0.5773625982040540  0.7497293117032617
  0.6681179520927755  0.0791986314174896  0.2512665297810030
  0.6692090221499201  0.0788451881175681  0.7487587009824648
  0.6677036504711235  0.5838774212842904  0.2520019564670223
  0.6699278054263187  0.5793103190175686  0.7490625814369738
  0.1797849363984451  0.1571131974643602  0.1299356595483353
  0.1696691424004456  0.1613330558648276  0.6257034334502509
  0.1681447566512393  0.6576832374850730  0.1275558118894701
  0.1697723134743460  0.6600456132875023  0.6257675811774128
  0.5044325012682349  0.1615193755142386  0.1262481125041345
  0.5024915142518488  0.1622909854681518  0.6254107884608914
  0.5057141005335409  0.6640452220489897  0.1280105757746470
  0.5029020037496620  0.6628268580815735  0.6256542088133833
  0.8291953887314228  0.1613286987476016  0.1248910418893607
  0.8361502565077306  0.1652281300289489  0.6250388362562357
  0.8336550902093025  0.6667846640926424  0.1267648773841596
  0.8365887055790415  0.6644131454610507  0.6248510530460714
 -0.0286002406408219  0.3299675577393428  0.1396573991214968
  0.0035905804956033  0.3366362357440539  0.6231821525380403
  0.0021295756908854  0.8363941259553005  0.1236852227711183
  0.0025550897293102  0.8346929029435779  0.6225491866221192
  0.3445820186179427  0.3329512745555929  0.1280959546971392
  0.3364509686612365  0.3346590084029444  0.6225360736295086
  0.3360089110534965  0.8353940957636129  0.1244697045125125
  0.3358441862170011  0.8341093078491021  0.6233129128438227
  0.6701204230245474  0.3392892495966012  0.1247538216501330
  0.6695646135454327  0.3375847637527961  0.6232841957383852
  0.6699585825878207  0.8395600700099081  0.1238481355846806
  0.6694810068603135  0.8377955718513305  0.6231403488258593
  0.0045053498407101  0.3379770886927442  0.3696287370007997
 -0.0006776778295542  0.3366202404228986  0.8730791570873321
  0.0035674186526189  0.8362553951994856  0.3746891896393099
  0.0021028876914612  0.8352046880616030  0.8754180624100776
  0.3366354334040733  0.3353494588500340  0.3762471526565664
  0.3432126577901745  0.3310484007425574  0.8705550112248487
  0.3349584805269056  0.8334875497448695  0.3762979122217874
  0.3360528589902262  0.8357658140309470  0.8746049702167606
  0.6678055337763662  0.3376347749749037  0.3801245737083767
  0.6691324776558972  0.3383825059034246  0.8756435570502520
  0.6703814106721612  0.8387396467277159  0.3763872864376649
  0.6695426110798234  0.8387169887935751  0.8751079235644015
  0.1698878212673198  0.1647760588327669  0.3729399153057812
  0.1699598261460768  0.1599861780154037  0.8714901409108806
  0.1698922384573675  0.6568256990615765  0.3721614333103082
  0.1673722338156096  0.6603160238743039  0.8750943678596542
  0.5026659926149210  0.1628757106751854  0.3747864569422200
  0.5039296435097789  0.1612827756905914  0.8723812400241271
  0.5023321445484887  0.6629057097172506  0.3749034141596651
  0.5059547318643238  0.6640760348992895  0.8721846359544810
  0.8358581896618067  0.1647518021500704  0.3734981223356438
  0.8346603876406994  0.1649135989764152  0.8725927654589095
  0.8370021813530288  0.6652356149049021  0.3732269680152098
  0.8334814531104990  0.6667261088849686  0.8715140959740545
  0.0946230023490764  0.3425523077260682  0.0851082012983726
  0.1664308074209599  0.4094265351797848  0.2495652433486928
  0.1691516566034689  0.4100686709443184  0.7510038954906849
  0.1672891370528265  0.9097902918829907  0.2498213764912962
  0.1667190553844598  0.9091754278233634  0.7493172929036984
  0.5020572518828954  0.4124797664774363  0.2515909479076525
  0.5015305143839577  0.4119777498321012  0.7488490062453285
  0.5009665049140318  0.9113676982823840  0.2506192599636441
  0.5008779443204682  0.9115440448368117  0.7489995073338720
  0.8249176721594506  0.4154151776810978  0.2518451090759294
  0.8325669911476737  0.4136486970293639  0.7489815109954081
  0.8344868592123124  0.9156664417254939  0.2492607633277303
  0.8333798801797171  0.9143780878076564  0.7489031362087841
  0.0011095515895691  0.0915381172392152 -0.0041154818434586
  0.0004793415277323  0.0877554590922777  0.4994815101401983
 -0.0047715462627189  0.5868294183242760 -0.0006610902067416
  0.0007554051326223  0.5866223030281869  0.4988170210662438
  0.3352034637804067  0.0840428225976963 -0.0008877732152364
  0.3337583903110272  0.0852486539465270  0.5000857184164804
  0.3379850371463938  0.5923787949316991 -0.0005021248186635
  0.3342265446725813  0.5852839898110572  0.5005731266248835
  0.6655876187065684  0.0876815799511992 -0.0007111111932103
  0.6671551820415726  0.0881871974671088  0.5000027257999021
  0.6658855570239088  0.5899545966802083 -0.0002689606451725
  0.6676676253201503  0.5895785168846077  0.5007047033603065
  0.0611027915640533  0.3982325219826741  0.2366677119500653
  0.0362576833457297  0.1561522853978418  0.3959920712014705
  0.0354714826548630  0.1569710953898720  0.8899539813887315
  0.0359742882523848  0.6561354632177339  0.3952750885601504
  0.0335066553857043  0.6521665985536922  0.8948755737370264
  0.3700719072851373  0.1545269294789416  0.3967831017611850
  0.3706712368381061  0.1531250354427348  0.8951342066269538
  0.3696194218625520  0.6553840018449734  0.3972094119523879
  0.3742849705960742  0.6581049894318846  0.8952944562177988
  0.7019949035801223  0.1576629679998450  0.3960847003091429
  0.7009409578166762  0.1581812539668654  0.8960674090276015
  0.7030653042412417  0.6598886760658159  0.3975165193332044
  0.7005799532459263  0.6591006569827593  0.8954899299194101
  0.2037013821049821  0.0490492437444154  0.2508273816667979
  0.2012145873273794  0.0494209541429092  0.7494705423881663
  0.2058619623172395  0.5496846655095253  0.2497381135394891
  0.2026853289324505  0.5504205646273251  0.7520321115392052
  0.5334580830317033  0.0523856944762936  0.2510818363871162
  0.5342292945594649  0.0521328344185437  0.7486654459619568
  0.5353900892061426  0.5529804920554178  0.2514401435393123
  0.5355931927987334  0.5521060027595751  0.7491886028698568
  0.8686799955094257  0.0560123323590118  0.2483436278823249
  0.8669662371255168  0.0548900663592298  0.7488698473313630
  0.8626957469863117  0.5533623674816371  0.2483171738511207
  0.8667138487440057  0.5539844816671489  0.7495130798387689
  0.0639014461985323  0.4068179078416501  0.7517022268859029
  0.0619038456738076  0.9118108022831102  0.2483437154372118
  0.0612689728225917  0.9071886420091033  0.7493090033674757
  0.3968623308756970  0.4096508635906091  0.2521809183008640
  0.3961147300323075  0.4095021132848677  0.7478388186775400
  0.3955607483648319  0.9062904509649727  0.2505096534038004
  0.3954341406910825  0.9074895855669346  0.7492531787206579
  0.7199546499105964  0.4162519372883471  0.2562272304372437
  0.7272214403630379  0.4109795971050832  0.7488403677378416
  0.7290088094037509  0.9129813214561279  0.2498748071146875
  0.7280809272273403  0.9111376812892056  0.7490600464706760
  0.2295999963932360  0.0878122341023672 -0.0012677620992378
  0.2284017429933325  0.0885580752058560  0.4996298776759271
  0.2327056719312377  0.5978724187725154 -0.0005230087774675
  0.2289048261041385  0.5872103787362112  0.5005794530857126
  0.5603027378247645  0.0880744541062044 -0.0014389671877304
  0.5617979997186824  0.0896455048613744  0.5001115681895308
  0.5604725124754831  0.5918195273799567 -0.0000198066946577
  0.5622316264854698  0.5913127316587670  0.5002281035946408
  0.8958975869248891  0.0960098189272047 -0.0001864925861294
  0.8949913057841858  0.0922582883888141  0.4995705126321211
  0.8900430315230018  0.5977793931712002 -0.0009838311462081
  0.8952241577560940  0.5911801906770785  0.4991017288954413
  0.2125774739798229  0.3416270645513141  0.1422972819240339
  0.2034825326433752  0.3412238529404087  0.6469166873987258
  0.2018700651218789  0.8401480380825351  0.1458639268186168
  0.2020087766386003  0.8402133340203689  0.6456869281794686
  0.5353933031531614  0.3433013118687211  0.1465909082436206
  0.5368151005312992  0.3420765986596854  0.6457012427339829
  0.5370546202659664  0.8437601422037374  0.1465347981750585
  0.5359912341928761  0.8424128042292898  0.6452584064348226
  0.8502424713386006  0.3431216559027498  0.1449453769817933
  0.8687019462487924  0.3446132690859918  0.6456338868515281
  0.8687574749028745  0.8462575409753588  0.1450659098992156
  0.8688671789714806  0.8446981740840683  0.6455495193586342
  0.0396518789598283  0.1679285909146365  0.0960194512700756
  0.0362131930953006  0.1564353954341507  0.6037726050060344
  0.0338939780302971  0.6557031226550284  0.1014229315066830
  0.0362542028426328  0.6549734619440571  0.6036081300737060
  0.3707609636083947  0.1526989373346911  0.1032392570344086
  0.3690981991553201  0.1541638738189153  0.6043803360052293
  0.3747275971811042  0.6572236882008580  0.1037693691467417
  0.3693994791646828  0.6548899043550827  0.6046946443089218
  0.6988486219637040  0.1568775479928616  0.1041989181963250
  0.7024006864145111  0.1580885089474545  0.6037862476712420
  0.7008692824115049  0.6596451631158800  0.1035802612541386
  0.7027008453404670  0.6589778918540958  0.6048469230595804
  0.0196998516451801  0.4427662579935367 -0.0002140709626098
  0.0335820974275144  0.4459677980610986  0.4992553013106431
  0.0340890827227642  0.9512019870808528  0.0000466400049205
  0.0331205685085180  0.9468422078611511  0.4998910156319477
  0.3646214585618532  0.4473643162754452 -0.0018213946000929
  0.3689418072480856  0.4455423723525028  0.5006810265722283
  0.3678570195696338  0.9435588062419549 -0.0009139436430877
  0.3670433330563543  0.9447740395372577  0.4998679715360140
  0.6991360491114683  0.4496411768998462 -0.0006431407604508
  0.7014988040112358  0.4495097427711349  0.5013304404888578
  0.7013473459408903  0.9484250715321368 -0.0008192550163273
  0.7016765657612877  0.9482867272627662  0.5000430039318992
  0.2077142672828100  0.3407769751967960  0.3525011003062688
  0.2066881302377972  0.3401266144129542  0.8540791240655699
  0.2009370770860440  0.8393833873120242  0.3537909276354094
  0.2015239900979721  0.8399198036440468  0.8535657171904862
  0.5368248700024902  0.3425283570139491  0.3552535317200186
  0.5351667618358915  0.3427784810601341  0.8537628001061177
  0.5368761626919653  0.8423249467508779  0.3542530911249048
  0.5368167410545948  0.8433075147653124  0.8529469701628550
  0.8641929242262183  0.3441240746360521  0.3522581312101845
  0.8668288566307356  0.3441791215765009  0.8531416716197966
  0.8698787929970978  0.8461327224169523  0.3528637485815269
  0.8687780146187414  0.8458932231868391  0.8532906671668850
 
  0.00000000E+00  0.00000000E+00  0.00000000E+00
  0.00000000E+00  0.00000000E+00  0.00000000E+00
  0.00000000E+00  0.00000000E+00  0.00000000E+00
  0.00000000E+00  0.00000000E+00  0.00000000E+00
  0.00000000E+00  0.00000000E+00  0.00000000E+00
  0.00000000E+00  0.00000000E+00  0.00000000E+00
  0.00000000E+00  0.00000000E+00  0.00000000E+00
  0.00000000E+00  0.00000000E+00  0.00000000E+00
  0.00000000E+00  0.00000000E+00  0.00000000E+00
  0.00000000E+00  0.00000000E+00  0.00000000E+00
  0.00000000E+00  0.00000000E+00  0.00000000E+00
  0.00000000E+00  0.00000000E+00  0.00000000E+00
  0.00000000E+00  0.00000000E+00  0.00000000E+00
  0.00000000E+00  0.00000000E+00  0.00000000E+00
  0.00000000E+00  0.00000000E+00  0.00000000E+00
  0.00000000E+00  0.00000000E+00  0.00000000E+00
  0.00000000E+00  0.00000000E+00  0.00000000E+00
  0.00000000E+00  0.00000000E+00  0.00000000E+00
  0.00000000E+00  0.00000000E+00  0.00000000E+00
  0.00000000E+00  0.00000000E+00  0.00000000E+00
  0.00000000E+00  0.00000000E+00  0.00000000E+00
  0.00000000E+00  0.00000000E+00  0.00000000E+00
  0.00000000E+00  0.00000000E+00  0.00000000E+00
  0.00000000E+00  0.00000000E+00  0.00000000E+00
  0.00000000E+00  0.00000000E+00  0.00000000E+00
  0.00000000E+00  0.00000000E+00  0.00000000E+00
  0.00000000E+00  0.00000000E+00  0.00000000E+00
  0.00000000E+00  0.00000000E+00  0.00000000E+00
  0.00000000E+00  0.00000000E+00  0.00000000E+00
  0.00000000E+00  0.00000000E+00  0.00000000E+00
  0.00000000E+00  0.00000000E+00  0.00000000E+00
  0.00000000E+00  0.00000000E+00  0.00000000E+00
  0.00000000E+00  0.00000000E+00  0.00000000E+00
  0.00000000E+00  0.00000000E+00  0.00000000E+00
  0.00000000E+00  0.00000000E+00  0.00000000E+00
  0.00000000E+00  0.00000000E+00  0.00000000E+00
  0.00000000E+00  0.00000000E+00  0.00000000E+00
  0.00000000E+00  0.00000000E+00  0.00000000E+00
  0.00000000E+00  0.00000000E+00  0.00000000E+00
  0.00000000E+00  0.00000000E+00  0.00000000E+00
  0.00000000E+00  0.00000000E+00  0.00000000E+00
  0.00000000E+00  0.00000000E+00  0.00000000E+00
  0.00000000E+00  0.00000000E+00  0.00000000E+00
  0.00000000E+00  0.00000000E+00  0.00000000E+00
  0.00000000E+00  0.00000000E+00  0.00000000E+00
  0.00000000E+00  0.00000000E+00  0.00000000E+00
  0.00000000E+00  0.00000000E+00  0.00000000E+00
  0.00000000E+00  0.00000000E+00  0.00000000E+00
  0.00000000E+00  0.00000000E+00  0.00000000E+00
  0.00000000E+00  0.00000000E+00  0.00000000E+00
  0.00000000E+00  0.00000000E+00  0.00000000E+00
  0.00000000E+00  0.00000000E+00  0.00000000E+00
  0.00000000E+00  0.00000000E+00  0.00000000E+00
  0.00000000E+00  0.00000000E+00  0.00000000E+00
  0.00000000E+00  0.00000000E+00  0.00000000E+00
  0.00000000E+00  0.00000000E+00  0.00000000E+00
  0.00000000E+00  0.00000000E+00  0.00000000E+00
  0.00000000E+00  0.00000000E+00  0.00000000E+00
  0.00000000E+00  0.00000000E+00  0.00000000E+00
  0.00000000E+00  0.00000000E+00  0.00000000E+00
  0.00000000E+00  0.00000000E+00  0.00000000E+00
  0.00000000E+00  0.00000000E+00  0.00000000E+00
  0.00000000E+00  0.00000000E+00  0.00000000E+00
  0.00000000E+00  0.00000000E+00  0.00000000E+00
  0.00000000E+00  0.00000000E+00  0.00000000E+00
  0.00000000E+00  0.00000000E+00  0.00000000E+00
  0.00000000E+00  0.00000000E+00  0.00000000E+00
  0.00000000E+00  0.00000000E+00  0.00000000E+00
  0.00000000E+00  0.00000000E+00  0.00000000E+00
  0.00000000E+00  0.00000000E+00  0.00000000E+00
  0.00000000E+00  0.00000000E+00  0.00000000E+00
  0.00000000E+00  0.00000000E+00  0.00000000E+00
  0.00000000E+00  0.00000000E+00  0.00000000E+00
  0.00000000E+00  0.00000000E+00  0.00000000E+00
  0.00000000E+00  0.00000000E+00  0.00000000E+00
  0.00000000E+00  0.00000000E+00  0.00000000E+00
  0.00000000E+00  0.00000000E+00  0.00000000E+00
  0.00000000E+00  0.00000000E+00  0.00000000E+00
  0.00000000E+00  0.00000000E+00  0.00000000E+00
  0.00000000E+00  0.00000000E+00  0.00000000E+00
  0.00000000E+00  0.00000000E+00  0.00000000E+00
  0.00000000E+00  0.00000000E+00  0.00000000E+00
  0.00000000E+00  0.00000000E+00  0.00000000E+00
  0.00000000E+00  0.00000000E+00  0.00000000E+00
  0.00000000E+00  0.00000000E+00  0.00000000E+00
  0.00000000E+00  0.00000000E+00  0.00000000E+00
  0.00000000E+00  0.00000000E+00  0.00000000E+00
  0.00000000E+00  0.00000000E+00  0.00000000E+00
  0.00000000E+00  0.00000000E+00  0.00000000E+00
  0.00000000E+00  0.00000000E+00  0.00000000E+00
  0.00000000E+00  0.00000000E+00  0.00000000E+00
  0.00000000E+00  0.00000000E+00  0.00000000E+00
  0.00000000E+00  0.00000000E+00  0.00000000E+00
  0.00000000E+00  0.00000000E+00  0.00000000E+00
  0.00000000E+00  0.00000000E+00  0.00000000E+00
  0.00000000E+00  0.00000000E+00  0.00000000E+00
  0.00000000E+00  0.00000000E+00  0.00000000E+00
  0.00000000E+00  0.00000000E+00  0.00000000E+00
  0.00000000E+00  0.00000000E+00  0.00000000E+00
  0.00000000E+00  0.00000000E+00  0.00000000E+00
  0.00000000E+00  0.00000000E+00  0.00000000E+00
  0.00000000E+00  0.00000000E+00  0.00000000E+00
  0.00000000E+00  0.00000000E+00  0.00000000E+00
  0.00000000E+00  0.00000000E+00  0.00000000E+00
  0.00000000E+00  0.00000000E+00  0.00000000E+00
  0.00000000E+00  0.00000000E+00  0.00000000E+00
  0.00000000E+00  0.00000000E+00  0.00000000E+00
  0.00000000E+00  0.00000000E+00  0.00000000E+00
  0.00000000E+00  0.00000000E+00  0.00000000E+00
  0.00000000E+00  0.00000000E+00  0.00000000E+00
  0.00000000E+00  0.00000000E+00  0.00000000E+00
  0.00000000E+00  0.00000000E+00  0.00000000E+00
  0.00000000E+00  0.00000000E+00  0.00000000E+00
  0.00000000E+00  0.00000000E+00  0.00000000E+00
  0.00000000E+00  0.00000000E+00  0.00000000E+00
  0.00000000E+00  0.00000000E+00  0.00000000E+00
  0.00000000E+00  0.00000000E+00  0.00000000E+00
  0.00000000E+00  0.00000000E+00  0.00000000E+00
  0.00000000E+00  0.00000000E+00  0.00000000E+00
  0.00000000E+00  0.00000000E+00  0.00000000E+00
  0.00000000E+00  0.00000000E+00  0.00000000E+00
  0.00000000E+00  0.00000000E+00  0.00000000E+00
  0.00000000E+00  0.00000000E+00  0.00000000E+00
  0.00000000E+00  0.00000000E+00  0.00000000E+00
  0.00000000E+00  0.00000000E+00  0.00000000E+00
  0.00000000E+00  0.00000000E+00  0.00000000E+00
  0.00000000E+00  0.00000000E+00  0.00000000E+00
  0.00000000E+00  0.00000000E+00  0.00000000E+00
  0.00000000E+00  0.00000000E+00  0.00000000E+00
  0.00000000E+00  0.00000000E+00  0.00000000E+00
  0.00000000E+00  0.00000000E+00  0.00000000E+00
  0.00000000E+00  0.00000000E+00  0.00000000E+00
  0.00000000E+00  0.00000000E+00  0.00000000E+00
  0.00000000E+00  0.00000000E+00  0.00000000E+00
  0.00000000E+00  0.00000000E+00  0.00000000E+00
  0.00000000E+00  0.00000000E+00  0.00000000E+00
  0.00000000E+00  0.00000000E+00  0.00000000E+00
  0.00000000E+00  0.00000000E+00  0.00000000E+00
  0.00000000E+00  0.00000000E+00  0.00000000E+00
  0.00000000E+00  0.00000000E+00  0.00000000E+00
  0.00000000E+00  0.00000000E+00  0.00000000E+00
  0.00000000E+00  0.00000000E+00  0.00000000E+00
  0.00000000E+00  0.00000000E+00  0.00000000E+00
  0.00000000E+00  0.00000000E+00  0.00000000E+00
  0.00000000E+00  0.00000000E+00  0.00000000E+00
  0.00000000E+00  0.00000000E+00  0.00000000E+00
  0.00000000E+00  0.00000000E+00  0.00000000E+00
  0.00000000E+00  0.00000000E+00  0.00000000E+00
  0.00000000E+00  0.00000000E+00  0.00000000E+00
  0.00000000E+00  0.00000000E+00  0.00000000E+00
  0.00000000E+00  0.00000000E+00  0.00000000E+00
  0.00000000E+00  0.00000000E+00  0.00000000E+00
  0.00000000E+00  0.00000000E+00  0.00000000E+00
  0.00000000E+00  0.00000000E+00  0.00000000E+00
  0.00000000E+00  0.00000000E+00  0.00000000E+00
  0.00000000E+00  0.00000000E+00  0.00000000E+00
  0.00000000E+00  0.00000000E+00  0.00000000E+00
  0.00000000E+00  0.00000000E+00  0.00000000E+00
  0.00000000E+00  0.00000000E+00  0.00000000E+00
  0.00000000E+00  0.00000000E+00  0.00000000E+00
  0.00000000E+00  0.00000000E+00  0.00000000E+00
  0.00000000E+00  0.00000000E+00  0.00000000E+00
  0.00000000E+00  0.00000000E+00  0.00000000E+00
  0.00000000E+00  0.00000000E+00  0.00000000E+00
  0.00000000E+00  0.00000000E+00  0.00000000E+00
  0.00000000E+00  0.00000000E+00  0.00000000E+00
  0.00000000E+00  0.00000000E+00  0.00000000E+00
  0.00000000E+00  0.00000000E+00  0.00000000E+00
  0.00000000E+00  0.00000000E+00  0.00000000E+00
  0.00000000E+00  0.00000000E+00  0.00000000E+00
  0.00000000E+00  0.00000000E+00  0.00000000E+00
  0.00000000E+00  0.00000000E+00  0.00000000E+00
  0.00000000E+00  0.00000000E+00  0.00000000E+00
  0.00000000E+00  0.00000000E+00  0.00000000E+00
  0.00000000E+00  0.00000000E+00  0.00000000E+00
  0.00000000E+00  0.00000000E+00  0.00000000E+00
  0.00000000E+00  0.00000000E+00  0.00000000E+00
  0.00000000E+00  0.00000000E+00  0.00000000E+00
  0.00000000E+00  0.00000000E+00  0.00000000E+00
  0.00000000E+00  0.00000000E+00  0.00000000E+00
  0.00000000E+00  0.00000000E+00  0.00000000E+00
  0.00000000E+00  0.00000000E+00  0.00000000E+00
  0.00000000E+00  0.00000000E+00  0.00000000E+00
  0.00000000E+00  0.00000000E+00  0.00000000E+00
  0.00000000E+00  0.00000000E+00  0.00000000E+00
  0.00000000E+00  0.00000000E+00  0.00000000E+00
  0.00000000E+00  0.00000000E+00  0.00000000E+00
  0.00000000E+00  0.00000000E+00  0.00000000E+00
  0.00000000E+00  0.00000000E+00  0.00000000E+00
  0.00000000E+00  0.00000000E+00  0.00000000E+00
  0.00000000E+00  0.00000000E+00  0.00000000E+00
  0.00000000E+00  0.00000000E+00  0.00000000E+00
  0.00000000E+00  0.00000000E+00  0.00000000E+00
