Li7 P2 N1 O7                            
   1.00000000000000     
     5.1382442923126259    0.0000344417004247   -0.1020342742039217
     0.0000418173067978    6.2608406681852973   -0.0000347784500212
    -0.1037063710599822   -0.0000296795927583    5.2001947763949694
   Li   P    N    O 
     7     2     1     7
Direct
  0.0171202415556690  0.5000000567215059  0.1516116222183705
  0.5052363499090522  0.7361577093066048  0.3302237727911715
  0.5052248306092466  0.2638365309795448  0.3301946189763363
  0.0412549735533095  0.7392342240069470  0.6620057003259301
  0.0412608699355720  0.2607728777987038  0.6620108869359426
  0.4162837532355352 -0.0000576452072222 -0.0263786932223404
  0.7098288025803180  0.0000078540873748  0.6349824138063355
  0.5161900207974378  0.5000043699116320  0.8334640228253254
 -0.0233885445224516 -0.0000007023307367  0.1837995061714239
  0.6808651904879619 -0.0000036075368481  0.2431509686030036
  0.1271104703049681  0.2056228619756703  0.2978170297885693
  0.1271196008811918  0.7943828395080725  0.2978054417942341
  0.6167719023260447  0.5000000127006675  0.1179551672368256
  0.2113122097600355  0.5000032315159997  0.8173579952875387
  0.6147193213433836  0.7042081776405973  0.6953833794559687
  0.6147456347543301  0.2958288506617314  0.6953451233330471
  0.0464943724884237  0.0000023582597560  0.8807810436723189
 
  0.00000000E+00  0.00000000E+00  0.00000000E+00
  0.00000000E+00  0.00000000E+00  0.00000000E+00
  0.00000000E+00  0.00000000E+00  0.00000000E+00
  0.00000000E+00  0.00000000E+00  0.00000000E+00
  0.00000000E+00  0.00000000E+00  0.00000000E+00
  0.00000000E+00  0.00000000E+00  0.00000000E+00
  0.00000000E+00  0.00000000E+00  0.00000000E+00
  0.00000000E+00  0.00000000E+00  0.00000000E+00
  0.00000000E+00  0.00000000E+00  0.00000000E+00
  0.00000000E+00  0.00000000E+00  0.00000000E+00
  0.00000000E+00  0.00000000E+00  0.00000000E+00
  0.00000000E+00  0.00000000E+00  0.00000000E+00
  0.00000000E+00  0.00000000E+00  0.00000000E+00
  0.00000000E+00  0.00000000E+00  0.00000000E+00
  0.00000000E+00  0.00000000E+00  0.00000000E+00
  0.00000000E+00  0.00000000E+00  0.00000000E+00
  0.00000000E+00  0.00000000E+00  0.00000000E+00
