Li140 P140 O420
1.0
13.312980 0.000000 -5.521558
2.677750 16.540545 0.000000
0.000000 0.000000 60.737138
Li P O
140 140 420
direct
0.944698 0.181780 0.059068 Li+
0.444698 0.681780 0.012633 Li+
0.822834 0.065996 0.048916 Li+
0.322834 0.565996 0.000628 Li+
0.702414 0.950543 0.036026 Li+
0.202414 0.450543 0.082532 Li+
0.582845 0.835452 0.025025 Li+
0.082845 0.335452 0.071793 Li+
0.512460 0.758434 0.065394 Li+
0.012460 0.258434 0.018627 Li+
0.942549 0.681714 0.056456 Li+
0.442549 0.181714 0.014854 Li+
0.821455 0.566270 0.049527 Li+
0.321455 0.066270 0.090675 Li+
0.702271 0.449547 0.033516 Li+
0.202271 0.949547 0.085016 Li+
0.582496 0.332984 0.027674 Li+
0.082496 0.832984 0.069081 Li+
0.510463 0.256366 0.068112 Li+
0.010463 0.756366 0.015546 Li+
0.944698 0.181780 0.149977 Li+
0.444698 0.681780 0.103542 Li+
0.822834 0.065996 0.139825 Li+
0.322834 0.565996 0.091537 Li+
0.702414 0.950543 0.126935 Li+
0.202414 0.450543 0.173441 Li+
0.582845 0.835452 0.115934 Li+
0.082845 0.335452 0.162702 Li+
0.512460 0.758434 0.156303 Li+
0.012460 0.258434 0.109536 Li+
0.942549 0.681714 0.147365 Li+
0.442549 0.181714 0.105764 Li+
0.821455 0.566270 0.140436 Li+
0.321455 0.066270 0.181584 Li+
0.702271 0.449547 0.124425 Li+
0.202271 0.949547 0.175925 Li+
0.582496 0.332984 0.118583 Li+
0.082496 0.832984 0.159990 Li+
0.510463 0.256366 0.159021 Li+
0.010463 0.756366 0.106455 Li+
0.944698 0.181780 0.240886 Li+
0.444698 0.681780 0.194451 Li+
0.822834 0.065996 0.230734 Li+
0.322834 0.565996 0.182446 Li+
0.702414 0.950543 0.217844 Li+
0.202414 0.450543 0.264350 Li+
0.582845 0.835452 0.206843 Li+
0.082845 0.335452 0.253611 Li+
0.512460 0.758434 0.247212 Li+
0.012460 0.258434 0.200445 Li+
0.942549 0.681714 0.238274 Li+
0.442549 0.181714 0.196673 Li+
0.821455 0.566270 0.231345 Li+
0.321455 0.066270 0.272493 Li+
0.702271 0.449547 0.215334 Li+
0.202271 0.949547 0.266834 Li+
0.582496 0.332984 0.209492 Li+
0.082496 0.832984 0.250899 Li+
0.510463 0.256366 0.249930 Li+
0.010463 0.756366 0.197364 Li+
0.944698 0.181780 0.331795 Li+
0.444698 0.681780 0.285360 Li+
0.822834 0.065996 0.321643 Li+
0.322834 0.565996 0.273355 Li+
0.702414 0.950543 0.308753 Li+
0.202414 0.450543 0.355259 Li+
0.582845 0.835452 0.297752 Li+
0.082845 0.335452 0.344520 Li+
0.512460 0.758434 0.338121 Li+
0.012460 0.258434 0.291354 Li+
0.942549 0.681714 0.329183 Li+
0.442549 0.181714 0.287582 Li+
0.821455 0.566270 0.322254 Li+
0.321455 0.066270 0.363402 Li+
0.702271 0.449547 0.306243 Li+
0.202271 0.949547 0.357743 Li+
0.582496 0.332984 0.300401 Li+
0.082496 0.832984 0.341808 Li+
0.510463 0.256366 0.340839 Li+
0.010463 0.756366 0.288273 Li+
0.944698 0.181780 0.422704 Li+
0.444698 0.681780 0.376269 Li+
0.822834 0.065996 0.412552 Li+
0.322834 0.565996 0.364264 Li+
0.702414 0.950543 0.399662 Li+
0.202414 0.450543 0.446169 Li+
0.582845 0.835452 0.388662 Li+
0.082845 0.335452 0.435430 Li+
0.512460 0.758434 0.429030 Li+
0.012460 0.258434 0.382264 Li+
0.942549 0.681714 0.420092 Li+
0.442549 0.181714 0.378491 Li+
0.821455 0.566270 0.413163 Li+
0.321455 0.066270 0.454311 Li+
0.702271 0.449547 0.397153 Li+
0.202271 0.949547 0.448653 Li+
0.582496 0.332984 0.391311 Li+
0.082496 0.832984 0.432717 Li+
0.510463 0.256366 0.431748 Li+
0.010463 0.756366 0.379183 Li+
0.944698 0.181780 0.513613 Li+
0.444698 0.681780 0.467178 Li+
0.822834 0.065996 0.503461 Li+
0.322834 0.565996 0.455174 Li+
0.702414 0.950543 0.490571 Li+
0.202414 0.450543 0.537078 Li+
0.582845 0.835452 0.479571 Li+
0.082845 0.335452 0.526339 Li+
0.512460 0.758434 0.519939 Li+
0.012460 0.258434 0.473173 Li+
0.942549 0.681714 0.511001 Li+
0.442549 0.181714 0.469400 Li+
0.821455 0.566270 0.504073 Li+
0.321455 0.066270 0.545220 Li+
0.702271 0.449547 0.488062 Li+
0.202271 0.949547 0.539562 Li+
0.582496 0.332984 0.482220 Li+
0.082496 0.832984 0.523626 Li+
0.510463 0.256366 0.522657 Li+
0.010463 0.756366 0.470092 Li+
0.944698 0.181780 0.604522 Li+
0.444698 0.681780 0.558087 Li+
0.822834 0.065996 0.594370 Li+
0.322834 0.565996 0.546083 Li+
0.702414 0.950543 0.581481 Li+
0.202414 0.450543 0.627987 Li+
0.582845 0.835452 0.570480 Li+
0.082845 0.335452 0.617248 Li+
0.512460 0.758434 0.610848 Li+
0.012460 0.258434 0.564082 Li+
0.942549 0.681714 0.601910 Li+
0.442549 0.181714 0.560309 Li+
0.821455 0.566270 0.594982 Li+
0.321455 0.066270 0.636129 Li+
0.702271 0.449547 0.578971 Li+
0.202271 0.949547 0.630471 Li+
0.582496 0.332984 0.573129 Li+
0.082496 0.832984 0.614535 Li+
0.510463 0.256366 0.613566 Li+
0.010463 0.756366 0.561001 Li+
0.001192 0.999587 0.001407 P5+
0.501192 0.499587 0.080566 P5+
0.887667 0.906720 0.022182 P5+
0.387667 0.406720 0.039149 P5+
0.795924 0.802939 0.073376 P5+
0.295924 0.302939 0.062184 P5+
0.716706 0.691689 0.007944 P5+
0.216706 0.191689 0.022304 P5+
0.616650 0.591751 0.059688 P5+
0.116650 0.091751 0.043277 P5+
0.909487 0.425433 0.024110 P5+
0.409487 0.925433 0.041189 P5+
0.808986 0.325562 0.075847 P5+
0.308986 0.825562 0.062088 P5+
0.730132 0.213545 0.010683 P5+
0.230132 0.713545 0.022006 P5+
0.637722 0.110144 0.062316 P5+
0.137722 0.610144 0.044480 P5+
0.524425 0.017155 0.083110 P5+
0.024425 0.517155 0.003086 P5+
0.001192 0.999587 0.092316 P5+
0.501192 0.499587 0.171475 P5+
0.887667 0.906720 0.113091 P5+
0.387667 0.406720 0.130058 P5+
0.795924 0.802939 0.164285 P5+
0.295924 0.302939 0.153093 P5+
0.716706 0.691689 0.098853 P5+
0.216706 0.191689 0.113213 P5+
0.616650 0.591751 0.150597 P5+
0.116650 0.091751 0.134186 P5+
0.909487 0.425433 0.115019 P5+
0.409487 0.925433 0.132098 P5+
0.808986 0.325562 0.166756 P5+
0.308986 0.825562 0.152997 P5+
0.730132 0.213545 0.101592 P5+
0.230132 0.713545 0.112915 P5+
0.637722 0.110144 0.153225 P5+
0.137722 0.610144 0.135389 P5+
0.524425 0.017155 0.174019 P5+
0.024425 0.517155 0.093995 P5+
0.001192 0.999587 0.183225 P5+
0.501192 0.499587 0.262384 P5+
0.887667 0.906720 0.204001 P5+
0.387667 0.406720 0.220967 P5+
0.795924 0.802939 0.255194 P5+
0.295924 0.302939 0.244002 P5+
0.716706 0.691689 0.189762 P5+
0.216706 0.191689 0.204122 P5+
0.616650 0.591751 0.241506 P5+
0.116650 0.091751 0.225095 P5+
0.909487 0.425433 0.205928 P5+
0.409487 0.925433 0.223007 P5+
0.808986 0.325562 0.257665 P5+
0.308986 0.825562 0.243906 P5+
0.730132 0.213545 0.192501 P5+
0.230132 0.713545 0.203824 P5+
0.637722 0.110144 0.244134 P5+
0.137722 0.610144 0.226298 P5+
0.524425 0.017155 0.264929 P5+
0.024425 0.517155 0.184904 P5+
0.001192 0.999587 0.274134 P5+
0.501192 0.499587 0.353293 P5+
0.887667 0.906720 0.294910 P5+
0.387667 0.406720 0.311876 P5+
0.795924 0.802939 0.346103 P5+
0.295924 0.302939 0.334911 P5+
0.716706 0.691689 0.280671 P5+
0.216706 0.191689 0.295031 P5+
0.616650 0.591751 0.332415 P5+
0.116650 0.091751 0.316004 P5+
0.909487 0.425433 0.296838 P5+
0.409487 0.925433 0.313916 P5+
0.808986 0.325562 0.348575 P5+
0.308986 0.825562 0.334815 P5+
0.730132 0.213545 0.283410 P5+
0.230132 0.713545 0.294733 P5+
0.637722 0.110144 0.335043 P5+
0.137722 0.610144 0.317207 P5+
0.524425 0.017155 0.355838 P5+
0.024425 0.517155 0.275813 P5+
0.001192 0.999587 0.365043 P5+
0.501192 0.499587 0.444202 P5+
0.887667 0.906720 0.385819 P5+
0.387667 0.406720 0.402786 P5+
0.795924 0.802939 0.437012 P5+
0.295924 0.302939 0.425820 P5+
0.716706 0.691689 0.371580 P5+
0.216706 0.191689 0.385940 P5+
0.616650 0.591751 0.423324 P5+
0.116650 0.091751 0.406913 P5+
0.909487 0.425433 0.387747 P5+
0.409487 0.925433 0.404825 P5+
0.808986 0.325562 0.439484 P5+
0.308986 0.825562 0.425724 P5+
0.730132 0.213545 0.374319 P5+
0.230132 0.713545 0.385642 P5+
0.637722 0.110144 0.425953 P5+
0.137722 0.610144 0.408116 P5+
0.524425 0.017155 0.446747 P5+
0.024425 0.517155 0.366723 P5+
0.001192 0.999587 0.455952 P5+
0.501192 0.499587 0.535111 P5+
0.887667 0.906720 0.476728 P5+
0.387667 0.406720 0.493695 P5+
0.795924 0.802939 0.527921 P5+
0.295924 0.302939 0.516729 P5+
0.716706 0.691689 0.462490 P5+
0.216706 0.191689 0.476849 P5+
0.616650 0.591751 0.514233 P5+
0.116650 0.091751 0.497822 P5+
0.909487 0.425433 0.478656 P5+
0.409487 0.925433 0.495734 P5+
0.808986 0.325562 0.530393 P5+
0.308986 0.825562 0.516633 P5+
0.730132 0.213545 0.465228 P5+
0.230132 0.713545 0.476551 P5+
0.637722 0.110144 0.516862 P5+
0.137722 0.610144 0.499025 P5+
0.524425 0.017155 0.537656 P5+
0.024425 0.517155 0.457632 P5+
0.001192 0.999587 0.546861 P5+
0.501192 0.499587 0.626020 P5+
0.887667 0.906720 0.567637 P5+
0.387667 0.406720 0.584604 P5+
0.795924 0.802939 0.618831 P5+
0.295924 0.302939 0.607639 P5+
0.716706 0.691689 0.553399 P5+
0.216706 0.191689 0.567758 P5+
0.616650 0.591751 0.605142 P5+
0.116650 0.091751 0.588731 P5+
0.909487 0.425433 0.569565 P5+
0.409487 0.925433 0.586643 P5+
0.808986 0.325562 0.621302 P5+
0.308986 0.825562 0.607542 P5+
0.730132 0.213545 0.556137 P5+
0.230132 0.713545 0.567461 P5+
0.637722 0.110144 0.607771 P5+
0.137722 0.610144 0.589934 P5+
0.524425 0.017155 0.628565 P5+
0.024425 0.517155 0.548541 P5+
0.905428 0.964587 0.003280 O2-
0.405428 0.464587 0.061280 O2-
0.800449 0.859372 0.004456 O2-
0.300449 0.359372 0.041017 O2-
0.757206 0.724144 0.079713 O2-
0.257206 0.224144 0.048807 O2-
0.685355 0.607741 0.087121 O2-
0.185355 0.107741 0.028336 O2-
0.058300 0.021852 0.028721 O2-
0.558300 0.521852 0.063634 O2-
0.840686 0.409378 0.087596 O2-
0.340686 0.909378 0.056102 O2-
0.772630 0.290596 0.004586 O2-
0.272630 0.790596 0.035830 O2-
0.726756 0.156445 0.079741 O2-
0.226756 0.656445 0.043243 O2-
0.618048 0.056520 0.081720 O2-
0.118048 0.556520 0.021499 O2-
0.967956 0.495673 0.020266 O2-
0.467956 0.995673 0.055664 O2-
0.955284 0.073889 0.075650 O2-
0.455284 0.573889 0.088885 O2-
0.071165 0.933926 0.086991 O2-
0.571165 0.433926 0.007704 O2-
0.836724 0.958651 0.035709 O2-
0.336724 0.458651 0.016360 O2-
0.982201 0.846743 0.035141 O2-
0.482201 0.346743 0.043378 O2-
0.714989 0.845353 0.051152 O2-
0.214989 0.345353 0.069693 O2-
0.902007 0.775410 0.074535 O2-
0.402007 0.275410 0.080313 O2-
0.622035 0.747295 0.006377 O2-
0.122035 0.247295 0.006658 O2-
0.803128 0.669352 0.031499 O2-
0.303128 0.169352 0.014461 O2-
0.542257 0.667159 0.047890 O2-
0.042257 0.167159 0.041549 O2-
0.685603 0.553292 0.048135 O2-
0.185603 0.053292 0.067367 O2-
0.839056 0.463335 0.035347 O2-
0.339056 0.963335 0.017146 O2-
0.984307 0.350606 0.036179 O2-
0.484307 0.850606 0.042724 O2-
0.720379 0.348215 0.052658 O2-
0.220379 0.848215 0.069166 O2-
0.903854 0.271458 0.076861 O2-
0.403854 0.771458 0.078323 O2-
0.623095 0.241625 0.008820 O2-
0.123095 0.741625 0.004408 O2-
0.808921 0.171199 0.033239 O2-
0.308921 0.671199 0.013775 O2-
0.543593 0.170027 0.048907 O2-
0.043593 0.670027 0.040775 O2-
0.687356 0.055640 0.049065 O2-
0.187356 0.555640 0.066755 O2-
0.452378 0.080441 0.088597 O2-
0.952378 0.580441 0.075410 O2-
0.572944 0.942366 0.008517 O2-
0.072944 0.442366 0.086501 O2-
0.905428 0.964587 0.094189 O2-
0.405428 0.464587 0.152190 O2-
0.800449 0.859372 0.095365 O2-
0.300449 0.359372 0.131927 O2-
0.757206 0.724144 0.170622 O2-
0.257206 0.224144 0.139716 O2-
0.685355 0.607741 0.178030 O2-
0.185355 0.107741 0.119245 O2-
0.058300 0.021852 0.119630 O2-
0.558300 0.521852 0.154544 O2-
0.840686 0.409378 0.178506 O2-
0.340686 0.909378 0.147011 O2-
0.772630 0.290596 0.095495 O2-
0.272630 0.790596 0.126739 O2-
0.726756 0.156445 0.170650 O2-
0.226756 0.656445 0.134153 O2-
0.618048 0.056520 0.172629 O2-
0.118048 0.556520 0.112408 O2-
0.967956 0.495673 0.111175 O2-
0.467956 0.995673 0.146573 O2-
0.955284 0.073889 0.166559 O2-
0.455284 0.573889 0.179794 O2-
0.071165 0.933926 0.177900 O2-
0.571165 0.433926 0.098613 O2-
0.836724 0.958651 0.126619 O2-
0.336724 0.458651 0.107269 O2-
0.982201 0.846743 0.126050 O2-
0.482201 0.346743 0.134288 O2-
0.714989 0.845353 0.142061 O2-
0.214989 0.345353 0.160602 O2-
0.902007 0.775410 0.165444 O2-
0.402007 0.275410 0.171222 O2-
0.622035 0.747295 0.097286 O2-
0.122035 0.247295 0.097567 O2-
0.803128 0.669352 0.122409 O2-
0.303128 0.169352 0.105370 O2-
0.542257 0.667159 0.138799 O2-
0.042257 0.167159 0.132458 O2-
0.685603 0.553292 0.139044 O2-
0.185603 0.053292 0.158276 O2-
0.839056 0.463335 0.126257 O2-
0.339056 0.963335 0.108055 O2-
0.984307 0.350606 0.127088 O2-
0.484307 0.850606 0.133633 O2-
0.720379 0.348215 0.143568 O2-
0.220379 0.848215 0.160075 O2-
0.903854 0.271458 0.167770 O2-
0.403854 0.771458 0.169232 O2-
0.623095 0.241625 0.099729 O2-
0.123095 0.741625 0.095317 O2-
0.808921 0.171199 0.124148 O2-
0.308921 0.671199 0.104684 O2-
0.543593 0.170027 0.139816 O2-
0.043593 0.670027 0.131684 O2-
0.687356 0.055640 0.139974 O2-
0.187356 0.555640 0.157664 O2-
0.452378 0.080441 0.179506 O2-
0.952378 0.580441 0.166319 O2-
0.572944 0.942366 0.099426 O2-
0.072944 0.442366 0.177410 O2-
0.905428 0.964587 0.185099 O2-
0.405428 0.464587 0.243099 O2-
0.800449 0.859372 0.186274 O2-
0.300449 0.359372 0.222836 O2-
0.757206 0.724144 0.261531 O2-
0.257206 0.224144 0.230625 O2-
0.685355 0.607741 0.268939 O2-
0.185355 0.107741 0.210154 O2-
0.058300 0.021852 0.210539 O2-
0.558300 0.521852 0.245453 O2-
0.840686 0.409378 0.269415 O2-
0.340686 0.909378 0.237920 O2-
0.772630 0.290596 0.186404 O2-
0.272630 0.790596 0.217648 O2-
0.726756 0.156445 0.261559 O2-
0.226756 0.656445 0.225062 O2-
0.618048 0.056520 0.263538 O2-
0.118048 0.556520 0.203317 O2-
0.967956 0.495673 0.202084 O2-
0.467956 0.995673 0.237482 O2-
0.955284 0.073889 0.257468 O2-
0.455284 0.573889 0.270703 O2-
0.071165 0.933926 0.268809 O2-
0.571165 0.433926 0.189522 O2-
0.836724 0.958651 0.217528 O2-
0.336724 0.458651 0.198178 O2-
0.982201 0.846743 0.216959 O2-
0.482201 0.346743 0.225197 O2-
0.714989 0.845353 0.232970 O2-
0.214989 0.345353 0.251511 O2-
0.902007 0.775410 0.256353 O2-
0.402007 0.275410 0.262131 O2-
0.622035 0.747295 0.188195 O2-
0.122035 0.247295 0.188476 O2-
0.803128 0.669352 0.213318 O2-
0.303128 0.169352 0.196279 O2-
0.542257 0.667159 0.229708 O2-
0.042257 0.167159 0.223367 O2-
0.685603 0.553292 0.229953 O2-
0.185603 0.053292 0.249185 O2-
0.839056 0.463335 0.217166 O2-
0.339056 0.963335 0.198964 O2-
0.984307 0.350606 0.217997 O2-
0.484307 0.850606 0.224542 O2-
0.720379 0.348215 0.234477 O2-
0.220379 0.848215 0.250984 O2-
0.903854 0.271458 0.258679 O2-
0.403854 0.771458 0.260141 O2-
0.623095 0.241625 0.190638 O2-
0.123095 0.741625 0.186226 O2-
0.808921 0.171199 0.215057 O2-
0.308921 0.671199 0.195593 O2-
0.543593 0.170027 0.230725 O2-
0.043593 0.670027 0.222593 O2-
0.687356 0.055640 0.230883 O2-
0.187356 0.555640 0.248573 O2-
0.452378 0.080441 0.270415 O2-
0.952378 0.580441 0.257228 O2-
0.572944 0.942366 0.190335 O2-
0.072944 0.442366 0.268319 O2-
0.905428 0.964587 0.276008 O2-
0.405428 0.464587 0.334008 O2-
0.800449 0.859372 0.277183 O2-
0.300449 0.359372 0.313745 O2-
0.757206 0.724144 0.352440 O2-
0.257206 0.224144 0.321535 O2-
0.685355 0.607741 0.359848 O2-
0.185355 0.107741 0.301063 O2-
0.058300 0.021852 0.301449 O2-
0.558300 0.521852 0.336362 O2-
0.840686 0.409378 0.360324 O2-
0.340686 0.909378 0.328829 O2-
0.772630 0.290596 0.277313 O2-
0.272630 0.790596 0.308557 O2-
0.726756 0.156445 0.352468 O2-
0.226756 0.656445 0.315971 O2-
0.618048 0.056520 0.354447 O2-
0.118048 0.556520 0.294227 O2-
0.967956 0.495673 0.292993 O2-
0.467956 0.995673 0.328391 O2-
0.955284 0.073889 0.348377 O2-
0.455284 0.573889 0.361612 O2-
0.071165 0.933926 0.359718 O2-
0.571165 0.433926 0.280431 O2-
0.836724 0.958651 0.308437 O2-
0.336724 0.458651 0.289087 O2-
0.982201 0.846743 0.307868 O2-
0.482201 0.346743 0.316106 O2-
0.714989 0.845353 0.323879 O2-
0.214989 0.345353 0.342420 O2-
0.902007 0.775410 0.347262 O2-
0.402007 0.275410 0.353040 O2-
0.622035 0.747295 0.279104 O2-
0.122035 0.247295 0.279385 O2-
0.803128 0.669352 0.304227 O2-
0.303128 0.169352 0.287189 O2-
0.542257 0.667159 0.320617 O2-
0.042257 0.167159 0.314276 O2-
0.685603 0.553292 0.320862 O2-
0.185603 0.053292 0.340094 O2-
0.839056 0.463335 0.308075 O2-
0.339056 0.963335 0.289873 O2-
0.984307 0.350606 0.308906 O2-
0.484307 0.850606 0.315451 O2-
0.720379 0.348215 0.325386 O2-
0.220379 0.848215 0.341893 O2-
0.903854 0.271458 0.349588 O2-
0.403854 0.771458 0.351050 O2-
0.623095 0.241625 0.281547 O2-
0.123095 0.741625 0.277135 O2-
0.808921 0.171199 0.305966 O2-
0.308921 0.671199 0.286502 O2-
0.543593 0.170027 0.321634 O2-
0.043593 0.670027 0.313502 O2-
0.687356 0.055640 0.321792 O2-
0.187356 0.555640 0.339482 O2-
0.452378 0.080441 0.361324 O2-
0.952378 0.580441 0.348137 O2-
0.572944 0.942366 0.281244 O2-
0.072944 0.442366 0.359229 O2-
0.905428 0.964587 0.366917 O2-
0.405428 0.464587 0.424917 O2-
0.800449 0.859372 0.368093 O2-
0.300449 0.359372 0.404654 O2-
0.757206 0.724144 0.443349 O2-
0.257206 0.224144 0.412444 O2-
0.685355 0.607741 0.450757 O2-
0.185355 0.107741 0.391972 O2-
0.058300 0.021852 0.392358 O2-
0.558300 0.521852 0.427271 O2-
0.840686 0.409378 0.451233 O2-
0.340686 0.909378 0.419739 O2-
0.772630 0.290596 0.368222 O2-
0.272630 0.790596 0.399466 O2-
0.726756 0.156445 0.443377 O2-
0.226756 0.656445 0.406880 O2-
0.618048 0.056520 0.445356 O2-
0.118048 0.556520 0.385136 O2-
0.967956 0.495673 0.383902 O2-
0.467956 0.995673 0.419300 O2-
0.955284 0.073889 0.439286 O2-
0.455284 0.573889 0.452521 O2-
0.071165 0.933926 0.450628 O2-
0.571165 0.433926 0.371340 O2-
0.836724 0.958651 0.399346 O2-
0.336724 0.458651 0.379996 O2-
0.982201 0.846743 0.398778 O2-
0.482201 0.346743 0.407015 O2-
0.714989 0.845353 0.414788 O2-
0.214989 0.345353 0.433329 O2-
0.902007 0.775410 0.438171 O2-
0.402007 0.275410 0.443949 O2-
0.622035 0.747295 0.370013 O2-
0.122035 0.247295 0.370294 O2-
0.803128 0.669352 0.395136 O2-
0.303128 0.169352 0.378098 O2-
0.542257 0.667159 0.411527 O2-
0.042257 0.167159 0.405185 O2-
0.685603 0.553292 0.411771 O2-
0.185603 0.053292 0.431003 O2-
0.839056 0.463335 0.398984 O2-
0.339056 0.963335 0.380782 O2-
0.984307 0.350606 0.399815 O2-
0.484307 0.850606 0.406360 O2-
0.720379 0.348215 0.416295 O2-
0.220379 0.848215 0.432803 O2-
0.903854 0.271458 0.440497 O2-
0.403854 0.771458 0.441960 O2-
0.623095 0.241625 0.372456 O2-
0.123095 0.741625 0.368044 O2-
0.808921 0.171199 0.396875 O2-
0.308921 0.671199 0.377412 O2-
0.543593 0.170027 0.412543 O2-
0.043593 0.670027 0.404411 O2-
0.687356 0.055640 0.412702 O2-
0.187356 0.555640 0.430392 O2-
0.452378 0.080441 0.452233 O2-
0.952378 0.580441 0.439046 O2-
0.572944 0.942366 0.372153 O2-
0.072944 0.442366 0.450138 O2-
0.905428 0.964587 0.457826 O2-
0.405428 0.464587 0.515826 O2-
0.800449 0.859372 0.459002 O2-
0.300449 0.359372 0.495563 O2-
0.757206 0.724144 0.534259 O2-
0.257206 0.224144 0.503353 O2-
0.685355 0.607741 0.541666 O2-
0.185355 0.107741 0.482881 O2-
0.058300 0.021852 0.483267 O2-
0.558300 0.521852 0.518180 O2-
0.840686 0.409378 0.542142 O2-
0.340686 0.909378 0.510648 O2-
0.772630 0.290596 0.459131 O2-
0.272630 0.790596 0.490375 O2-
0.726756 0.156445 0.534286 O2-
0.226756 0.656445 0.497789 O2-
0.618048 0.056520 0.536265 O2-
0.118048 0.556520 0.476045 O2-
0.967956 0.495673 0.474811 O2-
0.467956 0.995673 0.510209 O2-
0.955284 0.073889 0.530195 O2-
0.455284 0.573889 0.543430 O2-
0.071165 0.933926 0.541537 O2-
0.571165 0.433926 0.462249 O2-
0.836724 0.958651 0.490255 O2-
0.336724 0.458651 0.470905 O2-
0.982201 0.846743 0.489687 O2-
0.482201 0.346743 0.497924 O2-
0.714989 0.845353 0.505697 O2-
0.214989 0.345353 0.524238 O2-
0.902007 0.775410 0.529080 O2-
0.402007 0.275410 0.534859 O2-
0.622035 0.747295 0.460922 O2-
0.122035 0.247295 0.461203 O2-
0.803128 0.669352 0.486045 O2-
0.303128 0.169352 0.469007 O2-
0.542257 0.667159 0.502436 O2-
0.042257 0.167159 0.496094 O2-
0.685603 0.553292 0.502680 O2-
0.185603 0.053292 0.521912 O2-
0.839056 0.463335 0.489893 O2-
0.339056 0.963335 0.471691 O2-
0.984307 0.350606 0.490724 O2-
0.484307 0.850606 0.497269 O2-
0.720379 0.348215 0.507204 O2-
0.220379 0.848215 0.523712 O2-
0.903854 0.271458 0.531406 O2-
0.403854 0.771458 0.532869 O2-
0.623095 0.241625 0.463365 O2-
0.123095 0.741625 0.458953 O2-
0.808921 0.171199 0.487784 O2-
0.308921 0.671199 0.468321 O2-
0.543593 0.170027 0.503452 O2-
0.043593 0.670027 0.495320 O2-
0.687356 0.055640 0.503611 O2-
0.187356 0.555640 0.521301 O2-
0.452378 0.080441 0.543142 O2-
0.952378 0.580441 0.529955 O2-
0.572944 0.942366 0.463062 O2-
0.072944 0.442366 0.541047 O2-
0.905428 0.964587 0.548735 O2-
0.405428 0.464587 0.606735 O2-
0.800449 0.859372 0.549911 O2-
0.300449 0.359372 0.586472 O2-
0.757206 0.724144 0.625168 O2-
0.257206 0.224144 0.594262 O2-
0.685355 0.607741 0.632575 O2-
0.185355 0.107741 0.573790 O2-
0.058300 0.021852 0.574176 O2-
0.558300 0.521852 0.609089 O2-
0.840686 0.409378 0.633051 O2-
0.340686 0.909378 0.601557 O2-
0.772630 0.290596 0.550040 O2-
0.272630 0.790596 0.581284 O2-
0.726756 0.156445 0.625195 O2-
0.226756 0.656445 0.588698 O2-
0.618048 0.056520 0.627174 O2-
0.118048 0.556520 0.566954 O2-
0.967956 0.495673 0.565720 O2-
0.467956 0.995673 0.601118 O2-
0.955284 0.073889 0.621104 O2-
0.455284 0.573889 0.634340 O2-
0.071165 0.933926 0.632446 O2-
0.571165 0.433926 0.553158 O2-
0.836724 0.958651 0.581164 O2-
0.336724 0.458651 0.561814 O2-
0.982201 0.846743 0.580596 O2-
0.482201 0.346743 0.588833 O2-
0.714989 0.845353 0.596606 O2-
0.214989 0.345353 0.615147 O2-
0.902007 0.775410 0.619989 O2-
0.402007 0.275410 0.625768 O2-
0.622035 0.747295 0.551831 O2-
0.122035 0.247295 0.552112 O2-
0.803128 0.669352 0.576954 O2-
0.303128 0.169352 0.559916 O2-
0.542257 0.667159 0.593345 O2-
0.042257 0.167159 0.587003 O2-
0.685603 0.553292 0.593589 O2-
0.185603 0.053292 0.612821 O2-
0.839056 0.463335 0.580802 O2-
0.339056 0.963335 0.562600 O2-
0.984307 0.350606 0.581633 O2-
0.484307 0.850606 0.588178 O2-
0.720379 0.348215 0.598113 O2-
0.220379 0.848215 0.614621 O2-
0.903854 0.271458 0.622315 O2-
0.403854 0.771458 0.623778 O2-
0.623095 0.241625 0.554274 O2-
0.123095 0.741625 0.549862 O2-
0.808921 0.171199 0.578693 O2-
0.308921 0.671199 0.559230 O2-
0.543593 0.170027 0.594362 O2-
0.043593 0.670027 0.586229 O2-
0.687356 0.055640 0.594520 O2-
0.187356 0.555640 0.612210 O2-
0.452378 0.080441 0.634051 O2-
0.952378 0.580441 0.620864 O2-
0.572944 0.942366 0.553971 O2-
0.072944 0.442366 0.631956 O2-
