Li5 P2 N1 O6                            
   1.00000000000000     
     0.3382402876502690    0.3523015659041968    5.2653359248846385
     5.8651800607493527   -0.3980340256840557    0.4861793803341205
    -0.4149566871884152    5.1447869206302990    0.4801666189828962
   Li   P    N    O 
     5     2     1     6
Direct
  0.6882884844044854  0.9617757538637194  0.9142005274272290
  0.9978631776172658  0.3320899134365675  0.9415781597476494
  0.4215186869659559  0.7977770758420670  0.4124346638256468
  0.9666630258147116  0.6025258863376826  0.5236993209130175
  0.3519217664798755  0.2944862728287344  0.3363425701571111
  0.4938257347584799  0.4892305551050221  0.8288683531887070
  0.8501875027100765  0.1152680965400457  0.4456208348057445
  0.7134088673143387  0.2512143522224560  0.7442682686768796
  0.9975142355237793  0.2788273846460735  0.2875814262852296
  0.6045282508587664  0.6943174430675277  0.7150180475874648
  0.0422057531004077  0.9086070973920707  0.4915059636968322
  0.4365618202011362  0.5353332974147853  0.1331894924045616
  0.2441483313742858  0.4541561976340923  0.7118665163712145
  0.6386753628764765  0.0315176736691693  0.2908998549127117
 
  0.00000000E+00  0.00000000E+00  0.00000000E+00
  0.00000000E+00  0.00000000E+00  0.00000000E+00
  0.00000000E+00  0.00000000E+00  0.00000000E+00
  0.00000000E+00  0.00000000E+00  0.00000000E+00
  0.00000000E+00  0.00000000E+00  0.00000000E+00
  0.00000000E+00  0.00000000E+00  0.00000000E+00
  0.00000000E+00  0.00000000E+00  0.00000000E+00
  0.00000000E+00  0.00000000E+00  0.00000000E+00
  0.00000000E+00  0.00000000E+00  0.00000000E+00
  0.00000000E+00  0.00000000E+00  0.00000000E+00
  0.00000000E+00  0.00000000E+00  0.00000000E+00
  0.00000000E+00  0.00000000E+00  0.00000000E+00
  0.00000000E+00  0.00000000E+00  0.00000000E+00
  0.00000000E+00  0.00000000E+00  0.00000000E+00
