Li71 P24 N1 O94                         
   1.00000000000000     
    14.7021806384992964   -0.0054770605017477    0.0107696327340499
    -0.0039397640721840   10.5591566239941095   -0.0063529422013412
     0.0090174802959210   -0.0074023442888799   12.3534291029456380
   Li   P    N    O 
    71    24     1    94
Direct
  0.1676937209017913  0.4247345676126181 -0.0011600347658060
  0.1702746814644545  0.4231141340717161  0.5014592329671969
  0.1599457614878392  0.8913031463666979  0.0018165207436530
  0.1698322801323293  0.9186756661666586  0.4984817121321110
  0.5034694453964267  0.4225602321740900  0.0000878405001008
  0.5041622122669408  0.4222038651969979  0.5009067415356524
  0.5093548264408119  0.9191231549062980  0.0001823623296181
  0.5048931009727429  0.9218879261925668  0.5001129927037212
  0.8362533102179270  0.4236464963731745  0.0003697376818116
  0.8373349193675096  0.4225781698464550  0.4994031523094301
  0.8361980889579737  0.9251893295838297  0.0015397436699907
  0.8373027239730165  0.9244190079080455  0.4985164804127211
 -0.0011673252059547  0.0725823567605809  0.7477864536439474
  0.0017443312474376  0.5851279181731452  0.2504849455562874
  0.0018404610876369  0.5792339233774232  0.7491721613182930
  0.3348711861150876  0.0754953189668961  0.2543510373631348
  0.3367459499172110  0.0757544997135627  0.7464894628109661
  0.3369331553859847  0.5790869188883861  0.2508632308493171
  0.3376325495976249  0.5781170653652825  0.7488623614161244
  0.6786139773752944  0.0745156652975924  0.2510384890671299
  0.6710243616380308  0.0766887177627429  0.7492081712575296
  0.6705550425991615  0.5786857542744833  0.2505233126355343
  0.6700086261069460  0.5776838365527799  0.7496764645365459
  0.1530336709201771  0.1747964619683952  0.1588127000970870
  0.1682674389911809  0.1612949875094823  0.6241637834359266
  0.1691507040845346  0.6638179705544617  0.1260593753201036
  0.1692104076829140  0.6631930800667410  0.6258833066923700
  0.5090338990320183  0.1632270297157365  0.1297321904719947
  0.5037896873882596  0.1629567100628913  0.6259923025901748
  0.5037183412844313  0.6622543701306771  0.1265981961870966
  0.5036775098652089  0.6630036522429684  0.6264003514415509
  0.8395652389215650  0.1631928354237694  0.1280067560057145
  0.8364232664985507  0.1636877990340502  0.6262151327576641
  0.8356312976631183  0.6655646699218877  0.1262131930005838
  0.8361466433310645  0.6635000562030957  0.6261722515927211
  0.0008267670095731  0.3374328131060572  0.1220147644252824
  0.0030389547637723  0.3355431062239690  0.6238049427226032
 -0.0013286107981257  0.8457168768119298  0.1268476607267774
  0.0027633249764489  0.8373076415116013  0.6224706322507486
  0.3356373155828529  0.3411482449916445  0.1237207921958160
  0.3361801915662604  0.3359584290512221  0.6238354851680225
  0.3385012867421281  0.8344854338499389  0.1258601599587886
  0.3376922152091726  0.8359270902047661  0.6235764093844137
  0.6704007303766298  0.3373422659985918  0.1242993123426211
  0.6701371479772744  0.3360692941010601  0.6237926874709190
  0.6689631984530039  0.8341283480527634  0.1228821158284838
  0.6699750179134676  0.8359975985383626  0.6229401594619587
  0.0037634252436700  0.3351465982073978  0.3754505252436568
  0.0009835212891154  0.3374764070371171  0.8750101318550921
  0.0012939554457194  0.8454552799157240  0.3738994150899371
  0.0001143466150260  0.8373920364987975  0.8753355035540676
  0.3407390281544290  0.3345289994322724  0.3816399277453402
  0.3353379489586267  0.3409334016524658  0.8756714855694834
  0.3391051523135645  0.8357990356207219  0.3765211470688830
  0.3368062131565444  0.8342477308810834  0.8744433097827158
  0.6706491656747049  0.3362290867345317  0.3763214008748031
  0.6699559622338682  0.3368646396038587  0.8758643449719381
  0.6686703433330340  0.8343436987529540  0.3782577983577892
  0.6701119995189927  0.8356428529946086  0.8761991673069250
  0.1671736818620999  0.1527593260478715  0.3764797011334290
  0.1599883108560525  0.1712197322939646  0.8559953955089021
  0.1694802209898451  0.6635325829615730  0.3739434492094533
  0.1690843036873008  0.6611558500820071  0.8716203843003509
  0.5051094680068301  0.1616073790857711  0.3738689219272232
  0.5075897758566169  0.1642126683306527  0.8714932926998664
  0.5038435449850166  0.6624443528885828  0.3743703145411255
  0.5037433921998729  0.6627104132984212  0.8733843785729235
  0.8413346350296788  0.1627752913598114  0.3724283931333209
  0.8362135004816015  0.1638470054688929  0.8738735711577449
  0.8364834905602395  0.6654442312510617  0.3739584458138134
  0.8352833498122538  0.6637841773802161  0.8736068427960852
  0.1668569445914965  0.4166097821621499  0.2465904216212456
  0.1669286428946788  0.4129823444320569  0.7494923294003240
  0.1689183025933717  0.9068288219583714  0.2486612335776251
  0.1674860630131165  0.9107580578707972  0.7512962782153522
  0.4999240180282489  0.4121052603968762  0.2507134949563018
  0.5004237848625140  0.4121546507490000  0.7498830011232333
  0.5017732509408974  0.9120378093901012  0.2500895986823690
  0.5009851736840867  0.9119630817975122  0.7501512192710241
  0.8338078909299489  0.4140308988424783  0.2499006492310055
  0.8331563144927462  0.4128995345945679  0.7499416486160690
  0.8287566110769850  0.9123537804540197  0.2499585514886554
  0.8321289485909037  0.9116494162693555  0.7500388801946628
  0.0028161274309528  0.0912305423759080 -0.0062876552463926
  0.0019687707070428  0.0901098870097896  0.5045576159049707
 -0.0002785597701199  0.5906167833510750 -0.0010347460850353
  0.0003767930263558  0.5891133675836153  0.5002922001729908
  0.3393733739163374  0.0868785783052470  0.0002580034107004
  0.3351147108580141  0.0851169793709877  0.5011091220176451
  0.3340832937776331  0.5884234078369500 -0.0006840653013620
  0.3346836354206605  0.5878072997810008  0.5006639353813511
  0.6662805526306171  0.0882452778003646 -0.0005351009757084
  0.6675490075456295  0.0878985027719507  0.5006838964188115
  0.6666371444641227  0.5868006596901891 -0.0004727352070847
  0.6673292194529363  0.5866215218129558  0.5006531127154563
  0.1972115595349846  0.3366882044662263  0.3531109047442733
  0.0404837011371142  0.1663884784071437  0.4090348879535121
  0.0332983250308820  0.1532345513520822  0.8840087342573334
  0.0356572589730649  0.6592154277944997  0.3973582114393042
  0.0353620045056149  0.6592458309376741  0.8949067777771177
  0.3701674120143235  0.1548314122408851  0.3975542698732427
  0.3672127540757915  0.1581733337540147  0.8952570594349094
  0.3706282963434301  0.6556439582663379  0.3968815324977277
  0.3698672895882065  0.6569169499846769  0.8955824044103504
  0.7029434733673491  0.1577479613661268  0.3980011902892622
  0.7009778078452958  0.1563697194773217  0.8951196877898060
  0.7024381760091815  0.6555537758364977  0.3971727203114321
  0.7016825747765589  0.6559745620831209  0.8958241436182810
  0.2022490061616073  0.0477055951539945  0.2487567537014817
  0.2020854139508811  0.0509584932301706  0.7525449766211977
  0.2019769100044911  0.5563278980739382  0.2469548062295354
  0.2021143067921771  0.5522258806162229  0.7494006207342884
  0.5368112601609237  0.0514351655162366  0.2501879985146268
  0.5342680021112347  0.0522834926595759  0.7502115870830979
  0.5336882336641000  0.5521052327522344  0.2503285511071104
  0.5340357186905419  0.5522193256691875  0.7500176672919845
  0.8502958762396750  0.0548020044313231  0.2495726503380371
  0.8642886545792925  0.0522409686952250  0.7503062150733413
  0.8669051935023930  0.5546479049995365  0.2496004344980408
  0.8667109926101966  0.5531552415453409  0.7502086913056681
  0.0607765177965575  0.4148975257632386  0.2475213311420263
  0.0612480672620609  0.4114254891481536  0.7500843645723014
  0.0652551292022916  0.8951065662273874  0.2487758950416324
  0.0619499560649457  0.9067548762886057  0.7505228833028369
  0.3937002957904163  0.4090330680457327  0.2513140114549176
  0.3943943738557100  0.4092210223965838  0.7499139643626366
  0.3957186029529720  0.9109531499942437  0.2497959767364377
  0.3949062470905266  0.9092866198541584  0.7505456872049855
  0.7277050174073438  0.4105642831788568  0.2502391389153504
  0.7271881437518153  0.4097250504856572  0.7498618545199212
  0.7228875815169480  0.8969844308095299  0.2504691532582587
  0.7262487786770639  0.9070396227664770  0.7497728902575378
  0.2294464560897795  0.0846621632517009  0.5020098373556100
  0.2281345699341971  0.5925951601813079 -0.0013292508355507
  0.2288523249568907  0.5916144173969182  0.5007581087219051
  0.5597949211329262  0.0909139291329118 -0.0004340482046405
  0.5614121012665936  0.0902833472218516  0.5006362934560570
  0.5605902801214033  0.5901101212766202 -0.0003430232972980
  0.5612861151123626  0.5898079624861271  0.5006769399518550
  0.8969234592330869  0.0927260721026522 -0.0008373723266734
  0.8957704488909676  0.0913143454355927  0.5018142919472317
  0.8938237852921773  0.5929815047719702 -0.0007026579142710
  0.8943629708595082  0.5916784799712406  0.5003788653469097
  0.2025640876413893  0.3487576911471406  0.1415818412923166
  0.2022222261665368  0.3416799643174038  0.6471072997282417
  0.2070967516909844  0.8418017702607997  0.1429984984679774
  0.2042945742831122  0.8419414460297447  0.6485656720235619
  0.5347899440851922  0.3432248308616994  0.1465528113344300
  0.5357823133954942  0.3426638670226149  0.6465572068862671
  0.5355080086582598  0.8422641932149786  0.1457816579620867
  0.5361405350731748  0.8427636528531425  0.6466893368700448
  0.8685593208891826  0.3455326791294987  0.1455749591856953
  0.8688199450880995  0.3439408979083274  0.6465073449520566
  0.8665388803253675  0.8456504282395313  0.1457225251213073
  0.8686864301006265  0.8431072424496555  0.6468005795671609
  0.0439974561945293  0.1698816703382509  0.0861971010718558
  0.0341007254812913  0.1532398765291319  0.6132373413814574
  0.0354335713990625  0.6609204604346322  0.1016520586752997
  0.0355457236341606  0.6578518507557010  0.6045225909723045
  0.3680393266117916  0.1579467473524892  0.1047334962258294
  0.3696973694506294  0.1558646104767651  0.6045034229650472
  0.3700106308793245  0.6563793746914531  0.1030243730383651
  0.3701952945592978  0.6570242961975433  0.6042312695510769
  0.7013082940071999  0.1579893192281135  0.1022880987263021
  0.7020949108730467  0.1563044555014597  0.6051161533851044
  0.7017922977889746  0.6555750710304425  0.1030319886241237
  0.7022592323283295  0.6560363961235066  0.6043368393402569
  0.0333038235926399  0.4504776614763075 -0.0015177021410480
  0.0341571131505500  0.4490743546292087  0.5005502349841985
  0.0364071739488864  0.9505380555599114 -0.0024285568259087
  0.0357156936016490  0.9494126928764057  0.5014963323530440
  0.3672326139695299  0.4479433993925001 -0.0008683550489864
  0.3683140712479417  0.4475573893763410  0.5017511284798484
  0.3695298789213288  0.9462796721109443 -0.0005483270087284
  0.3705674151913790  0.9459721505789469  0.5011146990083754
  0.6999501412196121  0.4466424737908619 -0.0006561987370706
  0.7007439518033728  0.4465064881664664  0.5006930945875869
  0.6990646648910828  0.9477715506086788 -0.0003200128381535
  0.7008335377321935  0.9475681035897314  0.5004266954738570
  0.2017174091434862  0.3434472058664916  0.8537881341158446
  0.2079784870809256  0.8403820507700008  0.3519802207539334
  0.2027583377799315  0.8429542316081604  0.8560676760756210
  0.5351125734125094  0.3427544550638278  0.3540125630556880
  0.5353090776091416  0.3432382487718814  0.8537620604990032
  0.5354641442205923  0.8419966603638875  0.3537075204352977
  0.5359329830363572  0.8430525277294733  0.8539248637430903
  0.8694069399710490  0.3455578857939123  0.3532528823264511
  0.8679641398102569  0.3442131476460806  0.8539016332668365
  0.8676807178707423  0.8454284413172595  0.3529800811931225
  0.8674131299584585  0.8438023221258555  0.8542348810314476
 
  0.00000000E+00  0.00000000E+00  0.00000000E+00
  0.00000000E+00  0.00000000E+00  0.00000000E+00
  0.00000000E+00  0.00000000E+00  0.00000000E+00
  0.00000000E+00  0.00000000E+00  0.00000000E+00
  0.00000000E+00  0.00000000E+00  0.00000000E+00
  0.00000000E+00  0.00000000E+00  0.00000000E+00
  0.00000000E+00  0.00000000E+00  0.00000000E+00
  0.00000000E+00  0.00000000E+00  0.00000000E+00
  0.00000000E+00  0.00000000E+00  0.00000000E+00
  0.00000000E+00  0.00000000E+00  0.00000000E+00
  0.00000000E+00  0.00000000E+00  0.00000000E+00
  0.00000000E+00  0.00000000E+00  0.00000000E+00
  0.00000000E+00  0.00000000E+00  0.00000000E+00
  0.00000000E+00  0.00000000E+00  0.00000000E+00
  0.00000000E+00  0.00000000E+00  0.00000000E+00
  0.00000000E+00  0.00000000E+00  0.00000000E+00
  0.00000000E+00  0.00000000E+00  0.00000000E+00
  0.00000000E+00  0.00000000E+00  0.00000000E+00
  0.00000000E+00  0.00000000E+00  0.00000000E+00
  0.00000000E+00  0.00000000E+00  0.00000000E+00
  0.00000000E+00  0.00000000E+00  0.00000000E+00
  0.00000000E+00  0.00000000E+00  0.00000000E+00
  0.00000000E+00  0.00000000E+00  0.00000000E+00
  0.00000000E+00  0.00000000E+00  0.00000000E+00
  0.00000000E+00  0.00000000E+00  0.00000000E+00
  0.00000000E+00  0.00000000E+00  0.00000000E+00
  0.00000000E+00  0.00000000E+00  0.00000000E+00
  0.00000000E+00  0.00000000E+00  0.00000000E+00
  0.00000000E+00  0.00000000E+00  0.00000000E+00
  0.00000000E+00  0.00000000E+00  0.00000000E+00
  0.00000000E+00  0.00000000E+00  0.00000000E+00
  0.00000000E+00  0.00000000E+00  0.00000000E+00
  0.00000000E+00  0.00000000E+00  0.00000000E+00
  0.00000000E+00  0.00000000E+00  0.00000000E+00
  0.00000000E+00  0.00000000E+00  0.00000000E+00
  0.00000000E+00  0.00000000E+00  0.00000000E+00
  0.00000000E+00  0.00000000E+00  0.00000000E+00
  0.00000000E+00  0.00000000E+00  0.00000000E+00
  0.00000000E+00  0.00000000E+00  0.00000000E+00
  0.00000000E+00  0.00000000E+00  0.00000000E+00
  0.00000000E+00  0.00000000E+00  0.00000000E+00
  0.00000000E+00  0.00000000E+00  0.00000000E+00
  0.00000000E+00  0.00000000E+00  0.00000000E+00
  0.00000000E+00  0.00000000E+00  0.00000000E+00
  0.00000000E+00  0.00000000E+00  0.00000000E+00
  0.00000000E+00  0.00000000E+00  0.00000000E+00
  0.00000000E+00  0.00000000E+00  0.00000000E+00
  0.00000000E+00  0.00000000E+00  0.00000000E+00
  0.00000000E+00  0.00000000E+00  0.00000000E+00
  0.00000000E+00  0.00000000E+00  0.00000000E+00
  0.00000000E+00  0.00000000E+00  0.00000000E+00
  0.00000000E+00  0.00000000E+00  0.00000000E+00
  0.00000000E+00  0.00000000E+00  0.00000000E+00
  0.00000000E+00  0.00000000E+00  0.00000000E+00
  0.00000000E+00  0.00000000E+00  0.00000000E+00
  0.00000000E+00  0.00000000E+00  0.00000000E+00
  0.00000000E+00  0.00000000E+00  0.00000000E+00
  0.00000000E+00  0.00000000E+00  0.00000000E+00
  0.00000000E+00  0.00000000E+00  0.00000000E+00
  0.00000000E+00  0.00000000E+00  0.00000000E+00
  0.00000000E+00  0.00000000E+00  0.00000000E+00
  0.00000000E+00  0.00000000E+00  0.00000000E+00
  0.00000000E+00  0.00000000E+00  0.00000000E+00
  0.00000000E+00  0.00000000E+00  0.00000000E+00
  0.00000000E+00  0.00000000E+00  0.00000000E+00
  0.00000000E+00  0.00000000E+00  0.00000000E+00
  0.00000000E+00  0.00000000E+00  0.00000000E+00
  0.00000000E+00  0.00000000E+00  0.00000000E+00
  0.00000000E+00  0.00000000E+00  0.00000000E+00
  0.00000000E+00  0.00000000E+00  0.00000000E+00
  0.00000000E+00  0.00000000E+00  0.00000000E+00
  0.00000000E+00  0.00000000E+00  0.00000000E+00
  0.00000000E+00  0.00000000E+00  0.00000000E+00
  0.00000000E+00  0.00000000E+00  0.00000000E+00
  0.00000000E+00  0.00000000E+00  0.00000000E+00
  0.00000000E+00  0.00000000E+00  0.00000000E+00
  0.00000000E+00  0.00000000E+00  0.00000000E+00
  0.00000000E+00  0.00000000E+00  0.00000000E+00
  0.00000000E+00  0.00000000E+00  0.00000000E+00
  0.00000000E+00  0.00000000E+00  0.00000000E+00
  0.00000000E+00  0.00000000E+00  0.00000000E+00
  0.00000000E+00  0.00000000E+00  0.00000000E+00
  0.00000000E+00  0.00000000E+00  0.00000000E+00
  0.00000000E+00  0.00000000E+00  0.00000000E+00
  0.00000000E+00  0.00000000E+00  0.00000000E+00
  0.00000000E+00  0.00000000E+00  0.00000000E+00
  0.00000000E+00  0.00000000E+00  0.00000000E+00
  0.00000000E+00  0.00000000E+00  0.00000000E+00
  0.00000000E+00  0.00000000E+00  0.00000000E+00
  0.00000000E+00  0.00000000E+00  0.00000000E+00
  0.00000000E+00  0.00000000E+00  0.00000000E+00
  0.00000000E+00  0.00000000E+00  0.00000000E+00
  0.00000000E+00  0.00000000E+00  0.00000000E+00
  0.00000000E+00  0.00000000E+00  0.00000000E+00
  0.00000000E+00  0.00000000E+00  0.00000000E+00
  0.00000000E+00  0.00000000E+00  0.00000000E+00
  0.00000000E+00  0.00000000E+00  0.00000000E+00
  0.00000000E+00  0.00000000E+00  0.00000000E+00
  0.00000000E+00  0.00000000E+00  0.00000000E+00
  0.00000000E+00  0.00000000E+00  0.00000000E+00
  0.00000000E+00  0.00000000E+00  0.00000000E+00
  0.00000000E+00  0.00000000E+00  0.00000000E+00
  0.00000000E+00  0.00000000E+00  0.00000000E+00
  0.00000000E+00  0.00000000E+00  0.00000000E+00
  0.00000000E+00  0.00000000E+00  0.00000000E+00
  0.00000000E+00  0.00000000E+00  0.00000000E+00
  0.00000000E+00  0.00000000E+00  0.00000000E+00
  0.00000000E+00  0.00000000E+00  0.00000000E+00
  0.00000000E+00  0.00000000E+00  0.00000000E+00
  0.00000000E+00  0.00000000E+00  0.00000000E+00
  0.00000000E+00  0.00000000E+00  0.00000000E+00
  0.00000000E+00  0.00000000E+00  0.00000000E+00
  0.00000000E+00  0.00000000E+00  0.00000000E+00
  0.00000000E+00  0.00000000E+00  0.00000000E+00
  0.00000000E+00  0.00000000E+00  0.00000000E+00
  0.00000000E+00  0.00000000E+00  0.00000000E+00
  0.00000000E+00  0.00000000E+00  0.00000000E+00
  0.00000000E+00  0.00000000E+00  0.00000000E+00
  0.00000000E+00  0.00000000E+00  0.00000000E+00
  0.00000000E+00  0.00000000E+00  0.00000000E+00
  0.00000000E+00  0.00000000E+00  0.00000000E+00
  0.00000000E+00  0.00000000E+00  0.00000000E+00
  0.00000000E+00  0.00000000E+00  0.00000000E+00
  0.00000000E+00  0.00000000E+00  0.00000000E+00
  0.00000000E+00  0.00000000E+00  0.00000000E+00
  0.00000000E+00  0.00000000E+00  0.00000000E+00
  0.00000000E+00  0.00000000E+00  0.00000000E+00
  0.00000000E+00  0.00000000E+00  0.00000000E+00
  0.00000000E+00  0.00000000E+00  0.00000000E+00
  0.00000000E+00  0.00000000E+00  0.00000000E+00
  0.00000000E+00  0.00000000E+00  0.00000000E+00
  0.00000000E+00  0.00000000E+00  0.00000000E+00
  0.00000000E+00  0.00000000E+00  0.00000000E+00
  0.00000000E+00  0.00000000E+00  0.00000000E+00
  0.00000000E+00  0.00000000E+00  0.00000000E+00
  0.00000000E+00  0.00000000E+00  0.00000000E+00
  0.00000000E+00  0.00000000E+00  0.00000000E+00
  0.00000000E+00  0.00000000E+00  0.00000000E+00
  0.00000000E+00  0.00000000E+00  0.00000000E+00
  0.00000000E+00  0.00000000E+00  0.00000000E+00
  0.00000000E+00  0.00000000E+00  0.00000000E+00
  0.00000000E+00  0.00000000E+00  0.00000000E+00
  0.00000000E+00  0.00000000E+00  0.00000000E+00
  0.00000000E+00  0.00000000E+00  0.00000000E+00
  0.00000000E+00  0.00000000E+00  0.00000000E+00
  0.00000000E+00  0.00000000E+00  0.00000000E+00
  0.00000000E+00  0.00000000E+00  0.00000000E+00
  0.00000000E+00  0.00000000E+00  0.00000000E+00
  0.00000000E+00  0.00000000E+00  0.00000000E+00
  0.00000000E+00  0.00000000E+00  0.00000000E+00
  0.00000000E+00  0.00000000E+00  0.00000000E+00
  0.00000000E+00  0.00000000E+00  0.00000000E+00
  0.00000000E+00  0.00000000E+00  0.00000000E+00
  0.00000000E+00  0.00000000E+00  0.00000000E+00
  0.00000000E+00  0.00000000E+00  0.00000000E+00
  0.00000000E+00  0.00000000E+00  0.00000000E+00
  0.00000000E+00  0.00000000E+00  0.00000000E+00
  0.00000000E+00  0.00000000E+00  0.00000000E+00
  0.00000000E+00  0.00000000E+00  0.00000000E+00
  0.00000000E+00  0.00000000E+00  0.00000000E+00
  0.00000000E+00  0.00000000E+00  0.00000000E+00
  0.00000000E+00  0.00000000E+00  0.00000000E+00
  0.00000000E+00  0.00000000E+00  0.00000000E+00
  0.00000000E+00  0.00000000E+00  0.00000000E+00
  0.00000000E+00  0.00000000E+00  0.00000000E+00
  0.00000000E+00  0.00000000E+00  0.00000000E+00
  0.00000000E+00  0.00000000E+00  0.00000000E+00
  0.00000000E+00  0.00000000E+00  0.00000000E+00
  0.00000000E+00  0.00000000E+00  0.00000000E+00
  0.00000000E+00  0.00000000E+00  0.00000000E+00
  0.00000000E+00  0.00000000E+00  0.00000000E+00
  0.00000000E+00  0.00000000E+00  0.00000000E+00
  0.00000000E+00  0.00000000E+00  0.00000000E+00
  0.00000000E+00  0.00000000E+00  0.00000000E+00
  0.00000000E+00  0.00000000E+00  0.00000000E+00
  0.00000000E+00  0.00000000E+00  0.00000000E+00
  0.00000000E+00  0.00000000E+00  0.00000000E+00
  0.00000000E+00  0.00000000E+00  0.00000000E+00
  0.00000000E+00  0.00000000E+00  0.00000000E+00
  0.00000000E+00  0.00000000E+00  0.00000000E+00
  0.00000000E+00  0.00000000E+00  0.00000000E+00
  0.00000000E+00  0.00000000E+00  0.00000000E+00
  0.00000000E+00  0.00000000E+00  0.00000000E+00
  0.00000000E+00  0.00000000E+00  0.00000000E+00
  0.00000000E+00  0.00000000E+00  0.00000000E+00
  0.00000000E+00  0.00000000E+00  0.00000000E+00
  0.00000000E+00  0.00000000E+00  0.00000000E+00
  0.00000000E+00  0.00000000E+00  0.00000000E+00
  0.00000000E+00  0.00000000E+00  0.00000000E+00
  0.00000000E+00  0.00000000E+00  0.00000000E+00
