Li42 P14 O56
1.0
5.296402 0.000000 -4.922448
0.000000 6.176136 -4.922448
0.000000 0.000000 68.914272
Li P O
42 14 56
direct
0.844520 0.000000 0.027864 Li+
0.155480 0.500000 0.050076 Li+
0.326434 0.747127 0.044149 Li+
0.673566 0.752873 0.033640 Li+
0.673566 0.247127 0.068944 Li+
0.326434 0.252873 0.008845 Li+
0.844520 0.000000 0.099293 Li+
0.155480 0.500000 0.121504 Li+
0.326434 0.747127 0.115578 Li+
0.673566 0.752873 0.105069 Li+
0.673566 0.247127 0.140373 Li+
0.326434 0.252873 0.080274 Li+
0.844520 0.000000 0.170721 Li+
0.155480 0.500000 0.192933 Li+
0.326434 0.747127 0.187006 Li+
0.673566 0.752873 0.176498 Li+
0.673566 0.247127 0.211801 Li+
0.326434 0.252873 0.151702 Li+
0.844520 0.000000 0.242150 Li+
0.155480 0.500000 0.264361 Li+
0.326434 0.747127 0.258435 Li+
0.673566 0.752873 0.247926 Li+
0.673566 0.247127 0.283230 Li+
0.326434 0.252873 0.223131 Li+
0.844520 0.000000 0.313579 Li+
0.155480 0.500000 0.335790 Li+
0.326434 0.747127 0.329863 Li+
0.673566 0.752873 0.319355 Li+
0.673566 0.247127 0.354658 Li+
0.326434 0.252873 0.294560 Li+
0.844520 0.000000 0.385007 Li+
0.155480 0.500000 0.407219 Li+
0.326434 0.747127 0.401292 Li+
0.673566 0.752873 0.390783 Li+
0.673566 0.247127 0.426087 Li+
0.326434 0.252873 0.365988 Li+
0.844520 0.000000 0.456436 Li+
0.155480 0.500000 0.478647 Li+
0.326434 0.747127 0.472720 Li+
0.673566 0.752873 0.462212 Li+
0.673566 0.247127 0.497516 Li+
0.326434 0.252873 0.437417 Li+
0.824261 0.500000 0.061560 P5+
0.175739 0.000000 0.015237 P5+
0.824261 0.500000 0.132989 P5+
0.175739 0.000000 0.086666 P5+
0.824261 0.500000 0.204417 P5+
0.175739 0.000000 0.158094 P5+
0.824261 0.500000 0.275846 P5+
0.175739 0.000000 0.229523 P5+
0.824261 0.500000 0.347275 P5+
0.175739 0.000000 0.300952 P5+
0.824261 0.500000 0.418703 P5+
0.175739 0.000000 0.372380 P5+
0.824261 0.500000 0.490132 P5+
0.175739 0.000000 0.443809 P5+
0.313509 0.207138 0.047416 O2-
0.103508 0.500000 0.017271 O2-
0.818396 0.500000 0.038554 O2-
0.181604 0.000000 0.064497 O2-
0.686491 0.707138 0.002629 O2-
0.313509 0.792862 0.017825 O2-
0.896492 0.000000 0.002484 O2-
0.686491 0.292862 0.044466 O2-
0.313509 0.207138 0.118844 O2-
0.103508 0.500000 0.088700 O2-
0.818396 0.500000 0.109982 O2-
0.181604 0.000000 0.135926 O2-
0.686491 0.707138 0.074057 O2-
0.313509 0.792862 0.089253 O2-
0.896492 0.000000 0.073913 O2-
0.686491 0.292862 0.115895 O2-
0.313509 0.207138 0.190273 O2-
0.103508 0.500000 0.160128 O2-
0.818396 0.500000 0.181411 O2-
0.181604 0.000000 0.207354 O2-
0.686491 0.707138 0.145486 O2-
0.313509 0.792862 0.160682 O2-
0.896492 0.000000 0.145341 O2-
0.686491 0.292862 0.187323 O2-
0.313509 0.207138 0.261701 O2-
0.103508 0.500000 0.231557 O2-
0.818396 0.500000 0.252839 O2-
0.181604 0.000000 0.278783 O2-
0.686491 0.707138 0.216914 O2-
0.313509 0.792862 0.232110 O2-
0.896492 0.000000 0.216770 O2-
0.686491 0.292862 0.258752 O2-
0.313509 0.207138 0.333130 O2-
0.103508 0.500000 0.302985 O2-
0.818396 0.500000 0.324268 O2-
0.181604 0.000000 0.350211 O2-
0.686491 0.707138 0.288343 O2-
0.313509 0.792862 0.303539 O2-
0.896492 0.000000 0.288199 O2-
0.686491 0.292862 0.330180 O2-
0.313509 0.207138 0.404559 O2-
0.103508 0.500000 0.374414 O2-
0.818396 0.500000 0.395696 O2-
0.181604 0.000000 0.421640 O2-
0.686491 0.707138 0.359772 O2-
0.313509 0.792862 0.374967 O2-
0.896492 0.000000 0.359627 O2-
0.686491 0.292862 0.401609 O2-
0.313509 0.207138 0.475987 O2-
0.103508 0.500000 0.445843 O2-
0.818396 0.500000 0.467125 O2-
0.181604 0.000000 0.493068 O2-
0.686491 0.707138 0.431200 O2-
0.313509 0.792862 0.446396 O2-
0.896492 0.000000 0.431056 O2-
0.686491 0.292862 0.473038 O2-
