Li61 P7 N32                             
   1.00000000000000     
     0.0041316421485892    9.4851512145399877   -0.0044358590168856
    -0.0057384743625523   -0.0045275635124660    9.5530194357305227
     9.5421025439021818    0.0041533438165709   -0.0058397601642357
   Li   P    N 
    61     7    32
Direct
  0.4979066563080898 -0.0005579866580022  0.4962500545663464
  0.0082537751617607  0.5010041974010154 -0.0100236769114902
  0.4979737816288385 -0.0091973994601015 -0.0039292831031242
  0.0021533369553629 -0.0027936579831594  0.4980662245168496
  0.4910823072255374  0.4910198838411193 -0.0069465890905130
  0.0066942451420246  0.4975468021132350  0.4927909096829071
  0.7499074755945503 -0.0063357586623645  0.4936372672531851
  0.2483987417657507 -0.0141403190141527  0.5001730510986072
  0.7687810829430893  0.4964181857207888  0.4945296336825699
  0.2362996033676222  0.5004880751979268  0.5064707285268533
  0.2635416603872501  0.0028975298737456 -0.0038097973103737
  0.7367430022894589 -0.0044472043975629 -0.0050694207033432
  0.6751653059473196  0.4203777020702110  0.0872698253769430
  0.5150055263780432  0.2310915399755446 -0.0211379562642598
  0.5022090576071251  0.7492393449329251  0.0075153064475244
 -0.0106677647461210  0.4860461698960425  0.2512296793214159
 -0.0078282874915960  0.5102773357749459  0.7355380146070368
  0.2361463662191901  0.2200416532829846  0.2090982421742280
  0.2422313131027137  0.7905479263266073  0.7826135266354400
  0.2601001499880343  0.2918129125371375  0.7175259883339202
  0.2716120265508235  0.7318290053869687  0.2810970555855709
  0.7709766848509348  0.3008046745455766  0.3035309276115411
  0.7615200424461395  0.6994994087034548  0.6970895711951063
  0.7356508409238942  0.1935916180161904  0.8030112756837452
  0.7467638499169669  0.7979233724354554  0.1981318580545796
  0.9925829480994520  0.2414166348638728  0.2404575149777597
  0.9886870313812739  0.7519097669626921  0.7510742002673956
  0.2616180917823672  0.2208913796680931  0.4843078207186112
  0.2641901003251361  0.7482631521998822  0.5271736940211864
  0.7558258622009983  0.2229594929706725  0.5500465578083479
  0.7451049264065123  0.7582903984483137  0.4538740729003243
  0.7371062598869260  0.5487708406361402  0.2748522474296269
  0.6726461802204077  0.5748394707284618  0.9050520094302338
  0.2188612571021364  0.4881493423023670  0.2501350612145649
  0.2292451805463579  0.5449512895103112  0.7457186349401536
  0.5194581893307860  0.7473308249052791  0.2472047106845734
  0.5124994935133299  0.2520477630680341  0.7400488026197345
  0.2379244243232528  0.9801312681989517  0.2495933583050377
  0.2376249717937699  0.0319660163311121  0.7431220619678123
  0.2704346944337140  0.2447789227122227  0.9635394105623625
  0.2589653330557584  0.7637770009733459  0.0306000971769631
  0.7577919500564151  0.9520802991286478  0.7300660579962575
  0.7610264349611248  0.0390299397999744  0.2578635717652539
  0.7600132193979540  0.7761025041833667  0.9484922080164893
  0.7720132191359583  0.2128323201734164  0.0529763164717924
  0.0098410064238407  0.2505489072791829  0.7612553858450040
  0.0182530693435584  0.7423562772459222  0.2303380719226714
  0.5145284409288314  0.2540658484349774  0.2324246125499851
  0.4890967679410741  0.7334069733395561  0.7493642811756055
  0.0179130481296134  0.2618066893898335  0.0116913810468999
  0.0108705365418125  0.7410029527301991 -0.0196092097124277
  0.5175222071192771  0.2330042976587035  0.4943041871776016
  0.5032258030079614  0.7614952945815122  0.4998887859312278
  0.4901524897824953  0.5238074949176501  0.2273773358862670
  0.4856716660139133  0.4816225948112453  0.7542256536276440
  0.0002137878187997 -0.0095880228807814  0.2593129630200540
 -0.0016549951325918  0.0043168810974096  0.7371138155067409
  0.3640372683143561  0.3624155576406186  0.3540377103712603
  0.7380791216101776  0.4480442881512324  0.7155329581838864
  0.8258450523480549  0.4035095114054318  0.9193056822560133
  0.8296405874366182  0.5887745842171251  0.0724290913819861
  0.5020394451472047  0.5006230908796101  0.4956679512004105
  0.0040691546675459  0.0005447338390773 -0.0023059846869043
  0.2495180028415357  0.5038522216932361 -0.0010087812643770
  0.0037000908215427  0.7467049094201639  0.4928027515717189
  0.0075598116982301  0.2481103248361692  0.4993102984482750
  0.5006800736869237  0.0012367385455594  0.2449662448476864
  0.4996421246291788 -0.0060814782913606  0.7468894059272184
  0.6047624883102682  0.5970443748690835  0.5988421072853696
  0.5992248011577432  0.4016813205020994  0.3838522090385420
  0.8999173658674553  0.8953347340969534  0.0952850459878913
  0.8995950240604160  0.1058310065903829  0.9000032366700057
  0.1079736973976387  0.9047955726780629  0.8906296172292534
  0.1077707117862779  0.0967056815942377  0.1047982973000372
  0.3920822095512125  0.6014453055560725  0.3992514222078730
  0.3981598072189620  0.3872554289214927  0.5855869407891888
  0.1149042367665307  0.3436835869932517  0.3903638664231360
  0.1023975195437999  0.6480845633992519  0.6030166037147882
  0.1117839657383650  0.1465877862987176  0.6026889507055900
  0.1148738067219465  0.8473418889032578  0.3952971088701404
  0.8949595314722327  0.1471074738882332  0.4037210112908086
  0.8901106918837149  0.8474290617257985  0.5875320076034064
  0.8695626552392289  0.3794347698581740  0.1282559367860749
  0.8679484356825380  0.6142597825234674  0.8640727058632092
  0.1459890263468742  0.6049057055713435  0.1039763351055532
  0.1563485799108959  0.4012620626286799  0.8854775057124452
  0.3966756721152728  0.8918606994925781  0.1517216070518445
  0.4013399297848554  0.1036319178575436  0.8463399699607040
  0.3948359307823749  0.1102647005483187  0.3436225033068621
  0.3887887591383219  0.8958025555563351  0.6458732350433899
  0.3447635660199823  0.3937459868091862  0.1073265711744737
  0.3506587187741243  0.6136953379116732  0.9003093634798971
  0.6129619462801283  0.0892832815864060  0.6451004380711243
  0.6111267023259774  0.9064955627698440  0.3483204045620787
  0.6348358885662788  0.6306295603678866  0.1124821890322743
  0.6295054727897044  0.3676283667442700  0.8770122927765613
  0.9076214055219659  0.3528817338405562  0.6020038892754781
  0.9055532943900155  0.6437166172439052  0.3852300577081858
  0.6024224940893481  0.1003494372089110  0.1382360176633054
  0.5983645552291533  0.8865858249000648  0.8476051338503138
 
  0.00000000E+00  0.00000000E+00  0.00000000E+00
  0.00000000E+00  0.00000000E+00  0.00000000E+00
  0.00000000E+00  0.00000000E+00  0.00000000E+00
  0.00000000E+00  0.00000000E+00  0.00000000E+00
  0.00000000E+00  0.00000000E+00  0.00000000E+00
  0.00000000E+00  0.00000000E+00  0.00000000E+00
  0.00000000E+00  0.00000000E+00  0.00000000E+00
  0.00000000E+00  0.00000000E+00  0.00000000E+00
  0.00000000E+00  0.00000000E+00  0.00000000E+00
  0.00000000E+00  0.00000000E+00  0.00000000E+00
  0.00000000E+00  0.00000000E+00  0.00000000E+00
  0.00000000E+00  0.00000000E+00  0.00000000E+00
  0.00000000E+00  0.00000000E+00  0.00000000E+00
  0.00000000E+00  0.00000000E+00  0.00000000E+00
  0.00000000E+00  0.00000000E+00  0.00000000E+00
  0.00000000E+00  0.00000000E+00  0.00000000E+00
  0.00000000E+00  0.00000000E+00  0.00000000E+00
  0.00000000E+00  0.00000000E+00  0.00000000E+00
  0.00000000E+00  0.00000000E+00  0.00000000E+00
  0.00000000E+00  0.00000000E+00  0.00000000E+00
  0.00000000E+00  0.00000000E+00  0.00000000E+00
  0.00000000E+00  0.00000000E+00  0.00000000E+00
  0.00000000E+00  0.00000000E+00  0.00000000E+00
  0.00000000E+00  0.00000000E+00  0.00000000E+00
  0.00000000E+00  0.00000000E+00  0.00000000E+00
  0.00000000E+00  0.00000000E+00  0.00000000E+00
  0.00000000E+00  0.00000000E+00  0.00000000E+00
  0.00000000E+00  0.00000000E+00  0.00000000E+00
  0.00000000E+00  0.00000000E+00  0.00000000E+00
  0.00000000E+00  0.00000000E+00  0.00000000E+00
  0.00000000E+00  0.00000000E+00  0.00000000E+00
  0.00000000E+00  0.00000000E+00  0.00000000E+00
  0.00000000E+00  0.00000000E+00  0.00000000E+00
  0.00000000E+00  0.00000000E+00  0.00000000E+00
  0.00000000E+00  0.00000000E+00  0.00000000E+00
  0.00000000E+00  0.00000000E+00  0.00000000E+00
  0.00000000E+00  0.00000000E+00  0.00000000E+00
  0.00000000E+00  0.00000000E+00  0.00000000E+00
  0.00000000E+00  0.00000000E+00  0.00000000E+00
  0.00000000E+00  0.00000000E+00  0.00000000E+00
  0.00000000E+00  0.00000000E+00  0.00000000E+00
  0.00000000E+00  0.00000000E+00  0.00000000E+00
  0.00000000E+00  0.00000000E+00  0.00000000E+00
  0.00000000E+00  0.00000000E+00  0.00000000E+00
  0.00000000E+00  0.00000000E+00  0.00000000E+00
  0.00000000E+00  0.00000000E+00  0.00000000E+00
  0.00000000E+00  0.00000000E+00  0.00000000E+00
  0.00000000E+00  0.00000000E+00  0.00000000E+00
  0.00000000E+00  0.00000000E+00  0.00000000E+00
  0.00000000E+00  0.00000000E+00  0.00000000E+00
  0.00000000E+00  0.00000000E+00  0.00000000E+00
  0.00000000E+00  0.00000000E+00  0.00000000E+00
  0.00000000E+00  0.00000000E+00  0.00000000E+00
  0.00000000E+00  0.00000000E+00  0.00000000E+00
  0.00000000E+00  0.00000000E+00  0.00000000E+00
  0.00000000E+00  0.00000000E+00  0.00000000E+00
  0.00000000E+00  0.00000000E+00  0.00000000E+00
  0.00000000E+00  0.00000000E+00  0.00000000E+00
  0.00000000E+00  0.00000000E+00  0.00000000E+00
  0.00000000E+00  0.00000000E+00  0.00000000E+00
  0.00000000E+00  0.00000000E+00  0.00000000E+00
  0.00000000E+00  0.00000000E+00  0.00000000E+00
  0.00000000E+00  0.00000000E+00  0.00000000E+00
  0.00000000E+00  0.00000000E+00  0.00000000E+00
  0.00000000E+00  0.00000000E+00  0.00000000E+00
  0.00000000E+00  0.00000000E+00  0.00000000E+00
  0.00000000E+00  0.00000000E+00  0.00000000E+00
  0.00000000E+00  0.00000000E+00  0.00000000E+00
  0.00000000E+00  0.00000000E+00  0.00000000E+00
  0.00000000E+00  0.00000000E+00  0.00000000E+00
  0.00000000E+00  0.00000000E+00  0.00000000E+00
  0.00000000E+00  0.00000000E+00  0.00000000E+00
  0.00000000E+00  0.00000000E+00  0.00000000E+00
  0.00000000E+00  0.00000000E+00  0.00000000E+00
  0.00000000E+00  0.00000000E+00  0.00000000E+00
  0.00000000E+00  0.00000000E+00  0.00000000E+00
  0.00000000E+00  0.00000000E+00  0.00000000E+00
  0.00000000E+00  0.00000000E+00  0.00000000E+00
  0.00000000E+00  0.00000000E+00  0.00000000E+00
  0.00000000E+00  0.00000000E+00  0.00000000E+00
  0.00000000E+00  0.00000000E+00  0.00000000E+00
  0.00000000E+00  0.00000000E+00  0.00000000E+00
  0.00000000E+00  0.00000000E+00  0.00000000E+00
  0.00000000E+00  0.00000000E+00  0.00000000E+00
  0.00000000E+00  0.00000000E+00  0.00000000E+00
  0.00000000E+00  0.00000000E+00  0.00000000E+00
  0.00000000E+00  0.00000000E+00  0.00000000E+00
  0.00000000E+00  0.00000000E+00  0.00000000E+00
  0.00000000E+00  0.00000000E+00  0.00000000E+00
  0.00000000E+00  0.00000000E+00  0.00000000E+00
  0.00000000E+00  0.00000000E+00  0.00000000E+00
  0.00000000E+00  0.00000000E+00  0.00000000E+00
  0.00000000E+00  0.00000000E+00  0.00000000E+00
  0.00000000E+00  0.00000000E+00  0.00000000E+00
  0.00000000E+00  0.00000000E+00  0.00000000E+00
  0.00000000E+00  0.00000000E+00  0.00000000E+00
  0.00000000E+00  0.00000000E+00  0.00000000E+00
  0.00000000E+00  0.00000000E+00  0.00000000E+00
  0.00000000E+00  0.00000000E+00  0.00000000E+00
  0.00000000E+00  0.00000000E+00  0.00000000E+00
