P2 N2 O2                                
   1.00000000000000     
    -2.2168239999999999    2.3674569999999999    3.4513710000000000
     2.2620650000000002   -2.4157720000000000    3.5218069999999999
     2.2620650000000002    2.4157720000000000   -3.5218069999999999
   P    N    O 
     2     2     2
Direct
  0.8895169999999979  0.1395169999999979  0.7500000000000000
  0.6104830000000021  0.3604830000000021  0.2500000000000000
  0.2500000000000000  0.1092310000000012  0.8592310000000012
  0.7500000000000000  0.3907689999999988  0.6407689999999988
  0.6270000000000024  0.7500000000000000  0.3770000000000024
  0.8729999999999976  0.2500000000000000  0.1229999999999976
 
  0.00000000E+00  0.00000000E+00  0.00000000E+00
  0.00000000E+00  0.00000000E+00  0.00000000E+00
  0.00000000E+00  0.00000000E+00  0.00000000E+00
  0.00000000E+00  0.00000000E+00  0.00000000E+00
  0.00000000E+00  0.00000000E+00  0.00000000E+00
  0.00000000E+00  0.00000000E+00  0.00000000E+00
