Li8 P4 O14                              
   1.00000000000000     
    -5.2605420000000001    0.0000000000000000    0.0000000000000000
     1.6204639999999999    6.7309590000000004    0.0000000000000000
     0.2931280000000000   -2.0359029999999998   -8.4193490000000004
   Li   P    O 
     8     4    14
Direct
  0.2555369999999968  0.1449769999999972  0.0120289999999983
  0.7444630000000032  0.8550230000000028  0.9879710000000017
  0.6043230000000008  0.5887269999999987  0.2483470000000025
  0.3956769999999992  0.4112730000000013  0.7516529999999975
  0.9722310000000007  0.3277379999999965  0.2087239999999966
  0.0277689999999993  0.6722620000000035  0.7912760000000034
  0.9430479999999974  0.2418860000000009  0.5492040000000031
  0.0569520000000026  0.7581139999999991  0.4507959999999969
  0.4260099999999980  0.2132980000000018  0.3680439999999976
  0.5739900000000020  0.7867019999999982  0.6319560000000024
  0.2157279999999986  0.7792409999999990  0.1544979999999967
  0.7842720000000014  0.2207590000000010  0.8455020000000033
  0.4800880000000021  0.7417590000000018  0.1256600000000034
  0.9938700000000011  0.6057199999999980  0.2093160000000012
  0.0061299999999989  0.3942800000000020  0.7906839999999988
  0.1170890000000000  0.8485909999999990  0.0180239999999969
  0.2674390000000031  0.7433499999999995  0.6235450000000000
  0.7325609999999969  0.2566500000000005  0.3764550000000000
  0.6851559999999992  0.7321889999999982  0.4738100000000003
  0.3148440000000008  0.2678110000000018  0.5261899999999997
  0.6617779999999982  0.7024029999999968  0.7634960000000035
  0.3382220000000018  0.2975970000000032  0.2365039999999965
  0.2669309999999996  0.9623840000000001  0.3161059999999978
  0.7330690000000004  0.0376159999999999  0.6838940000000022
  0.8829110000000000  0.1514090000000010  0.9819760000000031
  0.5199119999999979  0.2582409999999982  0.8743399999999966
 
  0.00000000E+00  0.00000000E+00  0.00000000E+00
  0.00000000E+00  0.00000000E+00  0.00000000E+00
  0.00000000E+00  0.00000000E+00  0.00000000E+00
  0.00000000E+00  0.00000000E+00  0.00000000E+00
  0.00000000E+00  0.00000000E+00  0.00000000E+00
  0.00000000E+00  0.00000000E+00  0.00000000E+00
  0.00000000E+00  0.00000000E+00  0.00000000E+00
  0.00000000E+00  0.00000000E+00  0.00000000E+00
  0.00000000E+00  0.00000000E+00  0.00000000E+00
  0.00000000E+00  0.00000000E+00  0.00000000E+00
  0.00000000E+00  0.00000000E+00  0.00000000E+00
  0.00000000E+00  0.00000000E+00  0.00000000E+00
  0.00000000E+00  0.00000000E+00  0.00000000E+00
  0.00000000E+00  0.00000000E+00  0.00000000E+00
  0.00000000E+00  0.00000000E+00  0.00000000E+00
  0.00000000E+00  0.00000000E+00  0.00000000E+00
  0.00000000E+00  0.00000000E+00  0.00000000E+00
  0.00000000E+00  0.00000000E+00  0.00000000E+00
  0.00000000E+00  0.00000000E+00  0.00000000E+00
  0.00000000E+00  0.00000000E+00  0.00000000E+00
  0.00000000E+00  0.00000000E+00  0.00000000E+00
  0.00000000E+00  0.00000000E+00  0.00000000E+00
  0.00000000E+00  0.00000000E+00  0.00000000E+00
  0.00000000E+00  0.00000000E+00  0.00000000E+00
  0.00000000E+00  0.00000000E+00  0.00000000E+00
  0.00000000E+00  0.00000000E+00  0.00000000E+00
