Li140 P140 O420
1.0
11.197969 0.000000 -7.200064
0.000000 5.521558 0.000000
0.000000 0.000000 176.981687
Li P O
140 140 420
direct
0.873522 0.494607 0.036331 Li+
0.873522 0.505393 0.091887 Li+
0.111170 0.484419 0.049196 Li+
0.111170 0.515581 0.104752 Li+
0.347043 0.505784 0.062024 Li+
0.347043 0.494216 0.006469 Li+
0.581703 0.507224 0.074812 Li+
0.581703 0.492776 0.019257 Li+
0.729106 0.992783 0.083370 Li+
0.729106 0.007217 0.027814 Li+
0.375737 0.521194 0.091894 Li+
0.375737 0.478806 0.036339 Li+
0.612275 0.476313 0.104721 Li+
0.612275 0.523687 0.049166 Li+
0.848182 0.533250 0.006579 Li+
0.848182 0.466750 0.062135 Li+
0.084520 0.477737 0.019531 Li+
0.084520 0.522263 0.075087 Li+
0.233171 0.960889 0.028044 Li+
0.233171 0.039111 0.083600 Li+
0.873522 0.494607 0.147442 Li+
0.873522 0.505393 0.202998 Li+
0.111170 0.484419 0.160307 Li+
0.111170 0.515581 0.215863 Li+
0.347043 0.505784 0.173135 Li+
0.347043 0.494216 0.117580 Li+
0.581703 0.507224 0.185923 Li+
0.581703 0.492776 0.130368 Li+
0.729106 0.992783 0.194481 Li+
0.729106 0.007217 0.138925 Li+
0.375737 0.521194 0.203005 Li+
0.375737 0.478806 0.147450 Li+
0.612275 0.476313 0.215832 Li+
0.612275 0.523687 0.160277 Li+
0.848182 0.533250 0.117691 Li+
0.848182 0.466750 0.173246 Li+
0.084520 0.477737 0.130642 Li+
0.084520 0.522263 0.186198 Li+
0.233171 0.960889 0.139155 Li+
0.233171 0.039111 0.194711 Li+
0.873522 0.494607 0.258554 Li+
0.873522 0.505393 0.314109 Li+
0.111170 0.484419 0.271419 Li+
0.111170 0.515581 0.326974 Li+
0.347043 0.505784 0.284247 Li+
0.347043 0.494216 0.228691 Li+
0.581703 0.507224 0.297034 Li+
0.581703 0.492776 0.241479 Li+
0.729106 0.992783 0.305592 Li+
0.729106 0.007217 0.250036 Li+
0.375737 0.521194 0.314116 Li+
0.375737 0.478806 0.258561 Li+
0.612275 0.476313 0.326944 Li+
0.612275 0.523687 0.271388 Li+
0.848182 0.533250 0.228802 Li+
0.848182 0.466750 0.284357 Li+
0.084520 0.477737 0.241753 Li+
0.084520 0.522263 0.297309 Li+
0.233171 0.960889 0.250266 Li+
0.233171 0.039111 0.305822 Li+
0.873522 0.494607 0.369665 Li+
0.873522 0.505393 0.425220 Li+
0.111170 0.484419 0.382530 Li+
0.111170 0.515581 0.438085 Li+
0.347043 0.505784 0.395358 Li+
0.347043 0.494216 0.339802 Li+
0.581703 0.507224 0.408146 Li+
0.581703 0.492776 0.352590 Li+
0.729106 0.992783 0.416703 Li+
0.729106 0.007217 0.361148 Li+
0.375737 0.521194 0.425228 Li+
0.375737 0.478806 0.369672 Li+
0.612275 0.476313 0.438055 Li+
0.612275 0.523687 0.382499 Li+
0.848182 0.533250 0.339913 Li+
0.848182 0.466750 0.395468 Li+
0.084520 0.477737 0.352864 Li+
0.084520 0.522263 0.408420 Li+
0.233171 0.960889 0.361377 Li+
0.233171 0.039111 0.416933 Li+
0.873522 0.494607 0.480776 Li+
0.873522 0.505393 0.536331 Li+
0.111170 0.484419 0.493641 Li+
0.111170 0.515581 0.549196 Li+
0.347043 0.505784 0.506469 Li+
0.347043 0.494216 0.450913 Li+
0.581703 0.507224 0.519257 Li+
0.581703 0.492776 0.463701 Li+
0.729106 0.992783 0.527814 Li+
0.729106 0.007217 0.472259 Li+
0.375737 0.521194 0.536339 Li+
0.375737 0.478806 0.480783 Li+
0.612275 0.476313 0.549166 Li+
0.612275 0.523687 0.493610 Li+
0.848182 0.533250 0.451024 Li+
0.848182 0.466750 0.506579 Li+
0.084520 0.477737 0.463975 Li+
0.084520 0.522263 0.519531 Li+
0.233171 0.960889 0.472488 Li+
0.233171 0.039111 0.528044 Li+
0.873522 0.494607 0.591887 Li+
0.873522 0.505393 0.647443 Li+
0.111170 0.484419 0.604752 Li+
0.111170 0.515581 0.660307 Li+
0.347043 0.505784 0.617580 Li+
0.347043 0.494216 0.562024 Li+
0.581703 0.507224 0.630368 Li+
0.581703 0.492776 0.574812 Li+
0.729106 0.992783 0.638925 Li+
0.729106 0.007217 0.583370 Li+
0.375737 0.521194 0.647450 Li+
0.375737 0.478806 0.591894 Li+
0.612275 0.476313 0.660277 Li+
0.612275 0.523687 0.604721 Li+
0.848182 0.533250 0.562135 Li+
0.848182 0.466750 0.617691 Li+
0.084520 0.477737 0.575087 Li+
0.084520 0.522263 0.630642 Li+
0.233171 0.960889 0.583600 Li+
0.233171 0.039111 0.639155 Li+
0.873522 0.494607 0.702998 Li+
0.873522 0.505393 0.758554 Li+
0.111170 0.484419 0.715863 Li+
0.111170 0.515581 0.771419 Li+
0.347043 0.505784 0.728691 Li+
0.347043 0.494216 0.673135 Li+
0.581703 0.507224 0.741479 Li+
0.581703 0.492776 0.685923 Li+
0.729106 0.992783 0.750036 Li+
0.729106 0.007217 0.694481 Li+
0.375737 0.521194 0.758561 Li+
0.375737 0.478806 0.703005 Li+
0.612275 0.476313 0.771388 Li+
0.612275 0.523687 0.715832 Li+
0.848182 0.533250 0.673246 Li+
0.848182 0.466750 0.728802 Li+
0.084520 0.477737 0.686198 Li+
0.084520 0.522263 0.741753 Li+
0.233171 0.960889 0.694711 Li+
0.233171 0.039111 0.750266 Li+
0.999221 0.185377 0.056575 P5+
0.999221 0.814623 0.001020 P5+
0.205613 0.843317 0.066894 P5+
0.205613 0.156683 0.011338 P5+
0.401137 0.188444 0.078425 P5+
0.401137 0.811556 0.022869 P5+
0.591605 0.828977 0.090786 P5+
0.591605 0.171023 0.035230 P5+
0.791599 0.159739 0.101890 P5+
0.791599 0.840261 0.046335 P5+
0.665080 0.843930 0.009259 P5+
0.665080 0.156070 0.064814 P5+
0.865452 0.174322 0.020356 P5+
0.865452 0.825678 0.075911 P5+
0.056323 0.812278 0.032802 P5+
0.056323 0.187722 0.088357 P5+
0.252134 0.151901 0.044291 P5+
0.252134 0.848099 0.099846 P5+
0.458420 0.809867 0.054623 P5+
0.458420 0.190133 0.110179 P5+
0.999221 0.185377 0.167686 P5+
0.999221 0.814623 0.112131 P5+
0.205613 0.843317 0.178005 P5+
0.205613 0.156683 0.122449 P5+
0.401137 0.188444 0.189536 P5+
0.401137 0.811556 0.133980 P5+
0.591605 0.828977 0.201897 P5+
0.591605 0.171023 0.146341 P5+
0.791599 0.159739 0.213001 P5+
0.791599 0.840261 0.157446 P5+
0.665080 0.843930 0.120370 P5+
0.665080 0.156070 0.175925 P5+
0.865452 0.174322 0.131467 P5+
0.865452 0.825678 0.187022 P5+
0.056323 0.812278 0.143913 P5+
0.056323 0.187722 0.199469 P5+
0.252134 0.151901 0.155402 P5+
0.252134 0.848099 0.210958 P5+
0.458420 0.809867 0.165734 P5+
0.458420 0.190133 0.221290 P5+
0.999221 0.185377 0.278797 P5+
0.999221 0.814623 0.223242 P5+
0.205613 0.843317 0.289116 P5+
0.205613 0.156683 0.233560 P5+
0.401137 0.188444 0.300647 P5+
0.401137 0.811556 0.245091 P5+
0.591605 0.828977 0.313008 P5+
0.591605 0.171023 0.257453 P5+
0.791599 0.159739 0.324112 P5+
0.791599 0.840261 0.268557 P5+
0.665080 0.843930 0.231481 P5+
0.665080 0.156070 0.287037 P5+
0.865452 0.174322 0.242578 P5+
0.865452 0.825678 0.298133 P5+
0.056323 0.812278 0.255024 P5+
0.056323 0.187722 0.310580 P5+
0.252134 0.151901 0.266513 P5+
0.252134 0.848099 0.322069 P5+
0.458420 0.809867 0.276845 P5+
0.458420 0.190133 0.332401 P5+
0.999221 0.185377 0.389908 P5+
0.999221 0.814623 0.334353 P5+
0.205613 0.843317 0.400227 P5+
0.205613 0.156683 0.344671 P5+
0.401137 0.188444 0.411758 P5+
0.401137 0.811556 0.356203 P5+
0.591605 0.828977 0.424119 P5+
0.591605 0.171023 0.368564 P5+
0.791599 0.159739 0.435223 P5+
0.791599 0.840261 0.379668 P5+
0.665080 0.843930 0.342592 P5+
0.665080 0.156070 0.398148 P5+
0.865452 0.174322 0.353689 P5+
0.865452 0.825678 0.409245 P5+
0.056323 0.812278 0.366135 P5+
0.056323 0.187722 0.421691 P5+
0.252134 0.151901 0.377624 P5+
0.252134 0.848099 0.433180 P5+
0.458420 0.809867 0.387956 P5+
0.458420 0.190133 0.443512 P5+
0.999221 0.185377 0.501019 P5+
0.999221 0.814623 0.445464 P5+
0.205613 0.843317 0.511338 P5+
0.205613 0.156683 0.455782 P5+
0.401137 0.188444 0.522869 P5+
0.401137 0.811556 0.467314 P5+
0.591605 0.828977 0.535230 P5+
0.591605 0.171023 0.479675 P5+
0.791599 0.159739 0.546335 P5+
0.791599 0.840261 0.490779 P5+
0.665080 0.843930 0.453703 P5+
0.665080 0.156070 0.509259 P5+
0.865452 0.174322 0.464800 P5+
0.865452 0.825678 0.520356 P5+
0.056323 0.812278 0.477246 P5+
0.056323 0.187722 0.532802 P5+
0.252134 0.151901 0.488735 P5+
0.252134 0.848099 0.544291 P5+
0.458420 0.809867 0.499067 P5+
0.458420 0.190133 0.554623 P5+
0.999221 0.185377 0.612131 P5+
0.999221 0.814623 0.556575 P5+
0.205613 0.843317 0.622449 P5+
0.205613 0.156683 0.566894 P5+
0.401137 0.188444 0.633980 P5+
0.401137 0.811556 0.578425 P5+
0.591605 0.828977 0.646342 P5+
0.591605 0.171023 0.590786 P5+
0.791599 0.159739 0.657446 P5+
0.791599 0.840261 0.601890 P5+
0.665080 0.843930 0.564814 P5+
0.665080 0.156070 0.620370 P5+
0.865452 0.174322 0.575911 P5+
0.865452 0.825678 0.631467 P5+
0.056323 0.812278 0.588357 P5+
0.056323 0.187722 0.643913 P5+
0.252134 0.151901 0.599847 P5+
0.252134 0.848099 0.655402 P5+
0.458420 0.809867 0.610179 P5+
0.458420 0.190133 0.665734 P5+
0.999221 0.185377 0.723242 P5+
0.999221 0.814623 0.667686 P5+
0.205613 0.843317 0.733560 P5+
0.205613 0.156683 0.678005 P5+
0.401137 0.188444 0.745092 P5+
0.401137 0.811556 0.689536 P5+
0.591605 0.828977 0.757453 P5+
0.591605 0.171023 0.701897 P5+
0.791599 0.159739 0.768557 P5+
0.791599 0.840261 0.713001 P5+
0.665080 0.843930 0.675925 P5+
0.665080 0.156070 0.731481 P5+
0.865452 0.174322 0.687022 P5+
0.865452 0.825678 0.742578 P5+
0.056323 0.812278 0.699469 P5+
0.056323 0.187722 0.755024 P5+
0.252134 0.151901 0.710958 P5+
0.252134 0.848099 0.766513 P5+
0.458420 0.809867 0.721290 P5+
0.458420 0.190133 0.776845 P5+
0.129985 0.069000 0.060464 O2-
0.129985 0.931000 0.004908 O2-
0.340179 0.951087 0.072154 O2-
0.340179 0.048913 0.016599 O2-
0.518650 0.080018 0.087180 O2-
0.518650 0.919982 0.031624 O2-
0.706904 0.926681 0.100113 O2-
0.706904 0.073319 0.044558 O2-
0.919848 0.942022 0.054101 O2-
0.919848 0.057978 0.109657 O2-
0.749936 0.076781 0.011043 O2-
0.749936 0.923219 0.066598 O2-
0.936774 0.921841 0.024241 O2-
0.936774 0.078159 0.079796 O2-
0.116799 0.049265 0.039146 O2-
0.116799 0.950735 0.094702 O2-
0.325432 0.918787 0.050249 O2-
0.325432 0.081213 0.105805 O2-
0.536371 0.944691 0.001454 O2-
0.536371 0.055309 0.057010 O2-
0.970827 0.322795 0.048319 O2-
0.970827 0.677205 0.103875 O2-
0.994909 0.313918 0.063871 O2-
0.994909 0.686082 0.008315 O2-
0.204625 0.643576 0.061123 O2-
0.204625 0.356424 0.005568 O2-
0.171056 0.795305 0.073558 O2-
0.171056 0.204695 0.018002 O2-
0.439658 0.351974 0.073712 O2-
0.439658 0.648026 0.018157 O2-
0.322583 0.281781 0.081484 O2-
0.322583 0.718219 0.025928 O2-
0.630670 0.751546 0.084607 O2-
0.630670 0.248454 0.029052 O2-
0.527520 0.656290 0.093268 O2-
0.527520 0.343710 0.037712 O2-
0.790584 0.215121 0.093511 O2-
0.790584 0.784879 0.037956 O2-
0.761105 0.355777 0.106163 O2-
0.761105 0.644223 0.050608 O2-
0.697609 0.649890 0.005047 O2-
0.697609 0.350110 0.060603 O2-
0.665087 0.785996 0.017573 O2-
0.665087 0.214004 0.073128 O2-
0.931406 0.340793 0.017839 O2-
0.931406 0.659207 0.073394 O2-
0.824688 0.258044 0.026367 O2-
0.824688 0.741956 0.081923 O2-
0.135280 0.725734 0.029682 O2-
0.135280 0.274266 0.085237 O2-
0.019880 0.642950 0.037507 O2-
0.019880 0.357050 0.093063 O2-
0.286380 0.205272 0.037637 O2-
0.286380 0.794728 0.093193 O2-
0.257004 0.347295 0.050347 O2-
0.257004 0.652705 0.105902 O2-
0.467181 0.677470 0.047591 O2-
0.467181 0.322530 0.103147 O2-
0.484690 0.678914 0.062933 O2-
0.484690 0.321086 0.007377 O2-
0.129985 0.069000 0.171575 O2-
0.129985 0.931000 0.116020 O2-
0.340179 0.951087 0.183266 O2-
0.340179 0.048913 0.127710 O2-
0.518650 0.080018 0.198291 O2-
0.518650 0.919982 0.142735 O2-
0.706904 0.926681 0.211225 O2-
0.706904 0.073319 0.155669 O2-
0.919848 0.942022 0.165212 O2-
0.919848 0.057978 0.220768 O2-
0.749936 0.076781 0.122154 O2-
0.749936 0.923219 0.177709 O2-
0.936774 0.921841 0.135352 O2-
0.936774 0.078159 0.190907 O2-
0.116799 0.049265 0.150257 O2-
0.116799 0.950735 0.205813 O2-
0.325432 0.918787 0.161360 O2-
0.325432 0.081213 0.216916 O2-
0.536371 0.944691 0.112565 O2-
0.536371 0.055309 0.168121 O2-
0.970827 0.322795 0.159430 O2-
0.970827 0.677205 0.214986 O2-
0.994909 0.313918 0.174982 O2-
0.994909 0.686082 0.119426 O2-
0.204625 0.643576 0.172235 O2-
0.204625 0.356424 0.116679 O2-
0.171056 0.795305 0.184669 O2-
0.171056 0.204695 0.129113 O2-
0.439658 0.351974 0.184823 O2-
0.439658 0.648026 0.129268 O2-
0.322583 0.281781 0.192595 O2-
0.322583 0.718219 0.137039 O2-
0.630670 0.751546 0.195719 O2-
0.630670 0.248454 0.140163 O2-
0.527520 0.656290 0.204379 O2-
0.527520 0.343710 0.148823 O2-
0.790584 0.215121 0.204623 O2-
0.790584 0.784879 0.149067 O2-
0.761105 0.355777 0.217274 O2-
0.761105 0.644223 0.161719 O2-
0.697609 0.649890 0.116159 O2-
0.697609 0.350110 0.171714 O2-
0.665087 0.785996 0.128684 O2-
0.665087 0.214004 0.184240 O2-
0.931406 0.340793 0.128950 O2-
0.931406 0.659207 0.184505 O2-
0.824688 0.258044 0.137478 O2-
0.824688 0.741956 0.193034 O2-
0.135280 0.725734 0.140793 O2-
0.135280 0.274266 0.196349 O2-
0.019880 0.642950 0.148618 O2-
0.019880 0.357050 0.204174 O2-
0.286380 0.205272 0.148748 O2-
0.286380 0.794728 0.204304 O2-
0.257004 0.347295 0.161458 O2-
0.257004 0.652705 0.217014 O2-
0.467181 0.677470 0.158702 O2-
0.467181 0.322530 0.214258 O2-
0.484690 0.678914 0.174044 O2-
0.484690 0.321086 0.118488 O2-
0.129985 0.069000 0.282686 O2-
0.129985 0.931000 0.227131 O2-
0.340179 0.951087 0.294377 O2-
0.340179 0.048913 0.238821 O2-
0.518650 0.080018 0.309402 O2-
0.518650 0.919982 0.253846 O2-
0.706904 0.926681 0.322336 O2-
0.706904 0.073319 0.266780 O2-
0.919848 0.942022 0.276323 O2-
0.919848 0.057978 0.331879 O2-
0.749936 0.076781 0.233265 O2-
0.749936 0.923219 0.288820 O2-
0.936774 0.921841 0.246463 O2-
0.936774 0.078159 0.302018 O2-
0.116799 0.049265 0.261369 O2-
0.116799 0.950735 0.316924 O2-
0.325432 0.918787 0.272471 O2-
0.325432 0.081213 0.328027 O2-
0.536371 0.944691 0.223677 O2-
0.536371 0.055309 0.279232 O2-
0.970827 0.322795 0.270541 O2-
0.970827 0.677205 0.326097 O2-
0.994909 0.313918 0.286093 O2-
0.994909 0.686082 0.230537 O2-
0.204625 0.643576 0.283346 O2-
0.204625 0.356424 0.227790 O2-
0.171056 0.795305 0.295780 O2-
0.171056 0.204695 0.240224 O2-
0.439658 0.351974 0.295934 O2-
0.439658 0.648026 0.240379 O2-
0.322583 0.281781 0.303706 O2-
0.322583 0.718219 0.248150 O2-
0.630670 0.751546 0.306830 O2-
0.630670 0.248454 0.251274 O2-
0.527520 0.656290 0.315490 O2-
0.527520 0.343710 0.259935 O2-
0.790584 0.215121 0.315734 O2-
0.790584 0.784879 0.260178 O2-
0.761105 0.355777 0.328386 O2-
0.761105 0.644223 0.272830 O2-
0.697609 0.649890 0.227270 O2-
0.697609 0.350110 0.282825 O2-
0.665087 0.785996 0.239795 O2-
0.665087 0.214004 0.295351 O2-
0.931406 0.340793 0.240061 O2-
0.931406 0.659207 0.295616 O2-
0.824688 0.258044 0.248589 O2-
0.824688 0.741956 0.304145 O2-
0.135280 0.725734 0.251904 O2-
0.135280 0.274266 0.307460 O2-
0.019880 0.642950 0.259729 O2-
0.019880 0.357050 0.315285 O2-
0.286380 0.205272 0.259859 O2-
0.286380 0.794728 0.315415 O2-
0.257004 0.347295 0.272569 O2-
0.257004 0.652705 0.328125 O2-
0.467181 0.677470 0.269813 O2-
0.467181 0.322530 0.325369 O2-
0.484690 0.678914 0.285155 O2-
0.484690 0.321086 0.229600 O2-
0.129985 0.069000 0.393797 O2-
0.129985 0.931000 0.338242 O2-
0.340179 0.951087 0.405488 O2-
0.340179 0.048913 0.349932 O2-
0.518650 0.080018 0.420513 O2-
0.518650 0.919982 0.364958 O2-
0.706904 0.926681 0.433447 O2-
0.706904 0.073319 0.377891 O2-
0.919848 0.942022 0.387434 O2-
0.919848 0.057978 0.442990 O2-
0.749936 0.076781 0.344376 O2-
0.749936 0.923219 0.399932 O2-
0.936774 0.921841 0.357574 O2-
0.936774 0.078159 0.413130 O2-
0.116799 0.049265 0.372480 O2-
0.116799 0.950735 0.428035 O2-
0.325432 0.918787 0.383582 O2-
0.325432 0.081213 0.439138 O2-
0.536371 0.944691 0.334788 O2-
0.536371 0.055309 0.390343 O2-
0.970827 0.322795 0.381653 O2-
0.970827 0.677205 0.437208 O2-
0.994909 0.313918 0.397204 O2-
0.994909 0.686082 0.341648 O2-
0.204625 0.643576 0.394457 O2-
0.204625 0.356424 0.338901 O2-
0.171056 0.795305 0.406891 O2-
0.171056 0.204695 0.351335 O2-
0.439658 0.351974 0.407045 O2-
0.439658 0.648026 0.351490 O2-
0.322583 0.281781 0.414817 O2-
0.322583 0.718219 0.359261 O2-
0.630670 0.751546 0.417941 O2-
0.630670 0.248454 0.362385 O2-
0.527520 0.656290 0.426601 O2-
0.527520 0.343710 0.371046 O2-
0.790584 0.215121 0.426845 O2-
0.790584 0.784879 0.371289 O2-
0.761105 0.355777 0.439497 O2-
0.761105 0.644223 0.383941 O2-
0.697609 0.649890 0.338381 O2-
0.697609 0.350110 0.393936 O2-
0.665087 0.785996 0.350906 O2-
0.665087 0.214004 0.406462 O2-
0.931406 0.340793 0.351172 O2-
0.931406 0.659207 0.406727 O2-
0.824688 0.258044 0.359700 O2-
0.824688 0.741956 0.415256 O2-
0.135280 0.725734 0.363015 O2-
0.135280 0.274266 0.418571 O2-
0.019880 0.642950 0.370840 O2-
0.019880 0.357050 0.426396 O2-
0.286380 0.205272 0.370971 O2-
0.286380 0.794728 0.426526 O2-
0.257004 0.347295 0.383680 O2-
0.257004 0.652705 0.439236 O2-
0.467181 0.677470 0.380925 O2-
0.467181 0.322530 0.436480 O2-
0.484690 0.678914 0.396266 O2-
0.484690 0.321086 0.340711 O2-
0.129985 0.069000 0.504908 O2-
0.129985 0.931000 0.449353 O2-
0.340179 0.951087 0.516599 O2-
0.340179 0.048913 0.461043 O2-
0.518650 0.080018 0.531624 O2-
0.518650 0.919982 0.476069 O2-
0.706904 0.926681 0.544558 O2-
0.706904 0.073319 0.489002 O2-
0.919848 0.942022 0.498546 O2-
0.919848 0.057978 0.554101 O2-
0.749936 0.076781 0.455487 O2-
0.749936 0.923219 0.511043 O2-
0.936774 0.921841 0.468685 O2-
0.936774 0.078159 0.524241 O2-
0.116799 0.049265 0.483591 O2-
0.116799 0.950735 0.539146 O2-
0.325432 0.918787 0.494694 O2-
0.325432 0.081213 0.550249 O2-
0.536371 0.944691 0.445899 O2-
0.536371 0.055309 0.501454 O2-
0.970827 0.322795 0.492764 O2-
0.970827 0.677205 0.548319 O2-
0.994909 0.313918 0.508315 O2-
0.994909 0.686082 0.452760 O2-
0.204625 0.643576 0.505568 O2-
0.204625 0.356424 0.450012 O2-
0.171056 0.795305 0.518002 O2-
0.171056 0.204695 0.462447 O2-
0.439658 0.351974 0.518157 O2-
0.439658 0.648026 0.462601 O2-
0.322583 0.281781 0.525928 O2-
0.322583 0.718219 0.470372 O2-
0.630670 0.751546 0.529052 O2-
0.630670 0.248454 0.473496 O2-
0.527520 0.656290 0.537712 O2-
0.527520 0.343710 0.482157 O2-
0.790584 0.215121 0.537956 O2-
0.790584 0.784879 0.482400 O2-
0.761105 0.355777 0.550608 O2-
0.761105 0.644223 0.495052 O2-
0.697609 0.649890 0.449492 O2-
0.697609 0.350110 0.505047 O2-
0.665087 0.785996 0.462017 O2-
0.665087 0.214004 0.517573 O2-
0.931406 0.340793 0.462283 O2-
0.931406 0.659207 0.517839 O2-
0.824688 0.258044 0.470812 O2-
0.824688 0.741956 0.526367 O2-
0.135280 0.725734 0.474126 O2-
0.135280 0.274266 0.529682 O2-
0.019880 0.642950 0.481951 O2-
0.019880 0.357050 0.537507 O2-
0.286380 0.205272 0.482082 O2-
0.286380 0.794728 0.537637 O2-
0.257004 0.347295 0.494791 O2-
0.257004 0.652705 0.550347 O2-
0.467181 0.677470 0.492036 O2-
0.467181 0.322530 0.547591 O2-
0.484690 0.678914 0.507377 O2-
0.484690 0.321086 0.451822 O2-
0.129985 0.069000 0.616020 O2-
0.129985 0.931000 0.560464 O2-
0.340179 0.951087 0.627710 O2-
0.340179 0.048913 0.572155 O2-
0.518650 0.080018 0.642735 O2-
0.518650 0.919982 0.587180 O2-
0.706904 0.926681 0.655669 O2-
0.706904 0.073319 0.600114 O2-
0.919848 0.942022 0.609657 O2-
0.919848 0.057978 0.665212 O2-
0.749936 0.076781 0.566598 O2-
0.749936 0.923219 0.622154 O2-
0.936774 0.921841 0.579796 O2-
0.936774 0.078159 0.635352 O2-
0.116799 0.049265 0.594702 O2-
0.116799 0.950735 0.650258 O2-
0.325432 0.918787 0.605805 O2-
0.325432 0.081213 0.661360 O2-
0.536371 0.944691 0.557010 O2-
0.536371 0.055309 0.612565 O2-
0.970827 0.322795 0.603875 O2-
0.970827 0.677205 0.659430 O2-
0.994909 0.313918 0.619426 O2-
0.994909 0.686082 0.563871 O2-
0.204625 0.643576 0.616679 O2-
0.204625 0.356424 0.561123 O2-
0.171056 0.795305 0.629113 O2-
0.171056 0.204695 0.573558 O2-
0.439658 0.351974 0.629268 O2-
0.439658 0.648026 0.573712 O2-
0.322583 0.281781 0.637039 O2-
0.322583 0.718219 0.581484 O2-
0.630670 0.751546 0.640163 O2-
0.630670 0.248454 0.584608 O2-
0.527520 0.656290 0.648823 O2-
0.527520 0.343710 0.593268 O2-
0.790584 0.215121 0.649067 O2-
0.790584 0.784879 0.593511 O2-
0.761105 0.355777 0.661719 O2-
0.761105 0.644223 0.606163 O2-
0.697609 0.649890 0.560603 O2-
0.697609 0.350110 0.616159 O2-
0.665087 0.785996 0.573129 O2-
0.665087 0.214004 0.628684 O2-
0.931406 0.340793 0.573394 O2-
0.931406 0.659207 0.628950 O2-
0.824688 0.258044 0.581923 O2-
0.824688 0.741956 0.637478 O2-
0.135280 0.725734 0.585238 O2-
0.135280 0.274266 0.640793 O2-
0.019880 0.642950 0.593063 O2-
0.019880 0.357050 0.648618 O2-
0.286380 0.205272 0.593193 O2-
0.286380 0.794728 0.648748 O2-
0.257004 0.347295 0.605903 O2-
0.257004 0.652705 0.661458 O2-
0.467181 0.677470 0.603147 O2-
0.467181 0.322530 0.658702 O2-
0.484690 0.678914 0.618488 O2-
0.484690 0.321086 0.562933 O2-
0.129985 0.069000 0.727131 O2-
0.129985 0.931000 0.671575 O2-
0.340179 0.951087 0.738821 O2-
0.340179 0.048913 0.683266 O2-
0.518650 0.080018 0.753846 O2-
0.518650 0.919982 0.698291 O2-
0.706904 0.926681 0.766780 O2-
0.706904 0.073319 0.711225 O2-
0.919848 0.942022 0.720768 O2-
0.919848 0.057978 0.776323 O2-
0.749936 0.076781 0.677709 O2-
0.749936 0.923219 0.733265 O2-
0.936774 0.921841 0.690907 O2-
0.936774 0.078159 0.746463 O2-
0.116799 0.049265 0.705813 O2-
0.116799 0.950735 0.761369 O2-
0.325432 0.918787 0.716916 O2-
0.325432 0.081213 0.772471 O2-
0.536371 0.944691 0.668121 O2-
0.536371 0.055309 0.723677 O2-
0.970827 0.322795 0.714986 O2-
0.970827 0.677205 0.770541 O2-
0.994909 0.313918 0.730537 O2-
0.994909 0.686082 0.674982 O2-
0.204625 0.643576 0.727790 O2-
0.204625 0.356424 0.672235 O2-
0.171056 0.795305 0.740224 O2-
0.171056 0.204695 0.684669 O2-
0.439658 0.351974 0.740379 O2-
0.439658 0.648026 0.684823 O2-
0.322583 0.281781 0.748150 O2-
0.322583 0.718219 0.692595 O2-
0.630670 0.751546 0.751274 O2-
0.630670 0.248454 0.695719 O2-
0.527520 0.656290 0.759934 O2-
0.527520 0.343710 0.704379 O2-
0.790584 0.215121 0.760178 O2-
0.790584 0.784879 0.704623 O2-
0.761105 0.355777 0.772830 O2-
0.761105 0.644223 0.717274 O2-
0.697609 0.649890 0.671714 O2-
0.697609 0.350110 0.727270 O2-
0.665087 0.785996 0.684240 O2-
0.665087 0.214004 0.739795 O2-
0.931406 0.340793 0.684505 O2-
0.931406 0.659207 0.740061 O2-
0.824688 0.258044 0.693034 O2-
0.824688 0.741956 0.748589 O2-
0.135280 0.725734 0.696349 O2-
0.135280 0.274266 0.751904 O2-
0.019880 0.642950 0.704174 O2-
0.019880 0.357050 0.759729 O2-
0.286380 0.205272 0.704304 O2-
0.286380 0.794728 0.759859 O2-
0.257004 0.347295 0.717014 O2-
0.257004 0.652705 0.772569 O2-
0.467181 0.677470 0.714258 O2-
0.467181 0.322530 0.769813 O2-
0.484690 0.678914 0.729600 O2-
0.484690 0.321086 0.674044 O2-
