(2, 1, 0)                               
   1.00000000000000     
     3.1157175656723601    0.0000413086676531   -0.0000111091204328
     0.0000845120294303    6.5462141299797505   -3.7898347113719648
    -0.0000944966795119   -0.4528321501000256   40.7870004972290161
   Li
    16
Selective dynamics
Direct
 -0.0000896620136171  0.5422883286093083  0.0277790478753446   T   T   T
 -0.0001010058504657  0.0021373857745329  0.0756493281829048   T   T   T
  0.5000208032109816  0.2743493003185333  0.0533395633892497   T   T   T
  0.4999299620449207  0.8252691345609416  0.0041488356693880   T   T   T
  0.0000000000000000  0.5000000000000000  0.1250000000000000   F   F   F
  0.0000000000000000  0.0000000000000000  0.1704549999999969   F   F   F
  0.5000000000000000  0.2500000000000000  0.1477270000000033   F   F   F
  0.5000000000000000  0.7500000000000000  0.1022729999999967   F   F   F
  0.0000000000000000  0.5000000000000000  0.2159090000000035   F   F   F
  0.0000000000000000  0.0000000000000000  0.2613640000000004   F   F   F
  0.5000000000000000  0.2500000000000000  0.2386359999999996   F   F   F
  0.5000000000000000  0.7500000000000000  0.1931820000000002   F   F   F
  0.0000301330908365  0.4750656156348020  0.3103906845635918   T   T   T
  0.0003175642696958 -0.0753302578737121  0.3596018365944774   T   T   T
  0.4997983539549144  0.2065880236634823  0.3360077916630257   T   T   T
  0.4999730675350185  0.7483663283989154  0.2882923953792907   T   T   T
 
  0.00000000E+00  0.00000000E+00  0.00000000E+00
  0.00000000E+00  0.00000000E+00  0.00000000E+00
  0.00000000E+00  0.00000000E+00  0.00000000E+00
  0.00000000E+00  0.00000000E+00  0.00000000E+00
  0.00000000E+00  0.00000000E+00  0.00000000E+00
  0.00000000E+00  0.00000000E+00  0.00000000E+00
  0.00000000E+00  0.00000000E+00  0.00000000E+00
  0.00000000E+00  0.00000000E+00  0.00000000E+00
  0.00000000E+00  0.00000000E+00  0.00000000E+00
  0.00000000E+00  0.00000000E+00  0.00000000E+00
  0.00000000E+00  0.00000000E+00  0.00000000E+00
  0.00000000E+00  0.00000000E+00  0.00000000E+00
  0.00000000E+00  0.00000000E+00  0.00000000E+00
  0.00000000E+00  0.00000000E+00  0.00000000E+00
  0.00000000E+00  0.00000000E+00  0.00000000E+00
  0.00000000E+00  0.00000000E+00  0.00000000E+00
