(2, 1, 0)
1.0
3.426818 0.000000 0.000000
0.000000 6.853636 -3.426818
0.000000 0.000000 37.694998
Li
16
Selective dynamics
direct
0.000000 0.500000 0.034091 T T T Li+
0.000000 0.000000 0.079545 T T T Li+
0.500000 0.250000 0.056818 T T T Li+
0.500000 0.750000 0.011364 T T T Li+
0.000000 0.500000 0.125000 F F F Li+
0.000000 0.000000 0.170455 F F F Li+
0.500000 0.250000 0.147727 F F F Li+
0.500000 0.750000 0.102273 F F F Li+
0.000000 0.500000 0.215909 F F F Li+
0.000000 0.000000 0.261364 F F F Li+
0.500000 0.250000 0.238636 F F F Li+
0.500000 0.750000 0.193182 F F F Li+
0.000000 0.500000 0.306818 T T T Li+
0.000000 0.000000 0.352273 T T T Li+
0.500000 0.250000 0.329545 T T T Li+
0.500000 0.750000 0.284091 T T T Li+
