Li71 P24 N1 O94                         
   1.00000000000000     
    14.7184456882328671   -0.0090406962120276   -0.0018224137771875
    -0.0065077231453810   10.5662003516256462   -0.0019632649536858
    -0.0015359824144295   -0.0022909168646284   12.3388077885610628
   Li   P    N    O 
    71    24     1    94
Direct
  0.1734611951820919  0.4214761002457109 -0.0036529107509712
  0.1687499414585520  0.4218686393621541  0.5021626725026992
  0.1708732471119888  0.9208377938903011  0.0003858749696702
  0.1710959193411674  0.9217961250385224  0.4992596832026161
  0.5033182124637915  0.4206491629506748 -0.0009440984325218
  0.5032223365466763  0.4210605756459125  0.5009657522151039
  0.5035233795433801  0.9224273204377185 -0.0005669493099912
  0.5036404861400354  0.9228485867739121  0.5002794663248586
  0.8380884399257442  0.4264431543456150 -0.0001709962352479
  0.8347828119398824  0.4235240850855944  0.5018427944971745
  0.8365630304852760  0.9246633761091406  0.0004557893309047
  0.8367753804709814  0.9256236100746528  0.4991566701894245
  0.0016276115010464  0.0726298669167370  0.7497443086976124
 -0.0108672717882149  0.6267935267763374  0.2507496204304838
  0.0023864230494083  0.5794815141460772  0.7495330528985513
  0.3351452419786284  0.0750880136689655  0.2498689176975278
  0.3370942838610245  0.0762884256252454  0.7498909830007510
  0.3415586932227824  0.5811601676446726  0.2494982871163391
  0.3371160469931682  0.5772958941785903  0.7499015148983786
  0.6767803135709847  0.0732509907853744  0.2502323567120727
  0.6701048810894622  0.0769207728594744  0.7499556918374667
  0.6687305742606208  0.5797018407880384  0.2502897179407945
  0.6694000144275226  0.5769567450355176  0.7501640947976274
  0.1663371507198919  0.1545471125997430  0.1275491435943008
  0.1688169051358240  0.1609981617315317  0.6273205712221858
  0.1691799121377907  0.6659516717390532  0.1231721990597235
  0.1701751636280131  0.6626876570592081  0.6261009062715361
  0.5046957738222979  0.1610795489159972  0.1269264887114575
  0.5032122246735024  0.1627409859750564  0.6264879195222824
  0.5038913630527575  0.6626954521627603  0.1253783405998535
  0.5026065137829056  0.6628899011624841  0.6265714869332470
  0.8382565945240597  0.1607078107365571  0.1279593278873331
  0.8367914649120665  0.1639930629188102  0.6266438319417081
  0.8316863212746279  0.6680772261078147  0.1247976728227306
  0.8354714469611438  0.6647160608789157  0.6265276449330081
 -0.0062845612932635  0.3216466526258676  0.1101865171345693
  0.0036971487706806  0.3358516240995956  0.6263199416673745
  0.0001605397589751  0.8542978894190448  0.1254054176232616
  0.0032597140049629  0.8377990815911120  0.6229070527059605
  0.3413715969645279  0.3339247457754614  0.1212730007992551
  0.3355789443034551  0.3357985515817906  0.6239167911764666
  0.3386740556076805  0.8366869013448325  0.1233267496305178
  0.3366872359429136  0.8362745977477763  0.6233982334262542
  0.6701350509809264  0.3365601328998382  0.1243985624282872
  0.6697234157908990  0.3356783444455672  0.6249786970484819
  0.6674488966289432  0.8351272221441539  0.1219426382029148
  0.6692799527345273  0.8367057154517240  0.6233592767666460
 -0.0034639338153406  0.3299937886404913  0.3897921081005399
  0.0026158759666391  0.3273577504972971  0.8715204809901366
  0.0013100130249308  0.8511360032768285  0.3764908289056792
  0.0018798639025166  0.8395419460991987  0.8752422542853000
  0.3407922116166891  0.3342545359785946  0.3783042393148074
  0.3369722707591715  0.3352374607705368  0.8750889802419389
  0.3387082167482178  0.8369702608532533  0.3765532773995175
  0.3367240035579622  0.8358851129371717  0.8760948539806412
  0.6691996118652754  0.3363854741286297  0.3766665768915472
  0.6698525468696149  0.3359908549258964  0.8764656125190825
  0.6676430302570634  0.8347578313106836  0.3782151341302254
  0.6693938281431875  0.8368187213166136  0.8761289964942400
  0.1659254442253208  0.1546518938372241  0.3721410163335250
  0.1695288977671704  0.1606298001607621  0.8726593304397268
  0.1688914418500742  0.6668242594357485  0.3755924134757932
  0.1692026496866421  0.6622240919062787  0.8739259054851320
  0.5044637446865288  0.1613439193655273  0.3728986277910698
  0.5032632190702853  0.1624921239929972  0.8732636313828784
  0.5033034573827914  0.6627551166794734  0.3745706085764698
  0.5035829763106336  0.6628285338207569  0.8731999925579613
  0.8392124232400853  0.1620591751694151  0.3723789522688041
  0.8363348704361401  0.1637021269081115  0.8736263077772267
  0.8327720491296889  0.6663871204212821  0.3763121329223247
  0.8344561476395711  0.6661670276588104  0.8724697561970169
  0.1730909775873601  0.4115141784450803  0.2497717001692503
  0.1672514326196520  0.4120486070804331  0.7500991776806977
  0.1692203417450350  0.9060608765723608  0.2499928023460826
  0.1680736447620206  0.9099168011354447  0.7496892536515821
  0.4998514336553588  0.4118913678352666  0.2499838585061213
  0.5004696578790095  0.4117273639985689  0.7497940147189344
  0.5013727860200716  0.9117961349559551  0.2499437849235892
  0.5006432557878864  0.9115073878028884  0.7497974990123871
  0.8340485114459016  0.4157517512214487  0.2508521718103937
  0.8340722346662632  0.4135884979012102  0.7502830049101207
  0.8290591495062742  0.9115185838306303  0.2504393867845494
  0.8327736721771055  0.9126670934320655  0.7494507707549192
  0.0021084624499594  0.0882634328750699 -0.0048210306245144
  0.0021132173118748  0.0913619678163870  0.5054980596341460
 -0.0017832865605430  0.5937404460652853 -0.0000796763502284
 -0.0004897503288151  0.5894325689320168  0.4993886030616681
  0.3346225810047820  0.0867782940261499 -0.0004012469505760
  0.3344737747611772  0.0873514349591212  0.5002020665012908
  0.3350709849059468  0.5872139278027293 -0.0004217310353135
  0.3338022787455657  0.5865835563816477  0.4996622047529959
  0.6672891146581803  0.0880514999634237 -0.0004824168800304
  0.6674141538505949  0.0883692174642846  0.5005631251157011
  0.6663304505349306  0.5863976854902128 -0.0007798531441851
  0.6662049831264457  0.5864733558467490  0.5012648737320082
  0.0378114264047099  0.4501955326330013  0.0048166424631364
  0.0410341131732275  0.1683655516572207  0.4102370499074976
  0.0346133987353761  0.1515788121150323  0.8870717418052526
  0.0344533998792007  0.6593423105728783  0.3958920488853037
  0.0336769172874311  0.6612903228947498  0.8955933230655279
  0.3699504209143104  0.1560619411790972  0.3962273624800385
  0.3698059139556076  0.1564611103717087  0.8960426264699567
  0.3696518256631425  0.6551842035476158  0.3960555119810707
  0.3704771236804401  0.6559829835670101  0.8959696411861283
  0.7027629772842524  0.1583078784702228  0.3976029282616492
  0.7024738313088630  0.1566085044746411  0.8954392055701519
  0.7011095077105941  0.6554253068341335  0.3974814110734284
  0.7012276414215866  0.6561216404857596  0.8956801532473223
  0.2008300554283353  0.0473219751735223  0.2498805888979716
  0.2023470814872609  0.0496352711967037  0.7498404695563912
  0.2002527486202519  0.5533695707187345  0.2495220825692943
  0.2015782595993382  0.5517405129615175  0.7500674059692467
  0.5369016287766794  0.0508725519804095  0.2500521955830693
  0.5342507721698092  0.0515877222555163  0.7497835011177458
  0.5330747887966607  0.5521362613326813  0.2501060431586319
  0.5340446741140438  0.5518246415332354  0.7497893288502768
  0.8507494964938443  0.0537435339951375  0.2505757903214024
  0.8654965748201452  0.0528760199071934  0.7496581500536234
  0.8671324094801811  0.5564801610393962  0.2500555216872723
  0.8672368191316890  0.5538961337817236  0.7501103118538504
  0.0612350966850074  0.4114423123349741  0.7518863180075820
  0.0653773401840820  0.8910036238010991  0.2504937010808329
  0.0623147120416199  0.9062339329098682  0.7493779793611453
  0.3936724914018232  0.4089594079020807  0.2498013170494302
  0.3946150598592317  0.4088240571859649  0.7494862265705694
  0.3955789995434253  0.9104106169359232  0.2499824452617085
  0.3948457734389245  0.9083199943897209  0.7498581779326422
  0.7284284457305373  0.4118190133182163  0.2511557334650641
  0.7283154077758518  0.4094384613730953  0.7505736138896605
  0.7234750450775721  0.8955637107348429  0.2502844682974306
  0.7269831100829718  0.9081439017899496  0.7494182683844661
  0.2289217690982993  0.0893774799058341 -0.0003131106869951
  0.2287720857160410  0.0899933957042134  0.5000995334611879
  0.2293566722619288  0.5907474882820444 -0.0001252371754297
  0.2278859339957506  0.5888971884330051  0.4990221709549802
  0.5613936068342165  0.0904703402813517 -0.0006816413804739
  0.5614962996299931  0.0908283093792966  0.5004203123387362
  0.5605416381388402  0.5881319872580220 -0.0009718186106741
  0.5604383219078273  0.5891209993930612  0.5009807221645070
  0.8960021301819396  0.0918215377664095 -0.0011454965814880
  0.8960443956956857  0.0928243933044454  0.5011314536307657
  0.8922407432621303  0.5992613479214941 -0.0005436302416780
  0.8937870413587451  0.5914941663890508  0.5001028952061023
  0.2034891236147567  0.3405683091161313  0.1459252080320436
  0.2006307685977120  0.3429719285043717  0.6454867005166918
  0.2075273374591112  0.8401830517112271  0.1455223635369316
  0.2034475027292545  0.8410990970398000  0.6458069423708570
  0.5350376285517612  0.3428089210027533  0.1463688510766643
  0.5359529221297356  0.3425915100831620  0.6462843105226844
  0.5351361301385890  0.8419822779121001  0.1457953985930715
  0.5357396664404189  0.8423809712054060  0.6459859899566011
  0.8694773019271073  0.3460443386362560  0.1476856124686728
  0.8695473293800119  0.3448903149579856  0.6464872564484689
  0.8679362752556714  0.8447442325398519  0.1468607729361037
  0.8687889344421320  0.8438705984477445  0.6458571322478122
  0.0410701358133278  0.1623724313632921  0.0918677767343359
  0.0337763267958241  0.1547971366866888  0.6139765028113661
  0.0338471379727653  0.6602407704262497  0.1052383983212785
  0.0356434808356738  0.6571472083550967  0.6031374613159270
  0.3702197031629697  0.1555956005862663  0.1035333273919404
  0.3695713035140844  0.1571540576169119  0.6038271902337732
  0.3709010790005279  0.6553757759120065  0.1034691054459526
  0.3687796340799475  0.6559080424361768  0.6033365038678937
  0.7024597473480850  0.1577575911096691  0.1027630828545189
  0.7025238070657779  0.1566966791132237  0.6048598435340080
  0.7004676079757282  0.6560262023596385  0.1031290897145741
  0.7016722707673096  0.6560379983003426  0.6046479648312749
  0.0338479383179237  0.4493515100160236  0.4979096598693063
  0.0349219820577463  0.9477423131972325 -0.0025991775106821
  0.0359075020410973  0.9511930550813736  0.5022121080761810
  0.3675979976059842  0.4465011232264508 -0.0006782216964069
  0.3672963980179444  0.4464321963795641  0.5000680347703907
  0.3687699182501979  0.9470869832970467 -0.0009450226263210
  0.3687560946730487  0.9476931254649820  0.5006795809411402
  0.7011262514479031  0.4470015567982774 -0.0001848332144529
  0.7000780312032250  0.4466223816350670  0.5011983365372037
  0.7008303959480318  0.9479351635598631 -0.0002454378337273
  0.7008673548056601  0.9481928141454702  0.5000291619986698
  0.2017462526338720  0.3419093428393252  0.3551000561753556
  0.2034128156553235  0.3413444760535870  0.8523090692166714
  0.2078048789364189  0.8406132060647534  0.3544683835310872
  0.2032849329570321  0.8408153391259745  0.8534588701193377
  0.5347166313793896  0.3430020420994525  0.3538068479771579
  0.5356691420480265  0.3426916240429282  0.8535183979487903
  0.5351362477232382  0.8418533071847453  0.3540398521504414
  0.5359662374586842  0.8425531151395046  0.8535146890217340
  0.8704309245810000  0.3475874173654376  0.3544029155663952
  0.8698471724934800  0.3450095906033674  0.8540723291715699
  0.8680861320348205  0.8440715470584265  0.3536742058202381
  0.8682477462633617  0.8444222414003689  0.8533428416472797
 
  0.00000000E+00  0.00000000E+00  0.00000000E+00
  0.00000000E+00  0.00000000E+00  0.00000000E+00
  0.00000000E+00  0.00000000E+00  0.00000000E+00
  0.00000000E+00  0.00000000E+00  0.00000000E+00
  0.00000000E+00  0.00000000E+00  0.00000000E+00
  0.00000000E+00  0.00000000E+00  0.00000000E+00
  0.00000000E+00  0.00000000E+00  0.00000000E+00
  0.00000000E+00  0.00000000E+00  0.00000000E+00
  0.00000000E+00  0.00000000E+00  0.00000000E+00
  0.00000000E+00  0.00000000E+00  0.00000000E+00
  0.00000000E+00  0.00000000E+00  0.00000000E+00
  0.00000000E+00  0.00000000E+00  0.00000000E+00
  0.00000000E+00  0.00000000E+00  0.00000000E+00
  0.00000000E+00  0.00000000E+00  0.00000000E+00
  0.00000000E+00  0.00000000E+00  0.00000000E+00
  0.00000000E+00  0.00000000E+00  0.00000000E+00
  0.00000000E+00  0.00000000E+00  0.00000000E+00
  0.00000000E+00  0.00000000E+00  0.00000000E+00
  0.00000000E+00  0.00000000E+00  0.00000000E+00
  0.00000000E+00  0.00000000E+00  0.00000000E+00
  0.00000000E+00  0.00000000E+00  0.00000000E+00
  0.00000000E+00  0.00000000E+00  0.00000000E+00
  0.00000000E+00  0.00000000E+00  0.00000000E+00
  0.00000000E+00  0.00000000E+00  0.00000000E+00
  0.00000000E+00  0.00000000E+00  0.00000000E+00
  0.00000000E+00  0.00000000E+00  0.00000000E+00
  0.00000000E+00  0.00000000E+00  0.00000000E+00
  0.00000000E+00  0.00000000E+00  0.00000000E+00
  0.00000000E+00  0.00000000E+00  0.00000000E+00
  0.00000000E+00  0.00000000E+00  0.00000000E+00
  0.00000000E+00  0.00000000E+00  0.00000000E+00
  0.00000000E+00  0.00000000E+00  0.00000000E+00
  0.00000000E+00  0.00000000E+00  0.00000000E+00
  0.00000000E+00  0.00000000E+00  0.00000000E+00
  0.00000000E+00  0.00000000E+00  0.00000000E+00
  0.00000000E+00  0.00000000E+00  0.00000000E+00
  0.00000000E+00  0.00000000E+00  0.00000000E+00
  0.00000000E+00  0.00000000E+00  0.00000000E+00
  0.00000000E+00  0.00000000E+00  0.00000000E+00
  0.00000000E+00  0.00000000E+00  0.00000000E+00
  0.00000000E+00  0.00000000E+00  0.00000000E+00
  0.00000000E+00  0.00000000E+00  0.00000000E+00
  0.00000000E+00  0.00000000E+00  0.00000000E+00
  0.00000000E+00  0.00000000E+00  0.00000000E+00
  0.00000000E+00  0.00000000E+00  0.00000000E+00
  0.00000000E+00  0.00000000E+00  0.00000000E+00
  0.00000000E+00  0.00000000E+00  0.00000000E+00
  0.00000000E+00  0.00000000E+00  0.00000000E+00
  0.00000000E+00  0.00000000E+00  0.00000000E+00
  0.00000000E+00  0.00000000E+00  0.00000000E+00
  0.00000000E+00  0.00000000E+00  0.00000000E+00
  0.00000000E+00  0.00000000E+00  0.00000000E+00
  0.00000000E+00  0.00000000E+00  0.00000000E+00
  0.00000000E+00  0.00000000E+00  0.00000000E+00
  0.00000000E+00  0.00000000E+00  0.00000000E+00
  0.00000000E+00  0.00000000E+00  0.00000000E+00
  0.00000000E+00  0.00000000E+00  0.00000000E+00
  0.00000000E+00  0.00000000E+00  0.00000000E+00
  0.00000000E+00  0.00000000E+00  0.00000000E+00
  0.00000000E+00  0.00000000E+00  0.00000000E+00
  0.00000000E+00  0.00000000E+00  0.00000000E+00
  0.00000000E+00  0.00000000E+00  0.00000000E+00
  0.00000000E+00  0.00000000E+00  0.00000000E+00
  0.00000000E+00  0.00000000E+00  0.00000000E+00
  0.00000000E+00  0.00000000E+00  0.00000000E+00
  0.00000000E+00  0.00000000E+00  0.00000000E+00
  0.00000000E+00  0.00000000E+00  0.00000000E+00
  0.00000000E+00  0.00000000E+00  0.00000000E+00
  0.00000000E+00  0.00000000E+00  0.00000000E+00
  0.00000000E+00  0.00000000E+00  0.00000000E+00
  0.00000000E+00  0.00000000E+00  0.00000000E+00
  0.00000000E+00  0.00000000E+00  0.00000000E+00
  0.00000000E+00  0.00000000E+00  0.00000000E+00
  0.00000000E+00  0.00000000E+00  0.00000000E+00
  0.00000000E+00  0.00000000E+00  0.00000000E+00
  0.00000000E+00  0.00000000E+00  0.00000000E+00
  0.00000000E+00  0.00000000E+00  0.00000000E+00
  0.00000000E+00  0.00000000E+00  0.00000000E+00
  0.00000000E+00  0.00000000E+00  0.00000000E+00
  0.00000000E+00  0.00000000E+00  0.00000000E+00
  0.00000000E+00  0.00000000E+00  0.00000000E+00
  0.00000000E+00  0.00000000E+00  0.00000000E+00
  0.00000000E+00  0.00000000E+00  0.00000000E+00
  0.00000000E+00  0.00000000E+00  0.00000000E+00
  0.00000000E+00  0.00000000E+00  0.00000000E+00
  0.00000000E+00  0.00000000E+00  0.00000000E+00
  0.00000000E+00  0.00000000E+00  0.00000000E+00
  0.00000000E+00  0.00000000E+00  0.00000000E+00
  0.00000000E+00  0.00000000E+00  0.00000000E+00
  0.00000000E+00  0.00000000E+00  0.00000000E+00
  0.00000000E+00  0.00000000E+00  0.00000000E+00
  0.00000000E+00  0.00000000E+00  0.00000000E+00
  0.00000000E+00  0.00000000E+00  0.00000000E+00
  0.00000000E+00  0.00000000E+00  0.00000000E+00
  0.00000000E+00  0.00000000E+00  0.00000000E+00
  0.00000000E+00  0.00000000E+00  0.00000000E+00
  0.00000000E+00  0.00000000E+00  0.00000000E+00
  0.00000000E+00  0.00000000E+00  0.00000000E+00
  0.00000000E+00  0.00000000E+00  0.00000000E+00
  0.00000000E+00  0.00000000E+00  0.00000000E+00
  0.00000000E+00  0.00000000E+00  0.00000000E+00
  0.00000000E+00  0.00000000E+00  0.00000000E+00
  0.00000000E+00  0.00000000E+00  0.00000000E+00
  0.00000000E+00  0.00000000E+00  0.00000000E+00
  0.00000000E+00  0.00000000E+00  0.00000000E+00
  0.00000000E+00  0.00000000E+00  0.00000000E+00
  0.00000000E+00  0.00000000E+00  0.00000000E+00
  0.00000000E+00  0.00000000E+00  0.00000000E+00
  0.00000000E+00  0.00000000E+00  0.00000000E+00
  0.00000000E+00  0.00000000E+00  0.00000000E+00
  0.00000000E+00  0.00000000E+00  0.00000000E+00
  0.00000000E+00  0.00000000E+00  0.00000000E+00
  0.00000000E+00  0.00000000E+00  0.00000000E+00
  0.00000000E+00  0.00000000E+00  0.00000000E+00
  0.00000000E+00  0.00000000E+00  0.00000000E+00
  0.00000000E+00  0.00000000E+00  0.00000000E+00
  0.00000000E+00  0.00000000E+00  0.00000000E+00
  0.00000000E+00  0.00000000E+00  0.00000000E+00
  0.00000000E+00  0.00000000E+00  0.00000000E+00
  0.00000000E+00  0.00000000E+00  0.00000000E+00
  0.00000000E+00  0.00000000E+00  0.00000000E+00
  0.00000000E+00  0.00000000E+00  0.00000000E+00
  0.00000000E+00  0.00000000E+00  0.00000000E+00
  0.00000000E+00  0.00000000E+00  0.00000000E+00
  0.00000000E+00  0.00000000E+00  0.00000000E+00
  0.00000000E+00  0.00000000E+00  0.00000000E+00
  0.00000000E+00  0.00000000E+00  0.00000000E+00
  0.00000000E+00  0.00000000E+00  0.00000000E+00
  0.00000000E+00  0.00000000E+00  0.00000000E+00
  0.00000000E+00  0.00000000E+00  0.00000000E+00
  0.00000000E+00  0.00000000E+00  0.00000000E+00
  0.00000000E+00  0.00000000E+00  0.00000000E+00
  0.00000000E+00  0.00000000E+00  0.00000000E+00
  0.00000000E+00  0.00000000E+00  0.00000000E+00
  0.00000000E+00  0.00000000E+00  0.00000000E+00
  0.00000000E+00  0.00000000E+00  0.00000000E+00
  0.00000000E+00  0.00000000E+00  0.00000000E+00
  0.00000000E+00  0.00000000E+00  0.00000000E+00
  0.00000000E+00  0.00000000E+00  0.00000000E+00
  0.00000000E+00  0.00000000E+00  0.00000000E+00
  0.00000000E+00  0.00000000E+00  0.00000000E+00
  0.00000000E+00  0.00000000E+00  0.00000000E+00
  0.00000000E+00  0.00000000E+00  0.00000000E+00
  0.00000000E+00  0.00000000E+00  0.00000000E+00
  0.00000000E+00  0.00000000E+00  0.00000000E+00
  0.00000000E+00  0.00000000E+00  0.00000000E+00
  0.00000000E+00  0.00000000E+00  0.00000000E+00
  0.00000000E+00  0.00000000E+00  0.00000000E+00
  0.00000000E+00  0.00000000E+00  0.00000000E+00
  0.00000000E+00  0.00000000E+00  0.00000000E+00
  0.00000000E+00  0.00000000E+00  0.00000000E+00
  0.00000000E+00  0.00000000E+00  0.00000000E+00
  0.00000000E+00  0.00000000E+00  0.00000000E+00
  0.00000000E+00  0.00000000E+00  0.00000000E+00
  0.00000000E+00  0.00000000E+00  0.00000000E+00
  0.00000000E+00  0.00000000E+00  0.00000000E+00
  0.00000000E+00  0.00000000E+00  0.00000000E+00
  0.00000000E+00  0.00000000E+00  0.00000000E+00
  0.00000000E+00  0.00000000E+00  0.00000000E+00
  0.00000000E+00  0.00000000E+00  0.00000000E+00
  0.00000000E+00  0.00000000E+00  0.00000000E+00
  0.00000000E+00  0.00000000E+00  0.00000000E+00
  0.00000000E+00  0.00000000E+00  0.00000000E+00
  0.00000000E+00  0.00000000E+00  0.00000000E+00
  0.00000000E+00  0.00000000E+00  0.00000000E+00
  0.00000000E+00  0.00000000E+00  0.00000000E+00
  0.00000000E+00  0.00000000E+00  0.00000000E+00
  0.00000000E+00  0.00000000E+00  0.00000000E+00
  0.00000000E+00  0.00000000E+00  0.00000000E+00
  0.00000000E+00  0.00000000E+00  0.00000000E+00
  0.00000000E+00  0.00000000E+00  0.00000000E+00
  0.00000000E+00  0.00000000E+00  0.00000000E+00
  0.00000000E+00  0.00000000E+00  0.00000000E+00
  0.00000000E+00  0.00000000E+00  0.00000000E+00
  0.00000000E+00  0.00000000E+00  0.00000000E+00
  0.00000000E+00  0.00000000E+00  0.00000000E+00
  0.00000000E+00  0.00000000E+00  0.00000000E+00
  0.00000000E+00  0.00000000E+00  0.00000000E+00
  0.00000000E+00  0.00000000E+00  0.00000000E+00
  0.00000000E+00  0.00000000E+00  0.00000000E+00
  0.00000000E+00  0.00000000E+00  0.00000000E+00
  0.00000000E+00  0.00000000E+00  0.00000000E+00
  0.00000000E+00  0.00000000E+00  0.00000000E+00
  0.00000000E+00  0.00000000E+00  0.00000000E+00
  0.00000000E+00  0.00000000E+00  0.00000000E+00
  0.00000000E+00  0.00000000E+00  0.00000000E+00
  0.00000000E+00  0.00000000E+00  0.00000000E+00
  0.00000000E+00  0.00000000E+00  0.00000000E+00
  0.00000000E+00  0.00000000E+00  0.00000000E+00
  0.00000000E+00  0.00000000E+00  0.00000000E+00
