Li5 P2 N1 O6                            
   1.00000000000000     
    -0.3532602246938631    0.0784567563242034    5.0729817656786738
     6.3616489174324888    0.0955295079866172   -0.4592013238336966
     0.0792107175649704    5.2297013073171863    0.0799673402956137
   Li   P    N    O 
     5     2     1     6
Direct
  0.4847001206797966  0.0467796003364315  0.8882078469394750
  0.3972088720043347  0.6950507093687982  0.3161487959442703
  0.0562657306608799  0.7623317726642729  0.6829943628590596
  0.0215161467088684  0.2502682341894416  0.6710970176327019
  0.5027297002178535  0.2468832788362872  0.3448601281631438
  0.5632335375681689  0.5047705909089758  0.8152815704991910
 -0.0143348334635435 -0.0154168332730949  0.1914307966811328
  0.6644917111418693 -0.0160939187487279  0.2058427222077190
  0.1129367751374495  0.1790124462353360  0.3373194060668420
  0.0529214254918451  0.7775030433267448  0.3170559019245359
  0.6442710265380890  0.2998374974005731  0.6960400593868540
  0.5362657587382899  0.4895048338689243  0.1069472828318444
  0.1024962907317242  0.0053392570745667  0.9046084522022071
  0.3166707378444005  0.5670914878114687  0.6801946566610293
 
  0.00000000E+00  0.00000000E+00  0.00000000E+00
  0.00000000E+00  0.00000000E+00  0.00000000E+00
  0.00000000E+00  0.00000000E+00  0.00000000E+00
  0.00000000E+00  0.00000000E+00  0.00000000E+00
  0.00000000E+00  0.00000000E+00  0.00000000E+00
  0.00000000E+00  0.00000000E+00  0.00000000E+00
  0.00000000E+00  0.00000000E+00  0.00000000E+00
  0.00000000E+00  0.00000000E+00  0.00000000E+00
  0.00000000E+00  0.00000000E+00  0.00000000E+00
  0.00000000E+00  0.00000000E+00  0.00000000E+00
  0.00000000E+00  0.00000000E+00  0.00000000E+00
  0.00000000E+00  0.00000000E+00  0.00000000E+00
  0.00000000E+00  0.00000000E+00  0.00000000E+00
  0.00000000E+00  0.00000000E+00  0.00000000E+00
