Li56 P28 N28 O56
1.0
9.155868 0.000000 0.000000
0.000000 4.748969 0.000000
0.000000 0.000000 60.071286
Li P N O
56 28 28 56
direct
0.665671 0.501556 0.047826 Li+
0.334329 0.501556 0.047826 Li+
0.334329 0.001556 0.018833 Li+
0.665671 0.001556 0.018833 Li+
0.165671 0.501556 0.002372 Li+
0.834329 0.501556 0.002372 Li+
0.834329 0.001556 0.064287 Li+
0.165671 0.001556 0.064287 Li+
0.665671 0.501556 0.138735 Li+
0.334329 0.501556 0.138735 Li+
0.334329 0.001556 0.109742 Li+
0.665671 0.001556 0.109742 Li+
0.165671 0.501556 0.093281 Li+
0.834329 0.501556 0.093281 Li+
0.834329 0.001556 0.155196 Li+
0.165671 0.001556 0.155196 Li+
0.665671 0.501556 0.229645 Li+
0.334329 0.501556 0.229645 Li+
0.334329 0.001556 0.200651 Li+
0.665671 0.001556 0.200651 Li+
0.165671 0.501556 0.184190 Li+
0.834329 0.501556 0.184190 Li+
0.834329 0.001556 0.246105 Li+
0.165671 0.001556 0.246106 Li+
0.665671 0.501556 0.320554 Li+
0.334329 0.501556 0.320554 Li+
0.334329 0.001556 0.291560 Li+
0.665671 0.001556 0.291560 Li+
0.165671 0.501556 0.275099 Li+
0.834329 0.501556 0.275099 Li+
0.834329 0.001556 0.337015 Li+
0.165671 0.001556 0.337015 Li+
0.665671 0.501556 0.411463 Li+
0.334329 0.501556 0.411463 Li+
0.334329 0.001556 0.382469 Li+
0.665671 0.001556 0.382469 Li+
0.165671 0.501556 0.366008 Li+
0.834329 0.501556 0.366008 Li+
0.834329 0.001556 0.427924 Li+
0.165671 0.001556 0.427924 Li+
0.665671 0.501556 0.502372 Li+
0.334329 0.501556 0.502372 Li+
0.334329 0.001556 0.473378 Li+
0.665671 0.001556 0.473378 Li+
0.165671 0.501556 0.456917 Li+
0.834329 0.501556 0.456917 Li+
0.834329 0.001556 0.518833 Li+
0.165671 0.001556 0.518833 Li+
0.665671 0.501556 0.593281 Li+
0.334329 0.501556 0.593281 Li+
0.334329 0.001556 0.564287 Li+
0.665671 0.001556 0.564287 Li+
0.165671 0.501556 0.547826 Li+
0.834329 0.501556 0.547826 Li+
0.834329 0.001556 0.609742 Li+
0.165671 0.001556 0.609742 Li+
0.000000 0.498511 0.047307 P5+
0.000000 0.998511 0.019352 P5+
0.500000 0.498511 0.001852 P5+
0.500000 0.998511 0.064807 P5+
0.000000 0.498511 0.138216 P5+
0.000000 0.998511 0.110261 P5+
0.500000 0.498511 0.092761 P5+
0.500000 0.998511 0.155716 P5+
0.000000 0.498511 0.229125 P5+
0.000000 0.998511 0.201170 P5+
0.500000 0.498511 0.183670 P5+
0.500000 0.998511 0.246625 P5+
0.000000 0.498511 0.320034 P5+
0.000000 0.998511 0.292080 P5+
0.500000 0.498511 0.274580 P5+
0.500000 0.998511 0.337534 P5+
0.000000 0.498511 0.410943 P5+
0.000000 0.998511 0.382989 P5+
0.500000 0.498511 0.365489 P5+
0.500000 0.998511 0.428443 P5+
0.000000 0.498511 0.501852 P5+
0.000000 0.998511 0.473898 P5+
0.500000 0.498511 0.456398 P5+
0.500000 0.998511 0.519352 P5+
0.000000 0.498511 0.592761 P5+
0.000000 0.998511 0.564807 P5+
0.500000 0.498511 0.547307 P5+
0.500000 0.998511 0.610261 P5+
0.000000 0.341176 0.023057 N3-
0.000000 0.841176 0.043602 N3-
0.500000 0.341176 0.068511 N3-
0.500000 0.841176 0.089057 N3-
0.000000 0.341176 0.113966 N3-
0.000000 0.841176 0.134511 N3-
0.500000 0.341176 0.159420 N3-
0.500000 0.841176 0.179966 N3-
0.000000 0.341176 0.204875 N3-
0.000000 0.841176 0.225420 N3-
0.500000 0.341176 0.250330 N3-
0.500000 0.841176 0.270875 N3-
0.000000 0.341176 0.295784 N3-
0.000000 0.841176 0.316330 N3-
0.500000 0.341176 0.341239 N3-
0.500000 0.841176 0.361784 N3-
0.000000 0.341176 0.386693 N3-
0.000000 0.841176 0.407239 N3-
0.500000 0.341176 0.432148 N3-
0.500000 0.841176 0.452693 N3-
0.000000 0.341176 0.477602 N3-
0.000000 0.841176 0.498148 N3-
0.500000 0.341176 0.523057 N3-
0.500000 0.841176 0.543602 N3-
0.000000 0.341176 0.568511 N3-
0.000000 0.841176 0.589057 N3-
0.500000 0.341176 0.613966 N3-
0.500000 0.841176 0.634511 N3-
0.139047 0.419101 0.061098 O2-
0.860953 0.419101 0.061098 O2-
0.860953 0.919101 0.005561 O2-
0.139047 0.919101 0.005561 O2-
0.639047 0.419101 0.015643 O2-
0.360953 0.419101 0.015643 O2-
0.360953 0.919101 0.051016 O2-
0.639047 0.919101 0.051016 O2-
0.139047 0.419101 0.152007 O2-
0.860953 0.419101 0.152007 O2-
0.860953 0.919101 0.096470 O2-
0.139047 0.919101 0.096470 O2-
0.639047 0.419101 0.106552 O2-
0.360953 0.419101 0.106552 O2-
0.360953 0.919101 0.141925 O2-
0.639047 0.919101 0.141925 O2-
0.139047 0.419101 0.242916 O2-
0.860953 0.419101 0.242916 O2-
0.860953 0.919101 0.187380 O2-
0.139047 0.919101 0.187380 O2-
0.639047 0.419101 0.197461 O2-
0.360953 0.419101 0.197461 O2-
0.360953 0.919101 0.232834 O2-
0.639047 0.919101 0.232834 O2-
0.139047 0.419101 0.333825 O2-
0.860953 0.419101 0.333825 O2-
0.860953 0.919101 0.278289 O2-
0.139047 0.919101 0.278289 O2-
0.639047 0.419101 0.288370 O2-
0.360953 0.419101 0.288370 O2-
0.360953 0.919101 0.323743 O2-
0.639047 0.919101 0.323743 O2-
0.139047 0.419101 0.424734 O2-
0.860953 0.419101 0.424734 O2-
0.860953 0.919101 0.369198 O2-
0.139047 0.919101 0.369198 O2-
0.639047 0.419101 0.379280 O2-
0.360953 0.419101 0.379280 O2-
0.360953 0.919101 0.414652 O2-
0.639047 0.919101 0.414652 O2-
0.139047 0.419101 0.515643 O2-
0.860953 0.419101 0.515643 O2-
0.860953 0.919101 0.460107 O2-
0.139047 0.919101 0.460107 O2-
0.639047 0.419101 0.470189 O2-
0.360953 0.419101 0.470189 O2-
0.360953 0.919101 0.505561 O2-
0.639047 0.919101 0.505561 O2-
0.139047 0.419101 0.606552 O2-
0.860953 0.419101 0.606552 O2-
0.860953 0.919101 0.551016 O2-
0.139047 0.919101 0.551016 O2-
0.639047 0.419101 0.561098 O2-
0.360953 0.419101 0.561098 O2-
0.360953 0.919101 0.596470 O2-
0.639047 0.919101 0.596470 O2-
