Li140 P140 O420
1.0
5.521558 0.000000 0.000000
0.000000 16.540545 2.677750
0.000000 0.000000 119.816820
Li P O
140 140 420
direct
0.494607 0.818220 0.000307 Li+
0.505393 0.318220 0.055863 Li+
0.484419 0.934004 0.013848 Li+
0.515581 0.434004 0.069403 Li+
0.505784 0.049457 0.027228 Li+
0.494216 0.549457 0.082783 Li+
0.507224 0.164548 0.040513 Li+
0.492776 0.664548 0.096069 Li+
0.992783 0.241566 0.048334 Li+
0.007217 0.741566 0.103889 Li+
0.521194 0.318286 0.000546 Li+
0.478806 0.818286 0.056102 Li+
0.476313 0.433730 0.014001 Li+
0.523687 0.933730 0.069557 Li+
0.533250 0.550453 0.027244 Li+
0.466750 0.050453 0.082799 Li+
0.477737 0.667016 0.040552 Li+
0.522263 0.167016 0.096107 Li+
0.960889 0.743634 0.048556 Li+
0.039111 0.243634 0.104111 Li+
0.494607 0.818220 0.111418 Li+
0.505393 0.318220 0.166974 Li+
0.484419 0.934004 0.124959 Li+
0.515581 0.434004 0.180514 Li+
0.505784 0.049457 0.138339 Li+
0.494216 0.549457 0.193894 Li+
0.507224 0.164548 0.151624 Li+
0.492776 0.664548 0.207180 Li+
0.992783 0.241566 0.159445 Li+
0.007217 0.741566 0.215000 Li+
0.521194 0.318286 0.111657 Li+
0.478806 0.818286 0.167213 Li+
0.476313 0.433730 0.125112 Li+
0.523687 0.933730 0.180668 Li+
0.533250 0.550453 0.138355 Li+
0.466750 0.050453 0.193910 Li+
0.477737 0.667016 0.151663 Li+
0.522263 0.167016 0.207219 Li+
0.960889 0.743634 0.159667 Li+
0.039111 0.243634 0.215222 Li+
0.494607 0.818220 0.222529 Li+
0.505393 0.318220 0.278085 Li+
0.484419 0.934004 0.236070 Li+
0.515581 0.434004 0.291625 Li+
0.505784 0.049457 0.249450 Li+
0.494216 0.549457 0.305005 Li+
0.507224 0.164548 0.262735 Li+
0.492776 0.664548 0.318291 Li+
0.992783 0.241566 0.270556 Li+
0.007217 0.741566 0.326111 Li+
0.521194 0.318286 0.222768 Li+
0.478806 0.818286 0.278324 Li+
0.476313 0.433730 0.236223 Li+
0.523687 0.933730 0.291779 Li+
0.533250 0.550453 0.249466 Li+
0.466750 0.050453 0.305021 Li+
0.477737 0.667016 0.262774 Li+
0.522263 0.167016 0.318330 Li+
0.960889 0.743634 0.270778 Li+
0.039111 0.243634 0.326333 Li+
0.494607 0.818220 0.333641 Li+
0.505393 0.318220 0.389196 Li+
0.484419 0.934004 0.347181 Li+
0.515581 0.434004 0.402737 Li+
0.505784 0.049457 0.360561 Li+
0.494216 0.549457 0.416117 Li+
0.507224 0.164548 0.373846 Li+
0.492776 0.664548 0.429402 Li+
0.992783 0.241566 0.381667 Li+
0.007217 0.741566 0.437223 Li+
0.521194 0.318286 0.333879 Li+
0.478806 0.818286 0.389435 Li+
0.476313 0.433730 0.347334 Li+
0.523687 0.933730 0.402890 Li+
0.533250 0.550453 0.360577 Li+
0.466750 0.050453 0.416133 Li+
0.477737 0.667016 0.373885 Li+
0.522263 0.167016 0.429441 Li+
0.960889 0.743634 0.381889 Li+
0.039111 0.243634 0.437445 Li+
0.494607 0.818220 0.444752 Li+
0.505393 0.318220 0.500307 Li+
0.484419 0.934004 0.458292 Li+
0.515581 0.434004 0.513848 Li+
0.505784 0.049457 0.471672 Li+
0.494216 0.549457 0.527228 Li+
0.507224 0.164548 0.484958 Li+
0.492776 0.664548 0.540513 Li+
0.992783 0.241566 0.492778 Li+
0.007217 0.741566 0.548334 Li+
0.521194 0.318286 0.444991 Li+
0.478806 0.818286 0.500546 Li+
0.476313 0.433730 0.458445 Li+
0.523687 0.933730 0.514001 Li+
0.533250 0.550453 0.471688 Li+
0.466750 0.050453 0.527244 Li+
0.477737 0.667016 0.484996 Li+
0.522263 0.167016 0.540552 Li+
0.960889 0.743634 0.493000 Li+
0.039111 0.243634 0.548556 Li+
0.494607 0.818220 0.555863 Li+
0.505393 0.318220 0.611418 Li+
0.484419 0.934004 0.569403 Li+
0.515581 0.434004 0.624959 Li+
0.505784 0.049457 0.582783 Li+
0.494216 0.549457 0.638339 Li+
0.507224 0.164548 0.596069 Li+
0.492776 0.664548 0.651624 Li+
0.992783 0.241566 0.603889 Li+
0.007217 0.741566 0.659445 Li+
0.521194 0.318286 0.556102 Li+
0.478806 0.818286 0.611657 Li+
0.476313 0.433730 0.569557 Li+
0.523687 0.933730 0.625112 Li+
0.533250 0.550453 0.582799 Li+
0.466750 0.050453 0.638355 Li+
0.477737 0.667016 0.596108 Li+
0.522263 0.167016 0.651663 Li+
0.960889 0.743634 0.604111 Li+
0.039111 0.243634 0.659667 Li+
0.494607 0.818220 0.666974 Li+
0.505393 0.318220 0.722529 Li+
0.484419 0.934004 0.680514 Li+
0.515581 0.434004 0.736070 Li+
0.505784 0.049457 0.693894 Li+
0.494216 0.549457 0.749450 Li+
0.507224 0.164548 0.707180 Li+
0.492776 0.664548 0.762735 Li+
0.992783 0.241566 0.715000 Li+
0.007217 0.741566 0.770556 Li+
0.521194 0.318286 0.667213 Li+
0.478806 0.818286 0.722768 Li+
0.476313 0.433730 0.680668 Li+
0.523687 0.933730 0.736223 Li+
0.533250 0.550453 0.693910 Li+
0.466750 0.050453 0.749466 Li+
0.477737 0.667016 0.707219 Li+
0.522263 0.167016 0.762774 Li+
0.960889 0.743634 0.715222 Li+
0.039111 0.243634 0.770778 Li+
0.185377 0.000413 0.105141 P5+
0.814623 0.500413 0.049586 P5+
0.843317 0.093280 0.006644 P5+
0.156683 0.593280 0.062200 P5+
0.188444 0.197061 0.016838 P5+
0.811556 0.697061 0.072393 P5+
0.828977 0.308311 0.025640 P5+
0.171023 0.808311 0.081195 P5+
0.159739 0.408249 0.036757 P5+
0.840261 0.908249 0.092313 P5+
0.843930 0.574567 0.004220 P5+
0.156070 0.074567 0.059775 P5+
0.174322 0.674438 0.015386 P5+
0.825678 0.174438 0.070942 P5+
0.812278 0.786455 0.024148 P5+
0.187722 0.286455 0.079704 P5+
0.151901 0.889856 0.034416 P5+
0.848099 0.389856 0.089971 P5+
0.809867 0.982845 0.047004 P5+
0.190133 0.482845 0.102560 P5+
0.185377 0.000413 0.216252 P5+
0.814623 0.500413 0.160697 P5+
0.843317 0.093280 0.117755 P5+
0.156683 0.593280 0.173311 P5+
0.188444 0.197061 0.127949 P5+
0.811556 0.697061 0.183504 P5+
0.828977 0.308311 0.136751 P5+
0.171023 0.808311 0.192306 P5+
0.159739 0.408249 0.147868 P5+
0.840261 0.908249 0.203424 P5+
0.843930 0.574567 0.115331 P5+
0.156070 0.074567 0.170886 P5+
0.174322 0.674438 0.126498 P5+
0.825678 0.174438 0.182053 P5+
0.812278 0.786455 0.135259 P5+
0.187722 0.286455 0.190815 P5+
0.151901 0.889856 0.145527 P5+
0.848099 0.389856 0.201082 P5+
0.809867 0.982845 0.158115 P5+
0.190133 0.482845 0.213671 P5+
0.185377 0.000413 0.327363 P5+
0.814623 0.500413 0.271808 P5+
0.843317 0.093280 0.228866 P5+
0.156683 0.593280 0.284422 P5+
0.188444 0.197061 0.239060 P5+
0.811556 0.697061 0.294616 P5+
0.828977 0.308311 0.247862 P5+
0.171023 0.808311 0.303418 P5+
0.159739 0.408249 0.258979 P5+
0.840261 0.908249 0.314535 P5+
0.843930 0.574567 0.226442 P5+
0.156070 0.074567 0.281997 P5+
0.174322 0.674438 0.237609 P5+
0.825678 0.174438 0.293164 P5+
0.812278 0.786455 0.246370 P5+
0.187722 0.286455 0.301926 P5+
0.151901 0.889856 0.256638 P5+
0.848099 0.389856 0.312193 P5+
0.809867 0.982845 0.269226 P5+
0.190133 0.482845 0.324782 P5+
0.185377 0.000413 0.438475 P5+
0.814623 0.500413 0.382919 P5+
0.843317 0.093280 0.339977 P5+
0.156683 0.593280 0.395533 P5+
0.188444 0.197061 0.350171 P5+
0.811556 0.697061 0.405727 P5+
0.828977 0.308311 0.358973 P5+
0.171023 0.808311 0.414529 P5+
0.159739 0.408249 0.370090 P5+
0.840261 0.908249 0.425646 P5+
0.843930 0.574567 0.337553 P5+
0.156070 0.074567 0.393108 P5+
0.174322 0.674438 0.348720 P5+
0.825678 0.174438 0.404275 P5+
0.812278 0.786455 0.357481 P5+
0.187722 0.286455 0.413037 P5+
0.151901 0.889856 0.367749 P5+
0.848099 0.389856 0.423305 P5+
0.809867 0.982845 0.380338 P5+
0.190133 0.482845 0.435893 P5+
0.185377 0.000413 0.549586 P5+
0.814623 0.500413 0.494030 P5+
0.843317 0.093280 0.451089 P5+
0.156683 0.593280 0.506644 P5+
0.188444 0.197061 0.461282 P5+
0.811556 0.697061 0.516838 P5+
0.828977 0.308311 0.470084 P5+
0.171023 0.808311 0.525640 P5+
0.159739 0.408249 0.481202 P5+
0.840261 0.908249 0.536757 P5+
0.843930 0.574567 0.448664 P5+
0.156070 0.074567 0.504220 P5+
0.174322 0.674438 0.459831 P5+
0.825678 0.174438 0.515386 P5+
0.812278 0.786455 0.468592 P5+
0.187722 0.286455 0.524148 P5+
0.151901 0.889856 0.478860 P5+
0.848099 0.389856 0.534416 P5+
0.809867 0.982845 0.491449 P5+
0.190133 0.482845 0.547004 P5+
0.185377 0.000413 0.660697 P5+
0.814623 0.500413 0.605141 P5+
0.843317 0.093280 0.562200 P5+
0.156683 0.593280 0.617755 P5+
0.188444 0.197061 0.572393 P5+
0.811556 0.697061 0.627949 P5+
0.828977 0.308311 0.581195 P5+
0.171023 0.808311 0.636751 P5+
0.159739 0.408249 0.592313 P5+
0.840261 0.908249 0.647868 P5+
0.843930 0.574567 0.559775 P5+
0.156070 0.074567 0.615331 P5+
0.174322 0.674438 0.570942 P5+
0.825678 0.174438 0.626498 P5+
0.812278 0.786455 0.579704 P5+
0.187722 0.286455 0.635259 P5+
0.151901 0.889856 0.589971 P5+
0.848099 0.389856 0.645527 P5+
0.809867 0.982845 0.602560 P5+
0.190133 0.482845 0.658115 P5+
0.185377 0.000413 0.771808 P5+
0.814623 0.500413 0.716252 P5+
0.843317 0.093280 0.673311 P5+
0.156683 0.593280 0.728866 P5+
0.188444 0.197061 0.683504 P5+
0.811556 0.697061 0.739060 P5+
0.828977 0.308311 0.692306 P5+
0.171023 0.808311 0.747862 P5+
0.159739 0.408249 0.703424 P5+
0.840261 0.908249 0.758979 P5+
0.843930 0.574567 0.670886 P5+
0.156070 0.074567 0.726442 P5+
0.174322 0.674438 0.682053 P5+
0.825678 0.174438 0.737609 P5+
0.812278 0.786455 0.690815 P5+
0.187722 0.286455 0.746370 P5+
0.151901 0.889856 0.701082 P5+
0.848099 0.389856 0.756638 P5+
0.809867 0.982845 0.713671 P5+
0.190133 0.482845 0.769226 P5+
0.069000 0.035413 0.004671 O2-
0.931000 0.535413 0.060226 O2-
0.951087 0.140628 0.016335 O2-
0.048913 0.640628 0.071891 O2-
0.080018 0.275856 0.021140 O2-
0.919982 0.775856 0.076695 O2-
0.926681 0.392259 0.029123 O2-
0.073319 0.892259 0.084679 O2-
0.942022 0.978148 0.098796 O2-
0.057978 0.478148 0.043240 O2-
0.076781 0.590622 0.011864 O2-
0.923219 0.090622 0.067420 O2-
0.921841 0.709404 0.019426 O2-
0.078159 0.209404 0.074982 O2-
0.049265 0.843555 0.024523 O2-
0.950735 0.343555 0.080079 O2-
0.918787 0.943480 0.036602 O2-
0.081213 0.443480 0.092157 O2-
0.944691 0.504327 0.108834 O2-
0.055309 0.004327 0.053279 O2-
0.322795 0.926111 0.110242 O2-
0.677205 0.426111 0.054687 O2-
0.313918 0.066074 0.097367 O2-
0.686082 0.566074 0.041811 O2-
0.643576 0.041349 0.012304 O2-
0.356424 0.541349 0.067860 O2-
0.795305 0.153257 0.107251 O2-
0.204695 0.653257 0.051696 O2-
0.351974 0.154647 0.025830 O2-
0.648026 0.654647 0.081386 O2-
0.281781 0.224590 0.005051 O2-
0.718219 0.724590 0.060606 O2-
0.751546 0.252705 0.036159 O2-
0.248454 0.752705 0.091714 O2-
0.656290 0.330648 0.016037 O2-
0.343710 0.830648 0.071593 O2-
0.215121 0.332841 0.045023 O2-
0.784879 0.832841 0.100579 O2-
0.355777 0.446708 0.029096 O2-
0.644223 0.946708 0.084651 O2-
0.649890 0.536665 0.012045 O2-
0.350110 0.036665 0.067601 O2-
0.785996 0.649394 0.107017 O2-
0.214004 0.149394 0.051462 O2-
0.340793 0.651785 0.025232 O2-
0.659207 0.151785 0.080787 O2-
0.258044 0.728542 0.004846 O2-
0.741956 0.228542 0.060401 O2-
0.725734 0.758375 0.036041 O2-
0.274266 0.258375 0.091597 O2-
0.642950 0.828801 0.015394 O2-
0.357050 0.328801 0.070949 O2-
0.205272 0.829973 0.044874 O2-
0.794728 0.329973 0.100430 O2-
0.347295 0.944360 0.028901 O2-
0.652705 0.444360 0.084456 O2-
0.677470 0.919559 0.055009 O2-
0.322530 0.419559 0.110565 O2-
0.678914 0.057634 0.041613 O2-
0.321086 0.557634 0.097169 O2-
0.069000 0.035413 0.115782 O2-
0.931000 0.535413 0.171337 O2-
0.951087 0.140628 0.127446 O2-
0.048913 0.640628 0.183002 O2-
0.080018 0.275856 0.132251 O2-
0.919982 0.775856 0.187806 O2-
0.926681 0.392259 0.140234 O2-
0.073319 0.892259 0.195790 O2-
0.942022 0.978148 0.209907 O2-
0.057978 0.478148 0.154351 O2-
0.076781 0.590622 0.122975 O2-
0.923219 0.090622 0.178531 O2-
0.921841 0.709404 0.130537 O2-
0.078159 0.209404 0.186093 O2-
0.049265 0.843555 0.135634 O2-
0.950735 0.343555 0.191190 O2-
0.918787 0.943480 0.147713 O2-
0.081213 0.443480 0.203268 O2-
0.944691 0.504327 0.219945 O2-
0.055309 0.004327 0.164390 O2-
0.322795 0.926111 0.221353 O2-
0.677205 0.426111 0.165798 O2-
0.313918 0.066074 0.208478 O2-
0.686082 0.566074 0.152922 O2-
0.643576 0.041349 0.123416 O2-
0.356424 0.541349 0.178971 O2-
0.795305 0.153257 0.218363 O2-
0.204695 0.653257 0.162807 O2-
0.351974 0.154647 0.136942 O2-
0.648026 0.654647 0.192497 O2-
0.281781 0.224590 0.116162 O2-
0.718219 0.724590 0.171717 O2-
0.751546 0.252705 0.147270 O2-
0.248454 0.752705 0.202825 O2-
0.656290 0.330648 0.127148 O2-
0.343710 0.830648 0.182704 O2-
0.215121 0.332841 0.156134 O2-
0.784879 0.832841 0.211690 O2-
0.355777 0.446708 0.140207 O2-
0.644223 0.946708 0.195762 O2-
0.649890 0.536665 0.123156 O2-
0.350110 0.036665 0.178712 O2-
0.785996 0.649394 0.218129 O2-
0.214004 0.149394 0.162573 O2-
0.340793 0.651785 0.136343 O2-
0.659207 0.151785 0.191898 O2-
0.258044 0.728542 0.115957 O2-
0.741956 0.228542 0.171512 O2-
0.725734 0.758375 0.147152 O2-
0.274266 0.258375 0.202708 O2-
0.642950 0.828801 0.126505 O2-
0.357050 0.328801 0.182060 O2-
0.205272 0.829973 0.155986 O2-
0.794728 0.329973 0.211541 O2-
0.347295 0.944360 0.140012 O2-
0.652705 0.444360 0.195568 O2-
0.677470 0.919559 0.166121 O2-
0.322530 0.419559 0.221676 O2-
0.678914 0.057634 0.152724 O2-
0.321086 0.557634 0.208280 O2-
0.069000 0.035413 0.226893 O2-
0.931000 0.535413 0.282448 O2-
0.951087 0.140628 0.238557 O2-
0.048913 0.640628 0.294113 O2-
0.080018 0.275856 0.243362 O2-
0.919982 0.775856 0.298918 O2-
0.926681 0.392259 0.251345 O2-
0.073319 0.892259 0.306901 O2-
0.942022 0.978148 0.321018 O2-
0.057978 0.478148 0.265463 O2-
0.076781 0.590622 0.234086 O2-
0.923219 0.090622 0.289642 O2-
0.921841 0.709404 0.241648 O2-
0.078159 0.209404 0.297204 O2-
0.049265 0.843555 0.246745 O2-
0.950735 0.343555 0.302301 O2-
0.918787 0.943480 0.258824 O2-
0.081213 0.443480 0.314379 O2-
0.944691 0.504327 0.331056 O2-
0.055309 0.004327 0.275501 O2-
0.322795 0.926111 0.332464 O2-
0.677205 0.426111 0.276909 O2-
0.313918 0.066074 0.319589 O2-
0.686082 0.566074 0.264033 O2-
0.643576 0.041349 0.234527 O2-
0.356424 0.541349 0.290082 O2-
0.795305 0.153257 0.329474 O2-
0.204695 0.653257 0.273918 O2-
0.351974 0.154647 0.248053 O2-
0.648026 0.654647 0.303608 O2-
0.281781 0.224590 0.227273 O2-
0.718219 0.724590 0.282829 O2-
0.751546 0.252705 0.258381 O2-
0.248454 0.752705 0.313937 O2-
0.656290 0.330648 0.238260 O2-
0.343710 0.830648 0.293815 O2-
0.215121 0.332841 0.267245 O2-
0.784879 0.832841 0.322801 O2-
0.355777 0.446708 0.251318 O2-
0.644223 0.946708 0.306873 O2-
0.649890 0.536665 0.234268 O2-
0.350110 0.036665 0.289823 O2-
0.785996 0.649394 0.329240 O2-
0.214004 0.149394 0.273684 O2-
0.340793 0.651785 0.247454 O2-
0.659207 0.151785 0.303009 O2-
0.258044 0.728542 0.227068 O2-
0.741956 0.228542 0.282623 O2-
0.725734 0.758375 0.258263 O2-
0.274266 0.258375 0.313819 O2-
0.642950 0.828801 0.237616 O2-
0.357050 0.328801 0.293171 O2-
0.205272 0.829973 0.267097 O2-
0.794728 0.329973 0.322652 O2-
0.347295 0.944360 0.251123 O2-
0.652705 0.444360 0.306679 O2-
0.677470 0.919559 0.277232 O2-
0.322530 0.419559 0.332787 O2-
0.678914 0.057634 0.263836 O2-
0.321086 0.557634 0.319391 O2-
0.069000 0.035413 0.338004 O2-
0.931000 0.535413 0.393559 O2-
0.951087 0.140628 0.349668 O2-
0.048913 0.640628 0.405224 O2-
0.080018 0.275856 0.354473 O2-
0.919982 0.775856 0.410029 O2-
0.926681 0.392259 0.362457 O2-
0.073319 0.892259 0.418012 O2-
0.942022 0.978148 0.432129 O2-
0.057978 0.478148 0.376574 O2-
0.076781 0.590622 0.345197 O2-
0.923219 0.090622 0.400753 O2-
0.921841 0.709404 0.352759 O2-
0.078159 0.209404 0.408315 O2-
0.049265 0.843555 0.357856 O2-
0.950735 0.343555 0.413412 O2-
0.918787 0.943480 0.369935 O2-
0.081213 0.443480 0.425491 O2-
0.944691 0.504327 0.442167 O2-
0.055309 0.004327 0.386612 O2-
0.322795 0.926111 0.443576 O2-
0.677205 0.426111 0.388020 O2-
0.313918 0.066074 0.430700 O2-
0.686082 0.566074 0.375144 O2-
0.643576 0.041349 0.345638 O2-
0.356424 0.541349 0.401193 O2-
0.795305 0.153257 0.440585 O2-
0.204695 0.653257 0.385029 O2-
0.351974 0.154647 0.359164 O2-
0.648026 0.654647 0.414719 O2-
0.281781 0.224590 0.338384 O2-
0.718219 0.724590 0.393940 O2-
0.751546 0.252705 0.369492 O2-
0.248454 0.752705 0.425048 O2-
0.656290 0.330648 0.349371 O2-
0.343710 0.830648 0.404926 O2-
0.215121 0.332841 0.378356 O2-
0.784879 0.832841 0.433912 O2-
0.355777 0.446708 0.362429 O2-
0.644223 0.946708 0.417985 O2-
0.649890 0.536665 0.345379 O2-
0.350110 0.036665 0.400934 O2-
0.785996 0.649394 0.440351 O2-
0.214004 0.149394 0.384795 O2-
0.340793 0.651785 0.358565 O2-
0.659207 0.151785 0.414121 O2-
0.258044 0.728542 0.338179 O2-
0.741956 0.228542 0.393734 O2-
0.725734 0.758375 0.369374 O2-
0.274266 0.258375 0.424930 O2-
0.642950 0.828801 0.348727 O2-
0.357050 0.328801 0.404282 O2-
0.205272 0.829973 0.378208 O2-
0.794728 0.329973 0.433763 O2-
0.347295 0.944360 0.362234 O2-
0.652705 0.444360 0.417790 O2-
0.677470 0.919559 0.388343 O2-
0.322530 0.419559 0.443898 O2-
0.678914 0.057634 0.374947 O2-
0.321086 0.557634 0.430502 O2-
0.069000 0.035413 0.449115 O2-
0.931000 0.535413 0.504671 O2-
0.951087 0.140628 0.460779 O2-
0.048913 0.640628 0.516335 O2-
0.080018 0.275856 0.465584 O2-
0.919982 0.775856 0.521140 O2-
0.926681 0.392259 0.473568 O2-
0.073319 0.892259 0.529123 O2-
0.942022 0.978148 0.543240 O2-
0.057978 0.478148 0.487685 O2-
0.076781 0.590622 0.456309 O2-
0.923219 0.090622 0.511864 O2-
0.921841 0.709404 0.463870 O2-
0.078159 0.209404 0.519426 O2-
0.049265 0.843555 0.468967 O2-
0.950735 0.343555 0.524523 O2-
0.918787 0.943480 0.481046 O2-
0.081213 0.443480 0.536602 O2-
0.944691 0.504327 0.553279 O2-
0.055309 0.004327 0.497723 O2-
0.322795 0.926111 0.554687 O2-
0.677205 0.426111 0.499131 O2-
0.313918 0.066074 0.541811 O2-
0.686082 0.566074 0.486255 O2-
0.643576 0.041349 0.456749 O2-
0.356424 0.541349 0.512304 O2-
0.795305 0.153257 0.551696 O2-
0.204695 0.653257 0.496140 O2-
0.351974 0.154647 0.470275 O2-
0.648026 0.654647 0.525830 O2-
0.281781 0.224590 0.449495 O2-
0.718219 0.724590 0.505051 O2-
0.751546 0.252705 0.480603 O2-
0.248454 0.752705 0.536159 O2-
0.656290 0.330648 0.460482 O2-
0.343710 0.830648 0.516037 O2-
0.215121 0.332841 0.489467 O2-
0.784879 0.832841 0.545023 O2-
0.355777 0.446708 0.473540 O2-
0.644223 0.946708 0.529096 O2-
0.649890 0.536665 0.456490 O2-
0.350110 0.036665 0.512045 O2-
0.785996 0.649394 0.551462 O2-
0.214004 0.149394 0.495906 O2-
0.340793 0.651785 0.469676 O2-
0.659207 0.151785 0.525232 O2-
0.258044 0.728542 0.449290 O2-
0.741956 0.228542 0.504845 O2-
0.725734 0.758375 0.480485 O2-
0.274266 0.258375 0.536041 O2-
0.642950 0.828801 0.459838 O2-
0.357050 0.328801 0.515394 O2-
0.205272 0.829973 0.489319 O2-
0.794728 0.329973 0.544874 O2-
0.347295 0.944360 0.473345 O2-
0.652705 0.444360 0.528901 O2-
0.677470 0.919559 0.499454 O2-
0.322530 0.419559 0.555009 O2-
0.678914 0.057634 0.486058 O2-
0.321086 0.557634 0.541613 O2-
0.069000 0.035413 0.560226 O2-
0.931000 0.535413 0.615782 O2-
0.951087 0.140628 0.571891 O2-
0.048913 0.640628 0.627446 O2-
0.080018 0.275856 0.576695 O2-
0.919982 0.775856 0.632251 O2-
0.926681 0.392259 0.584679 O2-
0.073319 0.892259 0.640234 O2-
0.942022 0.978148 0.654351 O2-
0.057978 0.478148 0.598796 O2-
0.076781 0.590622 0.567420 O2-
0.923219 0.090622 0.622975 O2-
0.921841 0.709404 0.574982 O2-
0.078159 0.209404 0.630537 O2-
0.049265 0.843555 0.580079 O2-
0.950735 0.343555 0.635634 O2-
0.918787 0.943480 0.592157 O2-
0.081213 0.443480 0.647713 O2-
0.944691 0.504327 0.664390 O2-
0.055309 0.004327 0.608834 O2-
0.322795 0.926111 0.665798 O2-
0.677205 0.426111 0.610242 O2-
0.313918 0.066074 0.652922 O2-
0.686082 0.566074 0.597367 O2-
0.643576 0.041349 0.567860 O2-
0.356424 0.541349 0.623416 O2-
0.795305 0.153257 0.662807 O2-
0.204695 0.653257 0.607251 O2-
0.351974 0.154647 0.581386 O2-
0.648026 0.654647 0.636942 O2-
0.281781 0.224590 0.560606 O2-
0.718219 0.724590 0.616162 O2-
0.751546 0.252705 0.591714 O2-
0.248454 0.752705 0.647270 O2-
0.656290 0.330648 0.571593 O2-
0.343710 0.830648 0.627148 O2-
0.215121 0.332841 0.600579 O2-
0.784879 0.832841 0.656134 O2-
0.355777 0.446708 0.584651 O2-
0.644223 0.946708 0.640207 O2-
0.649890 0.536665 0.567601 O2-
0.350110 0.036665 0.623156 O2-
0.785996 0.649394 0.662573 O2-
0.214004 0.149394 0.607017 O2-
0.340793 0.651785 0.580787 O2-
0.659207 0.151785 0.636343 O2-
0.258044 0.728542 0.560401 O2-
0.741956 0.228542 0.615957 O2-
0.725734 0.758375 0.591597 O2-
0.274266 0.258375 0.647152 O2-
0.642950 0.828801 0.570949 O2-
0.357050 0.328801 0.626505 O2-
0.205272 0.829973 0.600430 O2-
0.794728 0.329973 0.655986 O2-
0.347295 0.944360 0.584456 O2-
0.652705 0.444360 0.640012 O2-
0.677470 0.919559 0.610565 O2-
0.322530 0.419559 0.666121 O2-
0.678914 0.057634 0.597169 O2-
0.321086 0.557634 0.652724 O2-
0.069000 0.035413 0.671337 O2-
0.931000 0.535413 0.726893 O2-
0.951087 0.140628 0.683002 O2-
0.048913 0.640628 0.738557 O2-
0.080018 0.275856 0.687806 O2-
0.919982 0.775856 0.743362 O2-
0.926681 0.392259 0.695790 O2-
0.073319 0.892259 0.751345 O2-
0.942022 0.978148 0.765463 O2-
0.057978 0.478148 0.709907 O2-
0.076781 0.590622 0.678531 O2-
0.923219 0.090622 0.734086 O2-
0.921841 0.709404 0.686093 O2-
0.078159 0.209404 0.741648 O2-
0.049265 0.843555 0.691190 O2-
0.950735 0.343555 0.746745 O2-
0.918787 0.943480 0.703268 O2-
0.081213 0.443480 0.758824 O2-
0.944691 0.504327 0.775501 O2-
0.055309 0.004327 0.719945 O2-
0.322795 0.926111 0.776909 O2-
0.677205 0.426111 0.721353 O2-
0.313918 0.066074 0.764033 O2-
0.686082 0.566074 0.708478 O2-
0.643576 0.041349 0.678971 O2-
0.356424 0.541349 0.734527 O2-
0.795305 0.153257 0.773918 O2-
0.204695 0.653257 0.718363 O2-
0.351974 0.154647 0.692497 O2-
0.648026 0.654647 0.748053 O2-
0.281781 0.224590 0.671717 O2-
0.718219 0.724590 0.727273 O2-
0.751546 0.252705 0.702825 O2-
0.248454 0.752705 0.758381 O2-
0.656290 0.330648 0.682704 O2-
0.343710 0.830648 0.738259 O2-
0.215121 0.332841 0.711690 O2-
0.784879 0.832841 0.767245 O2-
0.355777 0.446708 0.695762 O2-
0.644223 0.946708 0.751318 O2-
0.649890 0.536665 0.678712 O2-
0.350110 0.036665 0.734267 O2-
0.785996 0.649394 0.773684 O2-
0.214004 0.149394 0.718128 O2-
0.340793 0.651785 0.691898 O2-
0.659207 0.151785 0.747454 O2-
0.258044 0.728542 0.671512 O2-
0.741956 0.228542 0.727068 O2-
0.725734 0.758375 0.702708 O2-
0.274266 0.258375 0.758263 O2-
0.642950 0.828801 0.682060 O2-
0.357050 0.328801 0.737616 O2-
0.205272 0.829973 0.711541 O2-
0.794728 0.329973 0.767097 O2-
0.347295 0.944360 0.695567 O2-
0.652705 0.444360 0.751123 O2-
0.677470 0.919559 0.721676 O2-
0.322530 0.419559 0.777232 O2-
0.678914 0.057634 0.708280 O2-
0.321086 0.557634 0.763836 O2-
