Li1                                     
   1.00000000000000     
    -2.2044630000000001    1.7134090000000000    1.7134090000000000
     2.2044630000000001   -1.7134090000000000    1.7134090000000000
     1.2223550000000001    1.7134090000000000   -1.7134090000000000
   Li
     1
Direct
  0.0000000000000000  0.0000000000000000  0.0000000000000000
 
  0.00000000E+00  0.00000000E+00  0.00000000E+00
