Li28 O28
1.0
7.703522 0.000000 0.000000
0.000000 2.754274 -4.770543
0.000000 0.000000 63.607238
Li O
28 28
Selective dynamics
direct
0.500000 0.000000 0.025000 T T T Li+
0.000000 0.000000 0.025000 T T T Li+
0.250000 0.666667 0.025000 T T T Li+
0.750000 0.333333 0.025000 T T T Li+
0.500000 0.000000 0.075000 T T T Li+
0.000000 0.000000 0.075000 T T T Li+
0.250000 0.666667 0.075000 T T T Li+
0.750000 0.333333 0.075000 T T T Li+
0.500000 0.000000 0.125000 F F F Li+
0.000000 0.000000 0.125000 F F F Li+
0.250000 0.666667 0.125000 F F F Li+
0.750000 0.333333 0.125000 F F F Li+
0.500000 0.000000 0.175000 F F F Li+
0.000000 0.000000 0.175000 F F F Li+
0.250000 0.666667 0.175000 F F F Li+
0.750000 0.333333 0.175000 F F F Li+
0.500000 0.000000 0.225000 F F F Li+
0.000000 0.000000 0.225000 F F F Li+
0.250000 0.666667 0.225000 F F F Li+
0.750000 0.333333 0.225000 F F F Li+
0.500000 0.000000 0.275000 T T T Li+
0.000000 0.000000 0.275000 T T T Li+
0.250000 0.666667 0.275000 T T T Li+
0.750000 0.333333 0.275000 T T T Li+
0.500000 0.000000 0.325000 T T T Li+
0.000000 0.000000 0.325000 T T T Li+
0.250000 0.666667 0.325000 T T T Li+
0.750000 0.333333 0.325000 T T T Li+
0.850690 0.666667 0.025000 T T T O-
0.350690 0.333333 0.025000 T T T O-
0.149310 0.333333 0.025000 T T T O-
0.649310 0.666667 0.025000 T T T O-
0.850690 0.666667 0.075000 T T T O-
0.350690 0.333333 0.075000 T T T O-
0.149310 0.333333 0.075000 T T T O-
0.649310 0.666667 0.075000 T T T O-
0.850690 0.666667 0.125000 F F F O-
0.350690 0.333333 0.125000 F F F O-
0.149310 0.333333 0.125000 F F F O-
0.649310 0.666667 0.125000 F F F O-
0.850690 0.666667 0.175000 F F F O-
0.350690 0.333333 0.175000 F F F O-
0.149310 0.333333 0.175000 F F F O-
0.649310 0.666667 0.175000 F F F O-
0.850690 0.666667 0.225000 F F F O-
0.350690 0.333333 0.225000 F F F O-
0.149310 0.333333 0.225000 F F F O-
0.649310 0.666667 0.225000 F F F O-
0.850690 0.666667 0.275000 T T T O-
0.350690 0.333333 0.275000 T T T O-
0.149310 0.333333 0.275000 T T T O-
0.649310 0.666667 0.275000 T T T O-
0.850690 0.666667 0.325000 T T T O-
0.350690 0.333333 0.325000 T T T O-
0.149310 0.333333 0.325000 T T T O-
0.649310 0.666667 0.325000 T T T O-
