Li5 P2 N1 O6                            
   1.00000000000000     
     0.0000032927092362   -0.0504089650377842    5.1335141664669477
     6.3328383909328716    0.0000093187643572    0.0000049308106310
     0.0000085910279987    5.4131189289899053   -0.0534375263125914
   Li   P    N    O 
     5     2     1     6
Direct
  0.5874703016552280  0.0000025016979927  0.8503458638984371
  0.4919154198902231  0.7420214124586163  0.3349620233861235
 -0.0134910972639970  0.7003117335532100  0.6317396007587551
 -0.0134934499188319  0.2996959252688863  0.6317393639703471
  0.4919106309173308  0.2579767052500336  0.3349643903712566
  0.5019885159961148  0.5000023777207765  0.8185540590943259
 -0.0058905161747451 -0.0000029041769151  0.2141943908205921
  0.5389744846872526  0.4999983487458942  0.1151505967191252
  0.1114324769606743  0.1999496583084222  0.3323545198804558
  0.6243987540600522  0.7036718869596570  0.6929250133944596
  0.1114330021328327  0.8000440876824456  0.3323459270632286
  0.6243984786825155  0.2963281704616400  0.6929239794088287
  0.2056789234227128  0.5000018010151240  0.7625182394855825
  0.6895310749526673 -0.0000017049457832  0.2033100317484836
 
  0.00000000E+00  0.00000000E+00  0.00000000E+00
  0.00000000E+00  0.00000000E+00  0.00000000E+00
  0.00000000E+00  0.00000000E+00  0.00000000E+00
  0.00000000E+00  0.00000000E+00  0.00000000E+00
  0.00000000E+00  0.00000000E+00  0.00000000E+00
  0.00000000E+00  0.00000000E+00  0.00000000E+00
  0.00000000E+00  0.00000000E+00  0.00000000E+00
  0.00000000E+00  0.00000000E+00  0.00000000E+00
  0.00000000E+00  0.00000000E+00  0.00000000E+00
  0.00000000E+00  0.00000000E+00  0.00000000E+00
  0.00000000E+00  0.00000000E+00  0.00000000E+00
  0.00000000E+00  0.00000000E+00  0.00000000E+00
  0.00000000E+00  0.00000000E+00  0.00000000E+00
  0.00000000E+00  0.00000000E+00  0.00000000E+00
