P56 O140
1.0
8.166914 0.000000 -0.000000
0.000000 8.741067 -0.283502
0.000000 0.000000 57.922765
P O
56 140
Selective dynamics
direct
0.923152 0.861695 0.993085 T T T P5+
0.076848 0.320124 0.916006 F F F P5+
0.826848 0.361695 0.993085 T T T P5+
0.173152 0.729215 0.961461 T T T P5+
0.423152 0.952604 0.947630 F F F P5+
0.576848 0.229215 0.961461 T T T P5+
0.326848 0.452604 0.947630 F F F P5+
0.673152 0.820124 0.916006 F F F P5+
0.923152 0.043513 0.902176 F F F P5+
0.076848 0.501942 0.825097 F F F P5+
0.826848 0.543513 0.902176 F F F P5+
0.173152 0.911033 0.870552 F F F P5+
0.423152 0.134422 0.856721 F F F P5+
0.576848 0.411033 0.870552 F F F P5+
0.326848 0.634422 0.856721 F F F P5+
0.673152 0.001942 0.825097 F F F P5+
0.923152 0.225331 0.811267 F F F P5+
0.076848 0.683760 0.734188 F F F P5+
0.826848 0.725331 0.811267 F F F P5+
0.173152 0.092851 0.779643 F F F P5+
0.423152 0.316240 0.765812 F F F P5+
0.576848 0.592851 0.779643 F F F P5+
0.326848 0.816240 0.765812 F F F P5+
0.673152 0.183760 0.734188 F F F P5+
0.923152 0.407149 0.720357 F F F P5+
0.076848 0.865578 0.643279 F F F P5+
0.826848 0.907149 0.720357 F F F P5+
0.173152 0.274669 0.688733 F F F P5+
0.423152 0.498058 0.674903 F F F P5+
0.576848 0.774669 0.688733 F F F P5+
0.326848 0.998058 0.674903 F F F P5+
0.673152 0.365578 0.643279 F F F P5+
0.923152 0.588967 0.629448 F F F P5+
0.076848 0.047396 0.552370 F F F P5+
0.826848 0.088967 0.629448 F F F P5+
0.173152 0.456487 0.597824 F F F P5+
0.423152 0.679876 0.583994 F F F P5+
0.576848 0.956487 0.597824 F F F P5+
0.326848 0.179876 0.583994 F F F P5+
0.673152 0.547396 0.552370 F F F P5+
0.923152 0.770785 0.538539 F F F P5+
0.076848 0.229215 0.461461 F F F P5+
0.826848 0.270785 0.538539 F F F P5+
0.173152 0.638305 0.506915 F F F P5+
0.423152 0.861695 0.493085 F F F P5+
0.576848 0.138305 0.506915 F F F P5+
0.326848 0.361695 0.493085 F F F P5+
0.673152 0.729215 0.461461 F F F P5+
0.923152 0.952604 0.447630 F F F P5+
0.076848 0.411033 0.370552 T T T P5+
0.826848 0.452604 0.447630 F F F P5+
0.173152 0.820124 0.416006 F F F P5+
0.423152 0.043513 0.402176 T T T P5+
0.576848 0.320124 0.416006 F F F P5+
0.326848 0.543513 0.402176 T T T P5+
0.673152 0.911033 0.370552 T T T P5+
0.833418 0.934033 0.974611 T T T O2-
0.166582 0.146298 0.985224 T T T O2-
0.416582 0.524942 0.929156 F F F O2-
0.083418 0.737207 0.939769 F F F O2-
0.250000 0.565731 0.967135 T T T O2-
0.000000 0.156640 0.921680 F F F O2-
0.079208 0.760569 0.985203 T T T O2-
0.920791 0.431524 0.918751 F F F O2-
0.170792 0.351478 0.939748 F F F O2-
0.329208 0.840614 0.964205 T T T O2-
0.333418 0.024942 0.929156 F F F O2-
0.666582 0.237207 0.939769 F F F O2-
0.916582 0.434033 0.974611 T T T O2-
0.583418 0.646298 0.985224 T T T O2-
0.750000 0.656640 0.921680 F F F O2-
0.500000 0.065731 0.967135 T T T O2-
0.579208 0.851478 0.939748 F F F O2-
0.420792 0.340614 0.964205 T T T O2-
0.670792 0.260569 0.985203 T T T O2-
0.829208 0.931524 0.918751 F F F O2-
0.833418 0.115851 0.883702 F F F O2-
0.166582 0.328116 0.894315 F F F O2-
0.416582 0.706760 0.838247 F F F O2-
0.083418 0.919025 0.848860 F F F O2-
0.250000 0.747549 0.876226 F F F O2-
0.000000 0.338458 0.830771 F F F O2-
0.079208 0.942387 0.894294 F F F O2-
0.920791 0.613342 0.827842 F F F O2-
0.170792 0.533296 0.848839 F F F O2-
0.329208 0.022433 0.873296 F F F O2-
0.333418 0.206760 0.838247 F F F O2-
0.666582 0.419025 0.848860 F F F O2-
0.916582 0.615851 0.883702 F F F O2-
0.583418 0.828116 0.894315 F F F O2-
0.750000 0.838458 0.830771 F F F O2-
0.500000 0.247549 0.876226 F F F O2-
0.579208 0.033296 0.848839 F F F O2-
0.420792 0.522433 0.873296 F F F O2-
0.670792 0.442387 0.894294 F F F O2-
0.829208 0.113342 0.827842 F F F O2-
0.833418 0.297669 0.792793 F F F O2-
0.166582 0.509934 0.803406 F F F O2-
0.416582 0.888578 0.747338 F F F O2-
0.083418 0.100843 0.757951 F F F O2-
0.250000 0.929367 0.785316 F F F O2-
0.000000 0.520276 0.739862 F F F O2-
0.079208 0.124205 0.803385 F F F O2-
0.920791 0.795160 0.736933 F F F O2-
0.170792 0.715114 0.757930 F F F O2-
0.329208 0.204251 0.782387 F F F O2-
0.333418 0.388578 0.747338 F F F O2-
0.666582 0.600843 0.757951 F F F O2-
0.916582 0.797669 0.792793 F F F O2-
0.583418 0.009934 0.803406 F F F O2-
0.750000 0.020276 0.739862 F F F O2-
0.500000 0.429367 0.785316 F F F O2-
0.579208 0.215114 0.757930 F F F O2-
0.420792 0.704251 0.782387 F F F O2-
0.670792 0.624205 0.803385 F F F O2-
0.829208 0.295160 0.736933 F F F O2-
0.833418 0.479487 0.701883 F F F O2-
0.166582 0.691753 0.712497 F F F O2-
0.416582 0.070396 0.656429 F F F O2-
0.083418 0.282662 0.667042 F F F O2-
0.250000 0.111185 0.694407 F F F O2-
0.000000 0.702094 0.648953 F F F O2-
0.079208 0.306024 0.712476 F F F O2-
0.920791 0.976978 0.646023 F F F O2-
0.170792 0.896933 0.667021 F F F O2-
0.329208 0.386069 0.691478 F F F O2-
0.333418 0.570396 0.656429 F F F O2-
0.666582 0.782662 0.667042 F F F O2-
0.916582 0.979487 0.701883 F F F O2-
0.583418 0.191753 0.712497 F F F O2-
0.750000 0.202094 0.648953 F F F O2-
0.500000 0.611185 0.694407 F F F O2-
0.579208 0.396933 0.667021 F F F O2-
0.420792 0.886069 0.691478 F F F O2-
0.670792 0.806024 0.712476 F F F O2-
0.829208 0.476978 0.646023 F F F O2-
0.833418 0.661305 0.610974 F F F O2-
0.166582 0.873571 0.621588 F F F O2-
0.416582 0.252214 0.565520 F F F O2-
0.083418 0.464480 0.576133 F F F O2-
0.250000 0.293003 0.603498 F F F O2-
0.000000 0.883912 0.558044 F F F O2-
0.079208 0.487842 0.621567 F F F O2-
0.920791 0.158796 0.555114 F F F O2-
0.170792 0.078751 0.576112 F F F O2-
0.329208 0.567887 0.600569 F F F O2-
0.333418 0.752214 0.565520 F F F O2-
0.666582 0.964480 0.576133 F F F O2-
0.916582 0.161305 0.610974 F F F O2-
0.583418 0.373571 0.621588 F F F O2-
0.750000 0.383912 0.558044 F F F O2-
0.500000 0.793003 0.603498 F F F O2-
0.579208 0.578751 0.576112 F F F O2-
0.420792 0.067887 0.600569 F F F O2-
0.670792 0.987842 0.621567 F F F O2-
0.829208 0.658796 0.555114 F F F O2-
0.833418 0.843123 0.520065 F F F O2-
0.166582 0.055389 0.530679 F F F O2-
0.416582 0.434033 0.474611 F F F O2-
0.083418 0.646298 0.485224 F F F O2-
0.250000 0.474822 0.512589 F F F O2-
0.000000 0.065731 0.467135 F F F O2-
0.079208 0.669660 0.530658 F F F O2-
0.920791 0.340614 0.464205 F F F O2-
0.170792 0.260569 0.485203 F F F O2-
0.329208 0.749705 0.509660 F F F O2-
0.333418 0.934033 0.474611 F F F O2-
0.666582 0.146298 0.485224 F F F O2-
0.916582 0.343123 0.520065 F F F O2-
0.583418 0.555389 0.530679 F F F O2-
0.750000 0.565731 0.467135 F F F O2-
0.500000 0.974822 0.512589 F F F O2-
0.579208 0.760569 0.485203 F F F O2-
0.420792 0.249705 0.509660 F F F O2-
0.670792 0.169660 0.530658 F F F O2-
0.829208 0.840614 0.464205 F F F O2-
0.833418 0.024942 0.429156 F F F O2-
0.166582 0.237207 0.439769 F F F O2-
0.416582 0.615851 0.383702 T T T O2-
0.083418 0.828116 0.394315 F F F O2-
0.250000 0.656640 0.421680 T T T O2-
0.000000 0.247549 0.376226 T T T O2-
0.079208 0.851478 0.439748 F F F O2-
0.920791 0.522433 0.373296 T T T O2-
0.170792 0.442387 0.394294 T T T O2-
0.329208 0.931524 0.418751 F F F O2-
0.333418 0.115851 0.383702 T T T O2-
0.666582 0.328116 0.394315 F F F O2-
0.916582 0.524942 0.429156 F F F O2-
0.583418 0.737207 0.439769 F F F O2-
0.750000 0.747549 0.376226 T T T O2-
0.500000 0.156640 0.421680 F F F O2-
0.579208 0.942387 0.394294 T T T O2-
0.420792 0.431524 0.418751 T T T O2-
0.670792 0.351478 0.439748 F F F O2-
0.829208 0.022433 0.373296 T T T O2-
