Li5 P2 N1 O6                            
   1.00000000000000     
    -0.0251085526537624   -0.3519901074617906    4.9792512658006185
     6.8314658631878791    0.1960641465052067   -0.0442713620637881
     0.1846182483022106    4.7676177749101543   -0.3484888383968050
   Li   P    N    O 
     5     2     1     6
Direct
  0.5277910438249281 -0.0081100260513661  0.7740811207230383
  0.4385589258389138  0.7543031437186766  0.2976754549564376
 -0.0977555470618969  0.5861842353177379  0.4439615582980052
  0.0392538420576146  0.2899065712885278  0.7571609355891598
  0.4947810245369859  0.2796467176746505  0.3555218223991234
  0.5298460761886771  0.5341616822731283  0.8124555085461823
 -0.0226228840540936 -0.0140028418477539  0.3269264047825265
  0.1751645128361303  0.1056492297779891  0.5242736668109083
  0.6363993606699421  0.7302415296143766  0.6767204935454570
  0.0607485646605291  0.8003860768028379  0.2059818677259663
  0.6801511414255761  0.3580806766177045  0.7111382793824862
  0.5789671586401075  0.5283706723220449  0.1412117182662551
  0.2251518884993805  0.5175773162695053  0.7054210951985183
  0.6798218919372375  0.0376050162219387  0.2154980737759370
 
  0.00000000E+00  0.00000000E+00  0.00000000E+00
  0.00000000E+00  0.00000000E+00  0.00000000E+00
  0.00000000E+00  0.00000000E+00  0.00000000E+00
  0.00000000E+00  0.00000000E+00  0.00000000E+00
  0.00000000E+00  0.00000000E+00  0.00000000E+00
  0.00000000E+00  0.00000000E+00  0.00000000E+00
  0.00000000E+00  0.00000000E+00  0.00000000E+00
  0.00000000E+00  0.00000000E+00  0.00000000E+00
  0.00000000E+00  0.00000000E+00  0.00000000E+00
  0.00000000E+00  0.00000000E+00  0.00000000E+00
  0.00000000E+00  0.00000000E+00  0.00000000E+00
  0.00000000E+00  0.00000000E+00  0.00000000E+00
  0.00000000E+00  0.00000000E+00  0.00000000E+00
  0.00000000E+00  0.00000000E+00  0.00000000E+00
