Li61 P7 N32                             
   1.00000000000000     
     0.0020874179957640    9.4836380665131657   -0.0009763538598428
    -0.0049631292420057   -0.0004055019779025    9.5553058095733334
     9.5447793582605769    0.0027878116815473   -0.0053205786936745
   Li   P    N 
    61     7    32
Direct
  0.4925383991822426  0.0020816962675751  0.4986164582098522
  0.0029942141928619  0.5038405147414985 -0.0104762270584014
  0.4918951747102351 -0.0063347381279752 -0.0012899627040479
 -0.0036173758445317 -0.0004778080823502  0.5001911619519830
  0.4856469118581841  0.4934389700334364 -0.0043493179378023
  0.0010887057945004  0.4995712448233283  0.4923877000615574
  0.7449149260071948 -0.0035111358956112  0.4961896348291337
  0.2426665809436038 -0.0126471168300454  0.5019472492415484
  0.7630624201254306  0.4987697208010272  0.4965435679241763
  0.2305986155023848  0.5025248145831376  0.5100027577761247
  0.2575930495641057  0.0055401990432166 -0.0027727617981491
  0.7311107679310835 -0.0021147629130465 -0.0023757309466901
  0.6701827419564333  0.4234782321920938  0.0899377666163903
  0.5097399287790870  0.2337652574126698 -0.0202640347358106
  0.4960736343170887  0.7516532525964582  0.0097258327802700
 -0.0111728318609209  0.4865946789570975  0.2499870538555201
 -0.0151514975630110  0.5125961548798139  0.7348811927072487
  0.2253226989114270  0.2289478624306105  0.2111786737665705
  0.2384989131643389  0.7945441387660772  0.7863529193253669
  0.2527941665086222  0.2961785387799272  0.7197157054840913
  0.2702429525677685  0.7436017820508991  0.2856569818000874
  0.7638617029018570  0.3033710807191180  0.3053041620681755
  0.7564627409059967  0.7015704357523244  0.6993804566136907
  0.7285834026669802  0.1951791502009808  0.8058042352720485
  0.7436427177370568  0.8000317666539173  0.2011047683556014
  0.9849450231826196  0.2428723425038359  0.2425547321913100
  0.9839368828324890  0.7538418335398016  0.7528579909904859
  0.2554591277048421  0.2216598215678742  0.4875138718301670
  0.2581133252030979  0.7500603187056544  0.5305863959551441
  0.7497191459788691  0.2261160548338393  0.5522755113308054
  0.7393940256246183  0.7608066532796468  0.4562898567390623
  0.8254558848328895  0.5911396159603304  0.0740539055403975
  0.8201418018207435  0.4052605256569241  0.9214337559283985
  0.2224997836301801  0.5015591967149223  0.2548894606059450
  0.2213697839218773  0.5493355830194691  0.7494935545982544
  0.5159482826988689  0.7502583361000305  0.2484738591562217
  0.5059357947098443  0.2555604965873102  0.7409830995980349
  0.2335762061440929  0.9888501344749980  0.2497840606514313
  0.2316919953644047  0.0354695499720227  0.7442848799543517
  0.2655776839861215  0.2468444570591530  0.9656242018054976
  0.2522312192240667  0.7660508719664992  0.0334010336295192
  0.7520331134314733  0.9544761996945349  0.7326082194907011
  0.7555552066412049  0.0423407956078625  0.2607768414930979
  0.7527644390841508  0.7778971416826937  0.9511997849842927
  0.7655422792855927  0.2152524308261755  0.0552978166977166
  0.0023865323084732  0.2521299247872307  0.7627749414208224
  0.0153270269957913  0.7435858750165261  0.2322228259275997
  0.5048745183814956  0.2580573911810394  0.2308558228347780
  0.4840040448249880  0.7364445479028353  0.7515657494151210
  0.0116372259407449  0.2640109922645611  0.0133896902927394
  0.0045738264016930  0.7436399399883323 -0.0179782844487364
  0.5124732115039888  0.2352839386036342  0.4949407699431859
  0.4975711609196621  0.7642332968211266  0.5022640515140391
  0.4875638636278383  0.5260026211824423  0.2312469560064509
  0.4791589101270731  0.4852790171404244  0.7565311451833558
 -0.0046425567867989 -0.0091238156917792  0.2610053444386302
 -0.0075568686489712  0.0058171021814730  0.7392108202353249
  0.3566713387112075  0.3622147310642470  0.3585310959853922
  0.7321166333287442  0.4500943611228088  0.7175575069364950
  0.7351712023101621  0.5515114733742843  0.2767328596149448
  0.6670508006438852  0.5766353937005378  0.9071409688844766
  0.4964467181311365  0.5033208026641587  0.4976954616979897
 -0.0016541830465255  0.0029709147798507 -0.0004174446768962
  0.2440028381077359  0.5060181863009928  0.0015500967225607
 -0.0019140632369701  0.7491034058469934  0.4945843474011015
  0.0016268556690471  0.2503558000012608  0.5010599345617790
  0.4954698012231544  0.0044955624731267  0.2475175331094845
  0.4938655803545712 -0.0030826379470429  0.7491642767535588
  0.5988979611577433  0.5998390443573364  0.6010226849783046
  0.5939546441603663  0.4048446284363125  0.3859664672282369
  0.8947973347843691  0.8975787123247583  0.0971081396392265
  0.8934853998828564  0.1079361286147799  0.9018927899646737
  0.1024391626936800  0.9071499550654031  0.8927050841988546
  0.1021444836687822  0.0994000500399846  0.1065103263374250
  0.3859789427412814  0.6043381009251652  0.4011690145080546
  0.3929206504511102  0.3895683064203184  0.5874101452683167
  0.1098019954437823  0.3449988433579752  0.3920911755046842
  0.0963342721243328  0.6497409987067868  0.6044761898444522
  0.1052174436070245  0.1487715096975891  0.6052166814581051
  0.1097399820624389  0.8500860224703197  0.3977826040523268
  0.8887439087451492  0.1494163640433882  0.4060155349259980
  0.8845344704599944  0.8496550886585554  0.5896225682856414
  0.8642550227814232  0.3814329837853391  0.1301020423388370
  0.8623103265259690  0.6162957380921158  0.8656419926764087
  0.1396716369219844  0.6069423910803595  0.1055161887548087
  0.1515295717830891  0.4033286307484408  0.8876865302375432
  0.3910063630936596  0.8948781541639832  0.1547779932936104
  0.3954789999487084  0.1064859069406142  0.8484449656143336
  0.3894582341298699  0.1135699058536410  0.3461177144281335
  0.3831545893742007  0.8986013678373264  0.6480867218355730
  0.3397571876846053  0.3969786873485244  0.1101925435005777
  0.3450183001572168  0.6164498335484468  0.9029637105200214
  0.6071364441077173  0.0921398807337988  0.6473849120155150
  0.6059971744559216  0.9095862511667326  0.3506489000864227
  0.6304142704230215  0.6336700149439390  0.1142844605256698
  0.6237625280020194  0.3701585516586077  0.8792583319014052
  0.9018356584747841  0.3557491835039527  0.6032211048634188
  0.9002078728800600  0.6468031356666953  0.3864635190238970
  0.5967033296235954  0.1034114842411152  0.1404527024669681
  0.5924477535950444  0.8897300312188779  0.8501357133389869
 
  0.00000000E+00  0.00000000E+00  0.00000000E+00
  0.00000000E+00  0.00000000E+00  0.00000000E+00
  0.00000000E+00  0.00000000E+00  0.00000000E+00
  0.00000000E+00  0.00000000E+00  0.00000000E+00
  0.00000000E+00  0.00000000E+00  0.00000000E+00
  0.00000000E+00  0.00000000E+00  0.00000000E+00
  0.00000000E+00  0.00000000E+00  0.00000000E+00
  0.00000000E+00  0.00000000E+00  0.00000000E+00
  0.00000000E+00  0.00000000E+00  0.00000000E+00
  0.00000000E+00  0.00000000E+00  0.00000000E+00
  0.00000000E+00  0.00000000E+00  0.00000000E+00
  0.00000000E+00  0.00000000E+00  0.00000000E+00
  0.00000000E+00  0.00000000E+00  0.00000000E+00
  0.00000000E+00  0.00000000E+00  0.00000000E+00
  0.00000000E+00  0.00000000E+00  0.00000000E+00
  0.00000000E+00  0.00000000E+00  0.00000000E+00
  0.00000000E+00  0.00000000E+00  0.00000000E+00
  0.00000000E+00  0.00000000E+00  0.00000000E+00
  0.00000000E+00  0.00000000E+00  0.00000000E+00
  0.00000000E+00  0.00000000E+00  0.00000000E+00
  0.00000000E+00  0.00000000E+00  0.00000000E+00
  0.00000000E+00  0.00000000E+00  0.00000000E+00
  0.00000000E+00  0.00000000E+00  0.00000000E+00
  0.00000000E+00  0.00000000E+00  0.00000000E+00
  0.00000000E+00  0.00000000E+00  0.00000000E+00
  0.00000000E+00  0.00000000E+00  0.00000000E+00
  0.00000000E+00  0.00000000E+00  0.00000000E+00
  0.00000000E+00  0.00000000E+00  0.00000000E+00
  0.00000000E+00  0.00000000E+00  0.00000000E+00
  0.00000000E+00  0.00000000E+00  0.00000000E+00
  0.00000000E+00  0.00000000E+00  0.00000000E+00
  0.00000000E+00  0.00000000E+00  0.00000000E+00
  0.00000000E+00  0.00000000E+00  0.00000000E+00
  0.00000000E+00  0.00000000E+00  0.00000000E+00
  0.00000000E+00  0.00000000E+00  0.00000000E+00
  0.00000000E+00  0.00000000E+00  0.00000000E+00
  0.00000000E+00  0.00000000E+00  0.00000000E+00
  0.00000000E+00  0.00000000E+00  0.00000000E+00
  0.00000000E+00  0.00000000E+00  0.00000000E+00
  0.00000000E+00  0.00000000E+00  0.00000000E+00
  0.00000000E+00  0.00000000E+00  0.00000000E+00
  0.00000000E+00  0.00000000E+00  0.00000000E+00
  0.00000000E+00  0.00000000E+00  0.00000000E+00
  0.00000000E+00  0.00000000E+00  0.00000000E+00
  0.00000000E+00  0.00000000E+00  0.00000000E+00
  0.00000000E+00  0.00000000E+00  0.00000000E+00
  0.00000000E+00  0.00000000E+00  0.00000000E+00
  0.00000000E+00  0.00000000E+00  0.00000000E+00
  0.00000000E+00  0.00000000E+00  0.00000000E+00
  0.00000000E+00  0.00000000E+00  0.00000000E+00
  0.00000000E+00  0.00000000E+00  0.00000000E+00
  0.00000000E+00  0.00000000E+00  0.00000000E+00
  0.00000000E+00  0.00000000E+00  0.00000000E+00
  0.00000000E+00  0.00000000E+00  0.00000000E+00
  0.00000000E+00  0.00000000E+00  0.00000000E+00
  0.00000000E+00  0.00000000E+00  0.00000000E+00
  0.00000000E+00  0.00000000E+00  0.00000000E+00
  0.00000000E+00  0.00000000E+00  0.00000000E+00
  0.00000000E+00  0.00000000E+00  0.00000000E+00
  0.00000000E+00  0.00000000E+00  0.00000000E+00
  0.00000000E+00  0.00000000E+00  0.00000000E+00
  0.00000000E+00  0.00000000E+00  0.00000000E+00
  0.00000000E+00  0.00000000E+00  0.00000000E+00
  0.00000000E+00  0.00000000E+00  0.00000000E+00
  0.00000000E+00  0.00000000E+00  0.00000000E+00
  0.00000000E+00  0.00000000E+00  0.00000000E+00
  0.00000000E+00  0.00000000E+00  0.00000000E+00
  0.00000000E+00  0.00000000E+00  0.00000000E+00
  0.00000000E+00  0.00000000E+00  0.00000000E+00
  0.00000000E+00  0.00000000E+00  0.00000000E+00
  0.00000000E+00  0.00000000E+00  0.00000000E+00
  0.00000000E+00  0.00000000E+00  0.00000000E+00
  0.00000000E+00  0.00000000E+00  0.00000000E+00
  0.00000000E+00  0.00000000E+00  0.00000000E+00
  0.00000000E+00  0.00000000E+00  0.00000000E+00
  0.00000000E+00  0.00000000E+00  0.00000000E+00
  0.00000000E+00  0.00000000E+00  0.00000000E+00
  0.00000000E+00  0.00000000E+00  0.00000000E+00
  0.00000000E+00  0.00000000E+00  0.00000000E+00
  0.00000000E+00  0.00000000E+00  0.00000000E+00
  0.00000000E+00  0.00000000E+00  0.00000000E+00
  0.00000000E+00  0.00000000E+00  0.00000000E+00
  0.00000000E+00  0.00000000E+00  0.00000000E+00
  0.00000000E+00  0.00000000E+00  0.00000000E+00
  0.00000000E+00  0.00000000E+00  0.00000000E+00
  0.00000000E+00  0.00000000E+00  0.00000000E+00
  0.00000000E+00  0.00000000E+00  0.00000000E+00
  0.00000000E+00  0.00000000E+00  0.00000000E+00
  0.00000000E+00  0.00000000E+00  0.00000000E+00
  0.00000000E+00  0.00000000E+00  0.00000000E+00
  0.00000000E+00  0.00000000E+00  0.00000000E+00
  0.00000000E+00  0.00000000E+00  0.00000000E+00
  0.00000000E+00  0.00000000E+00  0.00000000E+00
  0.00000000E+00  0.00000000E+00  0.00000000E+00
  0.00000000E+00  0.00000000E+00  0.00000000E+00
  0.00000000E+00  0.00000000E+00  0.00000000E+00
  0.00000000E+00  0.00000000E+00  0.00000000E+00
  0.00000000E+00  0.00000000E+00  0.00000000E+00
  0.00000000E+00  0.00000000E+00  0.00000000E+00
  0.00000000E+00  0.00000000E+00  0.00000000E+00
