Li7 P2 N1 O7                            
   1.00000000000000     
     4.8909957323883688    0.0000000636435888    0.0303824983136930
     0.0000001258118406    6.0860640217824313    0.0000000111868396
     0.0303244861837655    0.0000000179605097    5.5213382948369834
   Li   P    N    O 
     7     2     1     7
Direct
  0.0225212644503622  0.5000000458584160  0.1332534260712618
  0.5284421028101323  0.7056846260115535  0.3067483630078600
  0.5284422512743084  0.2943150889697487  0.3067481716432702
 -0.0192844779552319  0.7408815996428889  0.6858475736432186
 -0.0192844821356685  0.2591181314567143  0.6858484427764562
  0.5173033259073876  0.0000005116758064  0.9145210815061600
  0.4094711178670454  0.0000000220706234  0.5114643071928826
  0.4949913066114243  0.5000000685211646  0.8149220234099788
  0.0011353197667463 -0.0000000152963996  0.1963641323170583
  0.6236894661721684  0.4999999638877548  0.0716038383578514
  0.1222169593408464  0.2039351427297726  0.3293551048399508
  0.1222169061412343  0.7960647906371539  0.3293551590975079
  0.1731702481280559  0.5000000895982397  0.8059306817982117
  0.6819838678044847 -0.0000000083439271  0.2255951239328224
  0.5819021324048275  0.7166974380187248  0.6587995166900229
  0.5819022461904710  0.2833024853992519  0.6587997762562823
  0.0823104452214325  0.0000000191625135  0.9217632774592017
 
  0.00000000E+00  0.00000000E+00  0.00000000E+00
  0.00000000E+00  0.00000000E+00  0.00000000E+00
  0.00000000E+00  0.00000000E+00  0.00000000E+00
  0.00000000E+00  0.00000000E+00  0.00000000E+00
  0.00000000E+00  0.00000000E+00  0.00000000E+00
  0.00000000E+00  0.00000000E+00  0.00000000E+00
  0.00000000E+00  0.00000000E+00  0.00000000E+00
  0.00000000E+00  0.00000000E+00  0.00000000E+00
  0.00000000E+00  0.00000000E+00  0.00000000E+00
  0.00000000E+00  0.00000000E+00  0.00000000E+00
  0.00000000E+00  0.00000000E+00  0.00000000E+00
  0.00000000E+00  0.00000000E+00  0.00000000E+00
  0.00000000E+00  0.00000000E+00  0.00000000E+00
  0.00000000E+00  0.00000000E+00  0.00000000E+00
  0.00000000E+00  0.00000000E+00  0.00000000E+00
  0.00000000E+00  0.00000000E+00  0.00000000E+00
  0.00000000E+00  0.00000000E+00  0.00000000E+00
