Li61 P7 N32                             
   1.00000000000000     
     0.0018863095689577    9.4832119353442614   -0.0002916761599583
    -0.0050747597400446   -0.0000643007415276    9.5545322289316061
     9.5467814325607474    0.0022368701494394   -0.0052621203078332
   Li   P    N 
    61     7    32
Direct
  0.4919822131117819 -0.0007230602621915  0.4966500004706051
  0.0025223161600937  0.5027070115316432 -0.0146353605296640
  0.4919555365208779 -0.0091444291587954 -0.0033296844615856
 -0.0040434428260342 -0.0037801551873520  0.4980010760964064
  0.4853116474452019  0.4926476498214480 -0.0056982017712877
  0.0009556813928401  0.4962637561396439  0.4900965225365093
  0.7443468373171446 -0.0064624893400877  0.4938495251705817
  0.2417446827512630 -0.0156456765398640  0.5011489393414624
  0.7630102750600227  0.4951692277457818  0.4941327604268725
  0.2303517041233804  0.4997243674304961  0.5080787020472979
  0.2578086227946104  0.0028817110718259 -0.0035990560283869
  0.7307484455216396 -0.0046419721745562 -0.0059525535091707
  0.8251567446024726  0.5882650933742321  0.0723323467058426
  0.5083042940232964  0.2321696726390015 -0.0225967952427367
  0.4956065087235945  0.7489980529872179  0.0068168596915544
 -0.0122423999221772  0.4842426916687155  0.2471747025315952
 -0.0158971657468232  0.5096679848235677  0.7321379641020618
  0.2236547927430647  0.2260529198566619  0.2116473408738504
  0.2397327306720091  0.7921463108236408  0.7857101712667954
  0.2534347008716074  0.2933390183687995  0.7191299500426540
  0.2685582587372624  0.7400242851669130  0.2841259040604655
  0.7617375641306201  0.2997395921693309  0.3026782705587496
  0.7579092594929092  0.6973250461625868  0.6960076655661144
  0.7280065311751120  0.1920245897974107  0.8036094905772589
  0.7414895656619939  0.7977940443330153  0.1976531766157759
  0.9833787291461122  0.2406646757103470  0.2401990554815592
  0.9846289756144128  0.7510363157529706  0.7511480711052090
  0.2560598674649446  0.2190250648092877  0.4864607268069197
  0.2580716342542470  0.7469477216754683  0.5290927999833900
  0.7509708752695855  0.2218345848886837  0.5508553966328560
  0.7392726260543900  0.7584430251145905  0.4532080805805171
  0.7336095668377202  0.5482853667772957  0.2742306896836513
  0.8203745879452498  0.4017627335530929  0.9180636037285668
  0.2208113029689922  0.4976942352470170  0.2527346218179468
  0.2206703329154908  0.5466148041456880  0.7473646923670338
  0.5145309821898965  0.7477750742749951  0.2458222225284052
  0.5056410910306776  0.2522924444394692  0.7385298961702365
  0.2325242728864807  0.9859351707705656  0.2488683727265157
  0.2313106113862800  0.0329934812459924  0.7431051121201754
  0.2629921126528831  0.2439931842615137  0.9659173405508418
  0.2520849558493217  0.7633785142884520  0.0325245228083360
  0.7516663901266022  0.9500082649435104  0.7295338317955949
  0.7545030220910587  0.0386144326718944  0.2577594547395806
  0.7532229027335019  0.7753369584135525  0.9485026258322116
  0.7655471923072665  0.2117975073867926  0.0531751676159964
  0.0031156992002751  0.2493530756090180  0.7603693183319106
  0.0138461849181657  0.7413578935149799  0.2307525598417913
  0.5030059826398540  0.2560923284590485  0.2272144093242198
  0.4853209584774351  0.7334177700178938  0.7484454930196394
  0.0109583400984577  0.2623301891473260  0.0114014069160390
  0.0046115106587957  0.7420290619446770 -0.0192807538396856
  0.5131969355286602  0.2327039904982369  0.4923949250173397
  0.4972647461984750  0.7610987398912369  0.4998525175269636
  0.4869075137943511  0.5232415380155814  0.2296691541371111
  0.4780055409550303  0.4818539146346075  0.7556350262014004
 -0.0057850198294889 -0.0105382029054545  0.2589635756107497
 -0.0079701514033285  0.0031391181512600  0.7371967529197275
  0.3562930872661434  0.3595080693084954  0.3570459039305116
  0.7297653104928107  0.4466889253598224  0.7145110292172635
  0.6703051791903749  0.4205878699791806  0.0856534833274711
  0.6677099563957793  0.5740940935606965  0.9044560011988689
  0.4958969657408531  0.5003761525453813  0.4961865250089793
 -0.0019427282105753  0.0009403868868325 -0.0023809654134118
  0.2433951420195110  0.5034180157776167 -0.0003248303844977
 -0.0022036771689804  0.7457393639405722  0.4926789822925523
  0.0017923401490767  0.2471820692975158  0.4987492108523272
  0.4945414829057574  0.0022098964864577  0.2455499065400550
  0.4937321444200303 -0.0059351910159797  0.7472371636483168
  0.5985915449033511  0.5967219631622019  0.5993809066824298
  0.5931909311363761  0.4023221997652349  0.3841466194696355
  0.8940822710574874  0.8955759736246288  0.0951503010211197
  0.8934002528218017  0.1056943573527626  0.8996407252383123
  0.1024028656274927  0.9050770107687630  0.8911139014409567
  0.1015424716619244  0.0974538090545121  0.1046289327998862
  0.3854896965371181  0.6015216147342599  0.3996753773741716
  0.3924328554252279  0.3865180336220837  0.5857901597856340
  0.1098667996802777  0.3418059610912130  0.3898039713566013
  0.0959606308853677  0.6463627992563191  0.6024027616735315
  0.1052518839448455  0.1454797119867450  0.6028921846081751
  0.1091422108537643  0.8468681592264539  0.3959936851469270
  0.8885737944169380  0.1463414805139056  0.4037509315053817
  0.8843053971986765  0.8463734609958399  0.5875785941902778
  0.8633459213156998  0.3785677958221077  0.1275972585658235
  0.8626900624885048  0.6140832972406349  0.8633280964719596
  0.1387724195667458  0.6042430980272756  0.1036655936867201
  0.1510818957894877  0.4007243079168489  0.8857802183227422
  0.3901133389102452  0.8926618330238673  0.1528519623788529
  0.3954692503481956  0.1037039174299814  0.8464341908083446
  0.3888180801035622  0.1112652951506894  0.3441656165557228
  0.3830615222048415  0.8957559204979146  0.6461819741484730
  0.3393008836181080  0.3944283244646806  0.1081906690221085
  0.3440958002777451  0.6140108205667786  0.9010655958928518
  0.6071594288067734  0.0889512556851907  0.6454051491089103
  0.6050941847940178  0.9067253341689464  0.3483049156021066
  0.6296057078989481  0.6308164135206734  0.1118927898712532
  0.6230600285535611  0.3677107329895500  0.8765729324054794
  0.9019263383233985  0.3524944378011011  0.6010825603911195
  0.8998145693761209  0.6435378477958952  0.3846038953121799
  0.5957865561212941  0.1010811529378850  0.1384053360703758
  0.5922850246517656  0.8868598070797922  0.8482793956511291
 
  0.00000000E+00  0.00000000E+00  0.00000000E+00
  0.00000000E+00  0.00000000E+00  0.00000000E+00
  0.00000000E+00  0.00000000E+00  0.00000000E+00
  0.00000000E+00  0.00000000E+00  0.00000000E+00
  0.00000000E+00  0.00000000E+00  0.00000000E+00
  0.00000000E+00  0.00000000E+00  0.00000000E+00
  0.00000000E+00  0.00000000E+00  0.00000000E+00
  0.00000000E+00  0.00000000E+00  0.00000000E+00
  0.00000000E+00  0.00000000E+00  0.00000000E+00
  0.00000000E+00  0.00000000E+00  0.00000000E+00
  0.00000000E+00  0.00000000E+00  0.00000000E+00
  0.00000000E+00  0.00000000E+00  0.00000000E+00
  0.00000000E+00  0.00000000E+00  0.00000000E+00
  0.00000000E+00  0.00000000E+00  0.00000000E+00
  0.00000000E+00  0.00000000E+00  0.00000000E+00
  0.00000000E+00  0.00000000E+00  0.00000000E+00
  0.00000000E+00  0.00000000E+00  0.00000000E+00
  0.00000000E+00  0.00000000E+00  0.00000000E+00
  0.00000000E+00  0.00000000E+00  0.00000000E+00
  0.00000000E+00  0.00000000E+00  0.00000000E+00
  0.00000000E+00  0.00000000E+00  0.00000000E+00
  0.00000000E+00  0.00000000E+00  0.00000000E+00
  0.00000000E+00  0.00000000E+00  0.00000000E+00
  0.00000000E+00  0.00000000E+00  0.00000000E+00
  0.00000000E+00  0.00000000E+00  0.00000000E+00
  0.00000000E+00  0.00000000E+00  0.00000000E+00
  0.00000000E+00  0.00000000E+00  0.00000000E+00
  0.00000000E+00  0.00000000E+00  0.00000000E+00
  0.00000000E+00  0.00000000E+00  0.00000000E+00
  0.00000000E+00  0.00000000E+00  0.00000000E+00
  0.00000000E+00  0.00000000E+00  0.00000000E+00
  0.00000000E+00  0.00000000E+00  0.00000000E+00
  0.00000000E+00  0.00000000E+00  0.00000000E+00
  0.00000000E+00  0.00000000E+00  0.00000000E+00
  0.00000000E+00  0.00000000E+00  0.00000000E+00
  0.00000000E+00  0.00000000E+00  0.00000000E+00
  0.00000000E+00  0.00000000E+00  0.00000000E+00
  0.00000000E+00  0.00000000E+00  0.00000000E+00
  0.00000000E+00  0.00000000E+00  0.00000000E+00
  0.00000000E+00  0.00000000E+00  0.00000000E+00
  0.00000000E+00  0.00000000E+00  0.00000000E+00
  0.00000000E+00  0.00000000E+00  0.00000000E+00
  0.00000000E+00  0.00000000E+00  0.00000000E+00
  0.00000000E+00  0.00000000E+00  0.00000000E+00
  0.00000000E+00  0.00000000E+00  0.00000000E+00
  0.00000000E+00  0.00000000E+00  0.00000000E+00
  0.00000000E+00  0.00000000E+00  0.00000000E+00
  0.00000000E+00  0.00000000E+00  0.00000000E+00
  0.00000000E+00  0.00000000E+00  0.00000000E+00
  0.00000000E+00  0.00000000E+00  0.00000000E+00
  0.00000000E+00  0.00000000E+00  0.00000000E+00
  0.00000000E+00  0.00000000E+00  0.00000000E+00
  0.00000000E+00  0.00000000E+00  0.00000000E+00
  0.00000000E+00  0.00000000E+00  0.00000000E+00
  0.00000000E+00  0.00000000E+00  0.00000000E+00
  0.00000000E+00  0.00000000E+00  0.00000000E+00
  0.00000000E+00  0.00000000E+00  0.00000000E+00
  0.00000000E+00  0.00000000E+00  0.00000000E+00
  0.00000000E+00  0.00000000E+00  0.00000000E+00
  0.00000000E+00  0.00000000E+00  0.00000000E+00
  0.00000000E+00  0.00000000E+00  0.00000000E+00
  0.00000000E+00  0.00000000E+00  0.00000000E+00
  0.00000000E+00  0.00000000E+00  0.00000000E+00
  0.00000000E+00  0.00000000E+00  0.00000000E+00
  0.00000000E+00  0.00000000E+00  0.00000000E+00
  0.00000000E+00  0.00000000E+00  0.00000000E+00
  0.00000000E+00  0.00000000E+00  0.00000000E+00
  0.00000000E+00  0.00000000E+00  0.00000000E+00
  0.00000000E+00  0.00000000E+00  0.00000000E+00
  0.00000000E+00  0.00000000E+00  0.00000000E+00
  0.00000000E+00  0.00000000E+00  0.00000000E+00
  0.00000000E+00  0.00000000E+00  0.00000000E+00
  0.00000000E+00  0.00000000E+00  0.00000000E+00
  0.00000000E+00  0.00000000E+00  0.00000000E+00
  0.00000000E+00  0.00000000E+00  0.00000000E+00
  0.00000000E+00  0.00000000E+00  0.00000000E+00
  0.00000000E+00  0.00000000E+00  0.00000000E+00
  0.00000000E+00  0.00000000E+00  0.00000000E+00
  0.00000000E+00  0.00000000E+00  0.00000000E+00
  0.00000000E+00  0.00000000E+00  0.00000000E+00
  0.00000000E+00  0.00000000E+00  0.00000000E+00
  0.00000000E+00  0.00000000E+00  0.00000000E+00
  0.00000000E+00  0.00000000E+00  0.00000000E+00
  0.00000000E+00  0.00000000E+00  0.00000000E+00
  0.00000000E+00  0.00000000E+00  0.00000000E+00
  0.00000000E+00  0.00000000E+00  0.00000000E+00
  0.00000000E+00  0.00000000E+00  0.00000000E+00
  0.00000000E+00  0.00000000E+00  0.00000000E+00
  0.00000000E+00  0.00000000E+00  0.00000000E+00
  0.00000000E+00  0.00000000E+00  0.00000000E+00
  0.00000000E+00  0.00000000E+00  0.00000000E+00
  0.00000000E+00  0.00000000E+00  0.00000000E+00
  0.00000000E+00  0.00000000E+00  0.00000000E+00
  0.00000000E+00  0.00000000E+00  0.00000000E+00
  0.00000000E+00  0.00000000E+00  0.00000000E+00
  0.00000000E+00  0.00000000E+00  0.00000000E+00
  0.00000000E+00  0.00000000E+00  0.00000000E+00
  0.00000000E+00  0.00000000E+00  0.00000000E+00
  0.00000000E+00  0.00000000E+00  0.00000000E+00
  0.00000000E+00  0.00000000E+00  0.00000000E+00
