Li42 P14
1.0
3.668361 0.000000 -6.353787
0.000000 7.570718 -4.235858
0.000000 0.000000 72.009589
Li P
42 14
direct
0.000000 0.750000 0.034291 Li+
0.000000 0.250000 0.004879 Li+
0.333333 0.084119 0.053945 Li+
0.666667 0.584119 0.024533 Li+
0.666667 0.915881 0.044048 Li+
0.333333 0.415881 0.014637 Li+
0.000000 0.750000 0.093114 Li+
0.000000 0.250000 0.063702 Li+
0.333333 0.084119 0.112768 Li+
0.666667 0.584119 0.083356 Li+
0.666667 0.915881 0.102872 Li+
0.333333 0.415881 0.073460 Li+
0.000000 0.750000 0.151938 Li+
0.000000 0.250000 0.122526 Li+
0.333333 0.084119 0.171592 Li+
0.666667 0.584119 0.142180 Li+
0.666667 0.915881 0.161695 Li+
0.333333 0.415881 0.132284 Li+
0.000000 0.750000 0.210761 Li+
0.000000 0.250000 0.181349 Li+
0.333333 0.084119 0.230415 Li+
0.666667 0.584119 0.201004 Li+
0.666667 0.915881 0.220519 Li+
0.333333 0.415881 0.191107 Li+
0.000000 0.750000 0.269585 Li+
0.000000 0.250000 0.240173 Li+
0.333333 0.084119 0.289239 Li+
0.666667 0.584119 0.259827 Li+
0.666667 0.915881 0.279342 Li+
0.333333 0.415881 0.249931 Li+
0.000000 0.750000 0.328408 Li+
0.000000 0.250000 0.298996 Li+
0.333333 0.084119 0.348062 Li+
0.666667 0.584119 0.318651 Li+
0.666667 0.915881 0.338166 Li+
0.333333 0.415881 0.308754 Li+
0.000000 0.750000 0.387232 Li+
0.000000 0.250000 0.357820 Li+
0.333333 0.084119 0.406886 Li+
0.666667 0.584119 0.377474 Li+
0.666667 0.915881 0.396989 Li+
0.333333 0.415881 0.367578 Li+
0.333333 0.750000 0.034291 P3-
0.666667 0.250000 0.004879 P3-
0.333333 0.750000 0.093114 P3-
0.666667 0.250000 0.063702 P3-
0.333333 0.750000 0.151938 P3-
0.666667 0.250000 0.122526 P3-
0.333333 0.750000 0.210761 P3-
0.666667 0.250000 0.181349 P3-
0.333333 0.750000 0.269585 P3-
0.666667 0.250000 0.240173 P3-
0.333333 0.750000 0.328408 P3-
0.666667 0.250000 0.298996 P3-
0.333333 0.750000 0.387232 P3-
0.666667 0.250000 0.357820 P3-
