Li42 P14
1.0
3.668361 0.000000 -6.353787
0.000000 7.570718 -4.235858
0.000000 0.000000 72.009589
Li P
42 14
Selective dynamics
direct
0.000000 0.750000 0.034291 T T T Li+
0.000000 0.250000 0.004879 T T T Li+
0.333333 0.084119 0.053945 T T T Li+
0.666667 0.584119 0.024533 T T T Li+
0.666667 0.915881 0.044048 T T T Li+
0.333333 0.415881 0.014637 T T T Li+
0.000000 0.750000 0.093114 T T T Li+
0.000000 0.250000 0.063702 T T T Li+
0.333333 0.084119 0.112768 T T T Li+
0.666667 0.584119 0.083356 T T T Li+
0.666667 0.915881 0.102872 T T T Li+
0.333333 0.415881 0.073460 T T T Li+
0.000000 0.750000 0.151938 F F F Li+
0.000000 0.250000 0.122526 F F F Li+
0.333333 0.084119 0.171592 F F F Li+
0.666667 0.584119 0.142180 F F F Li+
0.666667 0.915881 0.161695 F F F Li+
0.333333 0.415881 0.132284 F F F Li+
0.000000 0.750000 0.210761 F F F Li+
0.000000 0.250000 0.181349 F F F Li+
0.333333 0.084119 0.230415 F F F Li+
0.666667 0.584119 0.201004 F F F Li+
0.666667 0.915881 0.220519 F F F Li+
0.333333 0.415881 0.191107 F F F Li+
0.000000 0.750000 0.269585 F F F Li+
0.000000 0.250000 0.240173 F F F Li+
0.333333 0.084119 0.289239 T T T Li+
0.666667 0.584119 0.259827 F F F Li+
0.666667 0.915881 0.279342 F F F Li+
0.333333 0.415881 0.249931 F F F Li+
0.000000 0.750000 0.328408 T T T Li+
0.000000 0.250000 0.298996 T T T Li+
0.333333 0.084119 0.348062 T T T Li+
0.666667 0.584119 0.318651 T T T Li+
0.666667 0.915881 0.338166 T T T Li+
0.333333 0.415881 0.308754 T T T Li+
0.000000 0.750000 0.387232 T T T Li+
0.000000 0.250000 0.357820 T T T Li+
0.333333 0.084119 0.406886 T T T Li+
0.666667 0.584119 0.377474 T T T Li+
0.666667 0.915881 0.396989 T T T Li+
0.333333 0.415881 0.367578 T T T Li+
0.333333 0.750000 0.034291 T T T P3-
0.666667 0.250000 0.004879 T T T P3-
0.333333 0.750000 0.093114 T T T P3-
0.666667 0.250000 0.063702 T T T P3-
0.333333 0.750000 0.151938 F F F P3-
0.666667 0.250000 0.122526 F F F P3-
0.333333 0.750000 0.210761 F F F P3-
0.666667 0.250000 0.181349 F F F P3-
0.333333 0.750000 0.269585 F F F P3-
0.666667 0.250000 0.240173 F F F P3-
0.333333 0.750000 0.328408 T T T P3-
0.666667 0.250000 0.298996 T T T P3-
0.333333 0.750000 0.387232 T T T P3-
0.666667 0.250000 0.357820 T T T P3-
