Li3 N1                                  
   1.00000000000000     
     1.7736190000000001   -3.0719970000000001    0.0000000000000000
     1.7736190000000001    3.0719970000000001    0.0000000000000000
     0.0000000000000000    0.0000000000000000    3.7770160000000002
   Li   N 
     3     1
Direct
  0.0000000000000000  0.0000000000000000  0.5000000000000000
  0.3333330000000032  0.6666669999999968  0.0000000000000000
  0.6666669999999968  0.3333330000000032  0.0000000000000000
  0.0000000000000000  0.0000000000000000  0.0000000000000000
 
  0.00000000E+00  0.00000000E+00  0.00000000E+00
  0.00000000E+00  0.00000000E+00  0.00000000E+00
  0.00000000E+00  0.00000000E+00  0.00000000E+00
  0.00000000E+00  0.00000000E+00  0.00000000E+00
