Li140 P140 O420
1.0
5.521558 0.000000 0.000000
0.000000 16.540545 -23.948210
0.000000 0.000000 133.129800
Li P O
140 140 420
direct
0.494607 0.818220 0.047392 Li+
0.505393 0.318220 0.097392 Li+
0.484419 0.934004 0.082736 Li+
0.515581 0.434004 0.032736 Li+
0.505784 0.049457 0.017868 Li+
0.494216 0.549457 0.067868 Li+
0.507224 0.164548 0.052843 Li+
0.492776 0.664548 0.002843 Li+
0.992783 0.241566 0.075285 Li+
0.007217 0.741566 0.025285 Li+
0.521194 0.318286 0.047620 Li+
0.478806 0.818286 0.097620 Li+
0.476313 0.433730 0.082819 Li+
0.523687 0.933730 0.032819 Li+
0.533250 0.550453 0.018082 Li+
0.466750 0.050453 0.068082 Li+
0.477737 0.667016 0.053372 Li+
0.522263 0.167016 0.003372 Li+
0.960889 0.743634 0.075899 Li+
0.039111 0.243634 0.025899 Li+
0.494607 0.818220 0.147392 Li+
0.505393 0.318220 0.197392 Li+
0.484419 0.934004 0.182735 Li+
0.515581 0.434004 0.132736 Li+
0.505784 0.049457 0.117868 Li+
0.494216 0.549457 0.167868 Li+
0.507224 0.164548 0.152843 Li+
0.492776 0.664548 0.102843 Li+
0.992783 0.241566 0.175285 Li+
0.007217 0.741566 0.125285 Li+
0.521194 0.318286 0.147620 Li+
0.478806 0.818286 0.197620 Li+
0.476313 0.433730 0.182819 Li+
0.523687 0.933730 0.132819 Li+
0.533250 0.550453 0.118082 Li+
0.466750 0.050453 0.168082 Li+
0.477737 0.667016 0.153372 Li+
0.522263 0.167016 0.103372 Li+
0.960889 0.743634 0.175899 Li+
0.039111 0.243634 0.125899 Li+
0.494607 0.818220 0.247392 Li+
0.505393 0.318220 0.297392 Li+
0.484419 0.934004 0.282736 Li+
0.515581 0.434004 0.232736 Li+
0.505784 0.049457 0.217868 Li+
0.494216 0.549457 0.267868 Li+
0.507224 0.164548 0.252843 Li+
0.492776 0.664548 0.202843 Li+
0.992783 0.241566 0.275285 Li+
0.007217 0.741566 0.225285 Li+
0.521194 0.318286 0.247620 Li+
0.478806 0.818286 0.297620 Li+
0.476313 0.433730 0.282819 Li+
0.523687 0.933730 0.232819 Li+
0.533250 0.550453 0.218082 Li+
0.466750 0.050453 0.268082 Li+
0.477737 0.667016 0.253372 Li+
0.522263 0.167016 0.203372 Li+
0.960889 0.743634 0.275899 Li+
0.039111 0.243634 0.225899 Li+
0.494607 0.818220 0.347392 Li+
0.505393 0.318220 0.397392 Li+
0.484419 0.934004 0.382736 Li+
0.515581 0.434004 0.332736 Li+
0.505784 0.049457 0.317868 Li+
0.494216 0.549457 0.367868 Li+
0.507224 0.164548 0.352843 Li+
0.492776 0.664548 0.302843 Li+
0.992783 0.241566 0.375285 Li+
0.007217 0.741566 0.325285 Li+
0.521194 0.318286 0.347620 Li+
0.478806 0.818286 0.397620 Li+
0.476313 0.433730 0.382819 Li+
0.523687 0.933730 0.332819 Li+
0.533250 0.550453 0.318082 Li+
0.466750 0.050453 0.368082 Li+
0.477737 0.667016 0.353372 Li+
0.522263 0.167016 0.303372 Li+
0.960889 0.743634 0.375899 Li+
0.039111 0.243634 0.325899 Li+
0.494607 0.818220 0.447392 Li+
0.505393 0.318220 0.497392 Li+
0.484419 0.934004 0.482736 Li+
0.515581 0.434004 0.432736 Li+
0.505784 0.049457 0.417868 Li+
0.494216 0.549457 0.467868 Li+
0.507224 0.164548 0.452843 Li+
0.492776 0.664548 0.402843 Li+
0.992783 0.241566 0.475285 Li+
0.007217 0.741566 0.425285 Li+
0.521194 0.318286 0.447620 Li+
0.478806 0.818286 0.497620 Li+
0.476313 0.433730 0.482819 Li+
0.523687 0.933730 0.432819 Li+
0.533250 0.550453 0.418082 Li+
0.466750 0.050453 0.468082 Li+
0.477737 0.667016 0.453372 Li+
0.522263 0.167016 0.403372 Li+
0.960889 0.743634 0.475899 Li+
0.039111 0.243634 0.425899 Li+
0.494607 0.818220 0.547392 Li+
0.505393 0.318220 0.597392 Li+
0.484419 0.934004 0.582735 Li+
0.515581 0.434004 0.532736 Li+
0.505784 0.049457 0.517868 Li+
0.494216 0.549457 0.567868 Li+
0.507224 0.164548 0.552843 Li+
0.492776 0.664548 0.502843 Li+
0.992783 0.241566 0.575285 Li+
0.007217 0.741566 0.525285 Li+
0.521194 0.318286 0.547620 Li+
0.478806 0.818286 0.597620 Li+
0.476313 0.433730 0.582819 Li+
0.523687 0.933730 0.532819 Li+
0.533250 0.550453 0.518082 Li+
0.466750 0.050453 0.568082 Li+
0.477737 0.667016 0.553372 Li+
0.522263 0.167016 0.503372 Li+
0.960889 0.743634 0.575899 Li+
0.039111 0.243634 0.525899 Li+
0.494607 0.818220 0.647392 Li+
0.505393 0.318220 0.697392 Li+
0.484419 0.934004 0.682735 Li+
0.515581 0.434004 0.632736 Li+
0.505784 0.049457 0.617868 Li+
0.494216 0.549457 0.667868 Li+
0.507224 0.164548 0.652843 Li+
0.492776 0.664548 0.602843 Li+
0.992783 0.241566 0.675285 Li+
0.007217 0.741566 0.625285 Li+
0.521194 0.318286 0.647620 Li+
0.478806 0.818286 0.697620 Li+
0.476313 0.433730 0.682819 Li+
0.523687 0.933730 0.632819 Li+
0.533250 0.550453 0.618082 Li+
0.466750 0.050453 0.668082 Li+
0.477737 0.667016 0.653372 Li+
0.522263 0.167016 0.603372 Li+
0.960889 0.743634 0.675899 Li+
0.039111 0.243634 0.625899 Li+
0.185377 0.000413 0.078182 P5+
0.814623 0.500413 0.028182 P5+
0.843317 0.093280 0.008107 P5+
0.156683 0.593280 0.058107 P5+
0.188444 0.197061 0.038038 P5+
0.811556 0.697061 0.088038 P5+
0.828977 0.308311 0.068210 P5+
0.171023 0.808311 0.018210 P5+
0.159739 0.408249 0.098203 P5+
0.840261 0.908249 0.048203 P5+
0.843930 0.574567 0.002183 P5+
0.156070 0.074567 0.052183 P5+
0.174322 0.674438 0.032207 P5+
0.825678 0.174438 0.082207 P5+
0.812278 0.786455 0.062496 P5+
0.187722 0.286455 0.012496 P5+
0.151901 0.889856 0.092417 P5+
0.848099 0.389856 0.042417 P5+
0.809867 0.982845 0.022345 P5+
0.190133 0.482845 0.072345 P5+
0.185377 0.000413 0.178182 P5+
0.814623 0.500413 0.128182 P5+
0.843317 0.093280 0.108107 P5+
0.156683 0.593280 0.158107 P5+
0.188444 0.197061 0.138038 P5+
0.811556 0.697061 0.188038 P5+
0.828977 0.308311 0.168210 P5+
0.171023 0.808311 0.118210 P5+
0.159739 0.408249 0.198203 P5+
0.840261 0.908249 0.148203 P5+
0.843930 0.574567 0.102183 P5+
0.156070 0.074567 0.152183 P5+
0.174322 0.674438 0.132207 P5+
0.825678 0.174438 0.182207 P5+
0.812278 0.786455 0.162496 P5+
0.187722 0.286455 0.112496 P5+
0.151901 0.889856 0.192417 P5+
0.848099 0.389856 0.142417 P5+
0.809867 0.982845 0.122345 P5+
0.190133 0.482845 0.172345 P5+
0.185377 0.000413 0.278182 P5+
0.814623 0.500413 0.228182 P5+
0.843317 0.093280 0.208107 P5+
0.156683 0.593280 0.258107 P5+
0.188444 0.197061 0.238038 P5+
0.811556 0.697061 0.288038 P5+
0.828977 0.308311 0.268210 P5+
0.171023 0.808311 0.218210 P5+
0.159739 0.408249 0.298203 P5+
0.840261 0.908249 0.248203 P5+
0.843930 0.574567 0.202183 P5+
0.156070 0.074567 0.252183 P5+
0.174322 0.674438 0.232207 P5+
0.825678 0.174438 0.282207 P5+
0.812278 0.786455 0.262496 P5+
0.187722 0.286455 0.212496 P5+
0.151901 0.889856 0.292417 P5+
0.848099 0.389856 0.242417 P5+
0.809867 0.982845 0.222345 P5+
0.190133 0.482845 0.272345 P5+
0.185377 0.000413 0.378182 P5+
0.814623 0.500413 0.328182 P5+
0.843317 0.093280 0.308107 P5+
0.156683 0.593280 0.358107 P5+
0.188444 0.197061 0.338038 P5+
0.811556 0.697061 0.388038 P5+
0.828977 0.308311 0.368210 P5+
0.171023 0.808311 0.318210 P5+
0.159739 0.408249 0.398203 P5+
0.840261 0.908249 0.348203 P5+
0.843930 0.574567 0.302183 P5+
0.156070 0.074567 0.352183 P5+
0.174322 0.674438 0.332207 P5+
0.825678 0.174438 0.382207 P5+
0.812278 0.786455 0.362496 P5+
0.187722 0.286455 0.312496 P5+
0.151901 0.889856 0.392417 P5+
0.848099 0.389856 0.342417 P5+
0.809867 0.982845 0.322345 P5+
0.190133 0.482845 0.372345 P5+
0.185377 0.000413 0.478182 P5+
0.814623 0.500413 0.428182 P5+
0.843317 0.093280 0.408107 P5+
0.156683 0.593280 0.458107 P5+
0.188444 0.197061 0.438038 P5+
0.811556 0.697061 0.488038 P5+
0.828977 0.308311 0.468210 P5+
0.171023 0.808311 0.418210 P5+
0.159739 0.408249 0.498203 P5+
0.840261 0.908249 0.448203 P5+
0.843930 0.574567 0.402183 P5+
0.156070 0.074567 0.452183 P5+
0.174322 0.674438 0.432207 P5+
0.825678 0.174438 0.482207 P5+
0.812278 0.786455 0.462496 P5+
0.187722 0.286455 0.412496 P5+
0.151901 0.889856 0.492417 P5+
0.848099 0.389856 0.442417 P5+
0.809867 0.982845 0.422345 P5+
0.190133 0.482845 0.472345 P5+
0.185377 0.000413 0.578182 P5+
0.814623 0.500413 0.528181 P5+
0.843317 0.093280 0.508107 P5+
0.156683 0.593280 0.558107 P5+
0.188444 0.197061 0.538038 P5+
0.811556 0.697061 0.588038 P5+
0.828977 0.308311 0.568210 P5+
0.171023 0.808311 0.518210 P5+
0.159739 0.408249 0.598203 P5+
0.840261 0.908249 0.548203 P5+
0.843930 0.574567 0.502183 P5+
0.156070 0.074567 0.552183 P5+
0.174322 0.674438 0.532207 P5+
0.825678 0.174438 0.582207 P5+
0.812278 0.786455 0.562496 P5+
0.187722 0.286455 0.512496 P5+
0.151901 0.889856 0.592417 P5+
0.848099 0.389856 0.542417 P5+
0.809867 0.982845 0.522345 P5+
0.190133 0.482845 0.572345 P5+
0.185377 0.000413 0.678181 P5+
0.814623 0.500413 0.628181 P5+
0.843317 0.093280 0.608107 P5+
0.156683 0.593280 0.658107 P5+
0.188444 0.197061 0.638038 P5+
0.811556 0.697061 0.688038 P5+
0.828977 0.308311 0.668210 P5+
0.171023 0.808311 0.618210 P5+
0.159739 0.408249 0.698203 P5+
0.840261 0.908249 0.648203 P5+
0.843930 0.574567 0.602183 P5+
0.156070 0.074567 0.652183 P5+
0.174322 0.674438 0.632207 P5+
0.825678 0.174438 0.682207 P5+
0.812278 0.786455 0.662496 P5+
0.187722 0.286455 0.612496 P5+
0.151901 0.889856 0.692417 P5+
0.848099 0.389856 0.642417 P5+
0.809867 0.982845 0.622345 P5+
0.190133 0.482845 0.672345 P5+
0.069000 0.035413 0.094758 O2-
0.931000 0.535413 0.044758 O2-
0.951087 0.140628 0.026299 O2-
0.048913 0.640628 0.076299 O2-
0.080018 0.275856 0.057669 O2-
0.919982 0.775856 0.007669 O2-
0.926681 0.392259 0.088134 O2-
0.073319 0.892259 0.038134 O2-
0.942022 0.978148 0.068018 O2-
0.057978 0.478148 0.018018 O2-
0.076781 0.590622 0.012274 O2-
0.923219 0.090622 0.062274 O2-
0.921841 0.709404 0.042836 O2-
0.078159 0.209404 0.092836 O2-
0.049265 0.843555 0.074254 O2-
0.950735 0.343555 0.024254 O2-
0.918787 0.943480 0.005109 O2-
0.081213 0.443480 0.055109 O2-
0.944691 0.504327 0.082288 O2-
0.055309 0.004327 0.032288 O2-
0.322795 0.926111 0.067912 O2-
0.677205 0.426111 0.017912 O2-
0.313918 0.066074 0.084316 O2-
0.686082 0.566074 0.034316 O2-
0.643576 0.041349 0.002816 O2-
0.356424 0.541349 0.052816 O2-
0.795305 0.153257 0.010649 O2-
0.204695 0.653257 0.060649 O2-
0.351974 0.154647 0.037649 O2-
0.648026 0.654647 0.087649 O2-
0.281781 0.224590 0.032935 O2-
0.718219 0.724590 0.082935 O2-
0.751546 0.252705 0.066556 O2-
0.248454 0.752705 0.016556 O2-
0.656290 0.330648 0.064035 O2-
0.343710 0.830648 0.014035 O2-
0.215121 0.332841 0.090561 O2-
0.784879 0.832841 0.040561 O2-
0.355777 0.446708 0.098999 O2-
0.644223 0.946708 0.048999 O2-
0.649890 0.536665 0.001646 O2-
0.350110 0.036665 0.051646 O2-
0.785996 0.649394 0.009666 O2-
0.214004 0.149394 0.059666 O2-
0.340793 0.651785 0.036537 O2-
0.659207 0.151785 0.086537 O2-
0.258044 0.728542 0.033541 O2-
0.741956 0.228542 0.083541 O2-
0.725734 0.758375 0.067584 O2-
0.274266 0.258375 0.017584 O2-
0.642950 0.828801 0.063086 O2-
0.357050 0.328801 0.013086 O2-
0.205272 0.829973 0.089853 O2-
0.794728 0.329973 0.039853 O2-
0.347295 0.944360 0.098354 O2-
0.652705 0.444360 0.048355 O2-
0.677470 0.919559 0.016892 O2-
0.322530 0.419559 0.066892 O2-
0.678914 0.057634 0.032451 O2-
0.321086 0.557634 0.082451 O2-
0.069000 0.035413 0.194758 O2-
0.931000 0.535413 0.144758 O2-
0.951087 0.140628 0.126299 O2-
0.048913 0.640628 0.176299 O2-
0.080018 0.275856 0.157669 O2-
0.919982 0.775856 0.107669 O2-
0.926681 0.392259 0.188134 O2-
0.073319 0.892259 0.138134 O2-
0.942022 0.978148 0.168018 O2-
0.057978 0.478148 0.118018 O2-
0.076781 0.590622 0.112274 O2-
0.923219 0.090622 0.162274 O2-
0.921841 0.709404 0.142836 O2-
0.078159 0.209404 0.192836 O2-
0.049265 0.843555 0.174254 O2-
0.950735 0.343555 0.124254 O2-
0.918787 0.943480 0.105109 O2-
0.081213 0.443480 0.155109 O2-
0.944691 0.504327 0.182288 O2-
0.055309 0.004327 0.132288 O2-
0.322795 0.926111 0.167912 O2-
0.677205 0.426111 0.117912 O2-
0.313918 0.066074 0.184316 O2-
0.686082 0.566074 0.134316 O2-
0.643576 0.041349 0.102816 O2-
0.356424 0.541349 0.152816 O2-
0.795305 0.153257 0.110649 O2-
0.204695 0.653257 0.160649 O2-
0.351974 0.154647 0.137649 O2-
0.648026 0.654647 0.187649 O2-
0.281781 0.224590 0.132935 O2-
0.718219 0.724590 0.182935 O2-
0.751546 0.252705 0.166556 O2-
0.248454 0.752705 0.116556 O2-
0.656290 0.330648 0.164035 O2-
0.343710 0.830648 0.114035 O2-
0.215121 0.332841 0.190561 O2-
0.784879 0.832841 0.140561 O2-
0.355777 0.446708 0.198999 O2-
0.644223 0.946708 0.148999 O2-
0.649890 0.536665 0.101646 O2-
0.350110 0.036665 0.151646 O2-
0.785996 0.649394 0.109666 O2-
0.214004 0.149394 0.159666 O2-
0.340793 0.651785 0.136537 O2-
0.659207 0.151785 0.186537 O2-
0.258044 0.728542 0.133541 O2-
0.741956 0.228542 0.183541 O2-
0.725734 0.758375 0.167584 O2-
0.274266 0.258375 0.117584 O2-
0.642950 0.828801 0.163086 O2-
0.357050 0.328801 0.113086 O2-
0.205272 0.829973 0.189853 O2-
0.794728 0.329973 0.139853 O2-
0.347295 0.944360 0.198354 O2-
0.652705 0.444360 0.148355 O2-
0.677470 0.919559 0.116892 O2-
0.322530 0.419559 0.166892 O2-
0.678914 0.057634 0.132451 O2-
0.321086 0.557634 0.182451 O2-
0.069000 0.035413 0.294758 O2-
0.931000 0.535413 0.244758 O2-
0.951087 0.140628 0.226299 O2-
0.048913 0.640628 0.276299 O2-
0.080018 0.275856 0.257669 O2-
0.919982 0.775856 0.207669 O2-
0.926681 0.392259 0.288134 O2-
0.073319 0.892259 0.238134 O2-
0.942022 0.978148 0.268018 O2-
0.057978 0.478148 0.218018 O2-
0.076781 0.590622 0.212274 O2-
0.923219 0.090622 0.262274 O2-
0.921841 0.709404 0.242836 O2-
0.078159 0.209404 0.292836 O2-
0.049265 0.843555 0.274254 O2-
0.950735 0.343555 0.224254 O2-
0.918787 0.943480 0.205109 O2-
0.081213 0.443480 0.255109 O2-
0.944691 0.504327 0.282288 O2-
0.055309 0.004327 0.232288 O2-
0.322795 0.926111 0.267912 O2-
0.677205 0.426111 0.217912 O2-
0.313918 0.066074 0.284316 O2-
0.686082 0.566074 0.234316 O2-
0.643576 0.041349 0.202816 O2-
0.356424 0.541349 0.252816 O2-
0.795305 0.153257 0.210649 O2-
0.204695 0.653257 0.260649 O2-
0.351974 0.154647 0.237649 O2-
0.648026 0.654647 0.287649 O2-
0.281781 0.224590 0.232935 O2-
0.718219 0.724590 0.282935 O2-
0.751546 0.252705 0.266556 O2-
0.248454 0.752705 0.216556 O2-
0.656290 0.330648 0.264035 O2-
0.343710 0.830648 0.214035 O2-
0.215121 0.332841 0.290561 O2-
0.784879 0.832841 0.240561 O2-
0.355777 0.446708 0.298999 O2-
0.644223 0.946708 0.248999 O2-
0.649890 0.536665 0.201646 O2-
0.350110 0.036665 0.251646 O2-
0.785996 0.649394 0.209666 O2-
0.214004 0.149394 0.259666 O2-
0.340793 0.651785 0.236537 O2-
0.659207 0.151785 0.286537 O2-
0.258044 0.728542 0.233541 O2-
0.741956 0.228542 0.283541 O2-
0.725734 0.758375 0.267584 O2-
0.274266 0.258375 0.217584 O2-
0.642950 0.828801 0.263086 O2-
0.357050 0.328801 0.213086 O2-
0.205272 0.829973 0.289853 O2-
0.794728 0.329973 0.239853 O2-
0.347295 0.944360 0.298354 O2-
0.652705 0.444360 0.248355 O2-
0.677470 0.919559 0.216892 O2-
0.322530 0.419559 0.266892 O2-
0.678914 0.057634 0.232451 O2-
0.321086 0.557634 0.282451 O2-
0.069000 0.035413 0.394758 O2-
0.931000 0.535413 0.344758 O2-
0.951087 0.140628 0.326299 O2-
0.048913 0.640628 0.376299 O2-
0.080018 0.275856 0.357669 O2-
0.919982 0.775856 0.307669 O2-
0.926681 0.392259 0.388134 O2-
0.073319 0.892259 0.338134 O2-
0.942022 0.978148 0.368018 O2-
0.057978 0.478148 0.318018 O2-
0.076781 0.590622 0.312274 O2-
0.923219 0.090622 0.362274 O2-
0.921841 0.709404 0.342836 O2-
0.078159 0.209404 0.392836 O2-
0.049265 0.843555 0.374254 O2-
0.950735 0.343555 0.324253 O2-
0.918787 0.943480 0.305109 O2-
0.081213 0.443480 0.355109 O2-
0.944691 0.504327 0.382288 O2-
0.055309 0.004327 0.332288 O2-
0.322795 0.926111 0.367912 O2-
0.677205 0.426111 0.317912 O2-
0.313918 0.066074 0.384316 O2-
0.686082 0.566074 0.334316 O2-
0.643576 0.041349 0.302816 O2-
0.356424 0.541349 0.352816 O2-
0.795305 0.153257 0.310649 O2-
0.204695 0.653257 0.360649 O2-
0.351974 0.154647 0.337649 O2-
0.648026 0.654647 0.387649 O2-
0.281781 0.224590 0.332935 O2-
0.718219 0.724590 0.382935 O2-
0.751546 0.252705 0.366556 O2-
0.248454 0.752705 0.316556 O2-
0.656290 0.330648 0.364035 O2-
0.343710 0.830648 0.314035 O2-
0.215121 0.332841 0.390561 O2-
0.784879 0.832841 0.340561 O2-
0.355777 0.446708 0.398999 O2-
0.644223 0.946708 0.348999 O2-
0.649890 0.536665 0.301646 O2-
0.350110 0.036665 0.351645 O2-
0.785996 0.649394 0.309666 O2-
0.214004 0.149394 0.359666 O2-
0.340793 0.651785 0.336537 O2-
0.659207 0.151785 0.386537 O2-
0.258044 0.728542 0.333541 O2-
0.741956 0.228542 0.383541 O2-
0.725734 0.758375 0.367584 O2-
0.274266 0.258375 0.317584 O2-
0.642950 0.828801 0.363086 O2-
0.357050 0.328801 0.313086 O2-
0.205272 0.829973 0.389853 O2-
0.794728 0.329973 0.339853 O2-
0.347295 0.944360 0.398354 O2-
0.652705 0.444360 0.348355 O2-
0.677470 0.919559 0.316892 O2-
0.322530 0.419559 0.366892 O2-
0.678914 0.057634 0.332450 O2-
0.321086 0.557634 0.382451 O2-
0.069000 0.035413 0.494758 O2-
0.931000 0.535413 0.444758 O2-
0.951087 0.140628 0.426299 O2-
0.048913 0.640628 0.476299 O2-
0.080018 0.275856 0.457669 O2-
0.919982 0.775856 0.407669 O2-
0.926681 0.392259 0.488134 O2-
0.073319 0.892259 0.438134 O2-
0.942022 0.978148 0.468018 O2-
0.057978 0.478148 0.418018 O2-
0.076781 0.590622 0.412274 O2-
0.923219 0.090622 0.462274 O2-
0.921841 0.709404 0.442836 O2-
0.078159 0.209404 0.492836 O2-
0.049265 0.843555 0.474254 O2-
0.950735 0.343555 0.424254 O2-
0.918787 0.943480 0.405109 O2-
0.081213 0.443480 0.455109 O2-
0.944691 0.504327 0.482288 O2-
0.055309 0.004327 0.432288 O2-
0.322795 0.926111 0.467912 O2-
0.677205 0.426111 0.417912 O2-
0.313918 0.066074 0.484316 O2-
0.686082 0.566074 0.434316 O2-
0.643576 0.041349 0.402816 O2-
0.356424 0.541349 0.452816 O2-
0.795305 0.153257 0.410649 O2-
0.204695 0.653257 0.460649 O2-
0.351974 0.154647 0.437649 O2-
0.648026 0.654647 0.487649 O2-
0.281781 0.224590 0.432935 O2-
0.718219 0.724590 0.482935 O2-
0.751546 0.252705 0.466556 O2-
0.248454 0.752705 0.416556 O2-
0.656290 0.330648 0.464035 O2-
0.343710 0.830648 0.414035 O2-
0.215121 0.332841 0.490561 O2-
0.784879 0.832841 0.440561 O2-
0.355777 0.446708 0.498999 O2-
0.644223 0.946708 0.448999 O2-
0.649890 0.536665 0.401646 O2-
0.350110 0.036665 0.451646 O2-
0.785996 0.649394 0.409666 O2-
0.214004 0.149394 0.459666 O2-
0.340793 0.651785 0.436537 O2-
0.659207 0.151785 0.486537 O2-
0.258044 0.728542 0.433541 O2-
0.741956 0.228542 0.483541 O2-
0.725734 0.758375 0.467584 O2-
0.274266 0.258375 0.417584 O2-
0.642950 0.828801 0.463086 O2-
0.357050 0.328801 0.413086 O2-
0.205272 0.829973 0.489853 O2-
0.794728 0.329973 0.439853 O2-
0.347295 0.944360 0.498354 O2-
0.652705 0.444360 0.448355 O2-
0.677470 0.919559 0.416892 O2-
0.322530 0.419559 0.466892 O2-
0.678914 0.057634 0.432451 O2-
0.321086 0.557634 0.482451 O2-
0.069000 0.035413 0.594758 O2-
0.931000 0.535413 0.544758 O2-
0.951087 0.140628 0.526299 O2-
0.048913 0.640628 0.576299 O2-
0.080018 0.275856 0.557669 O2-
0.919982 0.775856 0.507669 O2-
0.926681 0.392259 0.588134 O2-
0.073319 0.892259 0.538134 O2-
0.942022 0.978148 0.568018 O2-
0.057978 0.478148 0.518018 O2-
0.076781 0.590622 0.512274 O2-
0.923219 0.090622 0.562274 O2-
0.921841 0.709404 0.542836 O2-
0.078159 0.209404 0.592836 O2-
0.049265 0.843555 0.574253 O2-
0.950735 0.343555 0.524254 O2-
0.918787 0.943480 0.505109 O2-
0.081213 0.443480 0.555109 O2-
0.944691 0.504327 0.582288 O2-
0.055309 0.004327 0.532288 O2-
0.322795 0.926111 0.567912 O2-
0.677205 0.426111 0.517912 O2-
0.313918 0.066074 0.584316 O2-
0.686082 0.566074 0.534316 O2-
0.643576 0.041349 0.502816 O2-
0.356424 0.541349 0.552816 O2-
0.795305 0.153257 0.510649 O2-
0.204695 0.653257 0.560649 O2-
0.351974 0.154647 0.537649 O2-
0.648026 0.654647 0.587649 O2-
0.281781 0.224590 0.532935 O2-
0.718219 0.724590 0.582935 O2-
0.751546 0.252705 0.566556 O2-
0.248454 0.752705 0.516556 O2-
0.656290 0.330648 0.564035 O2-
0.343710 0.830648 0.514035 O2-
0.215121 0.332841 0.590561 O2-
0.784879 0.832841 0.540561 O2-
0.355777 0.446708 0.598999 O2-
0.644223 0.946708 0.548999 O2-
0.649890 0.536665 0.501646 O2-
0.350110 0.036665 0.551646 O2-
0.785996 0.649394 0.509666 O2-
0.214004 0.149394 0.559666 O2-
0.340793 0.651785 0.536537 O2-
0.659207 0.151785 0.586537 O2-
0.258044 0.728542 0.533541 O2-
0.741956 0.228542 0.583541 O2-
0.725734 0.758375 0.567584 O2-
0.274266 0.258375 0.517584 O2-
0.642950 0.828801 0.563086 O2-
0.357050 0.328801 0.513086 O2-
0.205272 0.829973 0.589853 O2-
0.794728 0.329973 0.539853 O2-
0.347295 0.944360 0.598355 O2-
0.652705 0.444360 0.548354 O2-
0.677470 0.919559 0.516892 O2-
0.322530 0.419559 0.566892 O2-
0.678914 0.057634 0.532451 O2-
0.321086 0.557634 0.582450 O2-
0.069000 0.035413 0.694758 O2-
0.931000 0.535413 0.644758 O2-
0.951087 0.140628 0.626299 O2-
0.048913 0.640628 0.676299 O2-
0.080018 0.275856 0.657669 O2-
0.919982 0.775856 0.607669 O2-
0.926681 0.392259 0.688134 O2-
0.073319 0.892259 0.638134 O2-
0.942022 0.978148 0.668018 O2-
0.057978 0.478148 0.618018 O2-
0.076781 0.590622 0.612274 O2-
0.923219 0.090622 0.662274 O2-
0.921841 0.709404 0.642836 O2-
0.078159 0.209404 0.692836 O2-
0.049265 0.843555 0.674253 O2-
0.950735 0.343555 0.624254 O2-
0.918787 0.943480 0.605109 O2-
0.081213 0.443480 0.655109 O2-
0.944691 0.504327 0.682288 O2-
0.055309 0.004327 0.632288 O2-
0.322795 0.926111 0.667912 O2-
0.677205 0.426111 0.617912 O2-
0.313918 0.066074 0.684316 O2-
0.686082 0.566074 0.634316 O2-
0.643576 0.041349 0.602816 O2-
0.356424 0.541349 0.652815 O2-
0.795305 0.153257 0.610649 O2-
0.204695 0.653257 0.660649 O2-
0.351974 0.154647 0.637649 O2-
0.648026 0.654647 0.687649 O2-
0.281781 0.224590 0.632935 O2-
0.718219 0.724590 0.682935 O2-
0.751546 0.252705 0.666556 O2-
0.248454 0.752705 0.616556 O2-
0.656290 0.330648 0.664035 O2-
0.343710 0.830648 0.614035 O2-
0.215121 0.332841 0.690561 O2-
0.784879 0.832841 0.640561 O2-
0.355777 0.446708 0.698999 O2-
0.644223 0.946708 0.648999 O2-
0.649890 0.536665 0.601646 O2-
0.350110 0.036665 0.651645 O2-
0.785996 0.649394 0.609666 O2-
0.214004 0.149394 0.659666 O2-
0.340793 0.651785 0.636537 O2-
0.659207 0.151785 0.686537 O2-
0.258044 0.728542 0.633541 O2-
0.741956 0.228542 0.683541 O2-
0.725734 0.758375 0.667584 O2-
0.274266 0.258375 0.617584 O2-
0.642950 0.828801 0.663086 O2-
0.357050 0.328801 0.613086 O2-
0.205272 0.829973 0.689853 O2-
0.794728 0.329973 0.639853 O2-
0.347295 0.944360 0.698354 O2-
0.652705 0.444360 0.648354 O2-
0.677470 0.919559 0.616892 O2-
0.322530 0.419559 0.666892 O2-
0.678914 0.057634 0.632451 O2-
0.321086 0.557634 0.682450 O2-
