Li140 P140 O420
1.0
5.521558 0.000000 0.000000
0.000000 16.540545 -10.635230
0.000000 0.000000 119.816820
Li P O
140 140 420
Selective dynamics
direct
0.494607 0.818220 0.044176 F F F Li
0.505393 0.318220 0.044176 F F F Li
0.484419 0.934004 0.070582 F F F Li
0.515581 0.434004 0.070582 F F F Li
0.505784 0.049457 0.096790 F F F Li
0.494216 0.549457 0.096790 F F F Li
0.507224 0.164548 0.011752 T T T Li
0.492776 0.664548 0.011752 T T T Li
0.992783 0.241566 0.028130 F F F Li
0.007217 0.741566 0.028130 F F F Li
0.521194 0.318286 0.099978 F F F Li
0.478806 0.818286 0.099978 F F F Li
0.476313 0.433730 0.015149 T T T Li
0.523687 0.933730 0.015149 T T T Li
0.533250 0.550453 0.041361 F F F Li
0.466750 0.050453 0.041361 F F F Li
0.477737 0.667016 0.067621 F F F Li
0.522263 0.167016 0.067621 F F F Li
0.960889 0.743634 0.084137 F F F Li
0.039111 0.243634 0.084137 F F F Li
0.494607 0.818220 0.155287 F F F Li
0.505393 0.318220 0.155287 F F F Li
0.484419 0.934004 0.181693 F F F Li
0.515581 0.434004 0.181693 F F F Li
0.505784 0.049457 0.207901 F F F Li
0.494216 0.549457 0.207901 F F F Li
0.507224 0.164548 0.122863 F F F Li
0.492776 0.664548 0.122863 F F F Li
0.992783 0.241566 0.139241 F F F Li
0.007217 0.741566 0.139241 F F F Li
0.521194 0.318286 0.211089 F F F Li
0.478806 0.818286 0.211089 F F F Li
0.476313 0.433730 0.126260 F F F Li
0.523687 0.933730 0.126260 F F F Li
0.533250 0.550453 0.152472 F F F Li
0.466750 0.050453 0.152472 F F F Li
0.477737 0.667016 0.178732 F F F Li
0.522263 0.167016 0.178732 F F F Li
0.960889 0.743634 0.195248 F F F Li
0.039111 0.243634 0.195248 F F F Li
0.494607 0.818220 0.266398 F F F Li
0.505393 0.318220 0.266398 F F F Li
0.484419 0.934004 0.292804 F F F Li
0.515581 0.434004 0.292804 F F F Li
0.505784 0.049457 0.319012 F F F Li
0.494216 0.549457 0.319012 F F F Li
0.507224 0.164548 0.233974 F F F Li
0.492776 0.664548 0.233974 F F F Li
0.992783 0.241566 0.250352 F F F Li
0.007217 0.741566 0.250352 F F F Li
0.521194 0.318286 0.322200 F F F Li
0.478806 0.818286 0.322200 F F F Li
0.476313 0.433730 0.237371 F F F Li
0.523687 0.933730 0.237371 F F F Li
0.533250 0.550453 0.263583 F F F Li
0.466750 0.050453 0.263583 F F F Li
0.477737 0.667016 0.289843 F F F Li
0.522263 0.167016 0.289843 F F F Li
0.960889 0.743634 0.306360 F F F Li
0.039111 0.243634 0.306360 F F F Li
0.494607 0.818220 0.377510 F F F Li
0.505393 0.318220 0.377510 F F F Li
0.484419 0.934004 0.403915 F F F Li
0.515581 0.434004 0.403915 F F F Li
0.505784 0.049457 0.430123 F F F Li
0.494216 0.549457 0.430123 F F F Li
0.507224 0.164548 0.345085 F F F Li
0.492776 0.664548 0.345085 F F F Li
0.992783 0.241566 0.361463 F F F Li
0.007217 0.741566 0.361463 F F F Li
0.521194 0.318286 0.433311 F F F Li
0.478806 0.818286 0.433311 F F F Li
0.476313 0.433730 0.348482 F F F Li
0.523687 0.933730 0.348482 F F F Li
0.533250 0.550453 0.374694 F F F Li
0.466750 0.050453 0.374694 F F F Li
0.477737 0.667016 0.400954 F F F Li
0.522263 0.167016 0.400954 F F F Li
0.960889 0.743634 0.417471 F F F Li
0.039111 0.243634 0.417471 F F F Li
0.494607 0.818220 0.488621 F F F Li
0.505393 0.318220 0.488621 F F F Li
0.484419 0.934004 0.515026 F F F Li
0.515581 0.434004 0.515026 F F F Li
0.505784 0.049457 0.541234 F F F Li
0.494216 0.549457 0.541234 F F F Li
0.507224 0.164548 0.456196 F F F Li
0.492776 0.664548 0.456196 F F F Li
0.992783 0.241566 0.472575 F F F Li
0.007217 0.741566 0.472575 F F F Li
0.521194 0.318286 0.544422 F F F Li
0.478806 0.818286 0.544422 F F F Li
0.476313 0.433730 0.459593 F F F Li
0.523687 0.933730 0.459593 F F F Li
0.533250 0.550453 0.485805 F F F Li
0.466750 0.050453 0.485805 F F F Li
0.477737 0.667016 0.512065 F F F Li
0.522263 0.167016 0.512065 F F F Li
0.960889 0.743634 0.528582 F F F Li
0.039111 0.243634 0.528582 F F F Li
0.494607 0.818220 0.599732 F F F Li
0.505393 0.318220 0.599732 F F F Li
0.484419 0.934004 0.626137 F F F Li
0.515581 0.434004 0.626137 F F F Li
0.505784 0.049457 0.652345 F F F Li
0.494216 0.549457 0.652345 F F F Li
0.507224 0.164548 0.567308 F F F Li
0.492776 0.664548 0.567308 F F F Li
0.992783 0.241566 0.583686 F F F Li
0.007217 0.741566 0.583686 F F F Li
0.521194 0.318286 0.655533 F F F Li
0.478806 0.818286 0.655533 F F F Li
0.476313 0.433730 0.570704 F F F Li
0.523687 0.933730 0.570704 F F F Li
0.533250 0.550453 0.596916 F F F Li
0.466750 0.050453 0.596916 F F F Li
0.477737 0.667016 0.623176 F F F Li
0.522263 0.167016 0.623176 F F F Li
0.960889 0.743634 0.639693 F F F Li
0.039111 0.243634 0.639693 F F F Li
0.494607 0.818220 0.710843 F F F Li
0.505393 0.318220 0.710843 F F F Li
0.484419 0.934004 0.737248 F F F Li
0.515581 0.434004 0.737248 F F F Li
0.505784 0.049457 0.763456 T T T Li
0.494216 0.549457 0.763456 T T T Li
0.507224 0.164548 0.678419 F F F Li
0.492776 0.664548 0.678419 F F F Li
0.992783 0.241566 0.694797 F F F Li
0.007217 0.741566 0.694797 F F F Li
0.521194 0.318286 0.766645 T T T Li
0.478806 0.818286 0.766645 T T T Li
0.476313 0.433730 0.681816 F F F Li
0.523687 0.933730 0.681816 F F F Li
0.533250 0.550453 0.708027 F F F Li
0.466750 0.050453 0.708027 F F F Li
0.477737 0.667016 0.734287 F F F Li
0.522263 0.167016 0.734287 F F F Li
0.960889 0.743634 0.750804 F F F Li
0.039111 0.243634 0.750804 F F F Li
0.185377 0.000413 0.058143 F F F P
0.814623 0.500413 0.058143 F F F P
0.843317 0.093280 0.081075 F F F P
0.156683 0.593280 0.081075 F F F P
0.188444 0.197061 0.102800 F F F P
0.811556 0.697061 0.102800 F F F P
0.828977 0.308311 0.012852 T T T P
0.171023 0.808311 0.012852 T T T P
0.159739 0.408249 0.035074 F F F P
0.840261 0.908249 0.035074 F F F P
0.843930 0.574567 0.021016 F F F P
0.156070 0.074567 0.021016 F F F P
0.174322 0.674438 0.043280 F F F P
0.825678 0.174438 0.043280 F F F P
0.812278 0.786455 0.064488 F F F P
0.187722 0.286455 0.064488 F F F P
0.151901 0.889856 0.086244 F F F P
0.848099 0.389856 0.086244 F F F P
0.809867 0.982845 0.109165 F F F P
0.190133 0.482845 0.109165 F F F P
0.185377 0.000413 0.169254 F F F P
0.814623 0.500413 0.169254 F F F P
0.843317 0.093280 0.192186 F F F P
0.156683 0.593280 0.192186 F F F P
0.188444 0.197061 0.213911 F F F P
0.811556 0.697061 0.213911 F F F P
0.828977 0.308311 0.123963 F F F P
0.171023 0.808311 0.123963 F F F P
0.159739 0.408249 0.146185 F F F P
0.840261 0.908249 0.146185 F F F P
0.843930 0.574567 0.132127 F F F P
0.156070 0.074567 0.132127 F F F P
0.174322 0.674438 0.154391 F F F P
0.825678 0.174438 0.154391 F F F P
0.812278 0.786455 0.175599 F F F P
0.187722 0.286455 0.175599 F F F P
0.151901 0.889856 0.197355 F F F P
0.848099 0.389856 0.197355 F F F P
0.809867 0.982845 0.220276 F F F P
0.190133 0.482845 0.220276 F F F P
0.185377 0.000413 0.280365 F F F P
0.814623 0.500413 0.280365 F F F P
0.843317 0.093280 0.303297 F F F P
0.156683 0.593280 0.303297 F F F P
0.188444 0.197061 0.325022 F F F P
0.811556 0.697061 0.325022 F F F P
0.828977 0.308311 0.235074 F F F P
0.171023 0.808311 0.235074 F F F P
0.159739 0.408249 0.257296 F F F P
0.840261 0.908249 0.257296 F F F P
0.843930 0.574567 0.243238 F F F P
0.156070 0.074567 0.243238 F F F P
0.174322 0.674438 0.265502 F F F P
0.825678 0.174438 0.265502 F F F P
0.812278 0.786455 0.286710 F F F P
0.187722 0.286455 0.286710 F F F P
0.151901 0.889856 0.308466 F F F P
0.848099 0.389856 0.308466 F F F P
0.809867 0.982845 0.331387 F F F P
0.190133 0.482845 0.331387 F F F P
0.185377 0.000413 0.391476 F F F P
0.814623 0.500413 0.391476 F F F P
0.843317 0.093280 0.414409 F F F P
0.156683 0.593280 0.414409 F F F P
0.188444 0.197061 0.436134 F F F P
0.811556 0.697061 0.436134 F F F P
0.828977 0.308311 0.346186 F F F P
0.171023 0.808311 0.346186 F F F P
0.159739 0.408249 0.368407 F F F P
0.840261 0.908249 0.368407 F F F P
0.843930 0.574567 0.354349 F F F P
0.156070 0.074567 0.354349 F F F P
0.174322 0.674438 0.376613 F F F P
0.825678 0.174438 0.376613 F F F P
0.812278 0.786455 0.397821 F F F P
0.187722 0.286455 0.397821 F F F P
0.151901 0.889856 0.419578 F F F P
0.848099 0.389856 0.419578 F F F P
0.809867 0.982845 0.442498 F F F P
0.190133 0.482845 0.442498 F F F P
0.185377 0.000413 0.502587 F F F P
0.814623 0.500413 0.502587 F F F P
0.843317 0.093280 0.525520 F F F P
0.156683 0.593280 0.525520 F F F P
0.188444 0.197061 0.547245 F F F P
0.811556 0.697061 0.547245 F F F P
0.828977 0.308311 0.457297 F F F P
0.171023 0.808311 0.457297 F F F P
0.159739 0.408249 0.479518 F F F P
0.840261 0.908249 0.479518 F F F P
0.843930 0.574567 0.465460 F F F P
0.156070 0.074567 0.465460 F F F P
0.174322 0.674438 0.487724 F F F P
0.825678 0.174438 0.487724 F F F P
0.812278 0.786455 0.508932 F F F P
0.187722 0.286455 0.508932 F F F P
0.151901 0.889856 0.530689 F F F P
0.848099 0.389856 0.530689 F F F P
0.809867 0.982845 0.553609 F F F P
0.190133 0.482845 0.553609 F F F P
0.185377 0.000413 0.613698 F F F P
0.814623 0.500413 0.613698 F F F P
0.843317 0.093280 0.636631 F F F P
0.156683 0.593280 0.636631 F F F P
0.188444 0.197061 0.658356 F F F P
0.811556 0.697061 0.658356 F F F P
0.828977 0.308311 0.568408 F F F P
0.171023 0.808311 0.568408 F F F P
0.159739 0.408249 0.590629 F F F P
0.840261 0.908249 0.590629 F F F P
0.843930 0.574567 0.576572 F F F P
0.156070 0.074567 0.576572 F F F P
0.174322 0.674438 0.598835 F F F P
0.825678 0.174438 0.598835 F F F P
0.812278 0.786455 0.620043 F F F P
0.187722 0.286455 0.620043 F F F P
0.151901 0.889856 0.641800 F F F P
0.848099 0.389856 0.641800 F F F P
0.809867 0.982845 0.664721 F F F P
0.190133 0.482845 0.664721 F F F P
0.185377 0.000413 0.724809 F F F P
0.814623 0.500413 0.724809 F F F P
0.843317 0.093280 0.747742 F F F P
0.156683 0.593280 0.747742 F F F P
0.188444 0.197061 0.769467 T T T P
0.811556 0.697061 0.769467 T T T P
0.828977 0.308311 0.679519 F F F P
0.171023 0.808311 0.679519 F F F P
0.159739 0.408249 0.701740 F F F P
0.840261 0.908249 0.701740 F F F P
0.843930 0.574567 0.687683 F F F P
0.156070 0.074567 0.687683 F F F P
0.174322 0.674438 0.709946 F F F P
0.825678 0.174438 0.709946 F F F P
0.812278 0.786455 0.731154 F F F P
0.187722 0.286455 0.731154 F F F P
0.151901 0.889856 0.752911 T T T P
0.848099 0.389856 0.752911 T T T P
0.809867 0.982845 0.775832 T T T P
0.190133 0.482845 0.775832 T T T P
0.069000 0.035413 0.072672 F F F O
0.931000 0.535413 0.072672 F F F O
0.951087 0.140628 0.096027 F F F O
0.048913 0.640628 0.096027 F F F O
0.080018 0.275856 0.004746 F F F O
0.919982 0.775856 0.004746 F F F O
0.926681 0.392259 0.025663 F F F O
0.073319 0.892259 0.025663 F F F O
0.942022 0.978148 0.049324 F F F O
0.057978 0.478148 0.049324 F F F O
0.076781 0.590622 0.030445 F F F O
0.923219 0.090622 0.030445 F F F O
0.921841 0.709404 0.051204 F F F O
0.078159 0.209404 0.051204 F F F O
0.049265 0.843555 0.071207 F F F O
0.950735 0.343555 0.071207 F F F O
0.918787 0.943480 0.094389 F F F O
0.081213 0.443480 0.094389 F F F O
0.944691 0.504327 0.006715 F F F O
0.055309 0.004327 0.006715 F F F O
0.322795 0.926111 0.054988 F F F O
0.677205 0.426111 0.054988 F F F O
0.313918 0.066074 0.057664 F F F O
0.686082 0.566074 0.057664 F F F O
0.643576 0.041349 0.080966 F F F O
0.356424 0.541349 0.080966 F F F O
0.795305 0.153257 0.077236 F F F O
0.204695 0.653257 0.077236 F F F O
0.351974 0.154647 0.107080 F F F O
0.648026 0.654647 0.107080 F F F O
0.281781 0.224590 0.094072 F F F O
0.718219 0.724590 0.094072 F F F O
0.751546 0.252705 0.017193 T T T O
0.248454 0.752705 0.017193 T T T O
0.656290 0.330648 0.005732 T T T O
0.343710 0.830648 0.005732 T T T O
0.215121 0.332841 0.034961 F F F O
0.784879 0.832841 0.034961 F F F O
0.355777 0.446708 0.031686 F F F O
0.644223 0.946708 0.031686 F F F O
0.649890 0.536665 0.024630 F F F O
0.350110 0.036665 0.024630 F F F O
0.785996 0.649394 0.021017 F F F O
0.214004 0.149394 0.021017 F F F O
0.340793 0.651785 0.050608 F F F O
0.659207 0.151785 0.050608 F F F O
0.258044 0.728542 0.038750 F F F O
0.741956 0.228542 0.038750 F F F O
0.725734 0.758375 0.073261 F F F O
0.274266 0.258375 0.073261 F F F O
0.642950 0.828801 0.060438 F F F O
0.357050 0.328801 0.060438 F F F O
0.205272 0.829973 0.090049 F F F O
0.794728 0.329973 0.090049 F F F O
0.347295 0.944360 0.086785 F F F O
0.652705 0.444360 0.086785 F F F O
0.677470 0.919559 0.110138 F F F O
0.322530 0.419559 0.110138 F F F O
0.678914 0.057634 0.000973 T T T O
0.321086 0.557634 0.000973 T T T O
0.069000 0.035413 0.183783 F F F O
0.931000 0.535413 0.183783 F F F O
0.951087 0.140628 0.207138 F F F O
0.048913 0.640628 0.207138 F F F O
0.080018 0.275856 0.115857 F F F O
0.919982 0.775856 0.115857 F F F O
0.926681 0.392259 0.136774 F F F O
0.073319 0.892259 0.136774 F F F O
0.942022 0.978148 0.160435 F F F O
0.057978 0.478148 0.160435 F F F O
0.076781 0.590622 0.141556 F F F O
0.923219 0.090622 0.141556 F F F O
0.921841 0.709404 0.162315 F F F O
0.078159 0.209404 0.162315 F F F O
0.049265 0.843555 0.182318 F F F O
0.950735 0.343555 0.182318 F F F O
0.918787 0.943480 0.205500 F F F O
0.081213 0.443480 0.205500 F F F O
0.944691 0.504327 0.117826 F F F O
0.055309 0.004327 0.117826 F F F O
0.322795 0.926111 0.166099 F F F O
0.677205 0.426111 0.166099 F F F O
0.313918 0.066074 0.168775 F F F O
0.686082 0.566074 0.168775 F F F O
0.643576 0.041349 0.192077 F F F O
0.356424 0.541349 0.192077 F F F O
0.795305 0.153257 0.188347 F F F O
0.204695 0.653257 0.188347 F F F O
0.351974 0.154647 0.218191 F F F O
0.648026 0.654647 0.218191 F F F O
0.281781 0.224590 0.205183 F F F O
0.718219 0.724590 0.205183 F F F O
0.751546 0.252705 0.128304 F F F O
0.248454 0.752705 0.128304 F F F O
0.656290 0.330648 0.116843 F F F O
0.343710 0.830648 0.116843 F F F O
0.215121 0.332841 0.146072 F F F O
0.784879 0.832841 0.146072 F F F O
0.355777 0.446708 0.142797 F F F O
0.644223 0.946708 0.142797 F F F O
0.649890 0.536665 0.135742 F F F O
0.350110 0.036665 0.135742 F F F O
0.785996 0.649394 0.132128 F F F O
0.214004 0.149394 0.132128 F F F O
0.340793 0.651785 0.161719 F F F O
0.659207 0.151785 0.161719 F F F O
0.258044 0.728542 0.149861 F F F O
0.741956 0.228542 0.149861 F F F O
0.725734 0.758375 0.184372 F F F O
0.274266 0.258375 0.184372 F F F O
0.642950 0.828801 0.171549 F F F O
0.357050 0.328801 0.171549 F F F O
0.205272 0.829973 0.201161 F F F O
0.794728 0.329973 0.201161 F F F O
0.347295 0.944360 0.197896 F F F O
0.652705 0.444360 0.197896 F F F O
0.677470 0.919559 0.221249 F F F O
0.322530 0.419559 0.221249 F F F O
0.678914 0.057634 0.112084 F F F O
0.321086 0.557634 0.112084 F F F O
0.069000 0.035413 0.294894 F F F O
0.931000 0.535413 0.294894 F F F O
0.951087 0.140628 0.318249 F F F O
0.048913 0.640628 0.318249 F F F O
0.080018 0.275856 0.226968 F F F O
0.919982 0.775856 0.226968 F F F O
0.926681 0.392259 0.247885 F F F O
0.073319 0.892259 0.247885 F F F O
0.942022 0.978148 0.271546 F F F O
0.057978 0.478148 0.271546 F F F O
0.076781 0.590622 0.252667 F F F O
0.923219 0.090622 0.252667 F F F O
0.921841 0.709404 0.273427 F F F O
0.078159 0.209404 0.273427 F F F O
0.049265 0.843555 0.293429 F F F O
0.950735 0.343555 0.293429 F F F O
0.918787 0.943480 0.316611 F F F O
0.081213 0.443480 0.316611 F F F O
0.944691 0.504327 0.228937 F F F O
0.055309 0.004327 0.228937 F F F O
0.322795 0.926111 0.277210 F F F O
0.677205 0.426111 0.277210 F F F O
0.313918 0.066074 0.279886 F F F O
0.686082 0.566074 0.279886 F F F O
0.643576 0.041349 0.303188 F F F O
0.356424 0.541349 0.303188 F F F O
0.795305 0.153257 0.299458 F F F O
0.204695 0.653257 0.299458 F F F O
0.351974 0.154647 0.329302 F F F O
0.648026 0.654647 0.329302 F F F O
0.281781 0.224590 0.316294 F F F O
0.718219 0.724590 0.316294 F F F O
0.751546 0.252705 0.239415 F F F O
0.248454 0.752705 0.239415 F F F O
0.656290 0.330648 0.227954 F F F O
0.343710 0.830648 0.227954 F F F O
0.215121 0.332841 0.257183 F F F O
0.784879 0.832841 0.257183 F F F O
0.355777 0.446708 0.253908 F F F O
0.644223 0.946708 0.253908 F F F O
0.649890 0.536665 0.246853 F F F O
0.350110 0.036665 0.246853 F F F O
0.785996 0.649394 0.243239 F F F O
0.214004 0.149394 0.243239 F F F O
0.340793 0.651785 0.272830 F F F O
0.659207 0.151785 0.272830 F F F O
0.258044 0.728542 0.260972 F F F O
0.741956 0.228542 0.260972 F F F O
0.725734 0.758375 0.295483 F F F O
0.274266 0.258375 0.295483 F F F O
0.642950 0.828801 0.282661 F F F O
0.357050 0.328801 0.282661 F F F O
0.205272 0.829973 0.312272 F F F O
0.794728 0.329973 0.312272 F F F O
0.347295 0.944360 0.309008 F F F O
0.652705 0.444360 0.309008 F F F O
0.677470 0.919559 0.332361 F F F O
0.322530 0.419559 0.332361 F F F O
0.678914 0.057634 0.223195 F F F O
0.321086 0.557634 0.223195 F F F O
0.069000 0.035413 0.406006 F F F O
0.931000 0.535413 0.406006 F F F O
0.951087 0.140628 0.429360 F F F O
0.048913 0.640628 0.429360 F F F O
0.080018 0.275856 0.338079 F F F O
0.919982 0.775856 0.338079 F F F O
0.926681 0.392259 0.358996 F F F O
0.073319 0.892259 0.358996 F F F O
0.942022 0.978148 0.382657 F F F O
0.057978 0.478148 0.382657 F F F O
0.076781 0.590622 0.363778 F F F O
0.923219 0.090622 0.363778 F F F O
0.921841 0.709404 0.384538 F F F O
0.078159 0.209404 0.384538 F F F O
0.049265 0.843555 0.404540 F F F O
0.950735 0.343555 0.404540 F F F O
0.918787 0.943480 0.427722 F F F O
0.081213 0.443480 0.427722 F F F O
0.944691 0.504327 0.340048 F F F O
0.055309 0.004327 0.340048 F F F O
0.322795 0.926111 0.388321 F F F O
0.677205 0.426111 0.388321 F F F O
0.313918 0.066074 0.390997 F F F O
0.686082 0.566074 0.390997 F F F O
0.643576 0.041349 0.414299 F F F O
0.356424 0.541349 0.414299 F F F O
0.795305 0.153257 0.410569 F F F O
0.204695 0.653257 0.410569 F F F O
0.351974 0.154647 0.440414 F F F O
0.648026 0.654647 0.440414 F F F O
0.281781 0.224590 0.427405 F F F O
0.718219 0.724590 0.427405 F F F O
0.751546 0.252705 0.350526 F F F O
0.248454 0.752705 0.350526 F F F O
0.656290 0.330648 0.339065 F F F O
0.343710 0.830648 0.339065 F F F O
0.215121 0.332841 0.368294 F F F O
0.784879 0.832841 0.368294 F F F O
0.355777 0.446708 0.365019 F F F O
0.644223 0.946708 0.365019 F F F O
0.649890 0.536665 0.357964 F F F O
0.350110 0.036665 0.357964 F F F O
0.785996 0.649394 0.354350 F F F O
0.214004 0.149394 0.354350 F F F O
0.340793 0.651785 0.383941 F F F O
0.659207 0.151785 0.383941 F F F O
0.258044 0.728542 0.372084 F F F O
0.741956 0.228542 0.372084 F F F O
0.725734 0.758375 0.406594 F F F O
0.274266 0.258375 0.406594 F F F O
0.642950 0.828801 0.393772 F F F O
0.357050 0.328801 0.393772 F F F O
0.205272 0.829973 0.423383 F F F O
0.794728 0.329973 0.423383 F F F O
0.347295 0.944360 0.420119 F F F O
0.652705 0.444360 0.420119 F F F O
0.677470 0.919559 0.443472 F F F O
0.322530 0.419559 0.443472 F F F O
0.678914 0.057634 0.334306 F F F O
0.321086 0.557634 0.334306 F F F O
0.069000 0.035413 0.517117 F F F O
0.931000 0.535413 0.517117 F F F O
0.951087 0.140628 0.540471 F F F O
0.048913 0.640628 0.540471 F F F O
0.080018 0.275856 0.449190 F F F O
0.919982 0.775856 0.449191 F F F O
0.926681 0.392259 0.470108 F F F O
0.073319 0.892259 0.470108 F F F O
0.942022 0.978148 0.493768 F F F O
0.057978 0.478148 0.493768 F F F O
0.076781 0.590622 0.474889 F F F O
0.923219 0.090622 0.474889 F F F O
0.921841 0.709404 0.495649 F F F O
0.078159 0.209404 0.495649 F F F O
0.049265 0.843555 0.515652 F F F O
0.950735 0.343555 0.515651 F F F O
0.918787 0.943480 0.538833 F F F O
0.081213 0.443480 0.538833 F F F O
0.944691 0.504327 0.451159 F F F O
0.055309 0.004327 0.451159 F F F O
0.322795 0.926111 0.499432 F F F O
0.677205 0.426111 0.499432 F F F O
0.313918 0.066074 0.502108 F F F O
0.686082 0.566074 0.502108 F F F O
0.643576 0.041349 0.525410 F F F O
0.356424 0.541349 0.525410 F F F O
0.795305 0.153257 0.521680 F F F O
0.204695 0.653257 0.521680 F F F O
0.351974 0.154647 0.551525 F F F O
0.648026 0.654647 0.551525 F F F O
0.281781 0.224590 0.538516 F F F O
0.718219 0.724590 0.538516 F F F O
0.751546 0.252705 0.461637 F F F O
0.248454 0.752705 0.461637 F F F O
0.656290 0.330648 0.450176 F F F O
0.343710 0.830648 0.450176 F F F O
0.215121 0.332841 0.479405 F F F O
0.784879 0.832841 0.479405 F F F O
0.355777 0.446708 0.476130 F F F O
0.644223 0.946708 0.476130 F F F O
0.649890 0.536665 0.469075 F F F O
0.350110 0.036665 0.469075 F F F O
0.785996 0.649394 0.465461 F F F O
0.214004 0.149394 0.465461 F F F O
0.340793 0.651785 0.495052 F F F O
0.659207 0.151785 0.495052 F F F O
0.258044 0.728542 0.483195 F F F O
0.741956 0.228542 0.483195 F F F O
0.725734 0.758375 0.517705 F F F O
0.274266 0.258375 0.517705 F F F O
0.642950 0.828801 0.504883 F F F O
0.357050 0.328801 0.504883 F F F O
0.205272 0.829973 0.534494 F F F O
0.794728 0.329973 0.534494 F F F O
0.347295 0.944360 0.531230 F F F O
0.652705 0.444360 0.531230 F F F O
0.677470 0.919559 0.554583 F F F O
0.322530 0.419559 0.554583 F F F O
0.678914 0.057634 0.445417 F F F O
0.321086 0.557634 0.445417 F F F O
0.069000 0.035413 0.628228 F F F O
0.931000 0.535413 0.628228 F F F O
0.951087 0.140628 0.651583 F F F O
0.048913 0.640628 0.651583 F F F O
0.080018 0.275856 0.560302 F F F O
0.919982 0.775856 0.560302 F F F O
0.926681 0.392259 0.581219 F F F O
0.073319 0.892259 0.581219 F F F O
0.942022 0.978148 0.604879 F F F O
0.057978 0.478148 0.604879 F F F O
0.076781 0.590622 0.586000 F F F O
0.923219 0.090622 0.586000 F F F O
0.921841 0.709404 0.606760 F F F O
0.078159 0.209404 0.606760 F F F O
0.049265 0.843555 0.626763 F F F O
0.950735 0.343555 0.626763 F F F O
0.918787 0.943480 0.649944 F F F O
0.081213 0.443480 0.649944 F F F O
0.944691 0.504327 0.562271 F F F O
0.055309 0.004327 0.562271 F F F O
0.322795 0.926111 0.610544 F F F O
0.677205 0.426111 0.610544 F F F O
0.313918 0.066074 0.613219 F F F O
0.686082 0.566074 0.613219 F F F O
0.643576 0.041349 0.636521 F F F O
0.356424 0.541349 0.636521 F F F O
0.795305 0.153257 0.632791 F F F O
0.204695 0.653257 0.632791 F F F O
0.351974 0.154647 0.662636 F F F O
0.648026 0.654647 0.662636 F F F O
0.281781 0.224590 0.649628 F F F O
0.718219 0.724590 0.649628 F F F O
0.751546 0.252705 0.572748 F F F O
0.248454 0.752705 0.572748 F F F O
0.656290 0.330648 0.561287 F F F O
0.343710 0.830648 0.561287 F F F O
0.215121 0.332841 0.590516 F F F O
0.784879 0.832841 0.590516 F F F O
0.355777 0.446708 0.587241 F F F O
0.644223 0.946708 0.587241 F F F O
0.649890 0.536665 0.580186 F F F O
0.350110 0.036665 0.580186 F F F O
0.785996 0.649394 0.576572 F F F O
0.214004 0.149394 0.576572 F F F O
0.340793 0.651785 0.606163 F F F O
0.659207 0.151785 0.606163 F F F O
0.258044 0.728542 0.594306 F F F O
0.741956 0.228542 0.594306 F F F O
0.725734 0.758375 0.628816 F F F O
0.274266 0.258375 0.628816 F F F O
0.642950 0.828801 0.615994 F F F O
0.357050 0.328801 0.615994 F F F O
0.205272 0.829973 0.645605 F F F O
0.794728 0.329973 0.645605 F F F O
0.347295 0.944360 0.642341 F F F O
0.652705 0.444360 0.642341 F F F O
0.677470 0.919559 0.665694 F F F O
0.322530 0.419559 0.665694 F F F O
0.678914 0.057634 0.556528 F F F O
0.321086 0.557634 0.556528 F F F O
0.069000 0.035413 0.739339 F F F O
0.931000 0.535413 0.739339 F F F O
0.951087 0.140628 0.762694 T T T O
0.048913 0.640628 0.762694 T T T O
0.080018 0.275856 0.671413 F F F O
0.919982 0.775856 0.671413 F F F O
0.926681 0.392259 0.692330 F F F O
0.073319 0.892259 0.692330 F F F O
0.942022 0.978148 0.715990 F F F O
0.057978 0.478148 0.715990 F F F O
0.076781 0.590622 0.697111 F F F O
0.923219 0.090622 0.697111 F F F O
0.921841 0.709404 0.717871 F F F O
0.078159 0.209404 0.717871 F F F O
0.049265 0.843555 0.737874 F F F O
0.950735 0.343555 0.737874 F F F O
0.918787 0.943480 0.761055 T T T O
0.081213 0.443480 0.761055 T T T O
0.944691 0.504327 0.673382 F F F O
0.055309 0.004327 0.673382 F F F O
0.322795 0.926111 0.721655 F F F O
0.677205 0.426111 0.721655 F F F O
0.313918 0.066074 0.724330 F F F O
0.686082 0.566074 0.724330 F F F O
0.643576 0.041349 0.747632 F F F O
0.356424 0.541349 0.747632 F F F O
0.795305 0.153257 0.743902 F F F O
0.204695 0.653257 0.743902 F F F O
0.351974 0.154647 0.773747 T T T O
0.648026 0.654647 0.773747 T T T O
0.281781 0.224590 0.760739 T T T O
0.718219 0.724590 0.760739 T T T O
0.751546 0.252705 0.683859 F F F O
0.248454 0.752705 0.683859 F F F O
0.656290 0.330648 0.672398 F F F O
0.343710 0.830648 0.672398 F F F O
0.215121 0.332841 0.701628 F F F O
0.784879 0.832841 0.701628 F F F O
0.355777 0.446708 0.698352 F F F O
0.644223 0.946708 0.698352 F F F O
0.649890 0.536665 0.691297 F F F O
0.350110 0.036665 0.691297 F F F O
0.785996 0.649394 0.687684 F F F O
0.214004 0.149394 0.687684 F F F O
0.340793 0.651785 0.717274 F F F O
0.659207 0.151785 0.717274 F F F O
0.258044 0.728542 0.705417 F F F O
0.741956 0.228542 0.705417 F F F O
0.725734 0.758375 0.739927 F F F O
0.274266 0.258375 0.739927 F F F O
0.642950 0.828801 0.727105 F F F O
0.357050 0.328801 0.727105 F F F O
0.205272 0.829973 0.756716 T T T O
0.794728 0.329973 0.756716 T T T O
0.347295 0.944360 0.753452 F F F O
0.652705 0.444360 0.753452 F F F O
0.677470 0.919559 0.776805 T T T O
0.322530 0.419559 0.776805 T T T O
0.678914 0.057634 0.667639 F F F O
0.321086 0.557634 0.667639 F F F O
