Li56 P56
1.0
4.931949 0.000000 -2.639560
0.000000 4.970385 0.000000
0.000000 0.000000 102.507508
Li P
56 56
direct
0.217008 0.388247 0.025854 Li+
0.782992 0.888247 0.009994 Li+
0.782992 0.611753 0.059994 Li+
0.217008 0.111753 0.075854 Li+
0.225768 0.658316 0.095902 Li+
0.774232 0.158316 0.039945 Li+
0.774232 0.341684 0.089945 Li+
0.225768 0.841684 0.045902 Li+
0.217008 0.388247 0.125854 Li+
0.782992 0.888247 0.109994 Li+
0.782992 0.611753 0.159994 Li+
0.217008 0.111753 0.175854 Li+
0.225768 0.658316 0.195902 Li+
0.774232 0.158316 0.139945 Li+
0.774232 0.341684 0.189945 Li+
0.225768 0.841684 0.145902 Li+
0.217008 0.388247 0.225854 Li+
0.782992 0.888247 0.209994 Li+
0.782992 0.611753 0.259994 Li+
0.217008 0.111753 0.275854 Li+
0.225768 0.658316 0.295902 Li+
0.774232 0.158316 0.239945 Li+
0.774232 0.341684 0.289945 Li+
0.225768 0.841684 0.245902 Li+
0.217008 0.388247 0.325854 Li+
0.782992 0.888247 0.309994 Li+
0.782992 0.611753 0.359994 Li+
0.217008 0.111753 0.375854 Li+
0.225768 0.658316 0.395902 Li+
0.774232 0.158316 0.339945 Li+
0.774232 0.341684 0.389945 Li+
0.225768 0.841684 0.345902 Li+
0.217008 0.388247 0.425854 Li+
0.782992 0.888247 0.409994 Li+
0.782992 0.611753 0.459994 Li+
0.217008 0.111753 0.475854 Li+
0.225768 0.658316 0.495902 Li+
0.774232 0.158316 0.439945 Li+
0.774232 0.341684 0.489945 Li+
0.225768 0.841684 0.445902 Li+
0.217008 0.388247 0.525854 Li+
0.782992 0.888247 0.509994 Li+
0.782992 0.611753 0.559994 Li+
0.217008 0.111753 0.575854 Li+
0.225768 0.658316 0.595902 Li+
0.774232 0.158316 0.539945 Li+
0.774232 0.341684 0.589945 Li+
0.225768 0.841684 0.545902 Li+
0.217008 0.388247 0.625854 Li+
0.782992 0.888247 0.609994 Li+
0.782992 0.611753 0.659994 Li+
0.217008 0.111753 0.675854 Li+
0.225768 0.658316 0.695902 Li+
0.774232 0.158316 0.639945 Li+
0.774232 0.341684 0.689945 Li+
0.225768 0.841684 0.645902 Li+
0.316645 0.894904 0.022215 P-
0.683355 0.394904 0.013632 P-
0.683355 0.105096 0.063632 P-
0.316645 0.605096 0.072215 P-
0.303182 0.156027 0.004098 P-
0.696818 0.656027 0.031749 P-
0.696818 0.843973 0.081749 P-
0.303182 0.343973 0.054098 P-
0.316645 0.894904 0.122215 P-
0.683355 0.394904 0.113632 P-
0.683355 0.105096 0.163632 P-
0.316645 0.605096 0.172215 P-
0.303182 0.156027 0.104098 P-
0.696818 0.656027 0.131749 P-
0.696818 0.843973 0.181749 P-
0.303182 0.343973 0.154098 P-
0.316645 0.894904 0.222215 P-
0.683355 0.394904 0.213632 P-
0.683355 0.105096 0.263632 P-
0.316645 0.605096 0.272215 P-
0.303182 0.156027 0.204098 P-
0.696818 0.656027 0.231749 P-
0.696818 0.843973 0.281749 P-
0.303182 0.343973 0.254098 P-
0.316645 0.894904 0.322215 P-
0.683355 0.394904 0.313632 P-
0.683355 0.105096 0.363632 P-
0.316645 0.605096 0.372215 P-
0.303182 0.156027 0.304098 P-
0.696818 0.656027 0.331749 P-
0.696818 0.843973 0.381749 P-
0.303182 0.343973 0.354098 P-
0.316645 0.894904 0.422215 P-
0.683355 0.394904 0.413632 P-
0.683355 0.105096 0.463632 P-
0.316645 0.605096 0.472215 P-
0.303182 0.156027 0.404098 P-
0.696818 0.656027 0.431749 P-
0.696818 0.843973 0.481749 P-
0.303182 0.343973 0.454098 P-
0.316645 0.894904 0.522215 P-
0.683355 0.394904 0.513632 P-
0.683355 0.105096 0.563632 P-
0.316645 0.605096 0.572215 P-
0.303182 0.156027 0.504098 P-
0.696818 0.656027 0.531749 P-
0.696818 0.843973 0.581749 P-
0.303182 0.343973 0.554098 P-
0.316645 0.894904 0.622215 P-
0.683355 0.394904 0.613632 P-
0.683355 0.105096 0.663632 P-
0.316645 0.605096 0.672215 P-
0.303182 0.156027 0.604098 P-
0.696818 0.656027 0.631749 P-
0.696818 0.843973 0.681749 P-
0.303182 0.343973 0.654098 P-
