Li5 P2 N1 O6                            
   1.00000000000000     
     0.5585165255815027    0.4808762734443338    5.1321089889835569
     5.8680905747638983   -0.4267747811418678    0.6106096087554945
    -0.5481227699491924    5.3010535081003702    0.5589891629476076
   Li   P    N    O 
     5     2     1     6
Direct
  0.4516212910466789  0.1965609421058248  0.1029944329494582
 -0.0265974794385006  0.4872020168025964  0.1063481660023604
  0.4802255771313568  0.7373217934075293  0.3258247479303265
 -0.0663358305042655  0.7783480058949577  0.7464451636820262
  0.0245743509065290  0.3764429834522817  0.5657967890057229
  0.5248810947769994  0.4679440961586482  0.7702893625558155
 -0.0904691422560105  0.0239690985108125  0.3385620457147986
  0.2247377855206508  0.4851603851397132  0.7834272227451751
  0.0820186660797957  0.1874376933269005  0.2309892334454234
  0.6803870600570551  0.6048976352103883  0.5951985294983602
  0.0898988602896686  0.8035876756746374  0.3860315949545324
  0.7369446286676414  0.1667647437732276  0.6251752744034179
  0.6196339707255528  0.4739835574586590  0.0312504923273527
  0.7157901669968764 -0.0424936269161766  0.1687409447852298
 
  0.00000000E+00  0.00000000E+00  0.00000000E+00
  0.00000000E+00  0.00000000E+00  0.00000000E+00
  0.00000000E+00  0.00000000E+00  0.00000000E+00
  0.00000000E+00  0.00000000E+00  0.00000000E+00
  0.00000000E+00  0.00000000E+00  0.00000000E+00
  0.00000000E+00  0.00000000E+00  0.00000000E+00
  0.00000000E+00  0.00000000E+00  0.00000000E+00
  0.00000000E+00  0.00000000E+00  0.00000000E+00
  0.00000000E+00  0.00000000E+00  0.00000000E+00
  0.00000000E+00  0.00000000E+00  0.00000000E+00
  0.00000000E+00  0.00000000E+00  0.00000000E+00
  0.00000000E+00  0.00000000E+00  0.00000000E+00
  0.00000000E+00  0.00000000E+00  0.00000000E+00
  0.00000000E+00  0.00000000E+00  0.00000000E+00
