(1, 1, 1)                               
   1.00000000000000     
     3.2438907139120094   -0.0000036563348030   -0.0000002849152228
    -1.6219480312297008    2.8092893232878087    0.0000000157113606
    -0.0000034933458321   -0.0000017921172404   40.0405491989192939
   Li   O 
    14     7
Selective dynamics
Direct
  0.0000000000000000  0.0000000000000000  0.0499999999999972   F   F   F
  0.3333332524986921  0.6666668598127035  0.0171968528204595   T   T   T
  0.3333330000000032  0.6666669999999968  0.1166669999999996   F   F   F
  0.6666669999999968  0.3333330000000032  0.0833330000000032   F   F   F
  0.6666669999999968  0.3333330000000032  0.1833329999999975   F   F   F
  0.0000000000000000  0.0000000000000000  0.1499999999999986   F   F   F
  0.0000000000000000  0.0000000000000000  0.2500000000000000   F   F   F
  0.3333330000000032  0.6666669999999968  0.2166670000000011   F   F   F
  0.3333330000000032  0.6666669999999968  0.3166670000000025   F   F   F
  0.6666669999999968  0.3333330000000032  0.2833329999999989   F   F   F
  0.6666669999999968  0.3333330000000032  0.3833330000000004   F   F   F
  0.0000000000000000  0.0000000000000000  0.3500000000000014   F   F   F
 -0.0000001331234771 -0.0000001573641588  0.4494690711136648   T   T   T
  0.3333330000000032  0.6666669999999968  0.4166669999999968   F   F   F
  0.6666667562165814  0.3333331452511730  0.0329243979941569   T   T   T
  0.0000000000000000  0.0000000000000000  0.1000000000000014   F   F   F
  0.3333330000000032  0.6666669999999968  0.1666669999999968   F   F   F
  0.6666669999999968  0.3333330000000032  0.2333330000000018   F   F   F
  0.0000000000000000  0.0000000000000000  0.2999999999999972   F   F   F
  0.3333330000000032  0.6666669999999968  0.3666669999999996   F   F   F
  0.6666664962478618  0.3333328874028268  0.4337417388762086   T   T   T
 
  0.00000000E+00  0.00000000E+00  0.00000000E+00
  0.00000000E+00  0.00000000E+00  0.00000000E+00
  0.00000000E+00  0.00000000E+00  0.00000000E+00
  0.00000000E+00  0.00000000E+00  0.00000000E+00
  0.00000000E+00  0.00000000E+00  0.00000000E+00
  0.00000000E+00  0.00000000E+00  0.00000000E+00
  0.00000000E+00  0.00000000E+00  0.00000000E+00
  0.00000000E+00  0.00000000E+00  0.00000000E+00
  0.00000000E+00  0.00000000E+00  0.00000000E+00
  0.00000000E+00  0.00000000E+00  0.00000000E+00
  0.00000000E+00  0.00000000E+00  0.00000000E+00
  0.00000000E+00  0.00000000E+00  0.00000000E+00
  0.00000000E+00  0.00000000E+00  0.00000000E+00
  0.00000000E+00  0.00000000E+00  0.00000000E+00
  0.00000000E+00  0.00000000E+00  0.00000000E+00
  0.00000000E+00  0.00000000E+00  0.00000000E+00
  0.00000000E+00  0.00000000E+00  0.00000000E+00
  0.00000000E+00  0.00000000E+00  0.00000000E+00
  0.00000000E+00  0.00000000E+00  0.00000000E+00
  0.00000000E+00  0.00000000E+00  0.00000000E+00
  0.00000000E+00  0.00000000E+00  0.00000000E+00
