Li4 O4
1.0
1.606970 -2.783354 -0.000000
1.606970 2.783354 0.000000
-0.000000 -0.000000 7.812244
Li O
4 4
direct
-0.000000 0.000000 0.000000 Li
-0.000000 -0.000000 0.500000 Li
0.333333 0.666667 0.250000 Li
0.666667 0.333333 0.750000 Li
0.333333 0.666667 0.649147 O
0.666667 0.333333 0.149147 O
0.666667 0.333333 0.350853 O
0.333333 0.666667 0.850853 O
