Li42 P14 O56
1.0
6.176136 0.000000 0.000000
0.000000 5.296402 -4.922448
0.000000 0.000000 63.991824
Li P O
42 14 56
direct
0.000000 0.155480 0.038220 Li+
0.500000 0.844520 0.052761 Li+
0.252873 0.673566 0.001231 Li+
0.247127 0.326434 0.012990 Li+
0.752873 0.326434 0.012990 Li+
0.747127 0.673566 0.001231 Li+
0.000000 0.155480 0.115143 Li+
0.500000 0.844520 0.129685 Li+
0.252873 0.673566 0.078154 Li+
0.247127 0.326434 0.089913 Li+
0.752873 0.326434 0.089913 Li+
0.747127 0.673566 0.078154 Li+
0.000000 0.155480 0.192066 Li+
0.500000 0.844520 0.206608 Li+
0.252873 0.673566 0.155077 Li+
0.247127 0.326434 0.166836 Li+
0.752873 0.326434 0.166836 Li+
0.747127 0.673566 0.155077 Li+
0.000000 0.155480 0.268989 Li+
0.500000 0.844520 0.283531 Li+
0.252873 0.673566 0.232000 Li+
0.247127 0.326434 0.243759 Li+
0.752873 0.326434 0.243759 Li+
0.747127 0.673566 0.232000 Li+
0.000000 0.155480 0.345912 Li+
0.500000 0.844520 0.360454 Li+
0.252873 0.673566 0.308923 Li+
0.247127 0.326434 0.320682 Li+
0.752873 0.326434 0.320682 Li+
0.747127 0.673566 0.308923 Li+
0.000000 0.155480 0.422835 Li+
0.500000 0.844520 0.437377 Li+
0.252873 0.673566 0.385846 Li+
0.247127 0.326434 0.397605 Li+
0.752873 0.326434 0.397605 Li+
0.747127 0.673566 0.385846 Li+
0.000000 0.155480 0.499758 Li+
0.500000 0.844520 0.514300 Li+
0.252873 0.673566 0.462769 Li+
0.247127 0.326434 0.474528 Li+
0.752873 0.326434 0.474528 Li+
0.747127 0.673566 0.462769 Li+
0.500000 0.175739 0.040393 P5+
0.000000 0.824261 0.051818 P5+
0.500000 0.175739 0.117317 P5+
0.000000 0.824261 0.128741 P5+
0.500000 0.175739 0.194240 P5+
0.000000 0.824261 0.205664 P5+
0.500000 0.175739 0.271163 P5+
0.000000 0.824261 0.282587 P5+
0.500000 0.175739 0.348086 P5+
0.000000 0.824261 0.359511 P5+
0.500000 0.175739 0.425009 P5+
0.000000 0.824261 0.436434 P5+
0.500000 0.175739 0.501932 P5+
0.000000 0.824261 0.513357 P5+
0.792862 0.686491 0.033098 O2-
0.500000 0.896492 0.011166 O2-
0.500000 0.181604 0.065170 O2-
0.000000 0.818396 0.075692 O2-
0.292862 0.313509 0.042869 O2-
0.207138 0.686491 0.033098 O2-
0.000000 0.103508 0.065552 O2-
0.707138 0.313509 0.042869 O2-
0.792862 0.686491 0.110021 O2-
0.500000 0.896492 0.088089 O2-
0.500000 0.181604 0.142093 O2-
0.000000 0.818396 0.152615 O2-
0.292862 0.313509 0.119792 O2-
0.207138 0.686491 0.110021 O2-
0.000000 0.103508 0.142475 O2-
0.707138 0.313509 0.119792 O2-
0.792862 0.686491 0.186944 O2-
0.500000 0.896492 0.165012 O2-
0.500000 0.181604 0.219016 O2-
0.000000 0.818396 0.229539 O2-
0.292862 0.313509 0.196715 O2-
0.207138 0.686491 0.186944 O2-
0.000000 0.103508 0.219398 O2-
0.707138 0.313509 0.196715 O2-
0.792862 0.686491 0.263867 O2-
0.500000 0.896492 0.241936 O2-
0.500000 0.181604 0.295939 O2-
0.000000 0.818396 0.306462 O2-
0.292862 0.313509 0.273638 O2-
0.207138 0.686491 0.263867 O2-
0.000000 0.103508 0.296321 O2-
0.707138 0.313509 0.273638 O2-
0.792862 0.686491 0.340791 O2-
0.500000 0.896492 0.318859 O2-
0.500000 0.181604 0.372862 O2-
0.000000 0.818396 0.383385 O2-
0.292862 0.313509 0.350561 O2-
0.207138 0.686491 0.340791 O2-
0.000000 0.103508 0.373244 O2-
0.707138 0.313509 0.350561 O2-
0.792862 0.686491 0.417714 O2-
0.500000 0.896492 0.395782 O2-
0.500000 0.181604 0.449785 O2-
0.000000 0.818396 0.460308 O2-
0.292862 0.313509 0.427484 O2-
0.207138 0.686491 0.417714 O2-
0.000000 0.103508 0.450168 O2-
0.707138 0.313509 0.427484 O2-
0.792862 0.686491 0.494637 O2-
0.500000 0.896492 0.472705 O2-
0.500000 0.181604 0.526708 O2-
0.000000 0.818396 0.537231 O2-
0.292862 0.313509 0.504407 O2-
0.207138 0.686491 0.494637 O2-
0.000000 0.103508 0.527091 O2-
0.707138 0.313509 0.504407 O2-
