Li71 P24 N1 O94                         
   1.00000000000000     
    14.7479577818695144    0.0023157439917594   -0.0152303884534322
     0.0016625406031895   10.5448459413785436   -0.0059580520120104
    -0.0127209275463580   -0.0069276475335361   12.3269830837035759
   Li   P    N    O 
    71    24     1    94
Direct
  0.1715169598735513  0.4232159023520590 -0.0012350301292362
  0.1677727269254777  0.4213824919017153  0.4977658534405056
  0.1738134082269183  0.9192422697347208  0.0012183620008231
  0.1699040689898719  0.9222462195183433  0.4976893772125934
  0.5039088616739531  0.4228909274978037 -0.0010897273038427
  0.5033177499235818  0.4219720081390515  0.5001271713076025
  0.5028430128977892  0.9214416478616410 -0.0004294361105355
  0.5031632468135815  0.9224876995763216  0.5001301646369948
  0.8333872817029259  0.4233837894286152 -0.0008227207447173
  0.8359521353213429  0.4233158931690125  0.5001204650596183
  0.8331086056060787  0.9193673394462589  0.0022851278686253
  0.8372523469188676  0.9242804288165294  0.4992228224633145
  0.0016552110435839  0.0736744718241531  0.7473646100052733
 -0.0001147446910201  0.5837122764746582  0.2557807419689908
  0.0028241748929665  0.5776842042956285  0.7490659251895171
  0.3378870627528486  0.0745257674365532  0.2538944053271098
  0.3368203879736615  0.0772553026219229  0.7485019638063571
  0.3398301879104299  0.5797435992757984  0.2494102833453048
  0.3365217530946766  0.5780482142469249  0.7490938297039155
  0.6742493473729750  0.0741189417403836  0.2511475412325366
  0.6689848761943804  0.0771173460656636  0.7494683217598136
  0.6693543738680831  0.5801549937866125  0.2505995358288649
  0.6693208397878191  0.5779389213545988  0.7496170736081240
  0.1941380034341957  0.1643175626837793  0.1333237195585235
  0.1681955943811226  0.1622271934339152  0.6258002979101781
  0.1708502583727135  0.6649519450081132  0.1259087225491889
  0.1694536847964710  0.6625644019853407  0.6247406231352550
  0.5035235057797981  0.1623156962363192  0.1271710448882328
  0.5026934375577895  0.1632121548585353  0.6258566257132127
  0.5036546000261173  0.6629179429778149  0.1258473366709633
  0.5023591388649842  0.6632623851410857  0.6262202752669415
  0.8321912169695849  0.1629725081297795  0.1297557551061523
  0.8365178657072246  0.1635025705355884  0.6267528175171851
  0.8349964806541589  0.6642991937916713  0.1265648326910535
  0.8361790497484660  0.6641733466836262  0.6264023347207218
 -0.0080515643134735  0.3454426561214151  0.1244253755199409
  0.0030955717763759  0.3359870205059475  0.6234939448253551
  0.0001331582226865  0.8389483339551717  0.1289712009678776
  0.0037766969962030  0.8377118468086665  0.6225573745027663
  0.3419164968075279  0.3394883775582920  0.1217109064821751
  0.3356297535508265  0.3366019798287326  0.6231404383262154
  0.3385042110631992  0.8363737381819312  0.1239350019507276
  0.3359477642689265  0.8363583320222348  0.6229320776084289
  0.6683534330759299  0.3370436962293875  0.1236349085380588
  0.6693826305781058  0.3361990845039571  0.6240058028782880
  0.6674095712997308  0.8347719251110773  0.1226000263097833
  0.6695980716165106  0.8365916943510948  0.6238652565381113
 -0.0028458436562458  0.3346069945519983  0.3777591062340632
  0.0020876501142799  0.3401661559505180  0.8740798371842746
  0.0018499497479234  0.8471675064507252  0.3738412839628444
  0.0026756414787493  0.8307934382118730  0.8739351559258728
  0.3379094545979073  0.3358431790341861  0.3763944593227267
  0.3366695852025884  0.3377072691796249  0.8753191331531516
  0.3376089308100583  0.8360087079009647  0.3765488158604204
  0.3367698674907914  0.8363079041469742  0.8752488094638087
  0.6700154141143345  0.3359639341211472  0.3769517581709534
  0.6682312985739842  0.3367003248417574  0.8752212927794127
  0.6685805371204604  0.8350796458591948  0.3779752608776117
  0.6685592120929459  0.8362723243605069  0.8758799046725134
  0.1642699453951854  0.1595536953894121  0.3719700548446970
  0.1727604254689052  0.1635111726993075  0.8711562406916450
  0.1694957458635690  0.6639370436150814  0.3723909206529387
  0.1702854904605098  0.6623666528345306  0.8733543280318303
  0.5043895212762305  0.1626885738796144  0.3739226030152361
  0.5023477129596277  0.1635347477891906  0.8728483290204598
  0.5034329962212615  0.6629545899150423  0.3744703870177525
  0.5024803138233953  0.6634535565866756  0.8728721923990163
  0.8393298309978187  0.1609291798197784  0.3728814299288199
  0.8326723601516719  0.1660319146472533  0.8721830404899220
  0.8351963738360741  0.6659785673784931  0.3743370623221705
  0.8356634272093477  0.6629994939444434  0.8741561914587500
  0.1718236286439790  0.4135505716043820  0.2458251841351764
  0.1670986971892545  0.4126272393520082  0.7491425585236512
  0.1689169773954071  0.9089157952303304  0.2492280594337949
  0.1676258654385503  0.9109738659495075  0.7502557248986205
  0.5010354561616833  0.4124376098746577  0.2503072529053425
  0.5002000277867993  0.4122630336829057  0.7495104017946707
  0.5012286562359715  0.9118407845873053  0.2502661829917531
  0.5003091376497868  0.9121714706885431  0.7496577629875929
  0.8308471635426437  0.4133725230094754  0.2504163849304656
  0.8334548477276726  0.4129213559109866  0.7499516749130519
  0.8292151808505470  0.9123367339608693  0.2496165003264381
  0.8335856405220888  0.9121959157642749  0.7514808689955786
  0.0001035664748122  0.0848279217801407 -0.0064776235040303
  0.0013880885837826  0.0911566123317710  0.5049113354529340
  0.0001350944027183  0.5867180544978138  0.0012397351956767
 -0.0000827985310072  0.5897119188032983  0.5004059868876362
  0.3340391628263017  0.0872691030384449 -0.0009350845037795
  0.3340143207370188  0.0878141167917460  0.5001005002774933
  0.3349081670224371  0.5882467102480882 -0.0010790660814341
  0.3339776867749564  0.5868994606747148  0.4995095809175209
  0.6654084140053663  0.0878011508336045 -0.0006385735706770
  0.6673060700145838  0.0874400656384485  0.5009373833191536
  0.6664901853609769  0.5875244894688991 -0.0009665610360606
  0.6668936311384183  0.5871877284733636  0.5010306669111335
  0.0618079908065656  0.4093198880173022  0.2454687677954685
  0.0391887004724939  0.1690160969054396  0.4100033178128674
  0.0369261319475911  0.1581075854260723  0.8934243325805421
  0.0352326053787503  0.6610091459103880  0.3981096207948738
  0.0360148802755910  0.6541495702546944  0.8970210649172364
  0.3701894381150196  0.1568294673207663  0.3966795798523876
  0.3688517711921312  0.1575626361224140  0.8960257111823370
  0.3703452749751399  0.6561298054292801  0.3965595651352972
  0.3692904048889433  0.6575127644006824  0.8949057088333897
  0.7023856136771262  0.1567501313922880  0.3976817239909767
  0.7009387956054328  0.1567712180799520  0.8955751545557636
  0.7019800657837825  0.6561166283554868  0.3974015799106834
  0.7021826026507348  0.6567029749888266  0.8955580131939944
  0.2023558182888867  0.0500662637993287  0.2499885622990191
  0.2014537715549854  0.0511322154867733  0.7500465276466967
  0.2072565466712396  0.5530303675965865  0.2471993183695582
  0.2012129287230342  0.5525867093735578  0.7492917670094554
  0.5353482389564802  0.0518388516167331  0.2501635968778342
  0.5338118364847941  0.0524666453081581  0.7498297384699568
  0.5344323989108911  0.5527918147535607  0.2500535602421379
  0.5339587114981948  0.5524617488997243  0.7497891697091551
  0.8523188632248092  0.0545768716287053  0.2485036369506189
  0.8667575275865512  0.0527738974225531  0.7530705665152037
  0.8649451772662468  0.5533795116911758  0.2497537774440965
  0.8672998991181562  0.5530573877175716  0.7507025682647348
  0.0614468973749977  0.4106231356512239  0.7499181769369665
  0.0651755224921915  0.8990732035900995  0.2484079719173544
  0.0618628999235008  0.9076903427064955  0.7516382702480446
  0.3954538528388447  0.4097634608463118  0.2506551083014890
  0.3945925885383752  0.4094656922727053  0.7491885482886206
  0.3956273293841689  0.9094201443769626  0.2503835806251473
  0.3946965861908937  0.9091998605559402  0.7493700217462930
  0.7253691552217121  0.4108433306431662  0.2499508129070328
  0.7278990700212201  0.4096806136128803  0.7502487542437930
  0.7236134739276571  0.8982604839478328  0.2498136711373991
  0.7280655098849020  0.9085615982444618  0.7509162084831197
  0.2280029297437577  0.0897707283806115 -0.0012430904331019
  0.2285551368555015  0.0908305444048020  0.4995183851386983
  0.2292325855210693  0.5907526470803712 -0.0006525160600764
  0.2283339696905625  0.5892490873996922  0.4985564368831742
  0.5598500078823002  0.0902186965522739 -0.0009725675321116
  0.5615688499710196  0.0900944074129427  0.5007693029035960
  0.5609588626907807  0.5911661745461498 -0.0011590407766658
  0.5612450278832795  0.5902390111043389  0.5009452138318564
  0.8953152397547691  0.0933357562165178  0.0009493634816354
  0.8954057527482673  0.0914669433614229  0.5022225118629390
  0.8945335528444815  0.5897190429985696  0.0004336586798834
  0.8941690513262276  0.5922178741963531  0.5002260498446296
  0.2097611028295808  0.3446361407885682  0.1423002247174652
  0.2016150693045479  0.3429925129129883  0.6453969482641316
  0.2071367184596889  0.8423845885203228  0.1447798083871984
  0.2022442186250754  0.8420978207343707  0.6462368448198561
  0.5349936942918732  0.3432514488250504  0.1457833653695337
  0.5357243087386073  0.3429043469504920  0.6460459096105226
  0.5351547465271295  0.8425215421380255  0.1458469008076527
  0.5358120143322177  0.8428567856055014  0.6461504893516756
  0.8647455682560179  0.3433675953539471  0.1456313169740325
  0.8688237469890780  0.3440214348703812  0.6463595881561797
  0.8670462429224705  0.8444490531207258  0.1456231321386250
  0.8696243665041972  0.8439371371688021  0.6478902229714866
  0.0334884676973468  0.1542596301368200  0.6139805601349529
  0.0356131504778697  0.6559743592281184  0.1046757120578723
  0.0352089536718999  0.6572349231664000  0.6052881939454906
  0.3671569839822670  0.1562605166885754  0.1043002475611366
  0.3691561123869115  0.1571758666825386  0.6041525142969736
  0.3710018465666330  0.6569302520314885  0.1024714770673402
  0.3686352436120796  0.6562678457618044  0.6037586043499706
  0.7002991781530632  0.1574481405828931  0.1028318930855337
  0.7023370824056960  0.1562835720480664  0.6053515688682685
  0.7019133689924574  0.6561040379774865  0.1029004491039741
  0.7023285964978263  0.6566939072460787  0.6048011760583808
  0.0334213475934791  0.4454077563905121  0.0017448534679548
  0.0332281040328354  0.4491913979537294  0.4995073651561096
  0.0355216251417078  0.9467250341919055 -0.0002494954058942
  0.0355145584109220  0.9506625819488074  0.5014798468499682
  0.3691260715861189  0.4482111524245055 -0.0019463032572617
  0.3678421603440229  0.4466381774047218  0.4998502932753996
  0.3679906648625285  0.9475112390504496 -0.0010862363187437
  0.3681142025557790  0.9476920488735078  0.5003913929844057
  0.6994918156276038  0.4469369517992821 -0.0012479740516608
  0.7004511402544989  0.4469419387265189  0.5012209652939575
  0.6995237118611738  0.9476442429914169 -0.0005201867912595
  0.7010322832440775  0.9471314912528201  0.5010633708295797
  0.2026552282723289  0.3419023114707529  0.3504861749375886
  0.2024941154336660  0.3432978800677497  0.8530829429223834
  0.2066042764059616  0.8417638350258316  0.3533879521991384
  0.2031796958154664  0.8419365034545258  0.8541287730932284
  0.5364962265314445  0.3430604740007704  0.3538004380792815
  0.5352812843998924  0.3430362967487537  0.8534515763326435
  0.5358456471031482  0.8423273714351083  0.3541535649294093
  0.5354853448689377  0.8430731836945861  0.8536220987783107
  0.8658898958825574  0.3441982202450617  0.3539032918381628
  0.8688092767884328  0.3434592040883239  0.8539941221773657
  0.8677698974412257  0.8453599136683203  0.3531094173252872
  0.8692605809380758  0.8433333080401646  0.8557100480068783
 
  0.00000000E+00  0.00000000E+00  0.00000000E+00
  0.00000000E+00  0.00000000E+00  0.00000000E+00
  0.00000000E+00  0.00000000E+00  0.00000000E+00
  0.00000000E+00  0.00000000E+00  0.00000000E+00
  0.00000000E+00  0.00000000E+00  0.00000000E+00
  0.00000000E+00  0.00000000E+00  0.00000000E+00
  0.00000000E+00  0.00000000E+00  0.00000000E+00
  0.00000000E+00  0.00000000E+00  0.00000000E+00
  0.00000000E+00  0.00000000E+00  0.00000000E+00
  0.00000000E+00  0.00000000E+00  0.00000000E+00
  0.00000000E+00  0.00000000E+00  0.00000000E+00
  0.00000000E+00  0.00000000E+00  0.00000000E+00
  0.00000000E+00  0.00000000E+00  0.00000000E+00
  0.00000000E+00  0.00000000E+00  0.00000000E+00
  0.00000000E+00  0.00000000E+00  0.00000000E+00
  0.00000000E+00  0.00000000E+00  0.00000000E+00
  0.00000000E+00  0.00000000E+00  0.00000000E+00
  0.00000000E+00  0.00000000E+00  0.00000000E+00
  0.00000000E+00  0.00000000E+00  0.00000000E+00
  0.00000000E+00  0.00000000E+00  0.00000000E+00
  0.00000000E+00  0.00000000E+00  0.00000000E+00
  0.00000000E+00  0.00000000E+00  0.00000000E+00
  0.00000000E+00  0.00000000E+00  0.00000000E+00
  0.00000000E+00  0.00000000E+00  0.00000000E+00
  0.00000000E+00  0.00000000E+00  0.00000000E+00
  0.00000000E+00  0.00000000E+00  0.00000000E+00
  0.00000000E+00  0.00000000E+00  0.00000000E+00
  0.00000000E+00  0.00000000E+00  0.00000000E+00
  0.00000000E+00  0.00000000E+00  0.00000000E+00
  0.00000000E+00  0.00000000E+00  0.00000000E+00
  0.00000000E+00  0.00000000E+00  0.00000000E+00
  0.00000000E+00  0.00000000E+00  0.00000000E+00
  0.00000000E+00  0.00000000E+00  0.00000000E+00
  0.00000000E+00  0.00000000E+00  0.00000000E+00
  0.00000000E+00  0.00000000E+00  0.00000000E+00
  0.00000000E+00  0.00000000E+00  0.00000000E+00
  0.00000000E+00  0.00000000E+00  0.00000000E+00
  0.00000000E+00  0.00000000E+00  0.00000000E+00
  0.00000000E+00  0.00000000E+00  0.00000000E+00
  0.00000000E+00  0.00000000E+00  0.00000000E+00
  0.00000000E+00  0.00000000E+00  0.00000000E+00
  0.00000000E+00  0.00000000E+00  0.00000000E+00
  0.00000000E+00  0.00000000E+00  0.00000000E+00
  0.00000000E+00  0.00000000E+00  0.00000000E+00
  0.00000000E+00  0.00000000E+00  0.00000000E+00
  0.00000000E+00  0.00000000E+00  0.00000000E+00
  0.00000000E+00  0.00000000E+00  0.00000000E+00
  0.00000000E+00  0.00000000E+00  0.00000000E+00
  0.00000000E+00  0.00000000E+00  0.00000000E+00
  0.00000000E+00  0.00000000E+00  0.00000000E+00
  0.00000000E+00  0.00000000E+00  0.00000000E+00
  0.00000000E+00  0.00000000E+00  0.00000000E+00
  0.00000000E+00  0.00000000E+00  0.00000000E+00
  0.00000000E+00  0.00000000E+00  0.00000000E+00
  0.00000000E+00  0.00000000E+00  0.00000000E+00
  0.00000000E+00  0.00000000E+00  0.00000000E+00
  0.00000000E+00  0.00000000E+00  0.00000000E+00
  0.00000000E+00  0.00000000E+00  0.00000000E+00
  0.00000000E+00  0.00000000E+00  0.00000000E+00
  0.00000000E+00  0.00000000E+00  0.00000000E+00
  0.00000000E+00  0.00000000E+00  0.00000000E+00
  0.00000000E+00  0.00000000E+00  0.00000000E+00
  0.00000000E+00  0.00000000E+00  0.00000000E+00
  0.00000000E+00  0.00000000E+00  0.00000000E+00
  0.00000000E+00  0.00000000E+00  0.00000000E+00
  0.00000000E+00  0.00000000E+00  0.00000000E+00
  0.00000000E+00  0.00000000E+00  0.00000000E+00
  0.00000000E+00  0.00000000E+00  0.00000000E+00
  0.00000000E+00  0.00000000E+00  0.00000000E+00
  0.00000000E+00  0.00000000E+00  0.00000000E+00
  0.00000000E+00  0.00000000E+00  0.00000000E+00
  0.00000000E+00  0.00000000E+00  0.00000000E+00
  0.00000000E+00  0.00000000E+00  0.00000000E+00
  0.00000000E+00  0.00000000E+00  0.00000000E+00
  0.00000000E+00  0.00000000E+00  0.00000000E+00
  0.00000000E+00  0.00000000E+00  0.00000000E+00
  0.00000000E+00  0.00000000E+00  0.00000000E+00
  0.00000000E+00  0.00000000E+00  0.00000000E+00
  0.00000000E+00  0.00000000E+00  0.00000000E+00
  0.00000000E+00  0.00000000E+00  0.00000000E+00
  0.00000000E+00  0.00000000E+00  0.00000000E+00
  0.00000000E+00  0.00000000E+00  0.00000000E+00
  0.00000000E+00  0.00000000E+00  0.00000000E+00
  0.00000000E+00  0.00000000E+00  0.00000000E+00
  0.00000000E+00  0.00000000E+00  0.00000000E+00
  0.00000000E+00  0.00000000E+00  0.00000000E+00
  0.00000000E+00  0.00000000E+00  0.00000000E+00
  0.00000000E+00  0.00000000E+00  0.00000000E+00
  0.00000000E+00  0.00000000E+00  0.00000000E+00
  0.00000000E+00  0.00000000E+00  0.00000000E+00
  0.00000000E+00  0.00000000E+00  0.00000000E+00
  0.00000000E+00  0.00000000E+00  0.00000000E+00
  0.00000000E+00  0.00000000E+00  0.00000000E+00
  0.00000000E+00  0.00000000E+00  0.00000000E+00
  0.00000000E+00  0.00000000E+00  0.00000000E+00
  0.00000000E+00  0.00000000E+00  0.00000000E+00
  0.00000000E+00  0.00000000E+00  0.00000000E+00
  0.00000000E+00  0.00000000E+00  0.00000000E+00
  0.00000000E+00  0.00000000E+00  0.00000000E+00
  0.00000000E+00  0.00000000E+00  0.00000000E+00
  0.00000000E+00  0.00000000E+00  0.00000000E+00
  0.00000000E+00  0.00000000E+00  0.00000000E+00
  0.00000000E+00  0.00000000E+00  0.00000000E+00
  0.00000000E+00  0.00000000E+00  0.00000000E+00
  0.00000000E+00  0.00000000E+00  0.00000000E+00
  0.00000000E+00  0.00000000E+00  0.00000000E+00
  0.00000000E+00  0.00000000E+00  0.00000000E+00
  0.00000000E+00  0.00000000E+00  0.00000000E+00
  0.00000000E+00  0.00000000E+00  0.00000000E+00
  0.00000000E+00  0.00000000E+00  0.00000000E+00
  0.00000000E+00  0.00000000E+00  0.00000000E+00
  0.00000000E+00  0.00000000E+00  0.00000000E+00
  0.00000000E+00  0.00000000E+00  0.00000000E+00
  0.00000000E+00  0.00000000E+00  0.00000000E+00
  0.00000000E+00  0.00000000E+00  0.00000000E+00
  0.00000000E+00  0.00000000E+00  0.00000000E+00
  0.00000000E+00  0.00000000E+00  0.00000000E+00
  0.00000000E+00  0.00000000E+00  0.00000000E+00
  0.00000000E+00  0.00000000E+00  0.00000000E+00
  0.00000000E+00  0.00000000E+00  0.00000000E+00
  0.00000000E+00  0.00000000E+00  0.00000000E+00
  0.00000000E+00  0.00000000E+00  0.00000000E+00
  0.00000000E+00  0.00000000E+00  0.00000000E+00
  0.00000000E+00  0.00000000E+00  0.00000000E+00
  0.00000000E+00  0.00000000E+00  0.00000000E+00
  0.00000000E+00  0.00000000E+00  0.00000000E+00
  0.00000000E+00  0.00000000E+00  0.00000000E+00
  0.00000000E+00  0.00000000E+00  0.00000000E+00
  0.00000000E+00  0.00000000E+00  0.00000000E+00
  0.00000000E+00  0.00000000E+00  0.00000000E+00
  0.00000000E+00  0.00000000E+00  0.00000000E+00
  0.00000000E+00  0.00000000E+00  0.00000000E+00
  0.00000000E+00  0.00000000E+00  0.00000000E+00
  0.00000000E+00  0.00000000E+00  0.00000000E+00
  0.00000000E+00  0.00000000E+00  0.00000000E+00
  0.00000000E+00  0.00000000E+00  0.00000000E+00
  0.00000000E+00  0.00000000E+00  0.00000000E+00
  0.00000000E+00  0.00000000E+00  0.00000000E+00
  0.00000000E+00  0.00000000E+00  0.00000000E+00
  0.00000000E+00  0.00000000E+00  0.00000000E+00
  0.00000000E+00  0.00000000E+00  0.00000000E+00
  0.00000000E+00  0.00000000E+00  0.00000000E+00
  0.00000000E+00  0.00000000E+00  0.00000000E+00
  0.00000000E+00  0.00000000E+00  0.00000000E+00
  0.00000000E+00  0.00000000E+00  0.00000000E+00
  0.00000000E+00  0.00000000E+00  0.00000000E+00
  0.00000000E+00  0.00000000E+00  0.00000000E+00
  0.00000000E+00  0.00000000E+00  0.00000000E+00
  0.00000000E+00  0.00000000E+00  0.00000000E+00
  0.00000000E+00  0.00000000E+00  0.00000000E+00
  0.00000000E+00  0.00000000E+00  0.00000000E+00
  0.00000000E+00  0.00000000E+00  0.00000000E+00
  0.00000000E+00  0.00000000E+00  0.00000000E+00
  0.00000000E+00  0.00000000E+00  0.00000000E+00
  0.00000000E+00  0.00000000E+00  0.00000000E+00
  0.00000000E+00  0.00000000E+00  0.00000000E+00
  0.00000000E+00  0.00000000E+00  0.00000000E+00
  0.00000000E+00  0.00000000E+00  0.00000000E+00
  0.00000000E+00  0.00000000E+00  0.00000000E+00
  0.00000000E+00  0.00000000E+00  0.00000000E+00
  0.00000000E+00  0.00000000E+00  0.00000000E+00
  0.00000000E+00  0.00000000E+00  0.00000000E+00
  0.00000000E+00  0.00000000E+00  0.00000000E+00
  0.00000000E+00  0.00000000E+00  0.00000000E+00
  0.00000000E+00  0.00000000E+00  0.00000000E+00
  0.00000000E+00  0.00000000E+00  0.00000000E+00
  0.00000000E+00  0.00000000E+00  0.00000000E+00
  0.00000000E+00  0.00000000E+00  0.00000000E+00
  0.00000000E+00  0.00000000E+00  0.00000000E+00
  0.00000000E+00  0.00000000E+00  0.00000000E+00
  0.00000000E+00  0.00000000E+00  0.00000000E+00
  0.00000000E+00  0.00000000E+00  0.00000000E+00
  0.00000000E+00  0.00000000E+00  0.00000000E+00
  0.00000000E+00  0.00000000E+00  0.00000000E+00
  0.00000000E+00  0.00000000E+00  0.00000000E+00
  0.00000000E+00  0.00000000E+00  0.00000000E+00
  0.00000000E+00  0.00000000E+00  0.00000000E+00
  0.00000000E+00  0.00000000E+00  0.00000000E+00
  0.00000000E+00  0.00000000E+00  0.00000000E+00
  0.00000000E+00  0.00000000E+00  0.00000000E+00
  0.00000000E+00  0.00000000E+00  0.00000000E+00
  0.00000000E+00  0.00000000E+00  0.00000000E+00
  0.00000000E+00  0.00000000E+00  0.00000000E+00
  0.00000000E+00  0.00000000E+00  0.00000000E+00
  0.00000000E+00  0.00000000E+00  0.00000000E+00
  0.00000000E+00  0.00000000E+00  0.00000000E+00
  0.00000000E+00  0.00000000E+00  0.00000000E+00
  0.00000000E+00  0.00000000E+00  0.00000000E+00
  0.00000000E+00  0.00000000E+00  0.00000000E+00
  0.00000000E+00  0.00000000E+00  0.00000000E+00
