P6 N10                                  
   1.00000000000000     
     2.8670559999999998    3.9805990000000002    0.0000990000000000
    -2.8670559999999998    3.9805990000000002    0.0000990000000000
     0.0000000000000000    3.8969800000000001    8.0993139999999997
   P    N 
     6    10
Direct
  0.4819839999999971  0.5180160000000029  0.2500000000000000
  0.6622640000000004  0.0696920000000034  0.5552640000000011
  0.0696920000000034  0.6622640000000004  0.0552640000000011
  0.3377359999999996  0.9303079999999966  0.4447359999999989
  0.9303079999999966  0.3377359999999996  0.9447359999999989
  0.5180160000000029  0.4819839999999971  0.7500000000000000
  0.5007379999999984  0.7891400000000033  0.5997580000000013
  0.2290059999999983  0.5078069999999997  0.1917019999999994
  0.4992620000000016  0.2108599999999967  0.4002419999999987
  0.2108599999999967  0.4992620000000016  0.9002419999999987
  0.4921930000000003  0.7709940000000017  0.3082980000000006
  0.7709940000000017  0.4921930000000003  0.8082980000000006
  0.0000000000000000  0.0000000000000000  0.5000000000000000
  0.7891400000000033  0.5007379999999984  0.0997580000000013
  0.5078069999999997  0.2290059999999983  0.6917019999999994
  0.0000000000000000  0.0000000000000000  0.0000000000000000
 
  0.00000000E+00  0.00000000E+00  0.00000000E+00
  0.00000000E+00  0.00000000E+00  0.00000000E+00
  0.00000000E+00  0.00000000E+00  0.00000000E+00
  0.00000000E+00  0.00000000E+00  0.00000000E+00
  0.00000000E+00  0.00000000E+00  0.00000000E+00
  0.00000000E+00  0.00000000E+00  0.00000000E+00
  0.00000000E+00  0.00000000E+00  0.00000000E+00
  0.00000000E+00  0.00000000E+00  0.00000000E+00
  0.00000000E+00  0.00000000E+00  0.00000000E+00
  0.00000000E+00  0.00000000E+00  0.00000000E+00
  0.00000000E+00  0.00000000E+00  0.00000000E+00
  0.00000000E+00  0.00000000E+00  0.00000000E+00
  0.00000000E+00  0.00000000E+00  0.00000000E+00
  0.00000000E+00  0.00000000E+00  0.00000000E+00
  0.00000000E+00  0.00000000E+00  0.00000000E+00
  0.00000000E+00  0.00000000E+00  0.00000000E+00
