Li71 P24 N1 O94                         
   1.00000000000000     
    14.7186180216197471   -0.0070126924939376    0.0061209031726878
    -0.0050427603804656   10.5648339423689865    0.0003420822061212
     0.0051059597564290    0.0003828057957729   12.3359871403727706
   Li   P    N    O 
    71    24     1    94
Direct
  0.1729373470625553  0.4228715359410449  0.0019632730700262
  0.1681730575604695  0.4219658975592345  0.4990194506799849
  0.1585029128296158  0.8868995612978863  0.0019253142730348
  0.1699195602231658  0.9212987175245996  0.4980914283746282
  0.5037686576451994  0.4226851877541758  0.0001875153987614
  0.5032937795987703  0.4217428477021994  0.4998256267415697
  0.5092620837188768  0.9188516313274817  0.0001245279179391
  0.5039982237957379  0.9228256022569244  0.4999013256034694
  0.8400951094006991  0.4261600287028351  0.0002205120821668
  0.8371536588547259  0.4228426859709046  0.4993868636217049
  0.8357540385146833  0.9240567734194488  0.0014268372862415
  0.8370463148981954  0.9252796685026864  0.4985767374087812
 -0.0015611262755593  0.0713643481309577  0.7471593799077387
  0.0024090560234026  0.5810270002326819  0.2505894903913626
  0.0015044963021175  0.5777598638446155  0.7493467171742141
  0.3356281156974784  0.0753228587735719  0.2541939026407150
  0.3367657711165661  0.0757877972926847  0.7459972139881493
  0.3372984089431292  0.5784309559334225  0.2508930260295417
  0.3374214099966194  0.5778873094310718  0.7491330332953726
  0.6781276729810934  0.0750401871747624  0.2513856448314512
  0.6705895907815953  0.0768772271324413  0.7487183695335857
  0.6708464380553995  0.5787175339089350  0.2505313549003019
  0.6698047175536608  0.5777262168388571  0.7494625350783490
  0.1561051933112235  0.1702234164435926  0.1522943671855005
  0.1678448256614052  0.1614959192313040  0.6248289362918987
  0.1688722244902117  0.6619846308536349  0.1282230368864216
  0.1692556696958076  0.6626558882863715  0.6256054606798155
  0.5097378351724512  0.1637089432309400  0.1297867308403630
  0.5034461553861171  0.1634752854123310  0.6256657309383312
  0.5047719636499350  0.6623963432833915  0.1268088490731588
  0.5030701331309698  0.6628350927342488  0.6259307149855274
  0.8386317488662435  0.1627777847796302  0.1274678844498780
  0.8362023139211433  0.1641843291121538  0.6257038124640265
  0.8348374449840148  0.6673870653694198  0.1273246923379441
  0.8358674977649818  0.6636710946495723  0.6261812539759105
  0.0006443268376868  0.3275908211314215  0.1251030253069385
  0.0029206784777781  0.3353678422201042  0.6243919089403461
 -0.0025466421763173  0.8478233690895944  0.1290361700054758
  0.0027617083764187  0.8371805446209054  0.6218155992965260
  0.3370448664272304  0.3400356041841350  0.1249311065468189
  0.3358123871163969  0.3365834925841973  0.6233249056295683
  0.3383786473483688  0.8342200920887722  0.1262278151490407
  0.3373586421415226  0.8358866048993854  0.6229501472933896
  0.6713140366709678  0.3377937032655325  0.1235777807423181
  0.6697082853793953  0.3362433510924369  0.6235469132462208
  0.6687667625260801  0.8345876752250223  0.1231115790519520
  0.6693068843091220  0.8358596230337294  0.6225774278685220
  0.0032427259530913  0.3355202843405959  0.3749009112978694
 -0.0008070864114330  0.3295842292017095  0.8750824847082180
  0.0009750746198942  0.8459436395161061  0.3739936185395915
 -0.0010920268018545  0.8384001265485832  0.8737447329909697
  0.3360842258302909  0.3364786539737284  0.3765554410971968
  0.3365426792896252  0.3405516786344115  0.8754933672571727
  0.3388455265581639  0.8363253355752581  0.3766433080224859
  0.3366221591190133  0.8337685988911702  0.8742186763530139
  0.6708034117789957  0.3364407432638234  0.3762173536213255
  0.6704317929621992  0.3373479746673896  0.8761534904184252
  0.6682228653956900  0.8344529243370791  0.3786419342170919
  0.6697955305896407  0.8361065450017366  0.8758172233851935
  0.1671468538647473  0.1605007980621807  0.3759585122686290
  0.1599470798932406  0.1704647953992937  0.8556545862536369
  0.1690278368357697  0.6649011848480175  0.3741653855600643
  0.1691203700726811  0.6592999109428780  0.8728126798182777
  0.5046214715021781  0.1628226756972487  0.3737285624639865
  0.5080566838715724  0.1643027047593107  0.8710253395065903
  0.5036699955579895  0.6625272603468434  0.3741757487550408
  0.5042464868937284  0.6626221463456757  0.8731668987060340
  0.8407964590340378  0.1633209249377099  0.3726459164729957
  0.8353470936470370  0.1631917273062834  0.8738509352035235
  0.8364754898125693  0.6657334191166009  0.3738050088938863
  0.8343276917411923  0.6651550276656851  0.8730743337105584
  0.1679256708480589  0.4132034258507497  0.2500632068803942
  0.1671287228548489  0.4120511745815091  0.7501606437383148
  0.1688785958398568  0.9084841839662035  0.2496816880926480
  0.1674722709487576  0.9101455490297898  0.7509097482441716
  0.5010607242306900  0.4125554733617288  0.2504124911484428
  0.5004411302295897  0.4123611560533594  0.7495848398999093
  0.5016403511833858  0.9123456278114029  0.2502832711900452
  0.5005954762055580  0.9119601890840063  0.7497861162608301
  0.8339195261565107  0.4138918652845056  0.2499819761461003
  0.8328703337337703  0.4127706038314805  0.7497341021768932
  0.8280435020990962  0.9133710068884063  0.2506274236563535
  0.8316303700945031  0.9121285129222489  0.7492816000963952
  0.0025687360977368  0.0877175056579549 -0.0064066395119697
  0.0021470371201373  0.0909641033117678  0.5044583459748968
 -0.0008888600669371  0.5951900290664044  0.0000370895547191
  0.0000909205484765  0.5890071437221696  0.5002401004573388
  0.3400141720183026  0.0865328724340598  0.0000909803188008
  0.3346592182515939  0.0873044678365049  0.5003955128765357
  0.3350319525627821  0.5888022058744020  0.0000878583424503
  0.3339867810468132  0.5870887700891514  0.4999710818837643
  0.6659645154449516  0.0881093153801423 -0.0006881380180250
  0.6671887178523705  0.0881911265863925  0.5006034584901624
  0.6670550229089609  0.5872088154593578 -0.0006083627131800
  0.6671532662103929  0.5866231343947013  0.5005474886392433
  0.0378739521902790  0.4508314275446461 -0.0021487627839979
  0.0413424580405248  0.1682372695039907  0.4098793781700177
  0.0336112699118055  0.1494175724832532  0.8839402515763818
  0.0354328079377039  0.6588544236932233  0.3970139890902979
  0.0348256498070677  0.6611588319960109  0.8943248266991092
  0.3697161008856367  0.1567182865842549  0.3966494118276743
  0.3679379586407638  0.1577199334366920  0.8950212571276460
  0.3700637312621560  0.6559187106028459  0.3965077017071938
  0.3705528124227855  0.6567978248006762  0.8958734826156093
  0.7026996801841779  0.1580982295896183  0.3978966152557483
  0.7005055021653914  0.1562993941420572  0.8947940290776548
  0.7023489471471801  0.6557868246401680  0.3970277863404912
  0.7013592283817222  0.6568772190785751  0.8954064746839321
  0.2026094751206799  0.0493226340935307  0.2496491889426137
  0.2021976168910680  0.0502280822075190  0.7524459563077199
  0.2019563568612262  0.5529715442252686  0.2500183160400185
  0.2017461531278032  0.5514646479344156  0.7500515799883192
  0.5365459669149328  0.0516967701594864  0.2504688350208246
  0.5339258271314425  0.0521712188269799  0.7496949549336853
  0.5349061260816910  0.5524265495906530  0.2503664520291703
  0.5340717084501179  0.5523176401233507  0.7496566323583632
  0.8495362959389628  0.0557045830753714  0.2500547852833916
  0.8638778597093230  0.0525750774323573  0.7496769029644613
  0.8672180445721862  0.5542868114757870  0.2494585272132993
  0.8666273678762210  0.5528773764843659  0.7505777103709108
  0.0621437024141380  0.4107486240931434  0.2469301917426610
  0.0613685467015396  0.4097707268322474  0.7525851024608495
  0.0653519294393439  0.8974362573108752  0.2497908085929300
  0.0620421546965574  0.9063468096222633  0.7498075765893992
  0.3951340502904760  0.4099674375338515  0.2505324268598069
  0.3945268975462837  0.4095165806822283  0.7495586728519934
  0.3956940004016617  0.9111401952038359  0.2497968538563384
  0.3946395485447045  0.9092090453165291  0.7502484915297706
  0.7279811284436752  0.4106540929174874  0.2500217411426252
  0.7270353724142063  0.4098931567498143  0.7493874477360186
  0.7223534472769572  0.8977869786785976  0.2510414207840233
  0.7258879917594420  0.9074535867013728  0.7490161711074823
  0.2289736142803793  0.0889433329890677  0.5009701190177048
  0.2293243574448708  0.5936801705302062  0.0004182615578820
  0.2281928543423409  0.5900725346630544  0.4998588170381006
  0.5596404350032118  0.0906437624564970 -0.0005025248022758
  0.5611639632399592  0.0906119054474074  0.5004401835122403
  0.5610678533099878  0.5895232334428534 -0.0004843455502308
  0.5612063009108084  0.5895584664385237  0.5005037527697035
  0.8968492795444272  0.0915750506903878 -0.0009539273634667
  0.8960679828797088  0.0920532270093824  0.5013901841745806
  0.8930410494973884  0.6009518367060530  0.0001744790726144
  0.8942335279184588  0.5918281060127153  0.5004087914804020
  0.2050402398688811  0.3422448291283039  0.1477048629021162
  0.2011306116722533  0.3421263834300985  0.6462758596062264
  0.2069650173544847  0.8426300418005187  0.1442645476186213
  0.2041985897662492  0.8419118726067915  0.6478310738117511
  0.5358379826954116  0.3436379210313677  0.1461663155106804
  0.5356506070632491  0.3428892809850145  0.6462122631604282
  0.5355149353154198  0.8426491383925722  0.1460337944603839
  0.5354501580315484  0.8427352232584993  0.6461451091301387
  0.8688560652059059  0.3448473428100355  0.1459612172691666
  0.8687513043440341  0.3443427292747792  0.6461294596772212
  0.8657740400328822  0.8468887622314754  0.1464143230645224
  0.8684259926909247  0.8435121239753205  0.6461906456123753
  0.0447555237285112  0.1638695275406108  0.0868186807989000
  0.0339079592649717  0.1533708697807404  0.6137611175598962
  0.0344815910984528  0.6644667019876885  0.1038020547891988
  0.0354365994417714  0.6574134773886586  0.6046115023269212
  0.3690360498339697  0.1572789818413736  0.1046353169297344
  0.3695834587427549  0.1569839941153281  0.6041675292660350
  0.3714101733066215  0.6565728242745630  0.1036987126498296
  0.3692510512431638  0.6562377077032294  0.6038288361402343
  0.7010412713226628  0.1579283697526194  0.1021345020994266
  0.7018252510118373  0.1566015746180406  0.6050537902989086
  0.7015900154710483  0.6564238791137118  0.1030952078815945
  0.7020259774510934  0.6561323208589687  0.6043146353876588
  0.0337504593978105  0.4490175814443045  0.5004571556774178
  0.0349492816082034  0.9466671288030166 -0.0029495876053832
  0.0357485263597411  0.9503219521304000  0.5012980864909931
  0.3672263852099148  0.4478929437118027 -0.0001825449713311
  0.3675093749730455  0.4469877384379193  0.5002681892351912
  0.3694165618312887  0.9458108771041099 -0.0006796136327827
  0.3691465730515406  0.9477436535491042  0.5006550968453033
  0.7014317615549629  0.4477104666651544 -0.0008489484257428
  0.7007685380948889  0.4467631011534419  0.5006148837170467
  0.6988395394009085  0.9477896401995146 -0.0004654076993453
  0.7004673469142770  0.9479856572362035  0.5005003280570857
  0.2020561728176362  0.3435791027297105  0.3539111905979114
  0.2037471640111714  0.3416363212675888  0.8531283155718756
  0.2078214265116797  0.8415560045633874  0.3529875576618253
  0.2026320423663311  0.8418768710916728  0.8557236152786926
  0.5361335180404866  0.3429808915909315  0.3537645504769446
  0.5352833360149549  0.3434230973996357  0.8537033542990515
  0.5350692294208533  0.8422336692786677  0.3541977544154420
  0.5357241304357594  0.8431158531135948  0.8536731650666006
  0.8693237386278145  0.3456575342444810  0.3537332788290532
  0.8673125482724254  0.3431656783724459  0.8535488158818524
  0.8672016944106762  0.8461708185696685  0.3535934596891434
  0.8668738679846444  0.8443600163565091  0.8536247048274777
 
  0.00000000E+00  0.00000000E+00  0.00000000E+00
  0.00000000E+00  0.00000000E+00  0.00000000E+00
  0.00000000E+00  0.00000000E+00  0.00000000E+00
  0.00000000E+00  0.00000000E+00  0.00000000E+00
  0.00000000E+00  0.00000000E+00  0.00000000E+00
  0.00000000E+00  0.00000000E+00  0.00000000E+00
  0.00000000E+00  0.00000000E+00  0.00000000E+00
  0.00000000E+00  0.00000000E+00  0.00000000E+00
  0.00000000E+00  0.00000000E+00  0.00000000E+00
  0.00000000E+00  0.00000000E+00  0.00000000E+00
  0.00000000E+00  0.00000000E+00  0.00000000E+00
  0.00000000E+00  0.00000000E+00  0.00000000E+00
  0.00000000E+00  0.00000000E+00  0.00000000E+00
  0.00000000E+00  0.00000000E+00  0.00000000E+00
  0.00000000E+00  0.00000000E+00  0.00000000E+00
  0.00000000E+00  0.00000000E+00  0.00000000E+00
  0.00000000E+00  0.00000000E+00  0.00000000E+00
  0.00000000E+00  0.00000000E+00  0.00000000E+00
  0.00000000E+00  0.00000000E+00  0.00000000E+00
  0.00000000E+00  0.00000000E+00  0.00000000E+00
  0.00000000E+00  0.00000000E+00  0.00000000E+00
  0.00000000E+00  0.00000000E+00  0.00000000E+00
  0.00000000E+00  0.00000000E+00  0.00000000E+00
  0.00000000E+00  0.00000000E+00  0.00000000E+00
  0.00000000E+00  0.00000000E+00  0.00000000E+00
  0.00000000E+00  0.00000000E+00  0.00000000E+00
  0.00000000E+00  0.00000000E+00  0.00000000E+00
  0.00000000E+00  0.00000000E+00  0.00000000E+00
  0.00000000E+00  0.00000000E+00  0.00000000E+00
  0.00000000E+00  0.00000000E+00  0.00000000E+00
  0.00000000E+00  0.00000000E+00  0.00000000E+00
  0.00000000E+00  0.00000000E+00  0.00000000E+00
  0.00000000E+00  0.00000000E+00  0.00000000E+00
  0.00000000E+00  0.00000000E+00  0.00000000E+00
  0.00000000E+00  0.00000000E+00  0.00000000E+00
  0.00000000E+00  0.00000000E+00  0.00000000E+00
  0.00000000E+00  0.00000000E+00  0.00000000E+00
  0.00000000E+00  0.00000000E+00  0.00000000E+00
  0.00000000E+00  0.00000000E+00  0.00000000E+00
  0.00000000E+00  0.00000000E+00  0.00000000E+00
  0.00000000E+00  0.00000000E+00  0.00000000E+00
  0.00000000E+00  0.00000000E+00  0.00000000E+00
  0.00000000E+00  0.00000000E+00  0.00000000E+00
  0.00000000E+00  0.00000000E+00  0.00000000E+00
  0.00000000E+00  0.00000000E+00  0.00000000E+00
  0.00000000E+00  0.00000000E+00  0.00000000E+00
  0.00000000E+00  0.00000000E+00  0.00000000E+00
  0.00000000E+00  0.00000000E+00  0.00000000E+00
  0.00000000E+00  0.00000000E+00  0.00000000E+00
  0.00000000E+00  0.00000000E+00  0.00000000E+00
  0.00000000E+00  0.00000000E+00  0.00000000E+00
  0.00000000E+00  0.00000000E+00  0.00000000E+00
  0.00000000E+00  0.00000000E+00  0.00000000E+00
  0.00000000E+00  0.00000000E+00  0.00000000E+00
  0.00000000E+00  0.00000000E+00  0.00000000E+00
  0.00000000E+00  0.00000000E+00  0.00000000E+00
  0.00000000E+00  0.00000000E+00  0.00000000E+00
  0.00000000E+00  0.00000000E+00  0.00000000E+00
  0.00000000E+00  0.00000000E+00  0.00000000E+00
  0.00000000E+00  0.00000000E+00  0.00000000E+00
  0.00000000E+00  0.00000000E+00  0.00000000E+00
  0.00000000E+00  0.00000000E+00  0.00000000E+00
  0.00000000E+00  0.00000000E+00  0.00000000E+00
  0.00000000E+00  0.00000000E+00  0.00000000E+00
  0.00000000E+00  0.00000000E+00  0.00000000E+00
  0.00000000E+00  0.00000000E+00  0.00000000E+00
  0.00000000E+00  0.00000000E+00  0.00000000E+00
  0.00000000E+00  0.00000000E+00  0.00000000E+00
  0.00000000E+00  0.00000000E+00  0.00000000E+00
  0.00000000E+00  0.00000000E+00  0.00000000E+00
  0.00000000E+00  0.00000000E+00  0.00000000E+00
  0.00000000E+00  0.00000000E+00  0.00000000E+00
  0.00000000E+00  0.00000000E+00  0.00000000E+00
  0.00000000E+00  0.00000000E+00  0.00000000E+00
  0.00000000E+00  0.00000000E+00  0.00000000E+00
  0.00000000E+00  0.00000000E+00  0.00000000E+00
  0.00000000E+00  0.00000000E+00  0.00000000E+00
  0.00000000E+00  0.00000000E+00  0.00000000E+00
  0.00000000E+00  0.00000000E+00  0.00000000E+00
  0.00000000E+00  0.00000000E+00  0.00000000E+00
  0.00000000E+00  0.00000000E+00  0.00000000E+00
  0.00000000E+00  0.00000000E+00  0.00000000E+00
  0.00000000E+00  0.00000000E+00  0.00000000E+00
  0.00000000E+00  0.00000000E+00  0.00000000E+00
  0.00000000E+00  0.00000000E+00  0.00000000E+00
  0.00000000E+00  0.00000000E+00  0.00000000E+00
  0.00000000E+00  0.00000000E+00  0.00000000E+00
  0.00000000E+00  0.00000000E+00  0.00000000E+00
  0.00000000E+00  0.00000000E+00  0.00000000E+00
  0.00000000E+00  0.00000000E+00  0.00000000E+00
  0.00000000E+00  0.00000000E+00  0.00000000E+00
  0.00000000E+00  0.00000000E+00  0.00000000E+00
  0.00000000E+00  0.00000000E+00  0.00000000E+00
  0.00000000E+00  0.00000000E+00  0.00000000E+00
  0.00000000E+00  0.00000000E+00  0.00000000E+00
  0.00000000E+00  0.00000000E+00  0.00000000E+00
  0.00000000E+00  0.00000000E+00  0.00000000E+00
  0.00000000E+00  0.00000000E+00  0.00000000E+00
  0.00000000E+00  0.00000000E+00  0.00000000E+00
  0.00000000E+00  0.00000000E+00  0.00000000E+00
  0.00000000E+00  0.00000000E+00  0.00000000E+00
  0.00000000E+00  0.00000000E+00  0.00000000E+00
  0.00000000E+00  0.00000000E+00  0.00000000E+00
  0.00000000E+00  0.00000000E+00  0.00000000E+00
  0.00000000E+00  0.00000000E+00  0.00000000E+00
  0.00000000E+00  0.00000000E+00  0.00000000E+00
  0.00000000E+00  0.00000000E+00  0.00000000E+00
  0.00000000E+00  0.00000000E+00  0.00000000E+00
  0.00000000E+00  0.00000000E+00  0.00000000E+00
  0.00000000E+00  0.00000000E+00  0.00000000E+00
  0.00000000E+00  0.00000000E+00  0.00000000E+00
  0.00000000E+00  0.00000000E+00  0.00000000E+00
  0.00000000E+00  0.00000000E+00  0.00000000E+00
  0.00000000E+00  0.00000000E+00  0.00000000E+00
  0.00000000E+00  0.00000000E+00  0.00000000E+00
  0.00000000E+00  0.00000000E+00  0.00000000E+00
  0.00000000E+00  0.00000000E+00  0.00000000E+00
  0.00000000E+00  0.00000000E+00  0.00000000E+00
  0.00000000E+00  0.00000000E+00  0.00000000E+00
  0.00000000E+00  0.00000000E+00  0.00000000E+00
  0.00000000E+00  0.00000000E+00  0.00000000E+00
  0.00000000E+00  0.00000000E+00  0.00000000E+00
  0.00000000E+00  0.00000000E+00  0.00000000E+00
  0.00000000E+00  0.00000000E+00  0.00000000E+00
  0.00000000E+00  0.00000000E+00  0.00000000E+00
  0.00000000E+00  0.00000000E+00  0.00000000E+00
  0.00000000E+00  0.00000000E+00  0.00000000E+00
  0.00000000E+00  0.00000000E+00  0.00000000E+00
  0.00000000E+00  0.00000000E+00  0.00000000E+00
  0.00000000E+00  0.00000000E+00  0.00000000E+00
  0.00000000E+00  0.00000000E+00  0.00000000E+00
  0.00000000E+00  0.00000000E+00  0.00000000E+00
  0.00000000E+00  0.00000000E+00  0.00000000E+00
  0.00000000E+00  0.00000000E+00  0.00000000E+00
  0.00000000E+00  0.00000000E+00  0.00000000E+00
  0.00000000E+00  0.00000000E+00  0.00000000E+00
  0.00000000E+00  0.00000000E+00  0.00000000E+00
  0.00000000E+00  0.00000000E+00  0.00000000E+00
  0.00000000E+00  0.00000000E+00  0.00000000E+00
  0.00000000E+00  0.00000000E+00  0.00000000E+00
  0.00000000E+00  0.00000000E+00  0.00000000E+00
  0.00000000E+00  0.00000000E+00  0.00000000E+00
  0.00000000E+00  0.00000000E+00  0.00000000E+00
  0.00000000E+00  0.00000000E+00  0.00000000E+00
  0.00000000E+00  0.00000000E+00  0.00000000E+00
  0.00000000E+00  0.00000000E+00  0.00000000E+00
  0.00000000E+00  0.00000000E+00  0.00000000E+00
  0.00000000E+00  0.00000000E+00  0.00000000E+00
  0.00000000E+00  0.00000000E+00  0.00000000E+00
  0.00000000E+00  0.00000000E+00  0.00000000E+00
  0.00000000E+00  0.00000000E+00  0.00000000E+00
  0.00000000E+00  0.00000000E+00  0.00000000E+00
  0.00000000E+00  0.00000000E+00  0.00000000E+00
  0.00000000E+00  0.00000000E+00  0.00000000E+00
  0.00000000E+00  0.00000000E+00  0.00000000E+00
  0.00000000E+00  0.00000000E+00  0.00000000E+00
  0.00000000E+00  0.00000000E+00  0.00000000E+00
  0.00000000E+00  0.00000000E+00  0.00000000E+00
  0.00000000E+00  0.00000000E+00  0.00000000E+00
  0.00000000E+00  0.00000000E+00  0.00000000E+00
  0.00000000E+00  0.00000000E+00  0.00000000E+00
  0.00000000E+00  0.00000000E+00  0.00000000E+00
  0.00000000E+00  0.00000000E+00  0.00000000E+00
  0.00000000E+00  0.00000000E+00  0.00000000E+00
  0.00000000E+00  0.00000000E+00  0.00000000E+00
  0.00000000E+00  0.00000000E+00  0.00000000E+00
  0.00000000E+00  0.00000000E+00  0.00000000E+00
  0.00000000E+00  0.00000000E+00  0.00000000E+00
  0.00000000E+00  0.00000000E+00  0.00000000E+00
  0.00000000E+00  0.00000000E+00  0.00000000E+00
  0.00000000E+00  0.00000000E+00  0.00000000E+00
  0.00000000E+00  0.00000000E+00  0.00000000E+00
  0.00000000E+00  0.00000000E+00  0.00000000E+00
  0.00000000E+00  0.00000000E+00  0.00000000E+00
  0.00000000E+00  0.00000000E+00  0.00000000E+00
  0.00000000E+00  0.00000000E+00  0.00000000E+00
  0.00000000E+00  0.00000000E+00  0.00000000E+00
  0.00000000E+00  0.00000000E+00  0.00000000E+00
  0.00000000E+00  0.00000000E+00  0.00000000E+00
  0.00000000E+00  0.00000000E+00  0.00000000E+00
  0.00000000E+00  0.00000000E+00  0.00000000E+00
  0.00000000E+00  0.00000000E+00  0.00000000E+00
  0.00000000E+00  0.00000000E+00  0.00000000E+00
  0.00000000E+00  0.00000000E+00  0.00000000E+00
  0.00000000E+00  0.00000000E+00  0.00000000E+00
  0.00000000E+00  0.00000000E+00  0.00000000E+00
  0.00000000E+00  0.00000000E+00  0.00000000E+00
  0.00000000E+00  0.00000000E+00  0.00000000E+00
  0.00000000E+00  0.00000000E+00  0.00000000E+00
  0.00000000E+00  0.00000000E+00  0.00000000E+00
