Li61 P7 N32                             
   1.00000000000000     
     0.0193262024661311    9.6026614320162302    0.0326138422909473
    -0.0514451756819582    0.0330383731310904    9.6529845772602929
     9.5879700267712415    0.0193399841032362   -0.0510514628219183
   Li   P    N 
    61     7    32
Direct
  0.4989503045941365  0.0032633942648357  0.4934018715278826
  0.0153265874209948  0.4995927856103805  0.9974200894721301
  0.5051921019118133  0.0050365151794535  0.9935841762669081
  0.9967490450873951  0.0022832392760420  0.4962887539883134
  0.5123593142816867  0.5153215294656831  0.9792485744040897
  0.9851339612670572  0.5006341733071015  0.4941028106010582
  0.7544551118274971  0.9810943724316765  0.4774927027271458
  0.2482907336339634  0.0094397737926356  0.5014328692701306
  0.7104592785442571  0.4492411180450713  0.5192828571589235
  0.2322348531048309  0.5129498628533615  0.5094379870189529
  0.2673253023882180  0.0028629871123152  0.0044068714219800
  0.7428024999243499  0.9945846893170595  0.9901610273145951
  0.4797145783108242  0.5308004327841385  0.5485802995232288
  0.5114554074713971  0.2508420036199117  0.9761451208062683
  0.5288427650972336  0.7673291032106192  0.0217847167045824
  0.0017643513685271  0.5223096690947628  0.2392600483634560
  0.0306572769942875  0.4938549287061932  0.7429438668106141
  0.2158364909901653  0.1873286355944281  0.2470369854592788
  0.2045093058329186  0.7527167440794628  0.7779808612767685
  0.2432713317327513  0.2664696523454000  0.7283951738921041
  0.2046701165615300  0.6884114467272573  0.3043091196460766
  0.7197972261081932  0.2344900623952551  0.2925415869581621
  0.6761044298955584  0.8261697640616512  0.6553909560185602
  0.7490802461221525  0.2353197504008228  0.7872236864191597
  0.7417063990503115  0.7576486981428204  0.2654312235492746
  0.9678965374268529  0.2667922479609819  0.2360917693494807
  0.9464302944622436  0.7325130001303507  0.7508248153483601
  0.2515774263108875  0.2573444923614699  0.4955214841283841
  0.2648243735015607  0.7619205573412204  0.5239118989787098
  0.7461668682387564  0.2137279834384841  0.5363322453148173
  0.7758317331521997  0.6846828338536493  0.5249052873062400
  0.7799868391278049  0.4902428148965670  0.2745363556012423
  0.7840976383517629  0.4851586185395330  0.7396412481738549
  0.2114419799716643  0.4309335290468345  0.2417211651715220
  0.2878726763192527  0.4942579770835036  0.7465659582244015
  0.4542225066396304  0.7831080999117851  0.2906363108553095
  0.4779336075417644  0.2369719195828335  0.7147045377265933
  0.2470093715491524  0.9478946366597203  0.2604375772561972
  0.2503762773452539  0.0053632736161653  0.7584165601664073
  0.2626564743636043  0.2417724953291306  0.9827382974515034
  0.2732594508000922  0.7651962867213346  0.0313254619101258
  0.7753102139165789  0.9958828987666818  0.7527631283436069
  0.7619208460776319  0.0062634863483472  0.2316552400780020
  0.7942804024669066  0.7508287964691965  0.0249573089216761
  0.7620356100994526  0.2380555960478819  0.0332180814034809
  0.9949515497638073  0.2314759073998748  0.7488475929441279
  0.9927410209743792  0.7844796446109510  0.2425052438590782
  0.4715717957336502  0.2497524226488961  0.2328241186748986
  0.4636340695156486  0.7317895243112826  0.7654798813161361
  0.0116178355183941  0.2641850403194748  0.9933894097151034
  0.0276088695097617  0.7397918923163571  0.9972278722215423
  0.5058243107612480  0.2498632193574550  0.4853061660040785
  0.5011380082663230  0.7523576955796719  0.5171006936454358
  0.3797769544679443  0.5831313241039291  0.1884290096390109
  0.5368281716422215  0.4722610633799057  0.7489141400273960
  0.0028482682462375  0.0205129345769119  0.2572703312559602
  0.0100922608240130  0.9863719202700698  0.7323500173805546
  0.4142005283217851  0.4263998902262832  0.3892252490210831
  0.5750941287181491  0.5788036803237744  0.3416919549346392
  0.5846524977545232  0.4192201730749572  0.1621998814684828
  0.6907511188263702  0.6865656381642646  0.8226899418886410
  0.0060520854453718  0.0036496658927424  0.9959463203880466
  0.7707686161390583  0.4988504838967409  0.0046228653790555
  0.2589514069947684  0.4994911468421774  0.9939177387861320
  0.0026481923292151  0.7570353455938147  0.4962569862768240
  0.9955668704247936  0.2471555645136324  0.4949397995128516
  0.5027367576338547  0.0063928624662157  0.2387989852378387
  0.5038540333632464  0.9958431942930972  0.7502210021669757
  0.6304038046488588  0.6224428488792162  0.6401464597780404
  0.6100578694082517  0.3820054351940889  0.3596194143709469
  0.9056214397628242  0.9044330114972973  0.1001398916896824
  0.9012952443404395  0.1021269081295489  0.8933935054769326
  0.1103839007017847  0.9006242149593768  0.8966225853876300
  0.1052772547781809  0.1072718287850072  0.0971171218460702
  0.3784512927609376  0.6283771937382129  0.3876642889093881
  0.3755750913379685  0.3728624160251507  0.6086410048921211
  0.0924625821950093  0.3459826892702214  0.3858028910373931
  0.0921904823449991  0.6556421979225686  0.6072724671139157
  0.1029069710506010  0.1479944154737924  0.5942902566684699
  0.1098633244889650  0.8571008749031054  0.4005046802037313
  0.8893108132939824  0.1458297480251385  0.3955182930234560
  0.8871039856107593  0.8543554303873118  0.5917265461413743
  0.8713221940374611  0.4017771310104545  0.1077461340227935
  0.8679153302536244  0.6004884380886303  0.9006045986487482
  0.1632911126167559  0.5935232066553218  0.1122732433755734
  0.1608449233686894  0.4006311738120197  0.8893180738688434
  0.4066209115516204  0.8994119403486623  0.1361619706196687
  0.4047451273796667  0.1046902927467881  0.8496431647519054
  0.3870087700466968  0.0971601804688512  0.3403942476800207
  0.3978131778946670  0.8987803743568960  0.6481419888940405
  0.3672071195901700  0.3958013175883670  0.0905637269879278
  0.3529671931756737  0.6142447956215501  0.9026876350526878
  0.6155099010088004  0.0896218315601043  0.6500632929482111
  0.6087066224810183  0.9084617488972704  0.3390905528528900
  0.6663448610870332  0.6070598976241274  0.1038090748653795
  0.6680583918717888  0.3923392442157033  0.9098121002799838
  0.8954160113047009  0.3457566045379843  0.6067113301677748
  0.9110953295601847  0.6578317757424832  0.3786271138721138
  0.6040614693567139  0.1118139955083629  0.1408297839301602
  0.6059339983312964  0.8892697279398609  0.8485643905886908
 
  0.00000000E+00  0.00000000E+00  0.00000000E+00
  0.00000000E+00  0.00000000E+00  0.00000000E+00
  0.00000000E+00  0.00000000E+00  0.00000000E+00
  0.00000000E+00  0.00000000E+00  0.00000000E+00
  0.00000000E+00  0.00000000E+00  0.00000000E+00
  0.00000000E+00  0.00000000E+00  0.00000000E+00
  0.00000000E+00  0.00000000E+00  0.00000000E+00
  0.00000000E+00  0.00000000E+00  0.00000000E+00
  0.00000000E+00  0.00000000E+00  0.00000000E+00
  0.00000000E+00  0.00000000E+00  0.00000000E+00
  0.00000000E+00  0.00000000E+00  0.00000000E+00
  0.00000000E+00  0.00000000E+00  0.00000000E+00
  0.00000000E+00  0.00000000E+00  0.00000000E+00
  0.00000000E+00  0.00000000E+00  0.00000000E+00
  0.00000000E+00  0.00000000E+00  0.00000000E+00
  0.00000000E+00  0.00000000E+00  0.00000000E+00
  0.00000000E+00  0.00000000E+00  0.00000000E+00
  0.00000000E+00  0.00000000E+00  0.00000000E+00
  0.00000000E+00  0.00000000E+00  0.00000000E+00
  0.00000000E+00  0.00000000E+00  0.00000000E+00
  0.00000000E+00  0.00000000E+00  0.00000000E+00
  0.00000000E+00  0.00000000E+00  0.00000000E+00
  0.00000000E+00  0.00000000E+00  0.00000000E+00
  0.00000000E+00  0.00000000E+00  0.00000000E+00
  0.00000000E+00  0.00000000E+00  0.00000000E+00
  0.00000000E+00  0.00000000E+00  0.00000000E+00
  0.00000000E+00  0.00000000E+00  0.00000000E+00
  0.00000000E+00  0.00000000E+00  0.00000000E+00
  0.00000000E+00  0.00000000E+00  0.00000000E+00
  0.00000000E+00  0.00000000E+00  0.00000000E+00
  0.00000000E+00  0.00000000E+00  0.00000000E+00
  0.00000000E+00  0.00000000E+00  0.00000000E+00
  0.00000000E+00  0.00000000E+00  0.00000000E+00
  0.00000000E+00  0.00000000E+00  0.00000000E+00
  0.00000000E+00  0.00000000E+00  0.00000000E+00
  0.00000000E+00  0.00000000E+00  0.00000000E+00
  0.00000000E+00  0.00000000E+00  0.00000000E+00
  0.00000000E+00  0.00000000E+00  0.00000000E+00
  0.00000000E+00  0.00000000E+00  0.00000000E+00
  0.00000000E+00  0.00000000E+00  0.00000000E+00
  0.00000000E+00  0.00000000E+00  0.00000000E+00
  0.00000000E+00  0.00000000E+00  0.00000000E+00
  0.00000000E+00  0.00000000E+00  0.00000000E+00
  0.00000000E+00  0.00000000E+00  0.00000000E+00
  0.00000000E+00  0.00000000E+00  0.00000000E+00
  0.00000000E+00  0.00000000E+00  0.00000000E+00
  0.00000000E+00  0.00000000E+00  0.00000000E+00
  0.00000000E+00  0.00000000E+00  0.00000000E+00
  0.00000000E+00  0.00000000E+00  0.00000000E+00
  0.00000000E+00  0.00000000E+00  0.00000000E+00
  0.00000000E+00  0.00000000E+00  0.00000000E+00
  0.00000000E+00  0.00000000E+00  0.00000000E+00
  0.00000000E+00  0.00000000E+00  0.00000000E+00
  0.00000000E+00  0.00000000E+00  0.00000000E+00
  0.00000000E+00  0.00000000E+00  0.00000000E+00
  0.00000000E+00  0.00000000E+00  0.00000000E+00
  0.00000000E+00  0.00000000E+00  0.00000000E+00
  0.00000000E+00  0.00000000E+00  0.00000000E+00
  0.00000000E+00  0.00000000E+00  0.00000000E+00
  0.00000000E+00  0.00000000E+00  0.00000000E+00
  0.00000000E+00  0.00000000E+00  0.00000000E+00
  0.00000000E+00  0.00000000E+00  0.00000000E+00
  0.00000000E+00  0.00000000E+00  0.00000000E+00
  0.00000000E+00  0.00000000E+00  0.00000000E+00
  0.00000000E+00  0.00000000E+00  0.00000000E+00
  0.00000000E+00  0.00000000E+00  0.00000000E+00
  0.00000000E+00  0.00000000E+00  0.00000000E+00
  0.00000000E+00  0.00000000E+00  0.00000000E+00
  0.00000000E+00  0.00000000E+00  0.00000000E+00
  0.00000000E+00  0.00000000E+00  0.00000000E+00
  0.00000000E+00  0.00000000E+00  0.00000000E+00
  0.00000000E+00  0.00000000E+00  0.00000000E+00
  0.00000000E+00  0.00000000E+00  0.00000000E+00
  0.00000000E+00  0.00000000E+00  0.00000000E+00
  0.00000000E+00  0.00000000E+00  0.00000000E+00
  0.00000000E+00  0.00000000E+00  0.00000000E+00
  0.00000000E+00  0.00000000E+00  0.00000000E+00
  0.00000000E+00  0.00000000E+00  0.00000000E+00
  0.00000000E+00  0.00000000E+00  0.00000000E+00
  0.00000000E+00  0.00000000E+00  0.00000000E+00
  0.00000000E+00  0.00000000E+00  0.00000000E+00
  0.00000000E+00  0.00000000E+00  0.00000000E+00
  0.00000000E+00  0.00000000E+00  0.00000000E+00
  0.00000000E+00  0.00000000E+00  0.00000000E+00
  0.00000000E+00  0.00000000E+00  0.00000000E+00
  0.00000000E+00  0.00000000E+00  0.00000000E+00
  0.00000000E+00  0.00000000E+00  0.00000000E+00
  0.00000000E+00  0.00000000E+00  0.00000000E+00
  0.00000000E+00  0.00000000E+00  0.00000000E+00
  0.00000000E+00  0.00000000E+00  0.00000000E+00
  0.00000000E+00  0.00000000E+00  0.00000000E+00
  0.00000000E+00  0.00000000E+00  0.00000000E+00
  0.00000000E+00  0.00000000E+00  0.00000000E+00
  0.00000000E+00  0.00000000E+00  0.00000000E+00
  0.00000000E+00  0.00000000E+00  0.00000000E+00
  0.00000000E+00  0.00000000E+00  0.00000000E+00
  0.00000000E+00  0.00000000E+00  0.00000000E+00
  0.00000000E+00  0.00000000E+00  0.00000000E+00
  0.00000000E+00  0.00000000E+00  0.00000000E+00
  0.00000000E+00  0.00000000E+00  0.00000000E+00
