Li20 P20 O60
1.0
5.302578 0.000000 0.000000
0.000000 12.825771 -0.051941
0.000000 10.181499 15.900075
Li P O
20 20 60
direct
0.502422 0.877675 0.180600 Li
0.497578 0.877675 0.680600 Li
0.510981 0.112444 0.065733 Li
0.489019 0.112444 0.565733 Li
0.489721 0.346397 0.950661 Li
0.510279 0.346397 0.450661 Li
0.497576 0.580655 0.835745 Li
0.502424 0.580655 0.335745 Li
0.009381 0.728778 0.758386 Li
0.990618 0.728778 0.258386 Li
0.478706 0.376950 0.681958 Li
0.521294 0.376950 0.181958 Li
0.522816 0.612334 0.566230 Li
0.477184 0.612334 0.066230 Li
0.476296 0.845604 0.450285 Li
0.523704 0.845604 0.950285 Li
0.520336 0.080413 0.335063 Li
0.479664 0.080413 0.835063 Li
0.037223 0.228619 0.258515 Li
0.962777 0.228619 0.758515 Li
0.808285 0.997749 -0.000006 P
0.191715 0.997749 0.499994 P
0.152447 0.203560 0.907299 P
0.847553 0.203560 0.407299 P
0.811008 0.400092 0.803045 P
0.188992 0.400092 0.303045 P
0.173405 0.590831 0.692528 P
0.826595 0.590831 0.192528 P
0.842692 0.791845 0.592125 P
0.157308 0.791845 0.092125 P
0.155969 0.666025 0.424672 P
0.844031 0.666025 0.924672 P
0.825122 0.866688 0.323934 P
0.174878 0.866688 0.823934 P
0.188234 0.057553 0.213342 P
0.811766 0.057553 0.713342 P
0.848274 0.254723 0.109282 P
0.151726 0.254723 0.609282 P
0.192865 0.460249 0.016864 P
0.807135 0.460249 0.516864 P
0.918950 0.130360 0.962024 O
0.081050 0.130360 0.462024 O
0.049463 0.338979 0.859769 O
0.950537 0.338979 0.359769 O
0.920174 0.518634 0.725259 O
0.079826 0.518634 0.225259 O
0.077017 0.706868 0.608779 O
0.922983 0.706868 0.108779 O
0.055374 0.919972 0.021855 O
0.944626 0.919972 0.521855 O
0.921544 0.751041 0.407876 O
0.078456 0.751041 0.907876 O
0.078651 0.938416 0.290565 O
0.921349 0.938416 0.790565 O
0.950279 0.119122 0.156471 O
0.049721 0.119122 0.656471 O
0.082031 0.327692 0.054650 O
0.917969 0.327692 0.554650 O
0.054166 0.538034 0.495180 O
0.945834 0.538034 0.995180 O
0.673299 0.971100 0.074633 O
0.326701 0.971100 0.574633 O
0.677010 0.989456 0.935838 O
0.322990 0.989456 0.435838 O
0.349414 0.200751 0.961250 O
0.650586 0.200751 0.461250 O
0.205135 0.168023 0.847516 O
0.794865 0.168023 0.347516 O
0.643613 0.436754 0.846215 O
0.356387 0.436754 0.346215 O
0.720309 0.321762 0.774436 O
0.279691 0.321762 0.274436 O
0.253555 0.629128 0.748725 O
0.746445 0.629128 0.248725 O
0.345168 0.526720 0.669235 O
0.654832 0.526720 0.169235 O
0.784667 0.792146 0.667299 O
0.215333 0.792146 0.167299 O
0.647078 0.759660 0.553784 O
0.352922 0.759660 0.053784 O
0.351512 0.698553 0.462845 O
0.648488 0.698553 0.962845 O
0.213969 0.665286 0.349674 O
0.786031 0.665286 0.849674 O
0.654284 0.931454 0.346949 O
0.345716 0.931454 0.846949 O
0.743906 0.827509 0.268290 O
0.256094 0.827509 0.768290 O
0.278401 0.135112 0.242627 O
0.721599 0.135112 0.742627 O
0.356480 0.021630 0.169934 O
0.643520 0.021630 0.669934 O
0.796256 0.289782 0.169353 O
0.203744 0.289782 0.669353 O
0.650682 0.258124 0.055301 O
0.349318 0.258124 0.555301 O
0.324181 0.468120 0.081184 O
0.675819 0.468120 0.581184 O
0.327657 0.487258 0.942122 O
0.672343 0.487258 0.442122 O
