Li71 P24 N1 O94                         
   1.00000000000000     
    14.7177751214240118   -0.0160544517933263    0.0060401658697152
    -0.0115415963477098   10.5519005701830366   -0.0124391504565711
     0.0050740279352170   -0.0144935380935201   12.3432406345943324
   Li   P    N    O 
    71    24     1    94
Direct
  0.1689581472473713  0.4244196100515233 -0.0036050521856648
  0.1668315940577479  0.4232507478926208  0.5017414507852894
  0.1729080143989493  0.9193306153534192  0.0011358867748916
  0.1702985281773272  0.9195140367505938  0.4987255733629808
  0.5024814066986817  0.4217005913187216 -0.0006019682529499
  0.5032218775196535  0.4214309206337141  0.5003072760714823
  0.5034664233547738  0.9216488156748516  0.0000743882466335
  0.5045105498336717  0.9211997664635901  0.5004690377459222
  0.8340949493936081  0.4238981991002017 -0.0009519520017900
  0.8372585337583415  0.4234775211398750  0.4995546318498668
  0.8328873650014910  0.9199872303697118  0.0025253612806249
  0.8380927646555696  0.9252116062492690  0.4984711554952889
  0.0020468930994474  0.0747361213129551  0.7468056202616788
  0.0016874421019276  0.5849377814982555  0.2521455264824902
  0.0025780571897481  0.5785405942653579  0.7478780078906215
  0.3386952158822467  0.0732797564707936  0.2551485474127277
  0.3374532957888972  0.0766259247750391  0.7493366357661960
  0.3373634147040500  0.5781850197548870  0.2501199394724422
  0.3368839259562002  0.5774036263380962  0.7489645759604998
  0.6748947006979868  0.0740841016636729  0.2510673440586507
  0.6692263105943423  0.0771068645178708  0.7496890670885772
  0.6695066572827615  0.5787564571448743  0.2504507119027046
  0.6691157579409929  0.5775799880339175  0.7495169810131388
  0.1967108419747614  0.1633603161589252  0.1348633999084614
  0.1694979259398166  0.1619476048869329  0.6254773498616460
  0.1697185936098133  0.6661123801447283  0.1236398895189389
  0.1694098107826752  0.6628840051844123  0.6257557281389766
  0.5022442235537371  0.1622118986635471  0.1277925011345260
  0.5034593063726539  0.1626021205565486  0.6265862846583301
  0.5027809724143456  0.6621408847327946  0.1262534772762939
  0.5031027246806962  0.6625951869105786  0.6262128055544500
  0.8334358203247986  0.1643193475729573  0.1298424292872495
  0.8372192514846947  0.1637410185946155  0.6259400829728463
  0.8349484539062658  0.6652673667476912  0.1262759181506904
  0.8358391565710052  0.6648217822038920  0.6264477453393315
 -0.0033633656937297  0.3544719448943306  0.1237169578150798
  0.0029163695836404  0.3362732933965012  0.6233218910839442
  0.0002413750267659  0.8405022884243543  0.1285323044153755
  0.0038024301564976  0.8388981631618373  0.6223925904905923
  0.3363588338372220  0.3406409215066512  0.1228898972114898
  0.3355767364299264  0.3354180487301177  0.6229952994921301
  0.3385287375466519  0.8362621971841168  0.1240823593924447
  0.3368275083934053  0.8348764632007877  0.6238781750994243
  0.6681014932930482  0.3371059869963529  0.1238990026868466
  0.6698021733939828  0.3360056273296879  0.6235529538680674
  0.6675351148005060  0.8344156034978202  0.1229322385976033
  0.6701128600535962  0.8367167850644053  0.6238044540089224
  0.0040176444428781  0.3365074629362407  0.3761910566019039
  0.0012836622021219  0.3406425965111181  0.8732983129023079
  0.0021654917522701  0.8466537345968943  0.3736999053353710
  0.0020920639728969  0.8329684923400440  0.8732978395201545
  0.3396648408383364  0.3298712667338792  0.3786250541542021
  0.3358599483457312  0.3374783548499170  0.8753347474190022
  0.3381874134162232  0.8346442668184656  0.3770891182573009
  0.3369649215205885  0.8361567830755139  0.8759998429969946
  0.6701007990757253  0.3361027732898529  0.3763635879602001
  0.6681665450788951  0.3367294538863761  0.8754322615554326
  0.6690581307167643  0.8345296676718534  0.3779880314563272
  0.6686392122046165  0.8364313128023838  0.8761790127876776
  0.1692017697407885  0.1528887335609419  0.3749533413127163
  0.1723467210624519  0.1633058422890891  0.8716119330763187
  0.1694778230331213  0.6627405332179029  0.3738825036800590
  0.1699111020970918  0.6631591035983919  0.8723833336916507
  0.5055606558719546  0.1611778820934380  0.3743182846497979
  0.5026288902575902  0.1632995656091817  0.8733118368514251
  0.5034691845454641  0.6621289401585564  0.3743890056389129
  0.5028823349800208  0.6628905098646525  0.8733039110198518
  0.8407039729006694  0.1627215566475886  0.3723489335881717
  0.8326527954420218  0.1662636139082760  0.8722311801717638
  0.8359223282277650  0.6664722889089983  0.3737385085149842
  0.8348134110525424  0.6638464162285610  0.8733486868348296
  0.1649187941535117  0.4141713138560603  0.2455158547089556
  0.1669315262669294  0.4123903709955568  0.7494217340717414
  0.1694599671692204  0.9074374609871039  0.2491909892110675
  0.1679232949425684  0.9114236863628553  0.7504147707423101
  0.4997625061402948  0.4115181395866352  0.2501411364393414
  0.5000724916853666  0.4119085622939855  0.7495577762157187
  0.5015283957510758  0.9110618515162230  0.2502194462576371
  0.5006237047862129  0.9116609504513942  0.7502070970163706
  0.8332032023423896  0.4138144895074869  0.2500364565975781
  0.8330742401152952  0.4131833576921827  0.7496746419640201
  0.8294853183392048  0.9130230206958514  0.2494594852096820
  0.8334826807372027  0.9130107348113634  0.7512540496519098
 -0.0005672132239083  0.0858518203319853 -0.0066226477169265
  0.0029346035985021  0.0917393442628306  0.5037937152306345
 -0.0006876898379971  0.5895080220496021 -0.0011501745136304
 -0.0006153262327062  0.5902911011552002  0.5002689418926966
  0.3333622207185037  0.0874762509646701 -0.0004797547402203
  0.3356660534213990  0.0844167983424559  0.5015878336354177
  0.3338864232558835  0.5880443701753609 -0.0009973052250676
  0.3341541984221998  0.5862609428105134  0.4999881976776182
  0.6653468712643598  0.0882800028685940 -0.0001553868134313
  0.6680282654093478  0.0875339325974933  0.5009918114567987
  0.6661444158673329  0.5870108231768499 -0.0006304219503523
  0.6672088869207117  0.5867541638626597  0.5006892474784692
  0.1997038571969834  0.3457781476553192  0.3557312487841797
  0.0419854586197185  0.1681435494045767  0.4084494607293913
  0.0363635554453267  0.1590190878851354  0.8932470701016679
  0.0352686706556642  0.6593024486188859  0.3969594506479043
  0.0352503181440650  0.6569770486205971  0.8948593437544548
  0.3720736729216231  0.1527606094397589  0.3980649778023492
  0.3687549747920401  0.1577660568767927  0.8968401474805726
  0.3700975449891423  0.6546898282439266  0.3963589634777857
  0.3695658509280270  0.6568323064899397  0.8954503264000679
  0.7029502547634955  0.1573698231071236  0.3978823855807622
  0.7007334203575378  0.1567382540673268  0.8957536533587812
  0.7023701958396203  0.6556467571818534  0.3970706596007030
  0.7015132136240902  0.6564062076685437  0.8958220918050157
  0.2036794830093291  0.0481649496175248  0.2503385040621381
  0.2021443574519664  0.0513867317693086  0.7502527046075634
  0.2015963578867062  0.5531193943942305  0.2457878088284549
  0.2013784607531067  0.5523044159909810  0.7494658055652681
  0.5355848172811883  0.0511784529756384  0.2499256049479636
  0.5340934921575935  0.0520569290042128  0.7504649744442551
  0.5336950771314151  0.5516923012271476  0.2499724168452941
  0.5338666251786822  0.5521499955596221  0.7499008449611944
  0.8525279168745867  0.0552758943763768  0.2484074816761110
  0.8669577135659555  0.0535109722795626  0.7524849889790871
  0.8668912480864986  0.5541777652447555  0.2491022678743396
  0.8668732302847608  0.5534172129282923  0.7502368928869685
  0.0588382413900228  0.4122422828382500  0.2458885049257712
  0.0610634336026451  0.4110288983098735  0.7495849675695295
  0.0654867890750356  0.8982721582713391  0.2484514367144107
  0.0619159165676314  0.9087623415341453  0.7513141810348223
  0.3937877210895108  0.4084837635391392  0.2506399244806135
  0.3942473672677979  0.4088168474157943  0.7493148986848907
  0.3957308414469208  0.9082486616250449  0.2507024759240167
  0.3948023099687713  0.9084414401715059  0.7502095271957760
  0.7274534014944561  0.4101138824387758  0.2494698294710128
  0.7273048697232595  0.4096148649756118  0.7501117999173776
  0.7237115536827557  0.8983712016383724  0.2499014195359069
  0.7277556980737088  0.9090835211007863  0.7509420504171898
  0.2271724296624398  0.0889923250855287 -0.0013419805592736
  0.2300753559447374  0.0858803257718690  0.5012225358371833
  0.2280479686196343  0.5914827260440041 -0.0015963650421554
  0.2284157636196175  0.5905237084680471  0.5002212475987413
  0.5595320470235722  0.0909271137179164 -0.0000769365631312
  0.5621024521441448  0.0896397523276012  0.5012600122727264
  0.5603634982640578  0.5898889612418897 -0.0005407810434718
  0.5613335136357062  0.5893627497344522  0.5005558897059504
  0.8943777897404865  0.0936420004475262  0.0007414312329004
  0.8967653468642836  0.0928950133410396  0.5008051864814383
  0.8935348095297206  0.5920807766157680 -0.0008329477017227
  0.8934971496119931  0.5939589057722996  0.5001205849614067
  0.1974352742733106  0.3452083394319825  0.1389714770969674
  0.2019240755145040  0.3422676156314672  0.6463258082334399
  0.2072986455002113  0.8416382733844510  0.1443020729258997
  0.2026802144922641  0.8417351111942840  0.6468535017358441
  0.5342821341955217  0.3424028365398498  0.1458981355642292
  0.5358169502971928  0.3427013759410591  0.6460853907526720
  0.5352573090239461  0.8417470562649252  0.1457132434629137
  0.5363723850482881  0.8424718765628524  0.6467512528064872
  0.8684463601193780  0.3445641229822543  0.1454358223391730
  0.8687035873924696  0.3442210625631660  0.6462462589803335
  0.8671933927703763  0.8452317902470246  0.1454183566290778
  0.8695509539501514  0.8446838402190671  0.6476897137560051
  0.0346138340219706  0.1549410864172436  0.6127565015299251
  0.0350589166679553  0.6582095115948915  0.1023203899909086
  0.0350986747820098  0.6590909850082592  0.6042876535570036
  0.3647309786861364  0.1575681484815221  0.1051660357966041
  0.3700798527518989  0.1552910027674478  0.6050834956081116
  0.3695697045011019  0.6561602360335246  0.1029805234818512
  0.3697990260314096  0.6555257077841781  0.6037260699637492
  0.7007954691790775  0.1581315491903016  0.1028687795662707
  0.7030139220483733  0.1562479469893359  0.6053227885259239
  0.7016078131553926  0.6557800045802400  0.1030634402186090
  0.7022022567073183  0.6564955688692725  0.6044612848551133
  0.0323869180460323  0.4485605848310059 -0.0015911732911460
  0.0317780026982412  0.4498852445745702  0.5009587894220260
  0.0348758674799016  0.9478453467965119 -0.0004269213553017
  0.0361710112279134  0.9509195661235292  0.5009288795788208
  0.3670252685265444  0.4475907174528469 -0.0011178655030344
  0.3676153558730411  0.4459966418364394  0.5001698382140004
  0.3682408144506050  0.9483731169758884 -0.0001699069331383
  0.3700550056593533  0.9447064547894657  0.5018757058359647
  0.6995750559618417  0.4467668075912939 -0.0009090656859976
  0.7009541283067783  0.4467419709196424  0.5006524167540488
  0.6990447211654716  0.9480698932029721 -0.0000571194206877
  0.7017669588408235  0.9473836213081908  0.5006490696380890
  0.2017385184376731  0.3434155956019858  0.8533774654902823
  0.2068772516822152  0.8400859249543261  0.3530057540394945
  0.2030443680645561  0.8425903596958040  0.8542313270422806
  0.5352842871986430  0.3424278302625931  0.3534757144703185
  0.5349269844174589  0.3429933375117150  0.8534013067896535
  0.5362687065870095  0.8418053898484660  0.3538123505234994
  0.5355860151816861  0.8428991582601100  0.8540557000983972
  0.8689630935112299  0.3454502634676291  0.3531133290449106
  0.8682162536894324  0.3441459194883879  0.8536236774711028
  0.8681544774732175  0.8461767911289836  0.3525747745180772
  0.8687054998641599  0.8444312561736377  0.8554117807053512
 
  0.00000000E+00  0.00000000E+00  0.00000000E+00
  0.00000000E+00  0.00000000E+00  0.00000000E+00
  0.00000000E+00  0.00000000E+00  0.00000000E+00
  0.00000000E+00  0.00000000E+00  0.00000000E+00
  0.00000000E+00  0.00000000E+00  0.00000000E+00
  0.00000000E+00  0.00000000E+00  0.00000000E+00
  0.00000000E+00  0.00000000E+00  0.00000000E+00
  0.00000000E+00  0.00000000E+00  0.00000000E+00
  0.00000000E+00  0.00000000E+00  0.00000000E+00
  0.00000000E+00  0.00000000E+00  0.00000000E+00
  0.00000000E+00  0.00000000E+00  0.00000000E+00
  0.00000000E+00  0.00000000E+00  0.00000000E+00
  0.00000000E+00  0.00000000E+00  0.00000000E+00
  0.00000000E+00  0.00000000E+00  0.00000000E+00
  0.00000000E+00  0.00000000E+00  0.00000000E+00
  0.00000000E+00  0.00000000E+00  0.00000000E+00
  0.00000000E+00  0.00000000E+00  0.00000000E+00
  0.00000000E+00  0.00000000E+00  0.00000000E+00
  0.00000000E+00  0.00000000E+00  0.00000000E+00
  0.00000000E+00  0.00000000E+00  0.00000000E+00
  0.00000000E+00  0.00000000E+00  0.00000000E+00
  0.00000000E+00  0.00000000E+00  0.00000000E+00
  0.00000000E+00  0.00000000E+00  0.00000000E+00
  0.00000000E+00  0.00000000E+00  0.00000000E+00
  0.00000000E+00  0.00000000E+00  0.00000000E+00
  0.00000000E+00  0.00000000E+00  0.00000000E+00
  0.00000000E+00  0.00000000E+00  0.00000000E+00
  0.00000000E+00  0.00000000E+00  0.00000000E+00
  0.00000000E+00  0.00000000E+00  0.00000000E+00
  0.00000000E+00  0.00000000E+00  0.00000000E+00
  0.00000000E+00  0.00000000E+00  0.00000000E+00
  0.00000000E+00  0.00000000E+00  0.00000000E+00
  0.00000000E+00  0.00000000E+00  0.00000000E+00
  0.00000000E+00  0.00000000E+00  0.00000000E+00
  0.00000000E+00  0.00000000E+00  0.00000000E+00
  0.00000000E+00  0.00000000E+00  0.00000000E+00
  0.00000000E+00  0.00000000E+00  0.00000000E+00
  0.00000000E+00  0.00000000E+00  0.00000000E+00
  0.00000000E+00  0.00000000E+00  0.00000000E+00
  0.00000000E+00  0.00000000E+00  0.00000000E+00
  0.00000000E+00  0.00000000E+00  0.00000000E+00
  0.00000000E+00  0.00000000E+00  0.00000000E+00
  0.00000000E+00  0.00000000E+00  0.00000000E+00
  0.00000000E+00  0.00000000E+00  0.00000000E+00
  0.00000000E+00  0.00000000E+00  0.00000000E+00
  0.00000000E+00  0.00000000E+00  0.00000000E+00
  0.00000000E+00  0.00000000E+00  0.00000000E+00
  0.00000000E+00  0.00000000E+00  0.00000000E+00
  0.00000000E+00  0.00000000E+00  0.00000000E+00
  0.00000000E+00  0.00000000E+00  0.00000000E+00
  0.00000000E+00  0.00000000E+00  0.00000000E+00
  0.00000000E+00  0.00000000E+00  0.00000000E+00
  0.00000000E+00  0.00000000E+00  0.00000000E+00
  0.00000000E+00  0.00000000E+00  0.00000000E+00
  0.00000000E+00  0.00000000E+00  0.00000000E+00
  0.00000000E+00  0.00000000E+00  0.00000000E+00
  0.00000000E+00  0.00000000E+00  0.00000000E+00
  0.00000000E+00  0.00000000E+00  0.00000000E+00
  0.00000000E+00  0.00000000E+00  0.00000000E+00
  0.00000000E+00  0.00000000E+00  0.00000000E+00
  0.00000000E+00  0.00000000E+00  0.00000000E+00
  0.00000000E+00  0.00000000E+00  0.00000000E+00
  0.00000000E+00  0.00000000E+00  0.00000000E+00
  0.00000000E+00  0.00000000E+00  0.00000000E+00
  0.00000000E+00  0.00000000E+00  0.00000000E+00
  0.00000000E+00  0.00000000E+00  0.00000000E+00
  0.00000000E+00  0.00000000E+00  0.00000000E+00
  0.00000000E+00  0.00000000E+00  0.00000000E+00
  0.00000000E+00  0.00000000E+00  0.00000000E+00
  0.00000000E+00  0.00000000E+00  0.00000000E+00
  0.00000000E+00  0.00000000E+00  0.00000000E+00
  0.00000000E+00  0.00000000E+00  0.00000000E+00
  0.00000000E+00  0.00000000E+00  0.00000000E+00
  0.00000000E+00  0.00000000E+00  0.00000000E+00
  0.00000000E+00  0.00000000E+00  0.00000000E+00
  0.00000000E+00  0.00000000E+00  0.00000000E+00
  0.00000000E+00  0.00000000E+00  0.00000000E+00
  0.00000000E+00  0.00000000E+00  0.00000000E+00
  0.00000000E+00  0.00000000E+00  0.00000000E+00
  0.00000000E+00  0.00000000E+00  0.00000000E+00
  0.00000000E+00  0.00000000E+00  0.00000000E+00
  0.00000000E+00  0.00000000E+00  0.00000000E+00
  0.00000000E+00  0.00000000E+00  0.00000000E+00
  0.00000000E+00  0.00000000E+00  0.00000000E+00
  0.00000000E+00  0.00000000E+00  0.00000000E+00
  0.00000000E+00  0.00000000E+00  0.00000000E+00
  0.00000000E+00  0.00000000E+00  0.00000000E+00
  0.00000000E+00  0.00000000E+00  0.00000000E+00
  0.00000000E+00  0.00000000E+00  0.00000000E+00
  0.00000000E+00  0.00000000E+00  0.00000000E+00
  0.00000000E+00  0.00000000E+00  0.00000000E+00
  0.00000000E+00  0.00000000E+00  0.00000000E+00
  0.00000000E+00  0.00000000E+00  0.00000000E+00
  0.00000000E+00  0.00000000E+00  0.00000000E+00
  0.00000000E+00  0.00000000E+00  0.00000000E+00
  0.00000000E+00  0.00000000E+00  0.00000000E+00
  0.00000000E+00  0.00000000E+00  0.00000000E+00
  0.00000000E+00  0.00000000E+00  0.00000000E+00
  0.00000000E+00  0.00000000E+00  0.00000000E+00
  0.00000000E+00  0.00000000E+00  0.00000000E+00
  0.00000000E+00  0.00000000E+00  0.00000000E+00
  0.00000000E+00  0.00000000E+00  0.00000000E+00
  0.00000000E+00  0.00000000E+00  0.00000000E+00
  0.00000000E+00  0.00000000E+00  0.00000000E+00
  0.00000000E+00  0.00000000E+00  0.00000000E+00
  0.00000000E+00  0.00000000E+00  0.00000000E+00
  0.00000000E+00  0.00000000E+00  0.00000000E+00
  0.00000000E+00  0.00000000E+00  0.00000000E+00
  0.00000000E+00  0.00000000E+00  0.00000000E+00
  0.00000000E+00  0.00000000E+00  0.00000000E+00
  0.00000000E+00  0.00000000E+00  0.00000000E+00
  0.00000000E+00  0.00000000E+00  0.00000000E+00
  0.00000000E+00  0.00000000E+00  0.00000000E+00
  0.00000000E+00  0.00000000E+00  0.00000000E+00
  0.00000000E+00  0.00000000E+00  0.00000000E+00
  0.00000000E+00  0.00000000E+00  0.00000000E+00
  0.00000000E+00  0.00000000E+00  0.00000000E+00
  0.00000000E+00  0.00000000E+00  0.00000000E+00
  0.00000000E+00  0.00000000E+00  0.00000000E+00
  0.00000000E+00  0.00000000E+00  0.00000000E+00
  0.00000000E+00  0.00000000E+00  0.00000000E+00
  0.00000000E+00  0.00000000E+00  0.00000000E+00
  0.00000000E+00  0.00000000E+00  0.00000000E+00
  0.00000000E+00  0.00000000E+00  0.00000000E+00
  0.00000000E+00  0.00000000E+00  0.00000000E+00
  0.00000000E+00  0.00000000E+00  0.00000000E+00
  0.00000000E+00  0.00000000E+00  0.00000000E+00
  0.00000000E+00  0.00000000E+00  0.00000000E+00
  0.00000000E+00  0.00000000E+00  0.00000000E+00
  0.00000000E+00  0.00000000E+00  0.00000000E+00
  0.00000000E+00  0.00000000E+00  0.00000000E+00
  0.00000000E+00  0.00000000E+00  0.00000000E+00
  0.00000000E+00  0.00000000E+00  0.00000000E+00
  0.00000000E+00  0.00000000E+00  0.00000000E+00
  0.00000000E+00  0.00000000E+00  0.00000000E+00
  0.00000000E+00  0.00000000E+00  0.00000000E+00
  0.00000000E+00  0.00000000E+00  0.00000000E+00
  0.00000000E+00  0.00000000E+00  0.00000000E+00
  0.00000000E+00  0.00000000E+00  0.00000000E+00
  0.00000000E+00  0.00000000E+00  0.00000000E+00
  0.00000000E+00  0.00000000E+00  0.00000000E+00
  0.00000000E+00  0.00000000E+00  0.00000000E+00
  0.00000000E+00  0.00000000E+00  0.00000000E+00
  0.00000000E+00  0.00000000E+00  0.00000000E+00
  0.00000000E+00  0.00000000E+00  0.00000000E+00
  0.00000000E+00  0.00000000E+00  0.00000000E+00
  0.00000000E+00  0.00000000E+00  0.00000000E+00
  0.00000000E+00  0.00000000E+00  0.00000000E+00
  0.00000000E+00  0.00000000E+00  0.00000000E+00
  0.00000000E+00  0.00000000E+00  0.00000000E+00
  0.00000000E+00  0.00000000E+00  0.00000000E+00
  0.00000000E+00  0.00000000E+00  0.00000000E+00
  0.00000000E+00  0.00000000E+00  0.00000000E+00
  0.00000000E+00  0.00000000E+00  0.00000000E+00
  0.00000000E+00  0.00000000E+00  0.00000000E+00
  0.00000000E+00  0.00000000E+00  0.00000000E+00
  0.00000000E+00  0.00000000E+00  0.00000000E+00
  0.00000000E+00  0.00000000E+00  0.00000000E+00
  0.00000000E+00  0.00000000E+00  0.00000000E+00
  0.00000000E+00  0.00000000E+00  0.00000000E+00
  0.00000000E+00  0.00000000E+00  0.00000000E+00
  0.00000000E+00  0.00000000E+00  0.00000000E+00
  0.00000000E+00  0.00000000E+00  0.00000000E+00
  0.00000000E+00  0.00000000E+00  0.00000000E+00
  0.00000000E+00  0.00000000E+00  0.00000000E+00
  0.00000000E+00  0.00000000E+00  0.00000000E+00
  0.00000000E+00  0.00000000E+00  0.00000000E+00
  0.00000000E+00  0.00000000E+00  0.00000000E+00
  0.00000000E+00  0.00000000E+00  0.00000000E+00
  0.00000000E+00  0.00000000E+00  0.00000000E+00
  0.00000000E+00  0.00000000E+00  0.00000000E+00
  0.00000000E+00  0.00000000E+00  0.00000000E+00
  0.00000000E+00  0.00000000E+00  0.00000000E+00
  0.00000000E+00  0.00000000E+00  0.00000000E+00
  0.00000000E+00  0.00000000E+00  0.00000000E+00
  0.00000000E+00  0.00000000E+00  0.00000000E+00
  0.00000000E+00  0.00000000E+00  0.00000000E+00
  0.00000000E+00  0.00000000E+00  0.00000000E+00
  0.00000000E+00  0.00000000E+00  0.00000000E+00
  0.00000000E+00  0.00000000E+00  0.00000000E+00
  0.00000000E+00  0.00000000E+00  0.00000000E+00
  0.00000000E+00  0.00000000E+00  0.00000000E+00
  0.00000000E+00  0.00000000E+00  0.00000000E+00
  0.00000000E+00  0.00000000E+00  0.00000000E+00
  0.00000000E+00  0.00000000E+00  0.00000000E+00
  0.00000000E+00  0.00000000E+00  0.00000000E+00
  0.00000000E+00  0.00000000E+00  0.00000000E+00
  0.00000000E+00  0.00000000E+00  0.00000000E+00
  0.00000000E+00  0.00000000E+00  0.00000000E+00
  0.00000000E+00  0.00000000E+00  0.00000000E+00
