Li5 P2 N1 O6                            
   1.00000000000000     
     0.0060440201161386    0.0031915753609960    4.9386051291715480
     6.0709328352753316   -0.0197785080093938    0.0067145540846238
    -0.0166333006452149    5.6351272028189978    0.0016130133047446
   Li   P    N    O 
     5     2     1     6
Direct
  0.5042201443798409 -0.0017826895354695  0.8418115556205725
  0.0277139474932959  0.5239166252974051  0.1231579956907144
  0.5018287108705994  0.7303584113996420  0.3458582534496210
  0.0000929585388682  0.7434905191078539  0.6636350339085886
 -0.0064572468614079  0.2537963310650114  0.7242423428119901
  0.5140730000929693  0.5072144187768869  0.8251574118928295
 -0.0245869748421813 -0.0172220180545431  0.1585802815699112
  0.6292276068391521  0.5363299802621271  0.0922550789663650
  0.6059465806853176  0.7093717234274779  0.6695137185468673
  0.1120061809653056  0.8127208245241291  0.3236493198617675
  0.6150201861939963  0.2839183530462800  0.7171014391419032
  0.1019673181615710 -0.0068010177726874  0.9061623171609430
  0.1927634279231855  0.5030655423146955  0.8107714384306951
  0.6686111595595114 -0.0383880038588084  0.1581608129472298
 
  0.00000000E+00  0.00000000E+00  0.00000000E+00
  0.00000000E+00  0.00000000E+00  0.00000000E+00
  0.00000000E+00  0.00000000E+00  0.00000000E+00
  0.00000000E+00  0.00000000E+00  0.00000000E+00
  0.00000000E+00  0.00000000E+00  0.00000000E+00
  0.00000000E+00  0.00000000E+00  0.00000000E+00
  0.00000000E+00  0.00000000E+00  0.00000000E+00
  0.00000000E+00  0.00000000E+00  0.00000000E+00
  0.00000000E+00  0.00000000E+00  0.00000000E+00
  0.00000000E+00  0.00000000E+00  0.00000000E+00
  0.00000000E+00  0.00000000E+00  0.00000000E+00
  0.00000000E+00  0.00000000E+00  0.00000000E+00
  0.00000000E+00  0.00000000E+00  0.00000000E+00
  0.00000000E+00  0.00000000E+00  0.00000000E+00
