Li71 P24 N1 O94                         
   1.00000000000000     
    14.7138057886518947   -0.0028787747966609    0.0065390143499880
    -0.0020418786894733   10.5921474449345467    0.0125973308123239
     0.0054405536410924    0.0146678452470988   12.3110660531800775
   Li   P    N    O 
    71    24     1    94
Direct
  0.1751998869962892  0.4183108083561035  0.0032730799229061
  0.1707586334295171  0.4236814581499612  0.5012359460179164
  0.1685835513354058  0.9299021145221696  0.0069590776270279
  0.1733750395068859  0.9206287779528803  0.5004178143087402
  0.5028373938292217  0.4223649659980130  0.0005305766195141
  0.5027938227332659  0.4232848738654141  0.5003635871582827
  0.5037575045376561  0.9226618500572787  0.0001302103762108
  0.5022934640041739  0.9227234308921722  0.4997390474126371
  0.8407473453897347  0.4256708912591787 -0.0002810511666418
  0.8344201167874361  0.4229303708096374  0.5009397693345620
  0.8350373827937657  0.9188362436385096 -0.0016131980613906
  0.8327434710233780  0.9190037807427989  0.4988370436729058
  0.0031148965143071  0.0643906672277971  0.2283688344430275
  0.0026114815923210  0.0744698417215885  0.7555636049237050
  0.0047335330714895  0.5795993593220086  0.2476496631105053
  0.0031241557684018  0.5756416224575639  0.7522066859316765
  0.3343153481263508  0.0739507990406350  0.2392266507127088
  0.3367594773825595  0.0772296481433737  0.7528486684861985
  0.3348329591097214  0.5780641511221635  0.2489848216946312
  0.3368052023597826  0.5774992655755034  0.7519449961084540
  0.6683407756964843  0.0781461479820231  0.2484963286889720
  0.6682597368411448  0.0769850922478117  0.7497691437906635
  0.6694910134093015  0.5771346067006569  0.2497253895076600
  0.6689634985175545  0.5778341755293234  0.7504022139907481
  0.1726731996079555  0.1642037472587436  0.6295640947262152
  0.1702865450813680  0.6625458769257313  0.1263993150214553
  0.1703351021762547  0.6631141799124181  0.6285769740704074
  0.5022016109687509  0.1631748358987638  0.1252175667469095
  0.5023779135713690  0.1637572231828831  0.6267016533685702
  0.5034443575314567  0.6631938745217123  0.1264195421286317
  0.5025573900357496  0.6635091176392520  0.6265330529461209
  0.8392556824122011  0.1626089567984415  0.1223045438201882
  0.8327195014205143  0.1664367792593834  0.6273494516320817
  0.8357421402366859  0.6646778759834103  0.1274076041155820
  0.8348321053656936  0.6630291778426824  0.6269987155707247
  0.0073114716891514  0.3274852660333460  0.1234196200513733
  0.0024006927589598  0.3403296233671879  0.6269830022770966
  0.0034587378894430  0.8367791023486035  0.1240931992289663
  0.0022716414941192  0.8319129412808537  0.6279347088647208
  0.3343276726673238  0.3323535722452859  0.1233516286000473
  0.3362125705706552  0.3376335990653329  0.6249279988416279
  0.3364789161705644  0.8361527386501656  0.1222584047378887
  0.3364437879342752  0.8366278816591736  0.6246413073595861
  0.6707149368438434  0.3364623371329590  0.1230457503919919
  0.6680516751914027  0.3376037622818682  0.6237200604959635
  0.6696446199903444  0.8372153809753456  0.1239333951469800
  0.6678826166595639  0.8366081809262923  0.6231234355523205
 -0.0008672509732111  0.3612542936666315  0.3738530630069324
  0.0008850680994416  0.3285844981580586  0.8772234016651131
  0.0025063227457442  0.8343241493316469  0.3753771427493953
  0.0028921441366571  0.8386861795068401  0.8758765203918215
  0.3375664066778629  0.3421376152931970  0.3764024889178981
  0.3378189193755355  0.3342836481970985  0.8775116347133038
  0.3352051976188390  0.8361169788066993  0.3758102942231183
  0.3361511619572876  0.8373041943454289  0.8780366268938382
  0.6678502568784418  0.3372827409096280  0.3761559381419359
  0.6700181153271639  0.3372096538119119  0.8770183733889475
  0.6681926828472377  0.8368719223179556  0.3759341226496490
  0.6693373276571944  0.8371054986105069  0.8757261241336823
  0.2033726017754878  0.1676854020764270  0.3630187465344832
  0.1688673516373314  0.1628647005255352  0.8797181860809663
  0.1688468573601067  0.6622456461795753  0.3767054346258018
  0.1701677539431102  0.6628958440391124  0.8755969695083825
  0.4999035449210663  0.1633820783181722  0.3723406332942831
  0.5039511080222231  0.1630286795569758  0.8738352842720066
  0.5020444296441383  0.6632768828162331  0.3731978719443259
  0.5033507048602778  0.6633551922826753  0.8739131579289066
  0.8331367796490360  0.1643064603242765  0.3703868860939001
  0.8337803183739695  0.1622652139463145  0.8707617409593774
  0.8359218468786970  0.6627618583543163  0.3739552707558123
  0.8355118994415273  0.6646840816713590  0.8725986522379876
  0.1680075043289725  0.4156031107357899  0.2495084912504575
  0.1675695264516878  0.4114621149105201  0.7518415496079617
  0.1683996755352384  0.9095908811405927  0.2536905051638989
  0.1673173051212636  0.9120122660889544  0.7505707169108066
  0.5005477825779391  0.4123281479622372  0.2499002955678618
  0.5006533911179778  0.4124849960680519  0.7502695010790578
  0.5003191250200628  0.9117672247498233  0.2501559746090235
  0.5003649771525903  0.9120170010385793  0.7496190197722682
  0.8343960123418782  0.4120666481503111  0.2492807709178803
  0.8330127146911952  0.4123790154019479  0.7498859435659093
  0.8338330498984954  0.9126295114216436  0.2511750904617640
  0.8331672948933394  0.9124412165687960  0.7472363681206974
 -0.0042429640785906  0.0848061221920166 -0.0021695064042366
 -0.0009402809379690  0.0845528321184964  0.5071346056423580
 -0.0003450674597681  0.5927435184427992 -0.0004535519829476
 -0.0007250401058668  0.5882042337536298  0.5018950630879392
  0.3351199999298348  0.0858686662971437 -0.0021481262378830
  0.3325691371266824  0.0882481937801923  0.5008239452326579
  0.3351884825342253  0.5878608053304418  0.0001505559629555
  0.3336737650424101  0.5883780253586695  0.5012165356605016
  0.6677240806667866  0.0873796410425330 -0.0005213966906553
  0.6656604378033985  0.0886380062448228  0.4991987890288218
  0.6678367208644634  0.5881612232615835  0.0001305760323148
  0.6666518611796640  0.5883354854759475  0.4997208481219382
  0.0386592143367808  0.4493051468931291 -0.0025661726310270
  0.0333420410360096  0.1525040638006935  0.8941937088175073
  0.0340803422007296  0.6563363992747588  0.3975569542340753
  0.0346310413598451  0.6598206256698436  0.8942286079655691
  0.3635593725895696  0.1587466399475016  0.3950281784216186
  0.3728878006561074  0.1557733816649891  0.8944430377590024
  0.3686932622987321  0.6569593162475420  0.3969233700536107
  0.3705897673599929  0.6572862325234049  0.8961025301751934
  0.7016799058654893  0.1576318038673572  0.3953826979627439
  0.7017806883560256  0.1562699580040976  0.8946071258167464
  0.7024239660295564  0.6574505634430263  0.3958502317021116
  0.7025289422372442  0.6578286462049451  0.8959311492441253
  0.2039933253533255  0.0456256148059355  0.2576810067392988
  0.2006206447295606  0.0516466389165514  0.7500407241821413
  0.1978900144251496  0.5572536857320185  0.2548693905705523
  0.2004877574909068  0.5514744293031369  0.7513715262137938
  0.5336446111155686  0.0517682174078184  0.2503168485734930
  0.5343951735517990  0.0516036858612926  0.7490284352402439
  0.5350591585430921  0.5517291057085972  0.2504986561298144
  0.5345118000331726  0.5521729009488714  0.7496629979087813
  0.8693718276630121  0.0518852693306836  0.2512544911731243
  0.8672275736849762  0.0520959468348361  0.7456393484672319
  0.8683831448137787  0.5516063756167392  0.2509472351778633
  0.8673546889213046  0.5517297570533987  0.7500901678108087
  0.0612285641760147  0.4099033544787342  0.2487922062482388
  0.0613001533623708  0.4081862842878543  0.7533093215063922
  0.0616427789569105  0.9082548162236620  0.2523860911011676
  0.0610164838651337  0.9096763637621020  0.7490513201967112
  0.3948494499997750  0.4103100482470012  0.2492564940676329
  0.3948801589905427  0.4097392715857275  0.7505478233930940
  0.3946367042399737  0.9079367230373016  0.2496857963266163
  0.3946106410118047  0.9091725631938005  0.7500470876092254
  0.7286733533232409  0.4090053528113332  0.2508820432082765
  0.7272574149475323  0.4100551619209076  0.7491889191080749
  0.7281332095208610  0.9113625299827983  0.2508603448365948
  0.7274492000993147  0.9097566657333910  0.7480042464233473
  0.2311609381589713  0.0849683017665254 -0.0059807936071429
  0.2264104145574672  0.0905452941755391  0.5023023397473955
  0.2296342820179292  0.5919255777586536  0.0003499349955940
  0.2278395338027027  0.5905926949007773  0.5024224719921223
  0.5620944918401255  0.0903737074382271  0.0005019356413307
  0.5599524698644908  0.0915510017191213  0.4990225329662406
  0.5620370448167357  0.5899981717516890  0.0002274937411336
  0.5609288428816936  0.5911140541196920  0.4997080211403310
  0.8895780963271778  0.0838820335154734 -0.0077799381609011
  0.8940612702895575  0.0926610863676378  0.4987673853889881
  0.8934268802877490  0.5991051389044543  0.0002322849662183
  0.8934815364331388  0.5898372843970426  0.5015252823198455
  0.2067509463933453  0.3538376010845687  0.1474196235833460
  0.2013266260363117  0.3439474342212780  0.6462676522098012
  0.2025449006142045  0.8406875102925347  0.1493016122885687
  0.2022690435936008  0.8429147813173398  0.6463072818067662
  0.5368439432427304  0.3430973749866910  0.1467439708623032
  0.5354631227500440  0.3433665346465285  0.6460901474064936
  0.5369057849841271  0.8428412065187941  0.1470325790864952
  0.5351312546463792  0.8432305815536647  0.6452248889582719
  0.8695831421446377  0.3439078511728273  0.1456229368497604
  0.8685469925623498  0.3435370972952991  0.6456955602066679
  0.8692842654438020  0.8435200586243417  0.1478703771770963
  0.8683282022129829  0.8435534819881031  0.6429309813724214
  0.0231416275644502  0.1546079768601928  0.1020966379241715
  0.0359445364334629  0.1588194569804252  0.6061675690477718
  0.0345329133441408  0.6603424333668942  0.1043829464074727
  0.0348968318798704  0.6561144198406247  0.6056690191908144
  0.3711785181822491  0.1555655140526850  0.1013321271785189
  0.3687438949015562  0.1576393966809082  0.6036131912770019
  0.3706886776850811  0.6564384313255468  0.1041427930533790
  0.3691527953075279  0.6572955945053763  0.6048545637747259
  0.7039982661439960  0.1564717179680812  0.1028153373359772
  0.7010779725944669  0.1577255022123954  0.6029664449429314
  0.7026402715989578  0.6574803641176313  0.1041586865746180
  0.7019431628040012  0.6572024249932886  0.6035907282687973
  0.0333503453147275  0.4482410861222679  0.5019837399388167
  0.0312548404950300  0.9457267498945118  0.0002061088522986
  0.0344102701948193  0.9470888972916798  0.5013331086544428
  0.3686141934470309  0.4480954722401727 -0.0003136997951279
  0.3675269560727411  0.4486437249395909  0.5011705146692865
  0.3716103488437054  0.9465465946685891 -0.0002976716707363
  0.3668071196311127  0.9491252951954494  0.4996164367200901
  0.7026558757398202  0.4490296340872297  0.0000867811440033
  0.7003118877012527  0.4485183566929391  0.4997150880491945
  0.7009216751694518  0.9473465502015630 -0.0006048733027173
  0.6996298416975381  0.9490102046986751  0.4995241531816357
  0.2010096656263777  0.3466049782418261  0.3558231715563357
  0.2043959864598637  0.3411731158152675  0.8536632540956393
  0.2004722413617338  0.8368503992785733  0.3578862406469752
  0.2015263577937391  0.8422442245846701  0.8541424899265430
  0.5347061434611179  0.3428446773921238  0.3545420486279686
  0.5365623344162508  0.3436213703334796  0.8539293049543535
  0.5353402001595940  0.8431195699602695  0.3546723021447172
  0.5365164155004087  0.8428176752069467  0.8529627388544937
  0.8705277547235544  0.3419828044653500  0.3535076739769962
  0.8677586319512433  0.3420849349301514  0.8531786285537483
  0.8684493720219502  0.8433665335273096  0.3556239127485520
  0.8690242511549563  0.8431202413982548  0.8503929379230488
 
  0.00000000E+00  0.00000000E+00  0.00000000E+00
  0.00000000E+00  0.00000000E+00  0.00000000E+00
  0.00000000E+00  0.00000000E+00  0.00000000E+00
  0.00000000E+00  0.00000000E+00  0.00000000E+00
  0.00000000E+00  0.00000000E+00  0.00000000E+00
  0.00000000E+00  0.00000000E+00  0.00000000E+00
  0.00000000E+00  0.00000000E+00  0.00000000E+00
  0.00000000E+00  0.00000000E+00  0.00000000E+00
  0.00000000E+00  0.00000000E+00  0.00000000E+00
  0.00000000E+00  0.00000000E+00  0.00000000E+00
  0.00000000E+00  0.00000000E+00  0.00000000E+00
  0.00000000E+00  0.00000000E+00  0.00000000E+00
  0.00000000E+00  0.00000000E+00  0.00000000E+00
  0.00000000E+00  0.00000000E+00  0.00000000E+00
  0.00000000E+00  0.00000000E+00  0.00000000E+00
  0.00000000E+00  0.00000000E+00  0.00000000E+00
  0.00000000E+00  0.00000000E+00  0.00000000E+00
  0.00000000E+00  0.00000000E+00  0.00000000E+00
  0.00000000E+00  0.00000000E+00  0.00000000E+00
  0.00000000E+00  0.00000000E+00  0.00000000E+00
  0.00000000E+00  0.00000000E+00  0.00000000E+00
  0.00000000E+00  0.00000000E+00  0.00000000E+00
  0.00000000E+00  0.00000000E+00  0.00000000E+00
  0.00000000E+00  0.00000000E+00  0.00000000E+00
  0.00000000E+00  0.00000000E+00  0.00000000E+00
  0.00000000E+00  0.00000000E+00  0.00000000E+00
  0.00000000E+00  0.00000000E+00  0.00000000E+00
  0.00000000E+00  0.00000000E+00  0.00000000E+00
  0.00000000E+00  0.00000000E+00  0.00000000E+00
  0.00000000E+00  0.00000000E+00  0.00000000E+00
  0.00000000E+00  0.00000000E+00  0.00000000E+00
  0.00000000E+00  0.00000000E+00  0.00000000E+00
  0.00000000E+00  0.00000000E+00  0.00000000E+00
  0.00000000E+00  0.00000000E+00  0.00000000E+00
  0.00000000E+00  0.00000000E+00  0.00000000E+00
  0.00000000E+00  0.00000000E+00  0.00000000E+00
  0.00000000E+00  0.00000000E+00  0.00000000E+00
  0.00000000E+00  0.00000000E+00  0.00000000E+00
  0.00000000E+00  0.00000000E+00  0.00000000E+00
  0.00000000E+00  0.00000000E+00  0.00000000E+00
  0.00000000E+00  0.00000000E+00  0.00000000E+00
  0.00000000E+00  0.00000000E+00  0.00000000E+00
  0.00000000E+00  0.00000000E+00  0.00000000E+00
  0.00000000E+00  0.00000000E+00  0.00000000E+00
  0.00000000E+00  0.00000000E+00  0.00000000E+00
  0.00000000E+00  0.00000000E+00  0.00000000E+00
  0.00000000E+00  0.00000000E+00  0.00000000E+00
  0.00000000E+00  0.00000000E+00  0.00000000E+00
  0.00000000E+00  0.00000000E+00  0.00000000E+00
  0.00000000E+00  0.00000000E+00  0.00000000E+00
  0.00000000E+00  0.00000000E+00  0.00000000E+00
  0.00000000E+00  0.00000000E+00  0.00000000E+00
  0.00000000E+00  0.00000000E+00  0.00000000E+00
  0.00000000E+00  0.00000000E+00  0.00000000E+00
  0.00000000E+00  0.00000000E+00  0.00000000E+00
  0.00000000E+00  0.00000000E+00  0.00000000E+00
  0.00000000E+00  0.00000000E+00  0.00000000E+00
  0.00000000E+00  0.00000000E+00  0.00000000E+00
  0.00000000E+00  0.00000000E+00  0.00000000E+00
  0.00000000E+00  0.00000000E+00  0.00000000E+00
  0.00000000E+00  0.00000000E+00  0.00000000E+00
  0.00000000E+00  0.00000000E+00  0.00000000E+00
  0.00000000E+00  0.00000000E+00  0.00000000E+00
  0.00000000E+00  0.00000000E+00  0.00000000E+00
  0.00000000E+00  0.00000000E+00  0.00000000E+00
  0.00000000E+00  0.00000000E+00  0.00000000E+00
  0.00000000E+00  0.00000000E+00  0.00000000E+00
  0.00000000E+00  0.00000000E+00  0.00000000E+00
  0.00000000E+00  0.00000000E+00  0.00000000E+00
  0.00000000E+00  0.00000000E+00  0.00000000E+00
  0.00000000E+00  0.00000000E+00  0.00000000E+00
  0.00000000E+00  0.00000000E+00  0.00000000E+00
  0.00000000E+00  0.00000000E+00  0.00000000E+00
  0.00000000E+00  0.00000000E+00  0.00000000E+00
  0.00000000E+00  0.00000000E+00  0.00000000E+00
  0.00000000E+00  0.00000000E+00  0.00000000E+00
  0.00000000E+00  0.00000000E+00  0.00000000E+00
  0.00000000E+00  0.00000000E+00  0.00000000E+00
  0.00000000E+00  0.00000000E+00  0.00000000E+00
  0.00000000E+00  0.00000000E+00  0.00000000E+00
  0.00000000E+00  0.00000000E+00  0.00000000E+00
  0.00000000E+00  0.00000000E+00  0.00000000E+00
  0.00000000E+00  0.00000000E+00  0.00000000E+00
  0.00000000E+00  0.00000000E+00  0.00000000E+00
  0.00000000E+00  0.00000000E+00  0.00000000E+00
  0.00000000E+00  0.00000000E+00  0.00000000E+00
  0.00000000E+00  0.00000000E+00  0.00000000E+00
  0.00000000E+00  0.00000000E+00  0.00000000E+00
  0.00000000E+00  0.00000000E+00  0.00000000E+00
  0.00000000E+00  0.00000000E+00  0.00000000E+00
  0.00000000E+00  0.00000000E+00  0.00000000E+00
  0.00000000E+00  0.00000000E+00  0.00000000E+00
  0.00000000E+00  0.00000000E+00  0.00000000E+00
  0.00000000E+00  0.00000000E+00  0.00000000E+00
  0.00000000E+00  0.00000000E+00  0.00000000E+00
  0.00000000E+00  0.00000000E+00  0.00000000E+00
  0.00000000E+00  0.00000000E+00  0.00000000E+00
  0.00000000E+00  0.00000000E+00  0.00000000E+00
  0.00000000E+00  0.00000000E+00  0.00000000E+00
  0.00000000E+00  0.00000000E+00  0.00000000E+00
  0.00000000E+00  0.00000000E+00  0.00000000E+00
  0.00000000E+00  0.00000000E+00  0.00000000E+00
  0.00000000E+00  0.00000000E+00  0.00000000E+00
  0.00000000E+00  0.00000000E+00  0.00000000E+00
  0.00000000E+00  0.00000000E+00  0.00000000E+00
  0.00000000E+00  0.00000000E+00  0.00000000E+00
  0.00000000E+00  0.00000000E+00  0.00000000E+00
  0.00000000E+00  0.00000000E+00  0.00000000E+00
  0.00000000E+00  0.00000000E+00  0.00000000E+00
  0.00000000E+00  0.00000000E+00  0.00000000E+00
  0.00000000E+00  0.00000000E+00  0.00000000E+00
  0.00000000E+00  0.00000000E+00  0.00000000E+00
  0.00000000E+00  0.00000000E+00  0.00000000E+00
  0.00000000E+00  0.00000000E+00  0.00000000E+00
  0.00000000E+00  0.00000000E+00  0.00000000E+00
  0.00000000E+00  0.00000000E+00  0.00000000E+00
  0.00000000E+00  0.00000000E+00  0.00000000E+00
  0.00000000E+00  0.00000000E+00  0.00000000E+00
  0.00000000E+00  0.00000000E+00  0.00000000E+00
  0.00000000E+00  0.00000000E+00  0.00000000E+00
  0.00000000E+00  0.00000000E+00  0.00000000E+00
  0.00000000E+00  0.00000000E+00  0.00000000E+00
  0.00000000E+00  0.00000000E+00  0.00000000E+00
  0.00000000E+00  0.00000000E+00  0.00000000E+00
  0.00000000E+00  0.00000000E+00  0.00000000E+00
  0.00000000E+00  0.00000000E+00  0.00000000E+00
  0.00000000E+00  0.00000000E+00  0.00000000E+00
  0.00000000E+00  0.00000000E+00  0.00000000E+00
  0.00000000E+00  0.00000000E+00  0.00000000E+00
  0.00000000E+00  0.00000000E+00  0.00000000E+00
  0.00000000E+00  0.00000000E+00  0.00000000E+00
  0.00000000E+00  0.00000000E+00  0.00000000E+00
  0.00000000E+00  0.00000000E+00  0.00000000E+00
  0.00000000E+00  0.00000000E+00  0.00000000E+00
  0.00000000E+00  0.00000000E+00  0.00000000E+00
  0.00000000E+00  0.00000000E+00  0.00000000E+00
  0.00000000E+00  0.00000000E+00  0.00000000E+00
  0.00000000E+00  0.00000000E+00  0.00000000E+00
  0.00000000E+00  0.00000000E+00  0.00000000E+00
  0.00000000E+00  0.00000000E+00  0.00000000E+00
  0.00000000E+00  0.00000000E+00  0.00000000E+00
  0.00000000E+00  0.00000000E+00  0.00000000E+00
  0.00000000E+00  0.00000000E+00  0.00000000E+00
  0.00000000E+00  0.00000000E+00  0.00000000E+00
  0.00000000E+00  0.00000000E+00  0.00000000E+00
  0.00000000E+00  0.00000000E+00  0.00000000E+00
  0.00000000E+00  0.00000000E+00  0.00000000E+00
  0.00000000E+00  0.00000000E+00  0.00000000E+00
  0.00000000E+00  0.00000000E+00  0.00000000E+00
  0.00000000E+00  0.00000000E+00  0.00000000E+00
  0.00000000E+00  0.00000000E+00  0.00000000E+00
  0.00000000E+00  0.00000000E+00  0.00000000E+00
  0.00000000E+00  0.00000000E+00  0.00000000E+00
  0.00000000E+00  0.00000000E+00  0.00000000E+00
  0.00000000E+00  0.00000000E+00  0.00000000E+00
  0.00000000E+00  0.00000000E+00  0.00000000E+00
  0.00000000E+00  0.00000000E+00  0.00000000E+00
  0.00000000E+00  0.00000000E+00  0.00000000E+00
  0.00000000E+00  0.00000000E+00  0.00000000E+00
  0.00000000E+00  0.00000000E+00  0.00000000E+00
  0.00000000E+00  0.00000000E+00  0.00000000E+00
  0.00000000E+00  0.00000000E+00  0.00000000E+00
  0.00000000E+00  0.00000000E+00  0.00000000E+00
  0.00000000E+00  0.00000000E+00  0.00000000E+00
  0.00000000E+00  0.00000000E+00  0.00000000E+00
  0.00000000E+00  0.00000000E+00  0.00000000E+00
  0.00000000E+00  0.00000000E+00  0.00000000E+00
  0.00000000E+00  0.00000000E+00  0.00000000E+00
  0.00000000E+00  0.00000000E+00  0.00000000E+00
  0.00000000E+00  0.00000000E+00  0.00000000E+00
  0.00000000E+00  0.00000000E+00  0.00000000E+00
  0.00000000E+00  0.00000000E+00  0.00000000E+00
  0.00000000E+00  0.00000000E+00  0.00000000E+00
  0.00000000E+00  0.00000000E+00  0.00000000E+00
  0.00000000E+00  0.00000000E+00  0.00000000E+00
  0.00000000E+00  0.00000000E+00  0.00000000E+00
  0.00000000E+00  0.00000000E+00  0.00000000E+00
  0.00000000E+00  0.00000000E+00  0.00000000E+00
  0.00000000E+00  0.00000000E+00  0.00000000E+00
  0.00000000E+00  0.00000000E+00  0.00000000E+00
  0.00000000E+00  0.00000000E+00  0.00000000E+00
  0.00000000E+00  0.00000000E+00  0.00000000E+00
  0.00000000E+00  0.00000000E+00  0.00000000E+00
  0.00000000E+00  0.00000000E+00  0.00000000E+00
  0.00000000E+00  0.00000000E+00  0.00000000E+00
  0.00000000E+00  0.00000000E+00  0.00000000E+00
  0.00000000E+00  0.00000000E+00  0.00000000E+00
  0.00000000E+00  0.00000000E+00  0.00000000E+00
  0.00000000E+00  0.00000000E+00  0.00000000E+00
  0.00000000E+00  0.00000000E+00  0.00000000E+00
