Li71 P24 N1 O94                         
   1.00000000000000     
    14.7246990810314404   -0.0003018728403945   -0.0094434614826428
    -0.0002263334044908   10.5582654815521462   -0.0167208345313875
    -0.0078766076277380   -0.0194560561547668   12.3259927401103049
   Li   P    N    O 
    71    24     1    94
Direct
  0.1698748913574973  0.4236127389497177 -0.0017480831665735
  0.1686102883294043  0.4204626803246902  0.4975638240778517
  0.1735532380211662  0.9188084030093858  0.0009985163621917
  0.1685919234670281  0.9229287097066311  0.4974177068105983
  0.5028224851181085  0.4224219301600948 -0.0006605256712517
  0.5033905306573322  0.4218385305345188  0.4997590081491819
  0.5032913998571877  0.9221096934174797 -0.0001504748671538
  0.5043416973618025  0.9223043384498710  0.5000200734832169
  0.8345813169557279  0.4231788968745419 -0.0009763924765986
  0.8364990439562601  0.4231518925656107  0.4997084181084649
  0.8330707763976642  0.9199852134485992  0.0027105462519441
  0.8359811017275599  0.9203521868749399  0.4996678987471642
  0.0017181411858101  0.0734698590703689  0.7481589405046112
  0.0033634541157278  0.5848831117131089  0.2520607603075798
  0.0030409819147396  0.5772121604252076  0.7480878539340966
  0.3389202185116603  0.0739138916616067  0.2538602907062575
  0.3371848778131483  0.0769998194150415  0.7485480366072103
  0.3368801796352929  0.5788007476760966  0.2502814848033140
  0.3363902203613517  0.5776056582954660  0.7490737685377803
  0.6745122757426374  0.0746338926353409  0.2513275114848192
  0.6688071966977763  0.0768207711509281  0.7499520574842804
  0.6693529570788552  0.5795757305817180  0.2500834555093936
  0.6691929130894021  0.5774771674519888  0.7495383090358420
  0.1939604052304437  0.1625266782724156  0.1334230373475518
  0.1691556639670690  0.1615551896814383  0.6248738532442852
  0.1698969365027292  0.6649001494173332  0.1257183289452070
  0.1694778974803826  0.6625344282946748  0.6250190091569525
  0.5027837937781794  0.1628154174234755  0.1273717215771052
  0.5034439625513396  0.1632003704173910  0.6263002473486370
  0.5029379388168046  0.6626360505056157  0.1261222628323314
  0.5024444071092944  0.6630508871574328  0.6261540997918476
  0.8342314071546687  0.1639486293296026  0.1308275269326804
  0.8354406628039769  0.1622977386622883  0.6273301039343834
  0.8355572065544071  0.6651126878833592  0.1261392773814882
  0.8359403885504766  0.6630264691148002  0.6266172000356797
 -0.0022075722654837  0.3578842071548608  0.1271640930716088
  0.0026855026445845  0.3356711680460022  0.6211904868898174
  0.0004607194122630  0.8407978731779725  0.1286211716518520
  0.0024655032022911  0.8354075537382741  0.6244040793149814
  0.3373728601778577  0.3396890733103318  0.1230297014207922
  0.3362060399336000  0.3362380492195227  0.6229323379154268
  0.3381186225163740  0.8361025032900962  0.1240375501804092
  0.3361451885964217  0.8364259447560236  0.6226092322918862
  0.6683135025653526  0.3372905651248941  0.1232142345528383
  0.6694798567510715  0.3360410781534904  0.6235216404580979
  0.6676809692330878  0.8348766260696460  0.1226707212093296
  0.6695872317301251  0.8364664468125657  0.6241278445492046
  0.0005251182757439  0.3417093187649780  0.3739924023134661
  0.0018894112300564  0.3402018477691829  0.8736470425261932
  0.0015593138535443  0.8445160666282261  0.3736838573749230
  0.0021594145401097  0.8320761288739487  0.8738431813351825
  0.3370340056080278  0.3362790283099798  0.3760897838225032
  0.3362007895779211  0.3373510866993340  0.8751440348701111
  0.3378389087063359  0.8360260879121503  0.3768971883806709
  0.3370062614161906  0.8359000698851017  0.8754551232476581
  0.6705843177892041  0.3361080551632261  0.3758300862666304
  0.6683680416826524  0.3368077274083707  0.8753420795417866
  0.6688166017175237  0.8347892384484489  0.3774570741134959
  0.6683125474097186  0.8361960152457127  0.8764504288121960
  0.1710942984489423  0.1606396988549900  0.3715176841966769
  0.1725012685559592  0.1632534533040340  0.8710197501053649
  0.1698098821409701  0.6647476678938904  0.3735607487276384
  0.1700164339600864  0.6625576031405424  0.8726166515256836
  0.5045805085313596  0.1628869443991049  0.3738140395409486
  0.5026148912762780  0.1636620989115805  0.8731707734810564
  0.5030439618834217  0.6627119767866428  0.3741164447582998
  0.5025627198093758  0.6631394926914660  0.8733586337576323
  0.8413166736254666  0.1619671728184599  0.3745017553858245
  0.8329115469059005  0.1656788369719164  0.8726626974058010
  0.8359476938430831  0.6652567294282584  0.3737534936308953
  0.8351579559452816  0.6630276325371361  0.8734422315458141
  0.1674188870281692  0.4138919384653276  0.2488053782782080
  0.1669419865095884  0.4118391424927648  0.7486201169103871
  0.1692008530286047  0.9089943573669077  0.2495389651466617
  0.1677012377767884  0.9110328566053277  0.7499714550139780
  0.5004650267344739  0.4124380136715989  0.2497356515160108
  0.5001558090686655  0.4123407573125243  0.7495668786683851
  0.5013940021643981  0.9114551036702322  0.2500090427572761
  0.5002480331416419  0.9118580257470442  0.7498848287095328
  0.8326739124161053  0.4141304055790815  0.2499480873289403
  0.8334270671026451  0.4121916316482839  0.7495125597441552
  0.8296743098170060  0.9127283416081462  0.2498351292706422
  0.8330968802173353  0.9116827072767665  0.7521612006730072
  0.0001855784515167  0.0855471669499298 -0.0063091037026002
 -0.0004418775482516  0.0859035729504283  0.5054376174631771
 -0.0001563241369819  0.5889282378896696 -0.0007618239216618
  0.0002783826862236  0.5898981133096325  0.5002114706172616
  0.3336090388969827  0.0873822174862122 -0.0008631893786750
  0.3354026354372476  0.0871446158207698  0.5006035265167861
  0.3338483640458593  0.5877216429732312 -0.0006169586999765
  0.3339326392079219  0.5867535226045838  0.4997625404725905
  0.6657411574101691  0.0883861624270180 -0.0000842300657225
  0.6673908458072468  0.0874417717062862  0.5009502590314193
  0.6665133625418838  0.5872930379317217 -0.0007807886508798
  0.6669629148125538  0.5869939106317457  0.5005835628888008
  0.0421014340885164  0.1717484247107448  0.4099995035877684
  0.0367150536555047  0.1584147002019631  0.8932520549415967
  0.0355537293896405  0.6599096314881990  0.3972125746541075
  0.0355123364747786  0.6559035027059275  0.8949732272905991
  0.3706352492614797  0.1565720886492751  0.3969594675762922
  0.3687009850696392  0.1574006970719357  0.8962328499598226
  0.3697708490426655  0.6557709255199079  0.3964602883577033
  0.3690768344445794  0.6565063449450611  0.8956599213010186
  0.7030307086665084  0.1569941960443092  0.3981414116271574
  0.7010155511077025  0.1569536225852029  0.8958844982656683
  0.7023019438231300  0.6557013840393766  0.3970143977038658
  0.7017298512606766  0.6564802494165832  0.8955717713218501
  0.2041287370311620  0.0491979945885787  0.2496104097543149
  0.2015668082106897  0.0510478481876122  0.7498454703015228
  0.2021956130908824  0.5532618332477761  0.2478485500687629
  0.2009924353998563  0.5517224719966755  0.7490780159492955
  0.5352205824185254  0.0515141400176741  0.2499569776586934
  0.5337836750048258  0.0520361034146077  0.7502867268714898
  0.5341844136646620  0.5525027739249939  0.2497795216623699
  0.5338505607721269  0.5524211935842045  0.7499372236615620
  0.8537208884078950  0.0546337294118285  0.2498637200821406
  0.8669372226840997  0.0518853092689788  0.7532270320274167
  0.8673426402662534  0.5538263024014938  0.2490336353890426
  0.8673977193981239  0.5521203367788288  0.7502157902928706
  0.0615740303521622  0.4146374395773645  0.2492401868937326
  0.0611273885176643  0.4096599675846607  0.7487690892061730
  0.0651204795567338  0.9007485342900895  0.2491467079064916
  0.0617379367689381  0.9082314767772099  0.7516927389106803
  0.3946431942349800  0.4098380047993897  0.2499931651463644
  0.3943855370653018  0.4094609149182968  0.7494141583928756
  0.3956451440286541  0.9087322300886753  0.2503466756235003
  0.3944742472158481  0.9089023805363311  0.7495871936282108
  0.7270324278364438  0.4113578658965563  0.2484257299437057
  0.7277055648825298  0.4093003589735824  0.7499911983091413
  0.7238593992501152  0.8996110911365525  0.2496884509206806
  0.7274178460472369  0.9088266286836292  0.7515924523696930
  0.2274146504846620  0.0893144354467255 -0.0016584077732577
  0.2299155999081463  0.0891468330881815  0.5004367607253720
  0.2280250615525196  0.5907123362196387 -0.0007780034425114
  0.2281586867929158  0.5889763526505083  0.4990817315738227
  0.5599658150944201  0.0910316572497378 -0.0002592472833748
  0.5615249419332695  0.0905614064506972  0.5004795472297936
  0.5607604914581011  0.5902891571737676 -0.0006836068433407
  0.5611514004565500  0.5901126289013943  0.5004323531911279
  0.8952377591203462  0.0934422160505633  0.0013521039933861
  0.8933030376491281  0.0850246571723020  0.5043115053321600
  0.8941129386893238  0.5908585528034886 -0.0007519668669781
  0.8943713134373995  0.5922901926285424  0.5000924364378057
  0.2001508110597940  0.3429329978669543  0.1436902887618258
  0.2020107922622841  0.3419659598460846  0.6450873889777781
  0.2066245005767107  0.8417733518451199  0.1448605773783126
  0.2021601930957036  0.8420272707785597  0.6458510855687769
  0.5348493883876346  0.3431744847134279  0.1453265777031671
  0.5357971598336125  0.3430580578575372  0.6459828155765351
  0.5352758653811286  0.8421952238629186  0.1454008182262310
  0.5359568920795791  0.8425392044577643  0.6463661270519137
  0.8688645553545598  0.3441907236631244  0.1459868254274986
  0.8686658079733420  0.3429375385869718  0.6457980186262244
  0.8672277702723534  0.8451654291012100  0.1454127426481467
  0.8687800994612719  0.8420250154762583  0.6490421427555939
  0.0337802441431606  0.1530924707805960  0.6121237956201718
  0.0351750017270241  0.6584929397397276  0.1026618354390978
  0.0353900218956663  0.6577333829466897  0.6050556883958956
  0.3658628289990037  0.1573024314813312  0.1045582246788919
  0.3703513707876012  0.1569102514121821  0.6046405841442853
  0.3697021322240269  0.6562138238372275  0.1032489353156496
  0.3687491489438541  0.6564007314777589  0.6039026628463294
  0.7012714512745515  0.1581039306301895  0.1032001177841578
  0.7020495119478882  0.1558660947448673  0.6058381905833862
  0.7020755073613028  0.6562548248692539  0.1029594764794610
  0.7022628642457591  0.6564046141779082  0.6045856790352676
  0.0334744951389607  0.4480873836547077 -0.0004652243118061
  0.0340692987112974  0.4500655875184558  0.4996877117917541
  0.0356843772676707  0.9475447739328607 -0.0003957059701545
  0.0325066721919677  0.9448205010643457  0.5033786501005569
  0.3671829596252909  0.4473355315470610 -0.0009653653069649
  0.3680801948126665  0.4468459869653023  0.5000127518369595
  0.3679985690451519  0.9480137124727215 -0.0006011476976214
  0.3699275710482977  0.9474199395238664  0.5005056405187330
  0.7000563456359037  0.4470834328883700 -0.0011706125901941
  0.7005218813923058  0.4468724898963398  0.5005788457729516
  0.6994847208653721  0.9482492418975705 -0.0001364132813612
  0.7003588817239980  0.9469105270301352  0.5008535532668009
  0.2042398508597847  0.3442326037477149  0.3507719863943622
  0.2020330916602143  0.3429918146271768  0.8527914079603246
  0.2065608635231611  0.8418134578501110  0.3536634371234141
  0.2033202928880971  0.8419929002966525  0.8536670036167889
  0.5361663810315676  0.3432075781868885  0.3530667311086274
  0.5351610940292160  0.3432855773396872  0.8535013727285750
  0.5361612424958261  0.8420569205980246  0.3536889439800641
  0.5351818092511760  0.8429741108104591  0.8539244433319628
  0.8670413654088405  0.3459237579935059  0.3538515261071188
  0.8687288826495438  0.3429659324703239  0.8534950208878777
  0.8676594487642246  0.8443798149486268  0.3527516479392320
  0.8685575820230444  0.8435375029074653  0.8566080918224181
 
  0.00000000E+00  0.00000000E+00  0.00000000E+00
  0.00000000E+00  0.00000000E+00  0.00000000E+00
  0.00000000E+00  0.00000000E+00  0.00000000E+00
  0.00000000E+00  0.00000000E+00  0.00000000E+00
  0.00000000E+00  0.00000000E+00  0.00000000E+00
  0.00000000E+00  0.00000000E+00  0.00000000E+00
  0.00000000E+00  0.00000000E+00  0.00000000E+00
  0.00000000E+00  0.00000000E+00  0.00000000E+00
  0.00000000E+00  0.00000000E+00  0.00000000E+00
  0.00000000E+00  0.00000000E+00  0.00000000E+00
  0.00000000E+00  0.00000000E+00  0.00000000E+00
  0.00000000E+00  0.00000000E+00  0.00000000E+00
  0.00000000E+00  0.00000000E+00  0.00000000E+00
  0.00000000E+00  0.00000000E+00  0.00000000E+00
  0.00000000E+00  0.00000000E+00  0.00000000E+00
  0.00000000E+00  0.00000000E+00  0.00000000E+00
  0.00000000E+00  0.00000000E+00  0.00000000E+00
  0.00000000E+00  0.00000000E+00  0.00000000E+00
  0.00000000E+00  0.00000000E+00  0.00000000E+00
  0.00000000E+00  0.00000000E+00  0.00000000E+00
  0.00000000E+00  0.00000000E+00  0.00000000E+00
  0.00000000E+00  0.00000000E+00  0.00000000E+00
  0.00000000E+00  0.00000000E+00  0.00000000E+00
  0.00000000E+00  0.00000000E+00  0.00000000E+00
  0.00000000E+00  0.00000000E+00  0.00000000E+00
  0.00000000E+00  0.00000000E+00  0.00000000E+00
  0.00000000E+00  0.00000000E+00  0.00000000E+00
  0.00000000E+00  0.00000000E+00  0.00000000E+00
  0.00000000E+00  0.00000000E+00  0.00000000E+00
  0.00000000E+00  0.00000000E+00  0.00000000E+00
  0.00000000E+00  0.00000000E+00  0.00000000E+00
  0.00000000E+00  0.00000000E+00  0.00000000E+00
  0.00000000E+00  0.00000000E+00  0.00000000E+00
  0.00000000E+00  0.00000000E+00  0.00000000E+00
  0.00000000E+00  0.00000000E+00  0.00000000E+00
  0.00000000E+00  0.00000000E+00  0.00000000E+00
  0.00000000E+00  0.00000000E+00  0.00000000E+00
  0.00000000E+00  0.00000000E+00  0.00000000E+00
  0.00000000E+00  0.00000000E+00  0.00000000E+00
  0.00000000E+00  0.00000000E+00  0.00000000E+00
  0.00000000E+00  0.00000000E+00  0.00000000E+00
  0.00000000E+00  0.00000000E+00  0.00000000E+00
  0.00000000E+00  0.00000000E+00  0.00000000E+00
  0.00000000E+00  0.00000000E+00  0.00000000E+00
  0.00000000E+00  0.00000000E+00  0.00000000E+00
  0.00000000E+00  0.00000000E+00  0.00000000E+00
  0.00000000E+00  0.00000000E+00  0.00000000E+00
  0.00000000E+00  0.00000000E+00  0.00000000E+00
  0.00000000E+00  0.00000000E+00  0.00000000E+00
  0.00000000E+00  0.00000000E+00  0.00000000E+00
  0.00000000E+00  0.00000000E+00  0.00000000E+00
  0.00000000E+00  0.00000000E+00  0.00000000E+00
  0.00000000E+00  0.00000000E+00  0.00000000E+00
  0.00000000E+00  0.00000000E+00  0.00000000E+00
  0.00000000E+00  0.00000000E+00  0.00000000E+00
  0.00000000E+00  0.00000000E+00  0.00000000E+00
  0.00000000E+00  0.00000000E+00  0.00000000E+00
  0.00000000E+00  0.00000000E+00  0.00000000E+00
  0.00000000E+00  0.00000000E+00  0.00000000E+00
  0.00000000E+00  0.00000000E+00  0.00000000E+00
  0.00000000E+00  0.00000000E+00  0.00000000E+00
  0.00000000E+00  0.00000000E+00  0.00000000E+00
  0.00000000E+00  0.00000000E+00  0.00000000E+00
  0.00000000E+00  0.00000000E+00  0.00000000E+00
  0.00000000E+00  0.00000000E+00  0.00000000E+00
  0.00000000E+00  0.00000000E+00  0.00000000E+00
  0.00000000E+00  0.00000000E+00  0.00000000E+00
  0.00000000E+00  0.00000000E+00  0.00000000E+00
  0.00000000E+00  0.00000000E+00  0.00000000E+00
  0.00000000E+00  0.00000000E+00  0.00000000E+00
  0.00000000E+00  0.00000000E+00  0.00000000E+00
  0.00000000E+00  0.00000000E+00  0.00000000E+00
  0.00000000E+00  0.00000000E+00  0.00000000E+00
  0.00000000E+00  0.00000000E+00  0.00000000E+00
  0.00000000E+00  0.00000000E+00  0.00000000E+00
  0.00000000E+00  0.00000000E+00  0.00000000E+00
  0.00000000E+00  0.00000000E+00  0.00000000E+00
  0.00000000E+00  0.00000000E+00  0.00000000E+00
  0.00000000E+00  0.00000000E+00  0.00000000E+00
  0.00000000E+00  0.00000000E+00  0.00000000E+00
  0.00000000E+00  0.00000000E+00  0.00000000E+00
  0.00000000E+00  0.00000000E+00  0.00000000E+00
  0.00000000E+00  0.00000000E+00  0.00000000E+00
  0.00000000E+00  0.00000000E+00  0.00000000E+00
  0.00000000E+00  0.00000000E+00  0.00000000E+00
  0.00000000E+00  0.00000000E+00  0.00000000E+00
  0.00000000E+00  0.00000000E+00  0.00000000E+00
  0.00000000E+00  0.00000000E+00  0.00000000E+00
  0.00000000E+00  0.00000000E+00  0.00000000E+00
  0.00000000E+00  0.00000000E+00  0.00000000E+00
  0.00000000E+00  0.00000000E+00  0.00000000E+00
  0.00000000E+00  0.00000000E+00  0.00000000E+00
  0.00000000E+00  0.00000000E+00  0.00000000E+00
  0.00000000E+00  0.00000000E+00  0.00000000E+00
  0.00000000E+00  0.00000000E+00  0.00000000E+00
  0.00000000E+00  0.00000000E+00  0.00000000E+00
  0.00000000E+00  0.00000000E+00  0.00000000E+00
  0.00000000E+00  0.00000000E+00  0.00000000E+00
  0.00000000E+00  0.00000000E+00  0.00000000E+00
  0.00000000E+00  0.00000000E+00  0.00000000E+00
  0.00000000E+00  0.00000000E+00  0.00000000E+00
  0.00000000E+00  0.00000000E+00  0.00000000E+00
  0.00000000E+00  0.00000000E+00  0.00000000E+00
  0.00000000E+00  0.00000000E+00  0.00000000E+00
  0.00000000E+00  0.00000000E+00  0.00000000E+00
  0.00000000E+00  0.00000000E+00  0.00000000E+00
  0.00000000E+00  0.00000000E+00  0.00000000E+00
  0.00000000E+00  0.00000000E+00  0.00000000E+00
  0.00000000E+00  0.00000000E+00  0.00000000E+00
  0.00000000E+00  0.00000000E+00  0.00000000E+00
  0.00000000E+00  0.00000000E+00  0.00000000E+00
  0.00000000E+00  0.00000000E+00  0.00000000E+00
  0.00000000E+00  0.00000000E+00  0.00000000E+00
  0.00000000E+00  0.00000000E+00  0.00000000E+00
  0.00000000E+00  0.00000000E+00  0.00000000E+00
  0.00000000E+00  0.00000000E+00  0.00000000E+00
  0.00000000E+00  0.00000000E+00  0.00000000E+00
  0.00000000E+00  0.00000000E+00  0.00000000E+00
  0.00000000E+00  0.00000000E+00  0.00000000E+00
  0.00000000E+00  0.00000000E+00  0.00000000E+00
  0.00000000E+00  0.00000000E+00  0.00000000E+00
  0.00000000E+00  0.00000000E+00  0.00000000E+00
  0.00000000E+00  0.00000000E+00  0.00000000E+00
  0.00000000E+00  0.00000000E+00  0.00000000E+00
  0.00000000E+00  0.00000000E+00  0.00000000E+00
  0.00000000E+00  0.00000000E+00  0.00000000E+00
  0.00000000E+00  0.00000000E+00  0.00000000E+00
  0.00000000E+00  0.00000000E+00  0.00000000E+00
  0.00000000E+00  0.00000000E+00  0.00000000E+00
  0.00000000E+00  0.00000000E+00  0.00000000E+00
  0.00000000E+00  0.00000000E+00  0.00000000E+00
  0.00000000E+00  0.00000000E+00  0.00000000E+00
  0.00000000E+00  0.00000000E+00  0.00000000E+00
  0.00000000E+00  0.00000000E+00  0.00000000E+00
  0.00000000E+00  0.00000000E+00  0.00000000E+00
  0.00000000E+00  0.00000000E+00  0.00000000E+00
  0.00000000E+00  0.00000000E+00  0.00000000E+00
  0.00000000E+00  0.00000000E+00  0.00000000E+00
  0.00000000E+00  0.00000000E+00  0.00000000E+00
  0.00000000E+00  0.00000000E+00  0.00000000E+00
  0.00000000E+00  0.00000000E+00  0.00000000E+00
  0.00000000E+00  0.00000000E+00  0.00000000E+00
  0.00000000E+00  0.00000000E+00  0.00000000E+00
  0.00000000E+00  0.00000000E+00  0.00000000E+00
  0.00000000E+00  0.00000000E+00  0.00000000E+00
  0.00000000E+00  0.00000000E+00  0.00000000E+00
  0.00000000E+00  0.00000000E+00  0.00000000E+00
  0.00000000E+00  0.00000000E+00  0.00000000E+00
  0.00000000E+00  0.00000000E+00  0.00000000E+00
  0.00000000E+00  0.00000000E+00  0.00000000E+00
  0.00000000E+00  0.00000000E+00  0.00000000E+00
  0.00000000E+00  0.00000000E+00  0.00000000E+00
  0.00000000E+00  0.00000000E+00  0.00000000E+00
  0.00000000E+00  0.00000000E+00  0.00000000E+00
  0.00000000E+00  0.00000000E+00  0.00000000E+00
  0.00000000E+00  0.00000000E+00  0.00000000E+00
  0.00000000E+00  0.00000000E+00  0.00000000E+00
  0.00000000E+00  0.00000000E+00  0.00000000E+00
  0.00000000E+00  0.00000000E+00  0.00000000E+00
  0.00000000E+00  0.00000000E+00  0.00000000E+00
  0.00000000E+00  0.00000000E+00  0.00000000E+00
  0.00000000E+00  0.00000000E+00  0.00000000E+00
  0.00000000E+00  0.00000000E+00  0.00000000E+00
  0.00000000E+00  0.00000000E+00  0.00000000E+00
  0.00000000E+00  0.00000000E+00  0.00000000E+00
  0.00000000E+00  0.00000000E+00  0.00000000E+00
  0.00000000E+00  0.00000000E+00  0.00000000E+00
  0.00000000E+00  0.00000000E+00  0.00000000E+00
  0.00000000E+00  0.00000000E+00  0.00000000E+00
  0.00000000E+00  0.00000000E+00  0.00000000E+00
  0.00000000E+00  0.00000000E+00  0.00000000E+00
  0.00000000E+00  0.00000000E+00  0.00000000E+00
  0.00000000E+00  0.00000000E+00  0.00000000E+00
  0.00000000E+00  0.00000000E+00  0.00000000E+00
  0.00000000E+00  0.00000000E+00  0.00000000E+00
  0.00000000E+00  0.00000000E+00  0.00000000E+00
  0.00000000E+00  0.00000000E+00  0.00000000E+00
  0.00000000E+00  0.00000000E+00  0.00000000E+00
  0.00000000E+00  0.00000000E+00  0.00000000E+00
  0.00000000E+00  0.00000000E+00  0.00000000E+00
  0.00000000E+00  0.00000000E+00  0.00000000E+00
  0.00000000E+00  0.00000000E+00  0.00000000E+00
  0.00000000E+00  0.00000000E+00  0.00000000E+00
  0.00000000E+00  0.00000000E+00  0.00000000E+00
  0.00000000E+00  0.00000000E+00  0.00000000E+00
  0.00000000E+00  0.00000000E+00  0.00000000E+00
  0.00000000E+00  0.00000000E+00  0.00000000E+00
  0.00000000E+00  0.00000000E+00  0.00000000E+00
  0.00000000E+00  0.00000000E+00  0.00000000E+00
  0.00000000E+00  0.00000000E+00  0.00000000E+00
