Li71 P24 N1 O94                         
   1.00000000000000     
    14.7517595363959124    0.0088721420401902    0.0117452395227728
     0.0063529844208024   10.5836736457689131    0.0011702081965088
     0.0098350527003032    0.0013434210893285   12.2935445174488596
   Li   P    N    O 
    71    24     1    94
Direct
  0.2014882653101582  0.4137561930533085  0.0013557164239006
  0.1716228667480033  0.4225211722700078  0.4996240632130529
  0.1690694362895863  0.9324444594941955  0.0086715410112762
  0.1709045572042746  0.9242657982591733  0.4988013074389992
  0.5011961388871663  0.4218290128735118  0.0004228608168391
  0.5032553010562699  0.4224756516864969  0.5002045757278593
  0.5032311030743654  0.9231994775942401  0.0001767803169869
  0.5021338533410331  0.9232237935643486  0.4996565654123067
  0.8315394869772401  0.4209243237053216  0.0000510784843222
  0.8356120028959939  0.4214836614363353  0.4993678992880388
  0.8347371873054147  0.9206136259558330 -0.0011944495054258
  0.8370286750762549  0.9231496717128905  0.4994857003598528
  0.0115007868422451  0.0772318169243430  0.2484645968422808
  0.0035665679687822  0.0734285915783879  0.7481720381380237
 -0.0010136440868639  0.5828772127070921  0.2483417494055517
  0.0023067011391393  0.5774232075674184  0.7461783750507593
  0.3323135611707642  0.0784195992216203  0.2458511587618548
  0.3361849108029848  0.0771978987500522  0.7509207807375283
  0.3394477659117271  0.5794152121465148  0.2522432349052424
  0.3367940036441008  0.5776736815759517  0.7499217594762750
  0.6699100385725105  0.0769095196168855  0.2498794242610154
  0.6690147576555633  0.0762568033714367  0.7492452089659363
  0.6680756664577192  0.5782439586723392  0.2507874287853201
  0.6681304777648422  0.5776245118320715  0.7494170808423042
  0.1696602125723552  0.1628727187250877  0.6261800132319844
  0.1733721339985478  0.6653238766707530  0.1307122173606224
  0.1700461664014547  0.6640489743381426  0.6261973792864954
  0.5022012668476401  0.1622711755049455  0.1261411889019074
  0.5021318111380930  0.1629018075897631  0.6262529076946460
  0.5029122143261862  0.6643422657055934  0.1266116126426548
  0.5024762205433640  0.6637698390587721  0.6262045229256892
  0.8371336167734118  0.1599200767070237  0.1243333775163167
  0.8362889866875279  0.1626370200589532  0.6255345731711621
  0.8320679581146789  0.6653377559741924  0.1288930072423093
  0.8355465187222189  0.6629872747325491  0.6250513844966585
 -0.0068208638342794  0.3168784658302157  0.1454577066143017
  0.0043375470300231  0.3365129746048676  0.6211095727317199
  0.0028759120058298  0.8458578864343886  0.1263579630300654
  0.0035539976541567  0.8354116783574613  0.6225506191124955
  0.3370433242749677  0.3303058190033479  0.1270062628592957
  0.3363004791948328  0.3360480441082834  0.6233441141789416
  0.3365930117621665  0.8391673593304420  0.1232624087330029
  0.3361703624146779  0.8372834392615789  0.6234219547886531
  0.6685819571819602  0.3355859468428252  0.1239284118752629
  0.6688824008215969  0.3361090245693909  0.6234619973387099
  0.6688167978572424  0.8376547296716294  0.1239498924741766
  0.6691395987027827  0.8366705790720858  0.6232572688792478
  0.0011268958546184  0.3320710532596143  0.3764956354807072
 -0.0033762443717515  0.3190408219814033  0.8571132219114650
  0.0038975352391980  0.8371957463537255  0.3767449742156910
  0.0028088239773887  0.8434881474893414  0.8752733441325542
  0.3387517541489225  0.3373121251948079  0.3776893838887200
  0.3394667332589283  0.3321106334966860  0.8738177920713637
  0.3351389938113839  0.8370500281139513  0.3763661293415438
  0.3360615831722714  0.8388607317541106  0.8774401181544328
  0.6687258503815970  0.3360438355093965  0.3771011266863285
  0.6677675564450229  0.3362333731740841  0.8759737890521943
  0.6692644650822186  0.8371880147372657  0.3766295951135157
  0.6685278535557232  0.8370459895985235  0.8759119935606067
  0.1715605610306626  0.1665456273019306  0.3682654017170457
  0.1683791587012118  0.1613737675904618  0.8782409349620055
  0.1698571614118650  0.6632524548286485  0.3768703836340915
  0.1721406031729653  0.6661644604317308  0.8736548188414675
  0.5025352898671188  0.1625994808149946  0.3731415235739179
  0.5036360165508296  0.1623597423766576  0.8735657840402933
  0.5030566569688307  0.6639635800028688  0.3745698814741606
  0.5021946944667564  0.6641077320262502  0.8731406891428283
  0.8364577053115376  0.1620540755102568  0.3725787202145899
  0.8328392460505833  0.1611015125058723  0.8709513334000875
  0.8354576358425866  0.6637468706104419  0.3745604846003254
  0.8327914974510330  0.6644288753511939  0.8703052971711386
  0.1724825833683909  0.4193502043150131  0.2520278615014456
  0.1672095756189772  0.4126514427220282  0.7510313750485889
  0.1691214593377539  0.9110365298258041  0.2538992484389019
  0.1672928205687664  0.9121127132853941  0.7498807896707829
  0.5008534636127893  0.4122270924953918  0.2500851107596357
  0.5002574321170289  0.4123755282438862  0.7497476963614931
  0.5007556313109096  0.9122633119467537  0.2502928070204639
  0.5005124393250215  0.9119283828480096  0.7495133740444546
  0.8311072013577712  0.4134634204729851  0.2496307976082108
  0.8331512437363080  0.4128129387775747  0.7498055289077352
  0.8341609504210147  0.9119461642160542  0.2502786470212130
  0.8338398327427826  0.9109058328042506  0.7487608648506837
 -0.0045871428812220  0.0873213801349264 -0.0004144543220306
  0.0007841373193204  0.0876997972813703  0.5001843596306924
 -0.0014501929142112  0.5987150738764569 -0.0003479314229037
 -0.0000773044951511  0.5862594343094872  0.4986346942167079
  0.3350127310989337  0.0868934685111684 -0.0018214001307166
  0.3337372587478953  0.0887946417736740  0.4998021165788421
  0.3334880111868256  0.5892759226085803  0.0000551415056555
  0.3347120958875457  0.5880379333253420  0.5016280844720274
  0.6671152916071393  0.0875806164216951 -0.0003475683883481
  0.6673758472531097  0.0878196779340018  0.5000137711544842
  0.6655783439274665  0.5877990273511187 -0.0003307544614975
  0.6670426212627421  0.5876708069605000  0.5004116448599324
  0.0624176368610497  0.4142955176959578  0.2472287192977291
  0.0364360072239638  0.1569101275739915  0.3967553336679659
  0.0329502998963218  0.1557699123947370  0.8955238687748394
  0.0342800314543590  0.6559277555169718  0.3948194100062006
  0.0355009326760350  0.6581443899460440  0.8929554424757573
  0.3700246108738386  0.1578327226388912  0.3963733189237357
  0.3727522207991157  0.1562416970187553  0.8942897242973040
  0.3706001033549916  0.6575461282281385  0.3982890223019974
  0.3690617049643873  0.6565156334097415  0.8955264391615307
  0.7028186993212303  0.1568291021825665  0.3959700865788218
  0.7014188290286859  0.1567745218703201  0.8949245522596987
  0.7022758955206062  0.6570749606247838  0.3965074159294948
  0.7013131726857048  0.6566492867397377  0.8955961467603757
  0.2040276302849092  0.0471968826601365  0.2590631886317615
  0.1995762858378149  0.0522538578577967  0.7494735031368918
  0.2070712633655523  0.5592063927586167  0.2560289401410980
  0.2001516568413126  0.5523561555156463  0.7511204826796977
  0.5352282146113183  0.0516402250820905  0.2500948828194483
  0.5347402487659934  0.0513762366731854  0.7493671915760554
  0.5341275933320920  0.5522423410587767  0.2502132848822058
  0.5339216669673155  0.5520774993708504  0.7497430849718169
  0.8681060859882948  0.0511579042550259  0.2497703680354971
  0.8677002562855641  0.0504850699902786  0.7483758217554068
  0.8643539049864810  0.5533451664314339  0.2493491306163195
  0.8670849359631609  0.5523223159244550  0.7501043080974930
  0.0610275545165767  0.4100237309508324  0.7520304265153628
  0.0629027805449778  0.9081103003711746  0.2518163770092102
  0.0614064239084894  0.9079510801203409  0.7491213293733789
  0.3954656635540941  0.4095762912356071  0.2502911149393033
  0.3947045893350609  0.4097495504818638  0.7493188213105384
  0.3954046323785616  0.9094665961974506  0.2503112609325677
  0.3950272836945908  0.9092311849320559  0.7497495824530485
  0.7257621005068794  0.4102276337061619  0.2504627472846789
  0.7278634948332624  0.4095447875590569  0.7499100228299848
  0.7285169448963846  0.9088606946736402  0.2501520588385198
  0.7283081414946024  0.9083880703858671  0.7496295237073853
  0.2312745530088265  0.0878219318009882 -0.0059203674126536
  0.2282644423013537  0.0928169322161490  0.5000313796515891
  0.2276934974507736  0.5942104297586006  0.0005215940210294
  0.2291509817104989  0.5899032532531725  0.5022668045418991
  0.5617865929870625  0.0906553370896818  0.0002897784276934
  0.5618603553470692  0.0907228690676099  0.5001112016871705
  0.5601934894269001  0.5902832931561109 -0.0003860678885012
  0.5615797022898413  0.5900923024733313  0.5004608165331677
  0.8895701175578116  0.0859793964167246 -0.0066593698693183
  0.8950463645634475  0.0910103878186552  0.4996796978476163
  0.8933833636016484  0.5917160251102467 -0.0002068760158871
  0.8942971643810678  0.5882535884151341  0.4998763720068382
  0.2055882135122640  0.3562780154269088  0.1458558597310147
  0.2014210177066342  0.3437064190153252  0.6467934079716884
  0.2038786643386604  0.8424347837729652  0.1487449154568846
  0.2026044978032982  0.8430887172154011  0.6457036826242052
  0.5358788663775317  0.3433615243591001  0.1457083670663929
  0.5360711909063506  0.3428071079502335  0.6462237026352843
  0.5364603287367277  0.8428141484568781  0.1464124622653399
  0.5358137651031588  0.8427841151111779  0.6453451373044718
  0.8654534418100102  0.3450534312634061  0.1442311337071511
  0.8698198665517175  0.3429151736845854  0.6469848997681545
  0.8691433507551588  0.8419926211872261  0.1460697572654558
  0.8691609955880577  0.8415781476232871  0.6448707707032180
  0.0226027587618060  0.1568519049742289  0.1042531821937481
  0.0352619526389485  0.1569397986645998  0.6046976455197111
  0.0356718443108055  0.6637529401974397  0.1032399415145068
  0.0355147533234434  0.6547832892008816  0.6027905628448479
  0.3712460575608130  0.1561410232724466  0.1019499385855062
  0.3690711411022710  0.1571954547117424  0.6043801940768543
  0.3701923059313625  0.6566664442620539  0.1034955607618111
  0.3694010095550483  0.6571816731724059  0.6058662971109195
  0.7030766376596028  0.1565468717798943  0.1032621532434922
  0.7027328867333187  0.1570637310403852  0.6039911104849275
  0.7009611379019574  0.6570811643213962  0.1034513161993514
  0.7022601798613087  0.6566194205514525  0.6044786163553413
  0.0342924706881637  0.4465715755514888  0.4978382214411186
  0.0317794808873145  0.9485787987545661 -0.0000625886149728
  0.0341425048640565  0.9479089436506628  0.5008330163130191
  0.3626428380938374  0.4468193208454065 -0.0005131314951793
  0.3689525113786584  0.4484453088224150  0.5015988684472151
  0.3710269848709182  0.9472453163884708 -0.0004913289689077
  0.3671064362496603  0.9486882960892183  0.4999707757523166
  0.6996182463825547  0.4480994074470013 -0.0003628204426946
  0.7010909455258866  0.4479532939434115  0.5003823289511955
  0.7005905332734385  0.9475632117113764 -0.0007190923744141
  0.7014123009781018  0.9481529846010952  0.5002028936075313
  0.2075521156000936  0.3482309594446478  0.3555001254614871
  0.2023412246213838  0.3430140183042948  0.8547303887760236
  0.2015809965007890  0.8370919630541884  0.3574871183724542
  0.2021355711126586  0.8433377177403673  0.8539277079246796
  0.5361735286213177  0.3430022882322046  0.3539987932715070
  0.5349788693597702  0.3438377945229358  0.8542942998333795
  0.5361670383314914  0.8431495843047609  0.3544290714017312
  0.5360426728693386  0.8426785391626372  0.8533510284774161
  0.8675153799941462  0.3431716195933580  0.3523362669572471
  0.8683774758774394  0.3441257500034181  0.8547811790132797
  0.8693288593416880  0.8424161841526084  0.3541635531641519
  0.8692315697671483  0.8412511216769377  0.8526668192823923
 
  0.00000000E+00  0.00000000E+00  0.00000000E+00
  0.00000000E+00  0.00000000E+00  0.00000000E+00
  0.00000000E+00  0.00000000E+00  0.00000000E+00
  0.00000000E+00  0.00000000E+00  0.00000000E+00
  0.00000000E+00  0.00000000E+00  0.00000000E+00
  0.00000000E+00  0.00000000E+00  0.00000000E+00
  0.00000000E+00  0.00000000E+00  0.00000000E+00
  0.00000000E+00  0.00000000E+00  0.00000000E+00
  0.00000000E+00  0.00000000E+00  0.00000000E+00
  0.00000000E+00  0.00000000E+00  0.00000000E+00
  0.00000000E+00  0.00000000E+00  0.00000000E+00
  0.00000000E+00  0.00000000E+00  0.00000000E+00
  0.00000000E+00  0.00000000E+00  0.00000000E+00
  0.00000000E+00  0.00000000E+00  0.00000000E+00
  0.00000000E+00  0.00000000E+00  0.00000000E+00
  0.00000000E+00  0.00000000E+00  0.00000000E+00
  0.00000000E+00  0.00000000E+00  0.00000000E+00
  0.00000000E+00  0.00000000E+00  0.00000000E+00
  0.00000000E+00  0.00000000E+00  0.00000000E+00
  0.00000000E+00  0.00000000E+00  0.00000000E+00
  0.00000000E+00  0.00000000E+00  0.00000000E+00
  0.00000000E+00  0.00000000E+00  0.00000000E+00
  0.00000000E+00  0.00000000E+00  0.00000000E+00
  0.00000000E+00  0.00000000E+00  0.00000000E+00
  0.00000000E+00  0.00000000E+00  0.00000000E+00
  0.00000000E+00  0.00000000E+00  0.00000000E+00
  0.00000000E+00  0.00000000E+00  0.00000000E+00
  0.00000000E+00  0.00000000E+00  0.00000000E+00
  0.00000000E+00  0.00000000E+00  0.00000000E+00
  0.00000000E+00  0.00000000E+00  0.00000000E+00
  0.00000000E+00  0.00000000E+00  0.00000000E+00
  0.00000000E+00  0.00000000E+00  0.00000000E+00
  0.00000000E+00  0.00000000E+00  0.00000000E+00
  0.00000000E+00  0.00000000E+00  0.00000000E+00
  0.00000000E+00  0.00000000E+00  0.00000000E+00
  0.00000000E+00  0.00000000E+00  0.00000000E+00
  0.00000000E+00  0.00000000E+00  0.00000000E+00
  0.00000000E+00  0.00000000E+00  0.00000000E+00
  0.00000000E+00  0.00000000E+00  0.00000000E+00
  0.00000000E+00  0.00000000E+00  0.00000000E+00
  0.00000000E+00  0.00000000E+00  0.00000000E+00
  0.00000000E+00  0.00000000E+00  0.00000000E+00
  0.00000000E+00  0.00000000E+00  0.00000000E+00
  0.00000000E+00  0.00000000E+00  0.00000000E+00
  0.00000000E+00  0.00000000E+00  0.00000000E+00
  0.00000000E+00  0.00000000E+00  0.00000000E+00
  0.00000000E+00  0.00000000E+00  0.00000000E+00
  0.00000000E+00  0.00000000E+00  0.00000000E+00
  0.00000000E+00  0.00000000E+00  0.00000000E+00
  0.00000000E+00  0.00000000E+00  0.00000000E+00
  0.00000000E+00  0.00000000E+00  0.00000000E+00
  0.00000000E+00  0.00000000E+00  0.00000000E+00
  0.00000000E+00  0.00000000E+00  0.00000000E+00
  0.00000000E+00  0.00000000E+00  0.00000000E+00
  0.00000000E+00  0.00000000E+00  0.00000000E+00
  0.00000000E+00  0.00000000E+00  0.00000000E+00
  0.00000000E+00  0.00000000E+00  0.00000000E+00
  0.00000000E+00  0.00000000E+00  0.00000000E+00
  0.00000000E+00  0.00000000E+00  0.00000000E+00
  0.00000000E+00  0.00000000E+00  0.00000000E+00
  0.00000000E+00  0.00000000E+00  0.00000000E+00
  0.00000000E+00  0.00000000E+00  0.00000000E+00
  0.00000000E+00  0.00000000E+00  0.00000000E+00
  0.00000000E+00  0.00000000E+00  0.00000000E+00
  0.00000000E+00  0.00000000E+00  0.00000000E+00
  0.00000000E+00  0.00000000E+00  0.00000000E+00
  0.00000000E+00  0.00000000E+00  0.00000000E+00
  0.00000000E+00  0.00000000E+00  0.00000000E+00
  0.00000000E+00  0.00000000E+00  0.00000000E+00
  0.00000000E+00  0.00000000E+00  0.00000000E+00
  0.00000000E+00  0.00000000E+00  0.00000000E+00
  0.00000000E+00  0.00000000E+00  0.00000000E+00
  0.00000000E+00  0.00000000E+00  0.00000000E+00
  0.00000000E+00  0.00000000E+00  0.00000000E+00
  0.00000000E+00  0.00000000E+00  0.00000000E+00
  0.00000000E+00  0.00000000E+00  0.00000000E+00
  0.00000000E+00  0.00000000E+00  0.00000000E+00
  0.00000000E+00  0.00000000E+00  0.00000000E+00
  0.00000000E+00  0.00000000E+00  0.00000000E+00
  0.00000000E+00  0.00000000E+00  0.00000000E+00
  0.00000000E+00  0.00000000E+00  0.00000000E+00
  0.00000000E+00  0.00000000E+00  0.00000000E+00
  0.00000000E+00  0.00000000E+00  0.00000000E+00
  0.00000000E+00  0.00000000E+00  0.00000000E+00
  0.00000000E+00  0.00000000E+00  0.00000000E+00
  0.00000000E+00  0.00000000E+00  0.00000000E+00
  0.00000000E+00  0.00000000E+00  0.00000000E+00
  0.00000000E+00  0.00000000E+00  0.00000000E+00
  0.00000000E+00  0.00000000E+00  0.00000000E+00
  0.00000000E+00  0.00000000E+00  0.00000000E+00
  0.00000000E+00  0.00000000E+00  0.00000000E+00
  0.00000000E+00  0.00000000E+00  0.00000000E+00
  0.00000000E+00  0.00000000E+00  0.00000000E+00
  0.00000000E+00  0.00000000E+00  0.00000000E+00
  0.00000000E+00  0.00000000E+00  0.00000000E+00
  0.00000000E+00  0.00000000E+00  0.00000000E+00
  0.00000000E+00  0.00000000E+00  0.00000000E+00
  0.00000000E+00  0.00000000E+00  0.00000000E+00
  0.00000000E+00  0.00000000E+00  0.00000000E+00
  0.00000000E+00  0.00000000E+00  0.00000000E+00
  0.00000000E+00  0.00000000E+00  0.00000000E+00
  0.00000000E+00  0.00000000E+00  0.00000000E+00
  0.00000000E+00  0.00000000E+00  0.00000000E+00
  0.00000000E+00  0.00000000E+00  0.00000000E+00
  0.00000000E+00  0.00000000E+00  0.00000000E+00
  0.00000000E+00  0.00000000E+00  0.00000000E+00
  0.00000000E+00  0.00000000E+00  0.00000000E+00
  0.00000000E+00  0.00000000E+00  0.00000000E+00
  0.00000000E+00  0.00000000E+00  0.00000000E+00
  0.00000000E+00  0.00000000E+00  0.00000000E+00
  0.00000000E+00  0.00000000E+00  0.00000000E+00
  0.00000000E+00  0.00000000E+00  0.00000000E+00
  0.00000000E+00  0.00000000E+00  0.00000000E+00
  0.00000000E+00  0.00000000E+00  0.00000000E+00
  0.00000000E+00  0.00000000E+00  0.00000000E+00
  0.00000000E+00  0.00000000E+00  0.00000000E+00
  0.00000000E+00  0.00000000E+00  0.00000000E+00
  0.00000000E+00  0.00000000E+00  0.00000000E+00
  0.00000000E+00  0.00000000E+00  0.00000000E+00
  0.00000000E+00  0.00000000E+00  0.00000000E+00
  0.00000000E+00  0.00000000E+00  0.00000000E+00
  0.00000000E+00  0.00000000E+00  0.00000000E+00
  0.00000000E+00  0.00000000E+00  0.00000000E+00
  0.00000000E+00  0.00000000E+00  0.00000000E+00
  0.00000000E+00  0.00000000E+00  0.00000000E+00
  0.00000000E+00  0.00000000E+00  0.00000000E+00
  0.00000000E+00  0.00000000E+00  0.00000000E+00
  0.00000000E+00  0.00000000E+00  0.00000000E+00
  0.00000000E+00  0.00000000E+00  0.00000000E+00
  0.00000000E+00  0.00000000E+00  0.00000000E+00
  0.00000000E+00  0.00000000E+00  0.00000000E+00
  0.00000000E+00  0.00000000E+00  0.00000000E+00
  0.00000000E+00  0.00000000E+00  0.00000000E+00
  0.00000000E+00  0.00000000E+00  0.00000000E+00
  0.00000000E+00  0.00000000E+00  0.00000000E+00
  0.00000000E+00  0.00000000E+00  0.00000000E+00
  0.00000000E+00  0.00000000E+00  0.00000000E+00
  0.00000000E+00  0.00000000E+00  0.00000000E+00
  0.00000000E+00  0.00000000E+00  0.00000000E+00
  0.00000000E+00  0.00000000E+00  0.00000000E+00
  0.00000000E+00  0.00000000E+00  0.00000000E+00
  0.00000000E+00  0.00000000E+00  0.00000000E+00
  0.00000000E+00  0.00000000E+00  0.00000000E+00
  0.00000000E+00  0.00000000E+00  0.00000000E+00
  0.00000000E+00  0.00000000E+00  0.00000000E+00
  0.00000000E+00  0.00000000E+00  0.00000000E+00
  0.00000000E+00  0.00000000E+00  0.00000000E+00
  0.00000000E+00  0.00000000E+00  0.00000000E+00
  0.00000000E+00  0.00000000E+00  0.00000000E+00
  0.00000000E+00  0.00000000E+00  0.00000000E+00
  0.00000000E+00  0.00000000E+00  0.00000000E+00
  0.00000000E+00  0.00000000E+00  0.00000000E+00
  0.00000000E+00  0.00000000E+00  0.00000000E+00
  0.00000000E+00  0.00000000E+00  0.00000000E+00
  0.00000000E+00  0.00000000E+00  0.00000000E+00
  0.00000000E+00  0.00000000E+00  0.00000000E+00
  0.00000000E+00  0.00000000E+00  0.00000000E+00
  0.00000000E+00  0.00000000E+00  0.00000000E+00
  0.00000000E+00  0.00000000E+00  0.00000000E+00
  0.00000000E+00  0.00000000E+00  0.00000000E+00
  0.00000000E+00  0.00000000E+00  0.00000000E+00
  0.00000000E+00  0.00000000E+00  0.00000000E+00
  0.00000000E+00  0.00000000E+00  0.00000000E+00
  0.00000000E+00  0.00000000E+00  0.00000000E+00
  0.00000000E+00  0.00000000E+00  0.00000000E+00
  0.00000000E+00  0.00000000E+00  0.00000000E+00
  0.00000000E+00  0.00000000E+00  0.00000000E+00
  0.00000000E+00  0.00000000E+00  0.00000000E+00
  0.00000000E+00  0.00000000E+00  0.00000000E+00
  0.00000000E+00  0.00000000E+00  0.00000000E+00
  0.00000000E+00  0.00000000E+00  0.00000000E+00
  0.00000000E+00  0.00000000E+00  0.00000000E+00
  0.00000000E+00  0.00000000E+00  0.00000000E+00
  0.00000000E+00  0.00000000E+00  0.00000000E+00
  0.00000000E+00  0.00000000E+00  0.00000000E+00
  0.00000000E+00  0.00000000E+00  0.00000000E+00
  0.00000000E+00  0.00000000E+00  0.00000000E+00
  0.00000000E+00  0.00000000E+00  0.00000000E+00
  0.00000000E+00  0.00000000E+00  0.00000000E+00
  0.00000000E+00  0.00000000E+00  0.00000000E+00
  0.00000000E+00  0.00000000E+00  0.00000000E+00
  0.00000000E+00  0.00000000E+00  0.00000000E+00
  0.00000000E+00  0.00000000E+00  0.00000000E+00
  0.00000000E+00  0.00000000E+00  0.00000000E+00
  0.00000000E+00  0.00000000E+00  0.00000000E+00
  0.00000000E+00  0.00000000E+00  0.00000000E+00
  0.00000000E+00  0.00000000E+00  0.00000000E+00
  0.00000000E+00  0.00000000E+00  0.00000000E+00
  0.00000000E+00  0.00000000E+00  0.00000000E+00
  0.00000000E+00  0.00000000E+00  0.00000000E+00
