ALGO = Fast
EDIFF = 1e-05
ENCUT = 520
IBRION = 2
IDIPOL = 3
ISIF = 3
ISMEAR = -5
ISPIN = 2
LASPH = True
LCHARG = False
LORBIT = 11
LPLANE = True
LREAL = Auto
LWAVE = False
MAGMOM = 21*0.6
NCORE = 6
NELM = 100
NSIM = 4
NSW = 99
PREC = Accurate
SIGMA = 0.05
