Li14 O7
1.0
3.294299 0.000000 0.000000
-1.647149 2.852946 -0.000000
0.000000 0.000000 40.346755
Li O
14 7
direct
1.000000 1.000000 0.050000 Li+
0.333333 0.666667 0.016667 Li+
0.333333 0.666667 0.116667 Li+
0.666667 0.333333 0.083333 Li+
0.666667 0.333333 0.183333 Li+
0.000000 1.000000 0.150000 Li+
0.000000 1.000000 0.250000 Li+
0.333333 0.666667 0.216667 Li+
0.333333 0.666667 0.316667 Li+
0.666667 0.333333 0.283333 Li+
0.666667 0.333333 0.383333 Li+
0.000000 1.000000 0.350000 Li+
0.000000 0.000000 0.450000 Li+
0.333333 0.666667 0.416667 Li+
0.666667 0.333333 0.033333 O2-
0.000000 0.000000 0.100000 O2-
0.333333 0.666667 0.166667 O2-
0.666667 0.333333 0.233333 O2-
0.000000 1.000000 0.300000 O2-
0.333333 0.666667 0.366667 O2-
0.666667 0.333333 0.433333 O2-
