Li7 O56
1.0
5.106456 0.000000 -0.245177
-1.460858 4.897220 -0.138335
0.000000 0.000000 48.786319
Li O
7 56
Selective dynamics
direct
0.877346 0.137382 0.014728 T T T Li
0.294012 0.804049 0.098061 F F F Li
0.710679 0.470716 0.181395 F F F Li
0.127346 0.137382 0.264728 F F F Li
0.544012 0.804049 0.348061 F F F Li
0.960679 0.470715 0.431395 F F F Li
0.377346 0.137382 0.514728 F F F Li
0.551401 0.005172 0.043609 F F F O
0.579883 0.023114 0.069317 F F F O
0.046203 0.489435 0.069317 F F F O
0.038436 0.492207 0.043609 F F F O
0.472165 0.571104 0.043269 F F F O
0.089108 0.980469 0.069577 F F F O
0.495576 0.573029 0.068605 F F F O
0.083471 0.960264 0.043735 F F F O
0.968068 0.671839 0.126942 F F F O
0.996549 0.689781 0.152650 F F F O
0.462869 0.156101 0.152650 F F F O
0.455103 0.158874 0.126942 F F F O
0.888831 0.237771 0.126602 F F F O
0.505774 0.647136 0.152910 F F F O
0.912243 0.239696 0.151939 F F F O
0.500138 0.626931 0.127069 F F F O
0.384734 0.338506 0.210275 F F F O
0.413216 0.356448 0.235984 F F F O
0.879536 0.822768 0.235984 F F F O
0.871769 0.825541 0.210275 F F F O
0.305498 0.904437 0.209935 F F F O
0.922441 0.313802 0.236243 F F F O
0.328909 0.906363 0.235272 F F F O
0.916805 0.293597 0.210402 F F F O
0.801401 0.005173 0.293609 F F F O
0.829883 0.023114 0.319317 F F F O
0.296203 0.489435 0.319317 F F F O
0.288436 0.492208 0.293609 F F F O
0.722165 0.571104 0.293269 F F F O
0.339108 0.980469 0.319577 F F F O
0.745576 0.573029 0.318605 F F F O
0.333471 0.960264 0.293735 F F F O
0.218068 0.671839 0.376942 F F F O
0.246549 0.689781 0.402650 F F F O
0.712869 0.156101 0.402650 F F F O
0.705103 0.158874 0.376942 F F F O
0.138831 0.237771 0.376602 F F F O
0.755774 0.647135 0.402910 F F F O
0.162243 0.239696 0.401939 F F F O
0.750138 0.626931 0.377069 F F F O
0.634734 0.338506 0.460275 F F F O
0.663216 0.356448 0.485984 F F F O
0.129536 0.822768 0.485984 F F F O
0.121769 0.825541 0.460275 F F F O
0.555498 0.904437 0.459935 F F F O
0.172441 0.313802 0.486243 F F F O
0.578909 0.906363 0.485272 F F F O
0.166805 0.293597 0.460402 F F F O
0.051401 0.005173 0.543609 F F F O
0.079883 0.023115 0.569317 F F F O
0.546203 0.489435 0.569317 F F F O
0.538436 0.492208 0.543609 F F F O
0.972165 0.571104 0.543269 F F F O
0.589108 0.980469 0.569577 F F F O
0.995576 0.573029 0.568605 F F F O
0.583471 0.960264 0.543735 F F F O
