Li61 P7 N32                             
   1.00000000000000     
    -0.0708338561900646    9.5997816148212252    0.0049224819802421
    -0.0264033906621815    0.0047344699094704    9.5967562609547361
     9.5465164335751673   -0.0714964741449865   -0.0263008728542804
   Li   P    N 
    61     7    32
Direct
  0.5119159574674320  0.9983152817867954  0.5110649423972812
  0.9895969621485301  0.4972234139427681  0.0029539167460524
  0.4978163548851531  0.0022715913459832  0.0101213522693999
  0.0069207204126093 -0.0042502720740650  0.5048588610508218
  0.4885562515053943  0.5073295629594503  0.0164572929578863
  0.0010457689298298  0.4953593506862851  0.4989695459654634
  0.7592537637503538  0.0054330258077068  0.5115346534559339
  0.2547300277688137  0.9862955212434483  0.5152321014271882
  0.7777859831542605  0.5068496468089945  0.5069318390965336
  0.2272371500855707  0.4785740574936468  0.5076936268744265
  0.2586592374762864 -0.0043464608035321  0.0193128532689316
  0.7344423844071173  0.0023503160302808  0.0112545572516633
  0.5796614882622156  0.5838985664114490  0.4277269328833507
  0.4938785402993590  0.2511531095086418  0.0215420651091749
  0.4728044254266544  0.7613143248138946 -0.0155919771723853
 -0.0035611265093943  0.4914402670962952  0.2509859625709162
 -0.0014556991580819  0.5117089360495584  0.7552835004264841
  0.2274514065192588  0.2291367156806911  0.2253158522137382
  0.2833740407660401  0.7484524388838147  0.7521275738514852
  0.2813472780600009  0.2393069944156902  0.7207197801650839
  0.2896610766009462  0.7238857744379141  0.2379824820908904
  0.7220453185443721  0.2734588286454631  0.2433505410198301
  0.8037210581138003  0.6943167250878984  0.7112450980244167
  0.7927832153147961  0.1897436895529954  0.7372316239076393
  0.7842935181536244  0.7709186405384599  0.2334721962304057
  0.9789137845406379  0.2391316513875051  0.2465025584283798
  0.0323075559431214  0.7802001621537223  0.7490010763798979
  0.2579091772728031  0.2318074428079757  0.4827192022523681
  0.2376397612704504  0.7184536303501947  0.4778022044795914
  0.7537581958295497  0.2642806736153112  0.4819790471593458
  0.7374845912099388  0.7631738602504416  0.4882062925243736
  0.7522797823018952  0.5088286526560392  0.2644726594232935
  0.6231939137454873  0.5975899305545956  0.8203836176236873
  0.2441625571788089  0.4908471100696983  0.2608006663617211
  0.2289483295956781  0.4984792315706913  0.7426528814977449
  0.5330126561496263  0.7421235584373329  0.2252855232969624
  0.5348341079486777  0.2457182576902466  0.7751887840419783
  0.2400430302388484  0.9714730248363775  0.2682522129392927
  0.2423198590076476  0.0016406588251118  0.7676714452449949
  0.2486101134187630  0.2372763626087759  0.9743200039450345
  0.2189944860525337  0.7506299312962974 -0.0020734879945627
  0.7610944107742912  0.9542225721666583  0.7622548128204226
  0.7584965584349318  0.0242951562487715  0.2637719119776936
  0.7338779768364566  0.7642508482925194  0.9809311038317645
  0.7531721895413784  0.2419810905128204 -0.0054164998197499
  0.0355551918688268  0.2660153939180267  0.7629365855478690
  0.0321469354060336  0.7373839751436452  0.2391917794905278
  0.4971853827464165  0.2448841511457480  0.2737693317864002
  0.5568338791974489  0.7795203194069530  0.6959178411466462
 -0.0010999397530706  0.2597630880573691  0.0042261284999088
  0.9780660186121107  0.7374663326688996  0.9948399424103352
  0.5018397048841148  0.2210099717076189  0.5227254755832286
  0.4628622328643669  0.7883790444029818  0.4568197076775327
  0.4967493690172872  0.4932907587572475  0.2351311021604696
  0.4399272986375607  0.4468185237817082  0.8052046422495904
  0.9991062615716207  0.9907673573293964  0.2666755081357391
  0.0018571094857942  0.0145940651050891  0.7435217586204128
  0.4263609142148058  0.4202861190599695  0.4316471008945813
  0.4304626212393753  0.5843614600440215  0.5949587694691848
  0.5834712056287311  0.4237909261710148  0.5951282541872700
  0.7760199689576587  0.4417178661419114  0.7527010993504576
  0.9967518303792899 -0.0003999966878652  0.0050613428349230
  0.7440625074675881  0.4970677398958397  0.0097657988176762
  0.2368633401672828  0.4954008211665409  0.0041949106163488
 -0.0013218327787659  0.7496259356999138  0.4986548354100926
  0.0036497943839862  0.2420679904791321  0.5042996386811206
  0.5001875819842234  0.9969062646839789  0.2555916554911353
  0.5007521779856442 -0.0005865029534726  0.7639528017048595
  0.6385005801783821  0.6175167671578385  0.6212355000082638
  0.6194827493582216  0.3834133963049729  0.3846379475860915
  0.8947118828867240  0.8962602044499768  0.1038009590930482
  0.8939437513505761  0.1005380806103008  0.9003676339328667
  0.1007218528219804  0.8994979013219407  0.9028717363169729
  0.0982384477757007  0.1015770510578267  0.1094636117725520
  0.3808531384970260  0.6123314140211916  0.3821367810488366
  0.3826409272236128  0.3776513774836320  0.6236020614331770
  0.0977070068665052  0.3422329292152974  0.3928654871090235
  0.0991236974246673  0.6450363423443261  0.6088888388906629
  0.1119508971513560  0.1444604266193199  0.6063964943175593
  0.1056047933989666  0.8496829957189749  0.4013305548998759
  0.8956390708088933  0.1396231270338517  0.4065134716997005
  0.8992561134885589  0.8509038288559977  0.6040054337252153
  0.8454459450293033  0.3950318388802340  0.1103651755871130
  0.8385436132244503  0.5923725785432141  0.8955293911307537
  0.1387983660763919  0.5973423327997490  0.1097454101364818
  0.1349577752637511  0.3977563588752503  0.8963610638915132
  0.3999466347216476  0.8906555985149830  0.1531331973718825
  0.4001729078517932  0.1077774961651145  0.8597486177440242
  0.3925397040972791  0.0905161517848665  0.3615440552889174
  0.3961098985542983  0.9013120899532577  0.6566772529514444
  0.3397905784186921  0.3874762950902186  0.1003590417803084
  0.3363096953093775  0.6030279539069903  0.9046238804429202
  0.6166118412719784  0.0903721286158644  0.6656779457208531
  0.6130533193972739  0.8982300390680544  0.3532867787334480
  0.6480124109602023  0.6099344378861906  0.1043684955955066
  0.6343376679822550  0.3960044623713813  0.9083418418091150
  0.9046077918865315  0.3447047312722870  0.6125915839917362
  0.9000350506679321  0.6493066201537013  0.3895325864401821
  0.5965169465379750  0.1075636044594449  0.1573607962025587
  0.5957022496728958  0.8904929816564684  0.8668561720842535
 
  0.00000000E+00  0.00000000E+00  0.00000000E+00
  0.00000000E+00  0.00000000E+00  0.00000000E+00
  0.00000000E+00  0.00000000E+00  0.00000000E+00
  0.00000000E+00  0.00000000E+00  0.00000000E+00
  0.00000000E+00  0.00000000E+00  0.00000000E+00
  0.00000000E+00  0.00000000E+00  0.00000000E+00
  0.00000000E+00  0.00000000E+00  0.00000000E+00
  0.00000000E+00  0.00000000E+00  0.00000000E+00
  0.00000000E+00  0.00000000E+00  0.00000000E+00
  0.00000000E+00  0.00000000E+00  0.00000000E+00
  0.00000000E+00  0.00000000E+00  0.00000000E+00
  0.00000000E+00  0.00000000E+00  0.00000000E+00
  0.00000000E+00  0.00000000E+00  0.00000000E+00
  0.00000000E+00  0.00000000E+00  0.00000000E+00
  0.00000000E+00  0.00000000E+00  0.00000000E+00
  0.00000000E+00  0.00000000E+00  0.00000000E+00
  0.00000000E+00  0.00000000E+00  0.00000000E+00
  0.00000000E+00  0.00000000E+00  0.00000000E+00
  0.00000000E+00  0.00000000E+00  0.00000000E+00
  0.00000000E+00  0.00000000E+00  0.00000000E+00
  0.00000000E+00  0.00000000E+00  0.00000000E+00
  0.00000000E+00  0.00000000E+00  0.00000000E+00
  0.00000000E+00  0.00000000E+00  0.00000000E+00
  0.00000000E+00  0.00000000E+00  0.00000000E+00
  0.00000000E+00  0.00000000E+00  0.00000000E+00
  0.00000000E+00  0.00000000E+00  0.00000000E+00
  0.00000000E+00  0.00000000E+00  0.00000000E+00
  0.00000000E+00  0.00000000E+00  0.00000000E+00
  0.00000000E+00  0.00000000E+00  0.00000000E+00
  0.00000000E+00  0.00000000E+00  0.00000000E+00
  0.00000000E+00  0.00000000E+00  0.00000000E+00
  0.00000000E+00  0.00000000E+00  0.00000000E+00
  0.00000000E+00  0.00000000E+00  0.00000000E+00
  0.00000000E+00  0.00000000E+00  0.00000000E+00
  0.00000000E+00  0.00000000E+00  0.00000000E+00
  0.00000000E+00  0.00000000E+00  0.00000000E+00
  0.00000000E+00  0.00000000E+00  0.00000000E+00
  0.00000000E+00  0.00000000E+00  0.00000000E+00
  0.00000000E+00  0.00000000E+00  0.00000000E+00
  0.00000000E+00  0.00000000E+00  0.00000000E+00
  0.00000000E+00  0.00000000E+00  0.00000000E+00
  0.00000000E+00  0.00000000E+00  0.00000000E+00
  0.00000000E+00  0.00000000E+00  0.00000000E+00
  0.00000000E+00  0.00000000E+00  0.00000000E+00
  0.00000000E+00  0.00000000E+00  0.00000000E+00
  0.00000000E+00  0.00000000E+00  0.00000000E+00
  0.00000000E+00  0.00000000E+00  0.00000000E+00
  0.00000000E+00  0.00000000E+00  0.00000000E+00
  0.00000000E+00  0.00000000E+00  0.00000000E+00
  0.00000000E+00  0.00000000E+00  0.00000000E+00
  0.00000000E+00  0.00000000E+00  0.00000000E+00
  0.00000000E+00  0.00000000E+00  0.00000000E+00
  0.00000000E+00  0.00000000E+00  0.00000000E+00
  0.00000000E+00  0.00000000E+00  0.00000000E+00
  0.00000000E+00  0.00000000E+00  0.00000000E+00
  0.00000000E+00  0.00000000E+00  0.00000000E+00
  0.00000000E+00  0.00000000E+00  0.00000000E+00
  0.00000000E+00  0.00000000E+00  0.00000000E+00
  0.00000000E+00  0.00000000E+00  0.00000000E+00
  0.00000000E+00  0.00000000E+00  0.00000000E+00
  0.00000000E+00  0.00000000E+00  0.00000000E+00
  0.00000000E+00  0.00000000E+00  0.00000000E+00
  0.00000000E+00  0.00000000E+00  0.00000000E+00
  0.00000000E+00  0.00000000E+00  0.00000000E+00
  0.00000000E+00  0.00000000E+00  0.00000000E+00
  0.00000000E+00  0.00000000E+00  0.00000000E+00
  0.00000000E+00  0.00000000E+00  0.00000000E+00
  0.00000000E+00  0.00000000E+00  0.00000000E+00
  0.00000000E+00  0.00000000E+00  0.00000000E+00
  0.00000000E+00  0.00000000E+00  0.00000000E+00
  0.00000000E+00  0.00000000E+00  0.00000000E+00
  0.00000000E+00  0.00000000E+00  0.00000000E+00
  0.00000000E+00  0.00000000E+00  0.00000000E+00
  0.00000000E+00  0.00000000E+00  0.00000000E+00
  0.00000000E+00  0.00000000E+00  0.00000000E+00
  0.00000000E+00  0.00000000E+00  0.00000000E+00
  0.00000000E+00  0.00000000E+00  0.00000000E+00
  0.00000000E+00  0.00000000E+00  0.00000000E+00
  0.00000000E+00  0.00000000E+00  0.00000000E+00
  0.00000000E+00  0.00000000E+00  0.00000000E+00
  0.00000000E+00  0.00000000E+00  0.00000000E+00
  0.00000000E+00  0.00000000E+00  0.00000000E+00
  0.00000000E+00  0.00000000E+00  0.00000000E+00
  0.00000000E+00  0.00000000E+00  0.00000000E+00
  0.00000000E+00  0.00000000E+00  0.00000000E+00
  0.00000000E+00  0.00000000E+00  0.00000000E+00
  0.00000000E+00  0.00000000E+00  0.00000000E+00
  0.00000000E+00  0.00000000E+00  0.00000000E+00
  0.00000000E+00  0.00000000E+00  0.00000000E+00
  0.00000000E+00  0.00000000E+00  0.00000000E+00
  0.00000000E+00  0.00000000E+00  0.00000000E+00
  0.00000000E+00  0.00000000E+00  0.00000000E+00
  0.00000000E+00  0.00000000E+00  0.00000000E+00
  0.00000000E+00  0.00000000E+00  0.00000000E+00
  0.00000000E+00  0.00000000E+00  0.00000000E+00
  0.00000000E+00  0.00000000E+00  0.00000000E+00
  0.00000000E+00  0.00000000E+00  0.00000000E+00
  0.00000000E+00  0.00000000E+00  0.00000000E+00
  0.00000000E+00  0.00000000E+00  0.00000000E+00
  0.00000000E+00  0.00000000E+00  0.00000000E+00
