Li61 P7 N32                             
   1.00000000000000     
    -0.0406239140151956    9.5484095761902541   -0.0177896728626761
    -0.0136722827146940   -0.0177899812517580    9.5840879630702460
     9.5469486025243704   -0.0405407007597796   -0.0137650334775699
   Li   P    N 
    61     7    32
Direct
  0.5000041473833745 -0.0061346556341154  0.5058605479135259
 -0.0090747014581637  0.5029676310280463  0.0118749105775735
  0.4963732505648322 -0.0012484761449201  0.0063736787403757
  0.0006724863697586 -0.0001035580278116  0.4998006232005647
  0.4888741332135812  0.5044078502642433  0.0061598038847737
  0.0001904604919234  0.4994876452541316  0.5006935032862639
  0.7499815627422887  0.0105198313901164  0.5072535338610343
  0.2484858004136849 -0.0088559769485297  0.5132680979577633
  0.7807050195533777  0.5234071065998488  0.5236969230427512
  0.2233678849156229  0.4918142086331989  0.5052240485955782
  0.2579300899671442  0.0015365018456443  0.0170405532422147
  0.7320434097085474 -0.0036410473913589  0.0065276147038011
  0.5778247729660148  0.5772594972762055  0.4216779609410117
  0.4909761186576878  0.2504372163741190  0.0162177134167130
  0.4862115338537087  0.7534245875201393  0.0019478151092157
 -0.0016086349386184  0.4977457655651600  0.2549207290671214
  0.0066749008403651  0.5327919298353297  0.7534883674610009
  0.2349333433191639  0.2308951333785872  0.2167717777920102
  0.2532872069359967  0.7374583471482599  0.7500726678059595
  0.2963527522620886  0.2165652137743552  0.7053494107318119
  0.2657474492811249  0.7291524157168614  0.2533245238237740
  0.7320093229717930  0.2708089430271019  0.2519658957266306
  0.7598481206786656  0.7348714791097369  0.7166448587522497
  0.7855064219112095  0.1898824786887425  0.7263400725012619
  0.7611871053656737  0.7704532346754155  0.2258833622649452
  0.9844585717046395  0.2452812435311420  0.2447422478395045
  0.0094221239205499  0.7835385801138189  0.7501443178085943
  0.2583329745774741  0.2364496348600998  0.4752944600084473
  0.2465112181126237  0.7387230470555082  0.4879226804846868
  0.7597525101878271  0.2757764311362967  0.4827215201787780
  0.7364574934541098  0.7692117622411058  0.4806808120540200
  0.7539868477815116  0.5083029019353266  0.2696653150999265
  0.7005541671665062  0.5300237684618323  0.7700590210434975
  0.2441768512710885  0.4923109068815172  0.2594134126211895
  0.2484968917468005  0.4695561927801509  0.7514793408745806
  0.5019627901409507  0.7408251561474277  0.2503590187809752
  0.5280208467397310  0.2488836446953151  0.7723585094097205
  0.2365274246238093  0.9764958511083898  0.2650660630708548
  0.2460736729859134 -0.0139976255942976  0.7747672839116896
  0.2498710070462026  0.2429158322345078  0.9637694849517491
  0.2336141543869590  0.7595822268868554  0.0066009091583058
  0.7607025048493243  0.9665215487388007  0.7602582131754434
  0.7571695965052412  0.0206652894472319  0.2580665922261695
  0.7337668472933965  0.7567115446468469  0.9745200826503621
  0.7422696855157800  0.2328796459713718  0.0111723320756696
  0.0569460944303307  0.2712131259926495  0.7519562345656494
  0.0140549279363093  0.7469204175965400  0.2377770058641549
  0.5034854152145964  0.2444169665736471  0.2695297184962707
  0.5149189029147873  0.7431829381469990  0.7488594262140041
  0.0018579953692233  0.2581866094506196  0.0057615005180021
 -0.0142079867249740  0.7393766113075148 -0.0039668407447965
  0.5080872969485901  0.2179468227506393  0.5152915522724141
  0.4928951081683944  0.7730251223625876  0.5008894339202297
  0.4959048410338840  0.4923073947484231  0.2277576942039374
  0.4731711339504394  0.4804372750331912  0.7866288582888039
 -0.0029767886119176 -0.0038170786755034  0.2632219491901016
  0.0054124340070811  0.0220216495974203  0.7401425889805739
  0.4211454848465063  0.4148392522110230  0.4261758359906372
  0.4209935341887417  0.5771858517346212  0.5838000873640289
  0.5840375352965927  0.4210921900143662  0.5840656331685640
  0.8602928634391040  0.3775043887653608  0.8322878732179639
 -0.0055265179435867  0.0012230170062117  0.0026979828843756
  0.7416390740584721  0.4997831811968803  0.0134921837285797
  0.2358557847921874  0.5001094325834053  0.0034221632195606
 -0.0043258868789805  0.7545265759713380  0.4974015335789388
  0.0056380976132078  0.2462789707982279  0.5017751858574862
  0.4970315551963697 -0.0036086223216228  0.2524138830154633
  0.5015179692765666 -0.0070517086686455  0.7596146785235239
  0.6198508719563984  0.6250462435619382  0.6168842190578344
  0.6182019819679284  0.3802035133096431  0.3830179503627375
  0.8920454693815044  0.8974776132608685  0.1025845570743957
  0.8916153115463190  0.1046608738652296  0.8982325409228824
  0.0978592426705249  0.9007744090624678  0.9005439078820420
  0.0970631351135057  0.1029885255279826  0.1067781256114440
  0.3772615770828326  0.6130890618269109  0.3827845420455852
  0.3857487848652636  0.3741567995841981  0.6243581714243944
  0.0989819172199454  0.3497646948150970  0.3916565098563647
  0.0963532223777754  0.6558165441174466  0.6082440773684077
  0.1147485151506457  0.1450412319089962  0.5980395370788959
  0.1022986563529426  0.8537526951935961  0.3967865659725732
  0.8940958310731711  0.1477447137373038  0.4030589078934420
  0.8916519116628507  0.8570328210509536  0.5994847983174739
  0.8454389298134081  0.3960050357906099  0.1113620530412714
  0.8435296404975647  0.5925753945564123  0.8986747674490759
  0.1401380674447678  0.6029537374403073  0.1105832220449669
  0.1278118022328347  0.4020069891156044  0.8986203760881357
  0.3941096251629301  0.8911361741824372  0.1512836667441094
  0.3995149219313645  0.1015301740159642  0.8568705160593145
  0.3902588052627508  0.0942256893696420  0.3564139334281158
  0.3921840434776915  0.8927545746415647  0.6585865683742239
  0.3382139705238881  0.3889136348233923  0.0970909585614328
  0.3370466984269011  0.6039090538292305  0.9002955853686503
  0.6121942345353800  0.0881129258194854  0.6595334699492768
  0.6082540361724652  0.8984663255161811  0.3519776340327500
  0.6441658292321332  0.6097271014928294  0.1078686502029332
  0.6413872598249742  0.3918849491797435  0.9088393567431363
  0.9092026091789659  0.3460703114070459  0.6172843157737553
  0.8959807480824310  0.6516464778152830  0.3910163534791226
  0.5971375939120331  0.1053420620832187  0.1521309741128918
  0.6003487493626957  0.8888073776847674  0.8642954135358054
 
  0.00000000E+00  0.00000000E+00  0.00000000E+00
  0.00000000E+00  0.00000000E+00  0.00000000E+00
  0.00000000E+00  0.00000000E+00  0.00000000E+00
  0.00000000E+00  0.00000000E+00  0.00000000E+00
  0.00000000E+00  0.00000000E+00  0.00000000E+00
  0.00000000E+00  0.00000000E+00  0.00000000E+00
  0.00000000E+00  0.00000000E+00  0.00000000E+00
  0.00000000E+00  0.00000000E+00  0.00000000E+00
  0.00000000E+00  0.00000000E+00  0.00000000E+00
  0.00000000E+00  0.00000000E+00  0.00000000E+00
  0.00000000E+00  0.00000000E+00  0.00000000E+00
  0.00000000E+00  0.00000000E+00  0.00000000E+00
  0.00000000E+00  0.00000000E+00  0.00000000E+00
  0.00000000E+00  0.00000000E+00  0.00000000E+00
  0.00000000E+00  0.00000000E+00  0.00000000E+00
  0.00000000E+00  0.00000000E+00  0.00000000E+00
  0.00000000E+00  0.00000000E+00  0.00000000E+00
  0.00000000E+00  0.00000000E+00  0.00000000E+00
  0.00000000E+00  0.00000000E+00  0.00000000E+00
  0.00000000E+00  0.00000000E+00  0.00000000E+00
  0.00000000E+00  0.00000000E+00  0.00000000E+00
  0.00000000E+00  0.00000000E+00  0.00000000E+00
  0.00000000E+00  0.00000000E+00  0.00000000E+00
  0.00000000E+00  0.00000000E+00  0.00000000E+00
  0.00000000E+00  0.00000000E+00  0.00000000E+00
  0.00000000E+00  0.00000000E+00  0.00000000E+00
  0.00000000E+00  0.00000000E+00  0.00000000E+00
  0.00000000E+00  0.00000000E+00  0.00000000E+00
  0.00000000E+00  0.00000000E+00  0.00000000E+00
  0.00000000E+00  0.00000000E+00  0.00000000E+00
  0.00000000E+00  0.00000000E+00  0.00000000E+00
  0.00000000E+00  0.00000000E+00  0.00000000E+00
  0.00000000E+00  0.00000000E+00  0.00000000E+00
  0.00000000E+00  0.00000000E+00  0.00000000E+00
  0.00000000E+00  0.00000000E+00  0.00000000E+00
  0.00000000E+00  0.00000000E+00  0.00000000E+00
  0.00000000E+00  0.00000000E+00  0.00000000E+00
  0.00000000E+00  0.00000000E+00  0.00000000E+00
  0.00000000E+00  0.00000000E+00  0.00000000E+00
  0.00000000E+00  0.00000000E+00  0.00000000E+00
  0.00000000E+00  0.00000000E+00  0.00000000E+00
  0.00000000E+00  0.00000000E+00  0.00000000E+00
  0.00000000E+00  0.00000000E+00  0.00000000E+00
  0.00000000E+00  0.00000000E+00  0.00000000E+00
  0.00000000E+00  0.00000000E+00  0.00000000E+00
  0.00000000E+00  0.00000000E+00  0.00000000E+00
  0.00000000E+00  0.00000000E+00  0.00000000E+00
  0.00000000E+00  0.00000000E+00  0.00000000E+00
  0.00000000E+00  0.00000000E+00  0.00000000E+00
  0.00000000E+00  0.00000000E+00  0.00000000E+00
  0.00000000E+00  0.00000000E+00  0.00000000E+00
  0.00000000E+00  0.00000000E+00  0.00000000E+00
  0.00000000E+00  0.00000000E+00  0.00000000E+00
  0.00000000E+00  0.00000000E+00  0.00000000E+00
  0.00000000E+00  0.00000000E+00  0.00000000E+00
  0.00000000E+00  0.00000000E+00  0.00000000E+00
  0.00000000E+00  0.00000000E+00  0.00000000E+00
  0.00000000E+00  0.00000000E+00  0.00000000E+00
  0.00000000E+00  0.00000000E+00  0.00000000E+00
  0.00000000E+00  0.00000000E+00  0.00000000E+00
  0.00000000E+00  0.00000000E+00  0.00000000E+00
  0.00000000E+00  0.00000000E+00  0.00000000E+00
  0.00000000E+00  0.00000000E+00  0.00000000E+00
  0.00000000E+00  0.00000000E+00  0.00000000E+00
  0.00000000E+00  0.00000000E+00  0.00000000E+00
  0.00000000E+00  0.00000000E+00  0.00000000E+00
  0.00000000E+00  0.00000000E+00  0.00000000E+00
  0.00000000E+00  0.00000000E+00  0.00000000E+00
  0.00000000E+00  0.00000000E+00  0.00000000E+00
  0.00000000E+00  0.00000000E+00  0.00000000E+00
  0.00000000E+00  0.00000000E+00  0.00000000E+00
  0.00000000E+00  0.00000000E+00  0.00000000E+00
  0.00000000E+00  0.00000000E+00  0.00000000E+00
  0.00000000E+00  0.00000000E+00  0.00000000E+00
  0.00000000E+00  0.00000000E+00  0.00000000E+00
  0.00000000E+00  0.00000000E+00  0.00000000E+00
  0.00000000E+00  0.00000000E+00  0.00000000E+00
  0.00000000E+00  0.00000000E+00  0.00000000E+00
  0.00000000E+00  0.00000000E+00  0.00000000E+00
  0.00000000E+00  0.00000000E+00  0.00000000E+00
  0.00000000E+00  0.00000000E+00  0.00000000E+00
  0.00000000E+00  0.00000000E+00  0.00000000E+00
  0.00000000E+00  0.00000000E+00  0.00000000E+00
  0.00000000E+00  0.00000000E+00  0.00000000E+00
  0.00000000E+00  0.00000000E+00  0.00000000E+00
  0.00000000E+00  0.00000000E+00  0.00000000E+00
  0.00000000E+00  0.00000000E+00  0.00000000E+00
  0.00000000E+00  0.00000000E+00  0.00000000E+00
  0.00000000E+00  0.00000000E+00  0.00000000E+00
  0.00000000E+00  0.00000000E+00  0.00000000E+00
  0.00000000E+00  0.00000000E+00  0.00000000E+00
  0.00000000E+00  0.00000000E+00  0.00000000E+00
  0.00000000E+00  0.00000000E+00  0.00000000E+00
  0.00000000E+00  0.00000000E+00  0.00000000E+00
  0.00000000E+00  0.00000000E+00  0.00000000E+00
  0.00000000E+00  0.00000000E+00  0.00000000E+00
  0.00000000E+00  0.00000000E+00  0.00000000E+00
  0.00000000E+00  0.00000000E+00  0.00000000E+00
  0.00000000E+00  0.00000000E+00  0.00000000E+00
  0.00000000E+00  0.00000000E+00  0.00000000E+00
