Li73 P24 N1 O95                         
   1.00000000000000     
    14.7029864799245225   -0.0005443635363744    0.0000033545631757
    -0.0004165844840428   10.5722369645104592   -0.0000000950194136
     0.0000028045452275   -0.0000000968534648   12.3018303544730152
   Li   P    N    O 
    73    24     1    95
Direct
  0.1758851373131386  0.4524388361356402  0.0000001645090894
  0.1699974643477626  0.4210741334436298  0.4999999791808746
  0.1703730838503712  0.9200285777944280 -0.0000007482798919
  0.1697168263919171  0.9204582297448621  0.4999994556323811
  0.5033359590208311  0.4238075856625527  0.0000002723217060
  0.5032885613596990  0.4228096123988767  0.4999998986437142
  0.5023511618006170  0.9220931842142361  0.0000000243221863
  0.5034545690312447  0.9222042227174856  0.5000001538767426
  0.8421364651014350  0.4237598270415431  0.0000002338189994
  0.8356911073912242  0.4235199397736106  0.5000000004286032
  0.8365768735305136  0.9210538700719264 -0.0000000877045614
  0.8364896992556186  0.9220655313182795  0.5000003440786174
  0.0029096471386828  0.0772780569819285  0.2510173925029894
  0.0029097942057542  0.0772783098782455  0.7489823262802536
  0.0032555320683491  0.5776419035348432  0.2463331694353905
  0.0032555700086579  0.5776420791071968  0.7536667783457650
  0.3385304332091894  0.0765419829101138  0.2523694027660227
  0.3385302042153033  0.0765422249014708  0.7476302252746158
  0.3372394279450609  0.5777053237489415  0.2491883142100030
  0.3372392618740271  0.5777055042387134  0.7508115021278042
  0.6693932313082458  0.0778460711443492  0.2500757672024899
  0.6693932269066003  0.0778459535800014  0.7499243399870601
  0.6701384415962655  0.5782839307593531  0.2500993590437975
  0.6701384511300218  0.5782840024696954  0.7499004476127463
  0.1767630565464313  0.1552606254850830  0.1366306381092598
  0.1695238852639785  0.1629324615644498  0.6247209445755842
  0.1660150906374113  0.6662875849524026  0.1263444792199246
  0.1691158586418009  0.6596382104135113  0.6270557399091602
  0.5028299618881076  0.1636962323259262  0.1264083006804894
  0.5032617049437411  0.1634076337243156  0.6260196504841872
  0.5063606437102226  0.6639608758375748  0.1268532385253362
  0.5029492420732651  0.6631487455676074  0.6263473327967906
  0.8346925042525980  0.1628728616026824  0.1263680996213301
  0.8357461296312235  0.1633448887328255  0.6261380613958295
  0.8388262308122264  0.6621240848063074  0.1244465759837954
  0.8365911447859449  0.6633573367419811  0.6267803102554661
 -0.0052820386771481  0.3455650100837271  0.1301125815915689
  0.0015478915598264  0.3369036804945143  0.6220541139411701
  0.0025676520163924  0.8322030934047746  0.1230492626994836
  0.0028470078961309  0.8358108600326470  0.6238252560062475
  0.3355435759361353  0.3386842260563913  0.1231407565439453
  0.3371357854050573  0.3364402336587755  0.6241345022211892
  0.3364668436603780  0.8370629751676122  0.1244886632721027
  0.3362638968453225  0.8355657200905646  0.6233761213002390
  0.6705401409452901  0.3374963752392346  0.1235031969704584
  0.6687812386824609  0.3367012179772499  0.6226382666970595
  0.6704706535665317  0.8366341596828909  0.1236049429524381
  0.6698960855040202  0.8368272039733280  0.6237471679252462
  0.0015477230270166  0.3369035153309689  0.3779458229238494
 -0.0052823037218173  0.3455653708270924  0.8698870756874033
  0.0028470211445993  0.8358108394686311  0.3761747908282053
  0.0025677749244693  0.8322032846221387  0.8769502940993014
  0.3371360418417901  0.3364402627480326  0.3758657958230919
  0.3355456688790839  0.3386846366551474  0.8768586244623857
  0.3362639778143325  0.8355655603708042  0.3766239409455033
  0.3364666579624850  0.8370628458483246  0.8755110533220566
  0.6687813146777785  0.3367011284760997  0.3773619344032702
  0.6705402467246713  0.3374963986170289  0.8764968110528036
  0.6698961738379560  0.8368272078072845  0.3762530569833720
  0.6704704275947986  0.8366340761589370  0.8763949831603135
  0.1695238567675343  0.1629319824016955  0.3752788482581274
  0.1767637883610915  0.1552610758898757  0.8633708241304711
  0.1691158175252218  0.6596378916139728  0.3729441902243955
  0.1660151695939955  0.6662880575912764  0.8736549731734907
  0.5032616328905242  0.1634072044098594  0.3739795105063897
  0.5028302116853842  0.1636961200435304  0.8735916165691081
  0.5029493082086037  0.6631486574853795  0.3736523561097364
  0.5063605776829124  0.6639609421036906  0.8731464717696904
  0.8357437326418052  0.1633459096560729  0.3738632327904874
  0.8346924941948569  0.1628728733376479  0.8736319229874608
  0.8365912066492592  0.6633572261893470  0.3732195555625163
  0.8388261784309385  0.6621241607012599  0.8755535396082293
  0.1014719288470240  0.2802299145687449 -0.0000004648299546
  0.1664621996537309  0.4101270952414057  0.2484065591213566
  0.1664623266870893  0.4101271373314165  0.7515935931006463
  0.1674686781355348  0.9104355085246674  0.2518396853410674
  0.1674686909467678  0.9104361159650497  0.7481602143297535
  0.5005048057794406  0.4121693582682363  0.2497757006070550
  0.5005049630296378  0.4121695454721072  0.7502241296970776
  0.5007186747615280  0.9123677790978666  0.2501093304060925
  0.5007185724856830  0.9123678985150340  0.7498906743370987
  0.8315739534586248  0.4119068744708083  0.2520089163387046
  0.8315739547340674  0.4119071327859776  0.7479911005274059
  0.8338093836518226  0.9126984340410361  0.2498009934715451
  0.8338093328570021  0.9126983742134179  0.7501990642696402
  0.0014558234951274  0.0856783154514952  0.0000000458154314
  0.0003056222202093  0.0874317889073995  0.4999999604427126
  0.0029820055574608  0.5784095437166796 -0.0000000228682141
  0.0005879516987732  0.5876693150505359  0.4999999746283673
  0.3323566418595512  0.0891811958320213 -0.0000004130436625
  0.3342294718477822  0.0872961562368931  0.4999999358042040
  0.3372433660156318  0.5946543487257048  0.0000000204494929
  0.3337437210941899  0.5867787267491652  0.4999999981154009
  0.6663033129116485  0.0875032909781205 -0.0000000496157637
  0.6669435819409322  0.0875867318724664  0.5000003085905913
  0.6683443929163535  0.5875296303292600 -0.0000000562512613
  0.6670130539931282  0.5884171469973688  0.5000000187867601
  0.0381131512117133  0.4374635307398630 -0.0000000667283487
  0.0356593111586642  0.1568676065332550  0.3960993882207097
  0.0398907394818334  0.1580834017922363  0.8979476249825032
  0.0358511337166451  0.6564997211371508  0.3958449038999022
  0.0353321755795218  0.6579325268195465  0.8960401163805916
  0.3696335743757922  0.1565548467069716  0.3961807860659952
  0.3672845276545288  0.1579451030584358  0.8957766685706988
  0.3687607748859705  0.6561657914715595  0.3959889872072154
  0.3741889990713593  0.6599335765452710  0.8953904105485543
  0.7019710181010826  0.1568242316231093  0.3959870298332565
  0.7014082211731603  0.1566842269060845  0.8959940447255815
  0.7023834111195488  0.6575209056727074  0.3960596475846102
  0.7027956619060725  0.6571105182026298  0.8958040556232831
  0.2030620327809439  0.0495985470003981  0.2549011808185669
  0.2030615510532437  0.0495993763656172  0.7450994653800631
  0.2014802674171158  0.5493716796075845  0.2467876555344851
  0.2014802825204544  0.5493718789400324  0.7532121627697654
  0.5336277586663781  0.0526976795872368  0.2502712816897905
  0.5336277344280167  0.0526977705995682  0.7497286992533472
  0.5345216599573459  0.5518754719196416  0.2504087688453090
  0.5345213979889756  0.5518758230263973  0.7495913325496215
  0.8678818155941284  0.0526841622807094  0.2497598844799635
  0.8678817335531066  0.0526841186451944  0.7502401968042606
  0.8667543464544449  0.5509241478200929  0.2506409206447910
  0.8667542790673475  0.5509244571138597  0.7493593069049098
  0.0609962342574593  0.4078896960648717  0.2533258003873294
  0.0609963576323106  0.4078897805600315  0.7466742881775582
  0.0616424892823588  0.9101180110829222  0.2501990988431511
  0.0616425674844444  0.9101187665335924  0.7498002140203637
  0.3944856872166643  0.4097014663327551  0.2493295880033418
  0.3944858433108276  0.4097019272173344  0.7506700615432180
  0.3947586611251072  0.9090528666431454  0.2502447804297065
  0.3947585669916057  0.9090528939982822  0.7497551327429905
  0.7257214735665170  0.4104105751807172  0.2522776438623256
  0.7257214907509113  0.4104107141558136  0.7477223565904105
  0.7278502021744958  0.9105338319803076  0.2501851837583116
  0.7278501885692316  0.9105338708620818  0.7498148979623095
  0.2257666238621335  0.0935675364104713  0.0000001873810078
  0.2283078610378001  0.0897032902155556  0.4999997567673010
  0.2319282541962393  0.6079029840760751 -0.0000000742711811
  0.2277797283769405  0.5882162119741922  0.4999999529802420
  0.5602864308478140  0.0898799932320008  0.0000000398502795
  0.5609986044737871  0.0900771440054311  0.5000001316482764
  0.5622110934073006  0.5899009058751993 -0.0000000390557663
  0.5610218910265867  0.5910444016342233  0.4999999421451133
  0.8961642339881807  0.0911466953832216 -0.0000000050046107
  0.8944408137502944  0.0900631461805146  0.5000001729558852
  0.8950955223402153  0.5908840266637942  0.0000000515574169
  0.8946648921497176  0.5906644346156885  0.4999999617811462
  0.1998833631542558  0.3400416187076339  0.1426658196022683
  0.2041103527606990  0.3407583599507363  0.6487606594999820
  0.2031724031360283  0.8439654421175783  0.1470502084164776
  0.2018512219116967  0.8394100461302975  0.6448943646861458
  0.5355788001388366  0.3431556911789665  0.1456094355409485
  0.5350981269525567  0.3426770150832140  0.6460763581717031
  0.5363640246090060  0.8442311205786491  0.1459371006345337
  0.5359933555946250  0.8431151933663159  0.6460197852455212
  0.8651692899628556  0.3403354284665602  0.1487493995421851
  0.8673652698370460  0.3431701207792250  0.6439338557767142
  0.8687526712381483  0.8440349978849131  0.1457069325401736
  0.8691649882159104  0.8435232842305415  0.6462348792518945
  0.0398908076904321  0.1580833024271795  0.1020525391314197
  0.0356593274850069  0.1568677153605067  0.6039004485507951
  0.0353321555369417  0.6579324086190512  0.1039598861894989
  0.0358510875101406  0.6564997040267755  0.6041550433020695
  0.3672848022102728  0.1579455300248820  0.1042227376271993
  0.3696334189302898  0.1565549840828933  0.6038190258410316
  0.3741889573043354  0.6599337362726025  0.1046094979762050
  0.3687607038035123  0.6561658854591655  0.6040109588735416
  0.7014082446461166  0.1566841173566710  0.1040058925300648
  0.7019711560934769  0.1568242941411036  0.6040132259886860
  0.7027956883536994  0.6571105743816048  0.1041957816540854
  0.7023833504247328  0.6575208812014607  0.6039404180240802
  0.0345494089297863  0.4477297691080276  0.4999999212424041
  0.0348247020810650  0.9467420766878553 -0.0000001595028126
  0.0343089531045585  0.9476881529732747  0.4999999359276034
  0.3646608119758145  0.4517982504764783  0.0000001075302147
  0.3679398070684924  0.4471210679808266  0.5000000429239783
  0.3651445618968601  0.9490843386576989 -0.0000006736359765
  0.3678301254161993  0.9473186682712623  0.4999999517844573
  0.7021742071957733  0.4478398617839515  0.0000000036350176
  0.7003519459382411  0.4484304121898994  0.4999999665764457
  0.7007869381919677  0.9480167285266656 -0.0000006293829421
  0.7008724863521838  0.9478053976053751  0.5000001602119959
  0.2041103691628714  0.3407581775984792  0.3512392862688987
  0.1998836846624992  0.3400421735047396  0.8573344045078722
  0.2018512579473736  0.8394086110062053  0.3551050564439250
  0.2031725370265926  0.8439658907246839  0.8529493004706846
  0.5350979875672516  0.3426768146687243  0.3539234304682863
  0.5355786627326692  0.3431558951001874  0.8543905564318950
  0.5359933952577098  0.8431152036935393  0.3539802480314538
  0.5363638968569894  0.8442311075790748  0.8540628523150949
  0.8673651783824330  0.3431698999655169  0.3560661764122139
  0.8651691690462435  0.3403356106823285  0.8512506098072212
  0.8691649185861386  0.8435232264113754  0.3537651512150985
  0.8687527299375312  0.8440351630966838  0.8542931058252569
 
  0.00000000E+00  0.00000000E+00  0.00000000E+00
  0.00000000E+00  0.00000000E+00  0.00000000E+00
  0.00000000E+00  0.00000000E+00  0.00000000E+00
  0.00000000E+00  0.00000000E+00  0.00000000E+00
  0.00000000E+00  0.00000000E+00  0.00000000E+00
  0.00000000E+00  0.00000000E+00  0.00000000E+00
  0.00000000E+00  0.00000000E+00  0.00000000E+00
  0.00000000E+00  0.00000000E+00  0.00000000E+00
  0.00000000E+00  0.00000000E+00  0.00000000E+00
  0.00000000E+00  0.00000000E+00  0.00000000E+00
  0.00000000E+00  0.00000000E+00  0.00000000E+00
  0.00000000E+00  0.00000000E+00  0.00000000E+00
  0.00000000E+00  0.00000000E+00  0.00000000E+00
  0.00000000E+00  0.00000000E+00  0.00000000E+00
  0.00000000E+00  0.00000000E+00  0.00000000E+00
  0.00000000E+00  0.00000000E+00  0.00000000E+00
  0.00000000E+00  0.00000000E+00  0.00000000E+00
  0.00000000E+00  0.00000000E+00  0.00000000E+00
  0.00000000E+00  0.00000000E+00  0.00000000E+00
  0.00000000E+00  0.00000000E+00  0.00000000E+00
  0.00000000E+00  0.00000000E+00  0.00000000E+00
  0.00000000E+00  0.00000000E+00  0.00000000E+00
  0.00000000E+00  0.00000000E+00  0.00000000E+00
  0.00000000E+00  0.00000000E+00  0.00000000E+00
  0.00000000E+00  0.00000000E+00  0.00000000E+00
  0.00000000E+00  0.00000000E+00  0.00000000E+00
  0.00000000E+00  0.00000000E+00  0.00000000E+00
  0.00000000E+00  0.00000000E+00  0.00000000E+00
  0.00000000E+00  0.00000000E+00  0.00000000E+00
  0.00000000E+00  0.00000000E+00  0.00000000E+00
  0.00000000E+00  0.00000000E+00  0.00000000E+00
  0.00000000E+00  0.00000000E+00  0.00000000E+00
  0.00000000E+00  0.00000000E+00  0.00000000E+00
  0.00000000E+00  0.00000000E+00  0.00000000E+00
  0.00000000E+00  0.00000000E+00  0.00000000E+00
  0.00000000E+00  0.00000000E+00  0.00000000E+00
  0.00000000E+00  0.00000000E+00  0.00000000E+00
  0.00000000E+00  0.00000000E+00  0.00000000E+00
  0.00000000E+00  0.00000000E+00  0.00000000E+00
  0.00000000E+00  0.00000000E+00  0.00000000E+00
  0.00000000E+00  0.00000000E+00  0.00000000E+00
  0.00000000E+00  0.00000000E+00  0.00000000E+00
  0.00000000E+00  0.00000000E+00  0.00000000E+00
  0.00000000E+00  0.00000000E+00  0.00000000E+00
  0.00000000E+00  0.00000000E+00  0.00000000E+00
  0.00000000E+00  0.00000000E+00  0.00000000E+00
  0.00000000E+00  0.00000000E+00  0.00000000E+00
  0.00000000E+00  0.00000000E+00  0.00000000E+00
  0.00000000E+00  0.00000000E+00  0.00000000E+00
  0.00000000E+00  0.00000000E+00  0.00000000E+00
  0.00000000E+00  0.00000000E+00  0.00000000E+00
  0.00000000E+00  0.00000000E+00  0.00000000E+00
  0.00000000E+00  0.00000000E+00  0.00000000E+00
  0.00000000E+00  0.00000000E+00  0.00000000E+00
  0.00000000E+00  0.00000000E+00  0.00000000E+00
  0.00000000E+00  0.00000000E+00  0.00000000E+00
  0.00000000E+00  0.00000000E+00  0.00000000E+00
  0.00000000E+00  0.00000000E+00  0.00000000E+00
  0.00000000E+00  0.00000000E+00  0.00000000E+00
  0.00000000E+00  0.00000000E+00  0.00000000E+00
  0.00000000E+00  0.00000000E+00  0.00000000E+00
  0.00000000E+00  0.00000000E+00  0.00000000E+00
  0.00000000E+00  0.00000000E+00  0.00000000E+00
  0.00000000E+00  0.00000000E+00  0.00000000E+00
  0.00000000E+00  0.00000000E+00  0.00000000E+00
  0.00000000E+00  0.00000000E+00  0.00000000E+00
  0.00000000E+00  0.00000000E+00  0.00000000E+00
  0.00000000E+00  0.00000000E+00  0.00000000E+00
  0.00000000E+00  0.00000000E+00  0.00000000E+00
  0.00000000E+00  0.00000000E+00  0.00000000E+00
  0.00000000E+00  0.00000000E+00  0.00000000E+00
  0.00000000E+00  0.00000000E+00  0.00000000E+00
  0.00000000E+00  0.00000000E+00  0.00000000E+00
  0.00000000E+00  0.00000000E+00  0.00000000E+00
  0.00000000E+00  0.00000000E+00  0.00000000E+00
  0.00000000E+00  0.00000000E+00  0.00000000E+00
  0.00000000E+00  0.00000000E+00  0.00000000E+00
  0.00000000E+00  0.00000000E+00  0.00000000E+00
  0.00000000E+00  0.00000000E+00  0.00000000E+00
  0.00000000E+00  0.00000000E+00  0.00000000E+00
  0.00000000E+00  0.00000000E+00  0.00000000E+00
  0.00000000E+00  0.00000000E+00  0.00000000E+00
  0.00000000E+00  0.00000000E+00  0.00000000E+00
  0.00000000E+00  0.00000000E+00  0.00000000E+00
  0.00000000E+00  0.00000000E+00  0.00000000E+00
  0.00000000E+00  0.00000000E+00  0.00000000E+00
  0.00000000E+00  0.00000000E+00  0.00000000E+00
  0.00000000E+00  0.00000000E+00  0.00000000E+00
  0.00000000E+00  0.00000000E+00  0.00000000E+00
  0.00000000E+00  0.00000000E+00  0.00000000E+00
  0.00000000E+00  0.00000000E+00  0.00000000E+00
  0.00000000E+00  0.00000000E+00  0.00000000E+00
  0.00000000E+00  0.00000000E+00  0.00000000E+00
  0.00000000E+00  0.00000000E+00  0.00000000E+00
  0.00000000E+00  0.00000000E+00  0.00000000E+00
  0.00000000E+00  0.00000000E+00  0.00000000E+00
  0.00000000E+00  0.00000000E+00  0.00000000E+00
  0.00000000E+00  0.00000000E+00  0.00000000E+00
  0.00000000E+00  0.00000000E+00  0.00000000E+00
  0.00000000E+00  0.00000000E+00  0.00000000E+00
  0.00000000E+00  0.00000000E+00  0.00000000E+00
  0.00000000E+00  0.00000000E+00  0.00000000E+00
  0.00000000E+00  0.00000000E+00  0.00000000E+00
  0.00000000E+00  0.00000000E+00  0.00000000E+00
  0.00000000E+00  0.00000000E+00  0.00000000E+00
  0.00000000E+00  0.00000000E+00  0.00000000E+00
  0.00000000E+00  0.00000000E+00  0.00000000E+00
  0.00000000E+00  0.00000000E+00  0.00000000E+00
  0.00000000E+00  0.00000000E+00  0.00000000E+00
  0.00000000E+00  0.00000000E+00  0.00000000E+00
  0.00000000E+00  0.00000000E+00  0.00000000E+00
  0.00000000E+00  0.00000000E+00  0.00000000E+00
  0.00000000E+00  0.00000000E+00  0.00000000E+00
  0.00000000E+00  0.00000000E+00  0.00000000E+00
  0.00000000E+00  0.00000000E+00  0.00000000E+00
  0.00000000E+00  0.00000000E+00  0.00000000E+00
  0.00000000E+00  0.00000000E+00  0.00000000E+00
  0.00000000E+00  0.00000000E+00  0.00000000E+00
  0.00000000E+00  0.00000000E+00  0.00000000E+00
  0.00000000E+00  0.00000000E+00  0.00000000E+00
  0.00000000E+00  0.00000000E+00  0.00000000E+00
  0.00000000E+00  0.00000000E+00  0.00000000E+00
  0.00000000E+00  0.00000000E+00  0.00000000E+00
  0.00000000E+00  0.00000000E+00  0.00000000E+00
  0.00000000E+00  0.00000000E+00  0.00000000E+00
  0.00000000E+00  0.00000000E+00  0.00000000E+00
  0.00000000E+00  0.00000000E+00  0.00000000E+00
  0.00000000E+00  0.00000000E+00  0.00000000E+00
  0.00000000E+00  0.00000000E+00  0.00000000E+00
  0.00000000E+00  0.00000000E+00  0.00000000E+00
  0.00000000E+00  0.00000000E+00  0.00000000E+00
  0.00000000E+00  0.00000000E+00  0.00000000E+00
  0.00000000E+00  0.00000000E+00  0.00000000E+00
  0.00000000E+00  0.00000000E+00  0.00000000E+00
  0.00000000E+00  0.00000000E+00  0.00000000E+00
  0.00000000E+00  0.00000000E+00  0.00000000E+00
  0.00000000E+00  0.00000000E+00  0.00000000E+00
  0.00000000E+00  0.00000000E+00  0.00000000E+00
  0.00000000E+00  0.00000000E+00  0.00000000E+00
  0.00000000E+00  0.00000000E+00  0.00000000E+00
  0.00000000E+00  0.00000000E+00  0.00000000E+00
  0.00000000E+00  0.00000000E+00  0.00000000E+00
  0.00000000E+00  0.00000000E+00  0.00000000E+00
  0.00000000E+00  0.00000000E+00  0.00000000E+00
  0.00000000E+00  0.00000000E+00  0.00000000E+00
  0.00000000E+00  0.00000000E+00  0.00000000E+00
  0.00000000E+00  0.00000000E+00  0.00000000E+00
  0.00000000E+00  0.00000000E+00  0.00000000E+00
  0.00000000E+00  0.00000000E+00  0.00000000E+00
  0.00000000E+00  0.00000000E+00  0.00000000E+00
  0.00000000E+00  0.00000000E+00  0.00000000E+00
  0.00000000E+00  0.00000000E+00  0.00000000E+00
  0.00000000E+00  0.00000000E+00  0.00000000E+00
  0.00000000E+00  0.00000000E+00  0.00000000E+00
  0.00000000E+00  0.00000000E+00  0.00000000E+00
  0.00000000E+00  0.00000000E+00  0.00000000E+00
  0.00000000E+00  0.00000000E+00  0.00000000E+00
  0.00000000E+00  0.00000000E+00  0.00000000E+00
  0.00000000E+00  0.00000000E+00  0.00000000E+00
  0.00000000E+00  0.00000000E+00  0.00000000E+00
  0.00000000E+00  0.00000000E+00  0.00000000E+00
  0.00000000E+00  0.00000000E+00  0.00000000E+00
  0.00000000E+00  0.00000000E+00  0.00000000E+00
  0.00000000E+00  0.00000000E+00  0.00000000E+00
  0.00000000E+00  0.00000000E+00  0.00000000E+00
  0.00000000E+00  0.00000000E+00  0.00000000E+00
  0.00000000E+00  0.00000000E+00  0.00000000E+00
  0.00000000E+00  0.00000000E+00  0.00000000E+00
  0.00000000E+00  0.00000000E+00  0.00000000E+00
  0.00000000E+00  0.00000000E+00  0.00000000E+00
  0.00000000E+00  0.00000000E+00  0.00000000E+00
  0.00000000E+00  0.00000000E+00  0.00000000E+00
  0.00000000E+00  0.00000000E+00  0.00000000E+00
  0.00000000E+00  0.00000000E+00  0.00000000E+00
  0.00000000E+00  0.00000000E+00  0.00000000E+00
  0.00000000E+00  0.00000000E+00  0.00000000E+00
  0.00000000E+00  0.00000000E+00  0.00000000E+00
  0.00000000E+00  0.00000000E+00  0.00000000E+00
  0.00000000E+00  0.00000000E+00  0.00000000E+00
  0.00000000E+00  0.00000000E+00  0.00000000E+00
  0.00000000E+00  0.00000000E+00  0.00000000E+00
  0.00000000E+00  0.00000000E+00  0.00000000E+00
  0.00000000E+00  0.00000000E+00  0.00000000E+00
  0.00000000E+00  0.00000000E+00  0.00000000E+00
  0.00000000E+00  0.00000000E+00  0.00000000E+00
  0.00000000E+00  0.00000000E+00  0.00000000E+00
  0.00000000E+00  0.00000000E+00  0.00000000E+00
  0.00000000E+00  0.00000000E+00  0.00000000E+00
  0.00000000E+00  0.00000000E+00  0.00000000E+00
  0.00000000E+00  0.00000000E+00  0.00000000E+00
  0.00000000E+00  0.00000000E+00  0.00000000E+00
  0.00000000E+00  0.00000000E+00  0.00000000E+00
  0.00000000E+00  0.00000000E+00  0.00000000E+00
