Li14 N42
1.0
3.354050 0.000000 0.000000
0.000000 4.763721 -1.480851
0.000000 0.000000 62.535748
Li N
14 42
direct
0.000000 0.000000 0.068182 Li+
0.500000 0.000000 0.022727 Li+
0.000000 0.000000 0.159091 Li+
0.500000 0.000000 0.113636 Li+
0.000000 0.000000 0.250000 Li+
0.500000 0.000000 0.204545 Li+
0.000000 0.000000 0.340909 Li+
0.500000 0.000000 0.295455 Li+
0.000000 0.000000 0.431818 Li+
0.500000 0.000000 0.386364 Li+
0.000000 0.000000 0.522727 Li+
0.500000 0.000000 0.477273 Li+
0.000000 0.000000 0.613636 Li+
0.500000 0.000000 0.568182 Li+
0.000000 0.256707 0.013108 N3-
0.000000 0.743293 0.032346 N3-
0.000000 0.500000 0.022727 N3-
0.500000 0.256707 0.058563 N3-
0.500000 0.743293 0.077801 N3-
0.500000 0.500000 0.068182 N3-
0.000000 0.256707 0.104017 N3-
0.000000 0.743293 0.123256 N3-
0.000000 0.500000 0.113636 N3-
0.500000 0.256707 0.149472 N3-
0.500000 0.743293 0.168710 N3-
0.500000 0.500000 0.159091 N3-
0.000000 0.256707 0.194926 N3-
0.000000 0.743293 0.214165 N3-
0.000000 0.500000 0.204545 N3-
0.500000 0.256707 0.240381 N3-
0.500000 0.743293 0.259619 N3-
0.500000 0.500000 0.250000 N3-
0.000000 0.256707 0.285835 N3-
0.000000 0.743293 0.305074 N3-
0.000000 0.500000 0.295455 N3-
0.500000 0.256707 0.331290 N3-
0.500000 0.743293 0.350528 N3-
0.500000 0.500000 0.340909 N3-
0.000000 0.256707 0.376744 N3-
0.000000 0.743293 0.395983 N3-
0.000000 0.500000 0.386364 N3-
0.500000 0.256707 0.422199 N3-
0.500000 0.743293 0.441437 N3-
0.500000 0.500000 0.431818 N3-
0.000000 0.256707 0.467654 N3-
0.000000 0.743293 0.486892 N3-
0.000000 0.500000 0.477273 N3-
0.500000 0.256707 0.513108 N3-
0.500000 0.743293 0.532346 N3-
0.500000 0.500000 0.522727 N3-
0.000000 0.256707 0.558563 N3-
0.000000 0.743293 0.577801 N3-
0.000000 0.500000 0.568182 N3-
0.500000 0.256707 0.604017 N3-
0.500000 0.743293 0.623256 N3-
0.500000 0.500000 0.613636 N3-
