Li71 P24 N1 O94                         
   1.00000000000000     
    14.7090180077541035   -0.0017365017976227    0.0131025946842175
    -0.0012430503920837   10.5696428705269003   -0.0098146767740729
     0.0109754802598677   -0.0114625153709277   12.3020180556409091
   Li   P    N    O 
    71    24     1    94
Direct
  0.1680467240740718  0.4243136745091073 -0.0001030891911669
  0.1685354167015239  0.4181205778037307  0.5036313473763294
  0.1590371705183773  0.8989918218260090  0.0052391800398149
  0.1698685447602727  0.9212157940813290  0.4994332211247215
  0.5033430732792438  0.4232915704683552  0.0010206862120666
  0.5047011096501411  0.4226965786562046  0.4999872455248890
  0.5088787313652232  0.9192604157874464  0.0007383181672264
  0.5032241915236331  0.9225122605000359  0.4994215172450573
  0.8371754270608750  0.4238179317796604  0.0000382561412298
  0.8372781486957798  0.4215286511648644  0.4989177114994592
  0.8343314753143054  0.9202729917404006 -0.0008266797575285
  0.8366569332897325  0.9222833010779891  0.4991599069827593
  0.0088256925550131  0.0796217560468267  0.2467113678208341
  0.0006206618936895  0.0772445862790670  0.7496629546971912
  0.0029460284546516  0.5800819451116717  0.2489292800903335
  0.0025020864364180  0.5771819515394658  0.7497117761849404
  0.3323788329468124  0.0785871200874837  0.2523617061181429
  0.3360741499752826  0.0764154927794821  0.7475017034941711
  0.3349631224577224  0.5761526816868203  0.2517349005106089
  0.3372252059199207  0.5773001665560912  0.7498526316168138
  0.6717887486622223  0.0778850427990182  0.2504493984287728
  0.6697649995422362  0.0768951112007982  0.7487255950063748
  0.6715620680630021  0.5777213657958523  0.2505105593258432
  0.6695430271608751  0.5774372678733329  0.7498216539805338
  0.1692549093593011  0.1625126113105906  0.6253950462095796
  0.1689363612177688  0.6644066803583669  0.1273396824838207
  0.1696171059062217  0.6626277907163785  0.6266468223482418
  0.5074575405011843  0.1648213510652127  0.1293127691112436
  0.5031311483546754  0.1630675231822800  0.6257590784213604
  0.5032521265863682  0.6629418007200165  0.1274140952616438
  0.5028295058122866  0.6630743578247621  0.6262641958341406
  0.8401966467644091  0.1628436609254067  0.1248224033820430
  0.8358438138460411  0.1629740073932556  0.6254845278771807
  0.8361289595603751  0.6636070705845544  0.1264140854901588
  0.8358769079180491  0.6626019100060543  0.6265615721211428
  0.0054548351237952  0.3355538408280196  0.1217354317856605
  0.0022043691066249  0.3360881569557119  0.6233346052237120
  0.0004909272532603  0.8384025252018407  0.1255869156528213
  0.0025883210614300  0.8365129252590970  0.6238466321372323
  0.3324034168427716  0.3394747753644196  0.1256362686265974
  0.3369567431849122  0.3357544259231198  0.6230167713422612
  0.3360230422470302  0.8349465632479800  0.1269785167571946
  0.3366860033869750  0.8360836810251636  0.6238600536626273
  0.6721082151389141  0.3371387519762658  0.1236231566705293
  0.6697953267961709  0.3366383718206687  0.6233478996548739
  0.6700504354535265  0.8365353867712151  0.1246405178101015
  0.6691482894257927  0.8362783841586277  0.6226040421959499
  0.0076971906406128  0.3381523812839107  0.3731349965996756
  0.0009348508141006  0.3370759091301344  0.8769123102205449
  0.0032149637990865  0.8372357723682493  0.3763700948615353
 -0.0003628074857705  0.8375189227270513  0.8755643396575055
  0.3412463963355068  0.3363318187052781  0.3760189398575381
  0.3356263357486793  0.3404823969242586  0.8768716278023927
  0.3356720048276393  0.8356490223280978  0.3764375729307356
  0.3358201124900881  0.8347841444821247  0.8755584893800207
  0.6705222515089238  0.3367649599651913  0.3761491578595703
  0.6697653644247260  0.3373022900527509  0.8765274139519252
  0.6698324287732823  0.8366009115073663  0.3764196839893688
  0.6696293114937431  0.8359441139149612  0.8751412635501612
  0.1692154454114223  0.1598049896272262  0.3740469793952776
  0.1617211604265352  0.1706718344201517  0.8658914858049862
  0.1682429163000962  0.6618652304720273  0.3766239764216277
  0.1688516141177763  0.6626179419287775  0.8727930729275019
  0.5035477215103599  0.1631169352654656  0.3737673891935792
  0.5073644718753181  0.1644688013549119  0.8721633725115420
  0.5032213742937423  0.6630781107066390  0.3737533291271281
  0.5032757661212000  0.6629685734159502  0.8738690303580356
  0.8385329942965425  0.1638652986191899  0.3727481350823761
  0.8341160402370815  0.1625762937806831  0.8717743270442615
  0.8373158654143387  0.6633164206707398  0.3742629853078663
  0.8352544464028329  0.6629935736633521  0.8727860801552503
  0.1665927598860996  0.4172416465011488  0.2447217044913693
  0.1670409228855562  0.4117291236397214  0.7504862503053029
  0.1680495959134289  0.9112383529190867  0.2522076772223835
  0.1663016128914125  0.9131188288555214  0.7528710867436736
  0.5025162347913097  0.4130427728728776  0.2494999412281466
  0.5004041306568048  0.4121147751294390  0.7500935332644288
  0.5009320658494080  0.9125312261680922  0.2503924487138620
  0.5002270236586930  0.9120946551921419  0.7500363868750061
  0.8347558981976150  0.4129225439257466  0.2493039507361579
  0.8332104875265163  0.4117308432582915  0.7497469836854957
  0.8337403818108393  0.9125476745722354  0.2501374492945112
  0.8325772490622499  0.9116087757064333  0.7486576394828581
 -0.0030022305814625  0.0873662113734038  0.0002633723803691
  0.0005851087623618  0.0874631731696026  0.5001805427030913
 -0.0000681416734972  0.5901423414808290 -0.0016361904736356
  0.0000741745911113  0.5874906017757191  0.5008352636667606
  0.3391945797827244  0.0874105337539335  0.0010701399991340
  0.3342904057049300  0.0863770428585144  0.5006235196679932
  0.3337456297418058  0.5890561532388119  0.0001001374823064
  0.3344575327908106  0.5865199391156597  0.5009015770038168
  0.6664931424379997  0.0875706149214640 -0.0003016659438777
  0.6676021838878358  0.0878976422586846  0.4998369234670396
  0.6670918695802043  0.5881070830136412 -0.0000421204963959
  0.6676124290057747  0.5879177741242890  0.5002302820208361
  0.2076232929413401  0.3475637767861181  0.3520752208978130
  0.0360326558699010  0.1563238889467523  0.3965597268714970
  0.0346511546000551  0.1562398542923609  0.8962779706962667
  0.0347991533851464  0.6571162385345009  0.3971300628208553
  0.0351940831542041  0.6592153503153114  0.8940937564660241
  0.3705912450047869  0.1553910615707989  0.3974027332157235
  0.3676855804134108  0.1577391860450203  0.8950917885734613
  0.3693847900228346  0.6560851714721387  0.3970063211928782
  0.3696242088302282  0.6577983020134017  0.8959673002594145
  0.7034859824332428  0.1572133718932139  0.3963542360217291
  0.7004337756463285  0.1562394130001387  0.8949229435603843
  0.7033199443282581  0.6573340514638084  0.3967313873429960
  0.7018665444356510  0.6570172635132520  0.8955927504888129
  0.2038381414943030  0.0477183437516319  0.2567074279578034
  0.2003723576706032  0.0534314400517065  0.7545443121221083
  0.1988046457589024  0.5588351919374956  0.2520681988772177
  0.2011461886203455  0.5513631842514929  0.7505195959172671
  0.5356192772464380  0.0520642045899319  0.2502844331795454
  0.5337995661497306  0.0521678058394655  0.7500646613822189
  0.5368275156707440  0.5527017145691753  0.2502273676912982
  0.5339670128733227  0.5520842475469538  0.7500192874379645
  0.8677042030175406  0.0520107029978261  0.2497621039675453
  0.8662417050571911  0.0515355045510628  0.7485293745603022
  0.8675702991367410  0.5534432758386060  0.2496926772951739
  0.8673217818161588  0.5514859400371274  0.7499747348934089
  0.0601428088173707  0.4150761122243035  0.2445467635540213
  0.0612658329849066  0.4085392092060118  0.7503628924837511
  0.0619610045496068  0.9079221854687227  0.2504057520496883
  0.0606713895805808  0.9102538562094469  0.7511716907833959
  0.3969553703894692  0.4110833533765810  0.2484982745522789
  0.3944925335914599  0.4090105629532031  0.7502012023807996
  0.3951134014669357  0.9106288744522525  0.2504227224423112
  0.3942533732645165  0.9095091422679963  0.7508675800730322
  0.7287344340173262  0.4097448867583196  0.2506361471699746
  0.7273207739136826  0.4094492431314833  0.7497651051507703
  0.7277403890618630  0.9096476270218787  0.2505595586916834
  0.7267008190054014  0.9089939497033329  0.7487181887444893
  0.2284755582831885  0.0882097755930858  0.5015656892729459
  0.2278937113031322  0.5939514022340419 -0.0007201566734743
  0.2284901939948353  0.5870641422409528  0.5015469435748171
  0.5602202333574698  0.0909418310543697  0.0005944872265239
  0.5616742778060635  0.0906191604695233  0.4996897265249974
  0.5611689292276869  0.5909887825845077  0.0002978123572051
  0.5616959486881540  0.5909620180727949  0.5000431063057225
  0.8909626919214630  0.0854163692728800 -0.0061280874970632
  0.8947061665577442  0.0900290231989810  0.5001830867254616
  0.8940638181790267  0.5929731403730648 -0.0010765541439183
  0.8942081676879713  0.5898304490773332  0.5011781291035182
  0.2026411868719687  0.3559758550920487  0.1391289361354968
  0.2029244857166459  0.3412548392856111  0.6475142293786296
  0.2031187590648348  0.8432225135455101  0.1460543676126140
  0.2030946911267323  0.8438213526785451  0.6498269301286180
  0.5383626088473870  0.3436489357791712  0.1456149071144504
  0.5359414652265752  0.3424931723383617  0.6463906250403306
  0.5359778526973540  0.8429962684075102  0.1461458471618875
  0.5352473782421890  0.8430097994252234  0.6459165529349785
  0.8688045369553525  0.3448459338296363  0.1442613792921703
  0.8686166366723159  0.3422849843108988  0.6458582656447925
  0.8680309899845303  0.8428710598829371  0.1456793649045475
  0.8684366360200644  0.8423337219211532  0.6449485028033940
  0.0255371031828607  0.1572935297990461  0.1041658688194529
  0.0355718624820987  0.1565168163195403  0.6047132474088357
  0.0357169807958760  0.6602624448929509  0.1016153364746409
  0.0356368491901920  0.6568217209411473  0.6049188562909530
  0.3700223429953096  0.1584027639520978  0.1048997767633757
  0.3693089741048463  0.1554847953599674  0.6050612335736021
  0.3692263092002565  0.6574429948455085  0.1043396094582793
  0.3688296197293883  0.6570485258234151  0.6049640153851359
  0.7027191291641440  0.1564861069252387  0.1030736249972785
  0.7022823688068772  0.1569274131359578  0.6042428485255232
  0.7025610873431775  0.6574240246125013  0.1037070750133992
  0.7023182354530949  0.6567895971455120  0.6046936635913982
  0.0333608262751281  0.4503988903242860 -0.0025447457669871
  0.0339967508752945  0.4477308237617647  0.5009682267029300
  0.0329891037868237  0.9476172952533128 -0.0001082247887263
  0.0345251294215764  0.9474903092883969  0.5008667154741314
  0.3672920812167363  0.4490505952838545 -0.0003283943030235
  0.3702375142595302  0.4477344496091294  0.5015151875373914
  0.3687686312282834  0.9463071672963173  0.0004962521940025
  0.3680625663705653  0.9463503257515140  0.5006691278897015
  0.7010442760308278  0.4483461549262637 -0.0003835655631522
  0.7011349913040272  0.4478819682607272  0.5000797632394268
  0.6986779945295623  0.9469561714787168 -0.0007038102939383
  0.7010808436629457  0.9478861764680263  0.4998877220906902
  0.2020828023586780  0.3427700057163798  0.8549370684029884
  0.2018035757093586  0.8369467714355936  0.3548257492607890
  0.2010944190581215  0.8455522032691014  0.8581707419849590
  0.5366819741067556  0.3430663753590816  0.3535755664344813
  0.5354888315878710  0.3434982605676116  0.8543586380566842
  0.5360097882790824  0.8429489799507546  0.3540142834673365
  0.5356261492832581  0.8431241995703208  0.8538502777597318
  0.8709098865070957  0.3437357611082516  0.3526237656377911
  0.8679795480456882  0.3424952260525885  0.8537534588610752
  0.8691230293173174  0.8430330049863901  0.3537338799730975
  0.8672434755969474  0.8422635443679742  0.8525746905415864
 
  0.00000000E+00  0.00000000E+00  0.00000000E+00
  0.00000000E+00  0.00000000E+00  0.00000000E+00
  0.00000000E+00  0.00000000E+00  0.00000000E+00
  0.00000000E+00  0.00000000E+00  0.00000000E+00
  0.00000000E+00  0.00000000E+00  0.00000000E+00
  0.00000000E+00  0.00000000E+00  0.00000000E+00
  0.00000000E+00  0.00000000E+00  0.00000000E+00
  0.00000000E+00  0.00000000E+00  0.00000000E+00
  0.00000000E+00  0.00000000E+00  0.00000000E+00
  0.00000000E+00  0.00000000E+00  0.00000000E+00
  0.00000000E+00  0.00000000E+00  0.00000000E+00
  0.00000000E+00  0.00000000E+00  0.00000000E+00
  0.00000000E+00  0.00000000E+00  0.00000000E+00
  0.00000000E+00  0.00000000E+00  0.00000000E+00
  0.00000000E+00  0.00000000E+00  0.00000000E+00
  0.00000000E+00  0.00000000E+00  0.00000000E+00
  0.00000000E+00  0.00000000E+00  0.00000000E+00
  0.00000000E+00  0.00000000E+00  0.00000000E+00
  0.00000000E+00  0.00000000E+00  0.00000000E+00
  0.00000000E+00  0.00000000E+00  0.00000000E+00
  0.00000000E+00  0.00000000E+00  0.00000000E+00
  0.00000000E+00  0.00000000E+00  0.00000000E+00
  0.00000000E+00  0.00000000E+00  0.00000000E+00
  0.00000000E+00  0.00000000E+00  0.00000000E+00
  0.00000000E+00  0.00000000E+00  0.00000000E+00
  0.00000000E+00  0.00000000E+00  0.00000000E+00
  0.00000000E+00  0.00000000E+00  0.00000000E+00
  0.00000000E+00  0.00000000E+00  0.00000000E+00
  0.00000000E+00  0.00000000E+00  0.00000000E+00
  0.00000000E+00  0.00000000E+00  0.00000000E+00
  0.00000000E+00  0.00000000E+00  0.00000000E+00
  0.00000000E+00  0.00000000E+00  0.00000000E+00
  0.00000000E+00  0.00000000E+00  0.00000000E+00
  0.00000000E+00  0.00000000E+00  0.00000000E+00
  0.00000000E+00  0.00000000E+00  0.00000000E+00
  0.00000000E+00  0.00000000E+00  0.00000000E+00
  0.00000000E+00  0.00000000E+00  0.00000000E+00
  0.00000000E+00  0.00000000E+00  0.00000000E+00
  0.00000000E+00  0.00000000E+00  0.00000000E+00
  0.00000000E+00  0.00000000E+00  0.00000000E+00
  0.00000000E+00  0.00000000E+00  0.00000000E+00
  0.00000000E+00  0.00000000E+00  0.00000000E+00
  0.00000000E+00  0.00000000E+00  0.00000000E+00
  0.00000000E+00  0.00000000E+00  0.00000000E+00
  0.00000000E+00  0.00000000E+00  0.00000000E+00
  0.00000000E+00  0.00000000E+00  0.00000000E+00
  0.00000000E+00  0.00000000E+00  0.00000000E+00
  0.00000000E+00  0.00000000E+00  0.00000000E+00
  0.00000000E+00  0.00000000E+00  0.00000000E+00
  0.00000000E+00  0.00000000E+00  0.00000000E+00
  0.00000000E+00  0.00000000E+00  0.00000000E+00
  0.00000000E+00  0.00000000E+00  0.00000000E+00
  0.00000000E+00  0.00000000E+00  0.00000000E+00
  0.00000000E+00  0.00000000E+00  0.00000000E+00
  0.00000000E+00  0.00000000E+00  0.00000000E+00
  0.00000000E+00  0.00000000E+00  0.00000000E+00
  0.00000000E+00  0.00000000E+00  0.00000000E+00
  0.00000000E+00  0.00000000E+00  0.00000000E+00
  0.00000000E+00  0.00000000E+00  0.00000000E+00
  0.00000000E+00  0.00000000E+00  0.00000000E+00
  0.00000000E+00  0.00000000E+00  0.00000000E+00
  0.00000000E+00  0.00000000E+00  0.00000000E+00
  0.00000000E+00  0.00000000E+00  0.00000000E+00
  0.00000000E+00  0.00000000E+00  0.00000000E+00
  0.00000000E+00  0.00000000E+00  0.00000000E+00
  0.00000000E+00  0.00000000E+00  0.00000000E+00
  0.00000000E+00  0.00000000E+00  0.00000000E+00
  0.00000000E+00  0.00000000E+00  0.00000000E+00
  0.00000000E+00  0.00000000E+00  0.00000000E+00
  0.00000000E+00  0.00000000E+00  0.00000000E+00
  0.00000000E+00  0.00000000E+00  0.00000000E+00
  0.00000000E+00  0.00000000E+00  0.00000000E+00
  0.00000000E+00  0.00000000E+00  0.00000000E+00
  0.00000000E+00  0.00000000E+00  0.00000000E+00
  0.00000000E+00  0.00000000E+00  0.00000000E+00
  0.00000000E+00  0.00000000E+00  0.00000000E+00
  0.00000000E+00  0.00000000E+00  0.00000000E+00
  0.00000000E+00  0.00000000E+00  0.00000000E+00
  0.00000000E+00  0.00000000E+00  0.00000000E+00
  0.00000000E+00  0.00000000E+00  0.00000000E+00
  0.00000000E+00  0.00000000E+00  0.00000000E+00
  0.00000000E+00  0.00000000E+00  0.00000000E+00
  0.00000000E+00  0.00000000E+00  0.00000000E+00
  0.00000000E+00  0.00000000E+00  0.00000000E+00
  0.00000000E+00  0.00000000E+00  0.00000000E+00
  0.00000000E+00  0.00000000E+00  0.00000000E+00
  0.00000000E+00  0.00000000E+00  0.00000000E+00
  0.00000000E+00  0.00000000E+00  0.00000000E+00
  0.00000000E+00  0.00000000E+00  0.00000000E+00
  0.00000000E+00  0.00000000E+00  0.00000000E+00
  0.00000000E+00  0.00000000E+00  0.00000000E+00
  0.00000000E+00  0.00000000E+00  0.00000000E+00
  0.00000000E+00  0.00000000E+00  0.00000000E+00
  0.00000000E+00  0.00000000E+00  0.00000000E+00
  0.00000000E+00  0.00000000E+00  0.00000000E+00
  0.00000000E+00  0.00000000E+00  0.00000000E+00
  0.00000000E+00  0.00000000E+00  0.00000000E+00
  0.00000000E+00  0.00000000E+00  0.00000000E+00
  0.00000000E+00  0.00000000E+00  0.00000000E+00
  0.00000000E+00  0.00000000E+00  0.00000000E+00
  0.00000000E+00  0.00000000E+00  0.00000000E+00
  0.00000000E+00  0.00000000E+00  0.00000000E+00
  0.00000000E+00  0.00000000E+00  0.00000000E+00
  0.00000000E+00  0.00000000E+00  0.00000000E+00
  0.00000000E+00  0.00000000E+00  0.00000000E+00
  0.00000000E+00  0.00000000E+00  0.00000000E+00
  0.00000000E+00  0.00000000E+00  0.00000000E+00
  0.00000000E+00  0.00000000E+00  0.00000000E+00
  0.00000000E+00  0.00000000E+00  0.00000000E+00
  0.00000000E+00  0.00000000E+00  0.00000000E+00
  0.00000000E+00  0.00000000E+00  0.00000000E+00
  0.00000000E+00  0.00000000E+00  0.00000000E+00
  0.00000000E+00  0.00000000E+00  0.00000000E+00
  0.00000000E+00  0.00000000E+00  0.00000000E+00
  0.00000000E+00  0.00000000E+00  0.00000000E+00
  0.00000000E+00  0.00000000E+00  0.00000000E+00
  0.00000000E+00  0.00000000E+00  0.00000000E+00
  0.00000000E+00  0.00000000E+00  0.00000000E+00
  0.00000000E+00  0.00000000E+00  0.00000000E+00
  0.00000000E+00  0.00000000E+00  0.00000000E+00
  0.00000000E+00  0.00000000E+00  0.00000000E+00
  0.00000000E+00  0.00000000E+00  0.00000000E+00
  0.00000000E+00  0.00000000E+00  0.00000000E+00
  0.00000000E+00  0.00000000E+00  0.00000000E+00
  0.00000000E+00  0.00000000E+00  0.00000000E+00
  0.00000000E+00  0.00000000E+00  0.00000000E+00
  0.00000000E+00  0.00000000E+00  0.00000000E+00
  0.00000000E+00  0.00000000E+00  0.00000000E+00
  0.00000000E+00  0.00000000E+00  0.00000000E+00
  0.00000000E+00  0.00000000E+00  0.00000000E+00
  0.00000000E+00  0.00000000E+00  0.00000000E+00
  0.00000000E+00  0.00000000E+00  0.00000000E+00
  0.00000000E+00  0.00000000E+00  0.00000000E+00
  0.00000000E+00  0.00000000E+00  0.00000000E+00
  0.00000000E+00  0.00000000E+00  0.00000000E+00
  0.00000000E+00  0.00000000E+00  0.00000000E+00
  0.00000000E+00  0.00000000E+00  0.00000000E+00
  0.00000000E+00  0.00000000E+00  0.00000000E+00
  0.00000000E+00  0.00000000E+00  0.00000000E+00
  0.00000000E+00  0.00000000E+00  0.00000000E+00
  0.00000000E+00  0.00000000E+00  0.00000000E+00
  0.00000000E+00  0.00000000E+00  0.00000000E+00
  0.00000000E+00  0.00000000E+00  0.00000000E+00
  0.00000000E+00  0.00000000E+00  0.00000000E+00
  0.00000000E+00  0.00000000E+00  0.00000000E+00
  0.00000000E+00  0.00000000E+00  0.00000000E+00
  0.00000000E+00  0.00000000E+00  0.00000000E+00
  0.00000000E+00  0.00000000E+00  0.00000000E+00
  0.00000000E+00  0.00000000E+00  0.00000000E+00
  0.00000000E+00  0.00000000E+00  0.00000000E+00
  0.00000000E+00  0.00000000E+00  0.00000000E+00
  0.00000000E+00  0.00000000E+00  0.00000000E+00
  0.00000000E+00  0.00000000E+00  0.00000000E+00
  0.00000000E+00  0.00000000E+00  0.00000000E+00
  0.00000000E+00  0.00000000E+00  0.00000000E+00
  0.00000000E+00  0.00000000E+00  0.00000000E+00
  0.00000000E+00  0.00000000E+00  0.00000000E+00
  0.00000000E+00  0.00000000E+00  0.00000000E+00
  0.00000000E+00  0.00000000E+00  0.00000000E+00
  0.00000000E+00  0.00000000E+00  0.00000000E+00
  0.00000000E+00  0.00000000E+00  0.00000000E+00
  0.00000000E+00  0.00000000E+00  0.00000000E+00
  0.00000000E+00  0.00000000E+00  0.00000000E+00
  0.00000000E+00  0.00000000E+00  0.00000000E+00
  0.00000000E+00  0.00000000E+00  0.00000000E+00
  0.00000000E+00  0.00000000E+00  0.00000000E+00
  0.00000000E+00  0.00000000E+00  0.00000000E+00
  0.00000000E+00  0.00000000E+00  0.00000000E+00
  0.00000000E+00  0.00000000E+00  0.00000000E+00
  0.00000000E+00  0.00000000E+00  0.00000000E+00
  0.00000000E+00  0.00000000E+00  0.00000000E+00
  0.00000000E+00  0.00000000E+00  0.00000000E+00
  0.00000000E+00  0.00000000E+00  0.00000000E+00
  0.00000000E+00  0.00000000E+00  0.00000000E+00
  0.00000000E+00  0.00000000E+00  0.00000000E+00
  0.00000000E+00  0.00000000E+00  0.00000000E+00
  0.00000000E+00  0.00000000E+00  0.00000000E+00
  0.00000000E+00  0.00000000E+00  0.00000000E+00
  0.00000000E+00  0.00000000E+00  0.00000000E+00
  0.00000000E+00  0.00000000E+00  0.00000000E+00
  0.00000000E+00  0.00000000E+00  0.00000000E+00
  0.00000000E+00  0.00000000E+00  0.00000000E+00
  0.00000000E+00  0.00000000E+00  0.00000000E+00
  0.00000000E+00  0.00000000E+00  0.00000000E+00
  0.00000000E+00  0.00000000E+00  0.00000000E+00
  0.00000000E+00  0.00000000E+00  0.00000000E+00
  0.00000000E+00  0.00000000E+00  0.00000000E+00
  0.00000000E+00  0.00000000E+00  0.00000000E+00
  0.00000000E+00  0.00000000E+00  0.00000000E+00
  0.00000000E+00  0.00000000E+00  0.00000000E+00
