Li5 P2 N1 O6                            
   1.00000000000000     
     0.1238192185734487   -0.2091155427757384    4.8892056040970893
     6.6048835323458457    0.1298380348613072    0.1381672153270653
     0.1234859404283587    5.3990942835400704   -0.2257391888130417
   Li   P    N    O 
     5     2     1     6
Direct
  0.4971903610839616  0.0255756885103622  0.8427763529829184
  0.0119513389665811  0.4569929387594057  0.1187187939264347
  0.5645316105848702  0.7290728919949241  0.3182057059540324
 -0.0322869232513632  0.7476045163273461  0.7459535265126132
 -0.0039551907763717  0.2555681566805765  0.6515864782010418
  0.5051963846468759  0.5019795829411425  0.8283183802406984
 -0.0239863371303498  0.0537049844249111  0.1290012956303350
  0.1075089200357904 -0.0062544010043809  0.8929650650937170
  0.0825352795364957  0.2105683452139985  0.3073517230634478
  0.5871141130792198  0.6854537659564939  0.6603189340846145
  0.6223027923623278  0.2960476221522028  0.7461709868681987
  0.6263320758484715  0.5340502010546796  0.0976407951449962
  0.1833295599142743  0.5008694554903411  0.8152023077237481
  0.7146630150992394 -0.0369687485020043  0.2058466545732007
 
  0.00000000E+00  0.00000000E+00  0.00000000E+00
  0.00000000E+00  0.00000000E+00  0.00000000E+00
  0.00000000E+00  0.00000000E+00  0.00000000E+00
  0.00000000E+00  0.00000000E+00  0.00000000E+00
  0.00000000E+00  0.00000000E+00  0.00000000E+00
  0.00000000E+00  0.00000000E+00  0.00000000E+00
  0.00000000E+00  0.00000000E+00  0.00000000E+00
  0.00000000E+00  0.00000000E+00  0.00000000E+00
  0.00000000E+00  0.00000000E+00  0.00000000E+00
  0.00000000E+00  0.00000000E+00  0.00000000E+00
  0.00000000E+00  0.00000000E+00  0.00000000E+00
  0.00000000E+00  0.00000000E+00  0.00000000E+00
  0.00000000E+00  0.00000000E+00  0.00000000E+00
  0.00000000E+00  0.00000000E+00  0.00000000E+00
