(2, 1, 0)                               
   1.0000000000000000     
     3.8494064840332411   -0.0000020980951626   -0.0000016948985612
    -0.0000002015146144    6.1926897333668416   -7.2140407537590994
    -0.0000142992035901    0.2026103926389376   32.7818285564327567
   Li   N 
    24     8
Selective dynamics
Direct
  0.4999999775257876  0.4808746820679901  0.0176770417782813   T   T   T
  0.5000006736100547 -0.0097055615656369  0.0823735767953763   T   T   T
 -0.0000024190848544  0.3394905228288214  0.0374870554778228   T   T   T
  0.0000000000000000  0.8333322790115076  0.1014080495554239   F   F   F
  0.0000006484440589  0.1426693629645863  0.0638719179385782   T   T   T
  0.0000036581033706  0.6687940600615656  0.0096837387790596   T   T   T
  0.5000006428991171  0.5000000000000000  0.1382839393939364   F   F   F
  0.5000006428991171  0.0000000000000000  0.1935966666666644   F   F   F
  0.0000000000000000  0.3333322790115076  0.1567207768281520   F   F   F
  0.0000000000000000  0.8333322790115076  0.2120350192523972   F   F   F
  0.0000000000000000  0.1666677209884924  0.1751598292324559   F   F   F
  0.0000000000000000  0.6666677209884924  0.1198455868082107   F   F   F
  0.5000006428991171  0.5000000000000000  0.2489109090909096   F   F   F
  0.5000006428991171  0.0000000000000000  0.3042236363636377   F   F   F
  0.0000000000000000  0.3333322790115076  0.2673477465251253   F   F   F
  0.0000000000000000  0.8333322790115076  0.3226619889493634   F   F   F
  0.0000000000000000  0.1666677209884924  0.2857864958991172   F   F   F
  0.0000000000000000  0.6666677209884924  0.2304725565051768   F   F   F
  0.4999988810620565  0.5096361077722237  0.3601508791176785   T   T   T
  0.5000007471183673  0.0190842190167198  0.4248232468814750   T   T   T
 -0.0000005999671444  0.3572024688133568  0.3785796841162546   T   T   T
  0.0000004808445680  0.8310701944904213  0.4328681385454498   T   T   T
  0.0000008135391110  0.1607852313865617  0.4051044526704049   T   T   T
  0.0000000000000000  0.6666677209884924  0.3410992231718453   F   F   F
 -0.0000009025583188  0.5230608813509463  0.0323314391706417   T   T   T
  0.0000007604198943  0.0015042045551454  0.0846281344479939   T   T   T
  0.0000000000000000  0.5000000000000000  0.1382839393939364   F   F   F
  0.0000000000000000  0.0000000000000000  0.1935966666666644   F   F   F
  0.0000000000000000  0.5000000000000000  0.2489109090909096   F   F   F
  0.0000000000000000  0.0000000000000000  0.3042236363636377   F   F   F
 -0.0000005603052447  0.4984206041952769  0.3578843100919945   T   T   T
  0.0000009391576480 -0.0230662702733991  0.4102000633927093   T   T   T

  0.00000000E+00  0.00000000E+00  0.00000000E+00
  0.00000000E+00  0.00000000E+00  0.00000000E+00
  0.00000000E+00  0.00000000E+00  0.00000000E+00
  0.00000000E+00  0.00000000E+00  0.00000000E+00
  0.00000000E+00  0.00000000E+00  0.00000000E+00
  0.00000000E+00  0.00000000E+00  0.00000000E+00
  0.00000000E+00  0.00000000E+00  0.00000000E+00
  0.00000000E+00  0.00000000E+00  0.00000000E+00
  0.00000000E+00  0.00000000E+00  0.00000000E+00
  0.00000000E+00  0.00000000E+00  0.00000000E+00
  0.00000000E+00  0.00000000E+00  0.00000000E+00
  0.00000000E+00  0.00000000E+00  0.00000000E+00
  0.00000000E+00  0.00000000E+00  0.00000000E+00
  0.00000000E+00  0.00000000E+00  0.00000000E+00
  0.00000000E+00  0.00000000E+00  0.00000000E+00
  0.00000000E+00  0.00000000E+00  0.00000000E+00
  0.00000000E+00  0.00000000E+00  0.00000000E+00
  0.00000000E+00  0.00000000E+00  0.00000000E+00
  0.00000000E+00  0.00000000E+00  0.00000000E+00
  0.00000000E+00  0.00000000E+00  0.00000000E+00
  0.00000000E+00  0.00000000E+00  0.00000000E+00
  0.00000000E+00  0.00000000E+00  0.00000000E+00
  0.00000000E+00  0.00000000E+00  0.00000000E+00
  0.00000000E+00  0.00000000E+00  0.00000000E+00
  0.00000000E+00  0.00000000E+00  0.00000000E+00
  0.00000000E+00  0.00000000E+00  0.00000000E+00
  0.00000000E+00  0.00000000E+00  0.00000000E+00
  0.00000000E+00  0.00000000E+00  0.00000000E+00
  0.00000000E+00  0.00000000E+00  0.00000000E+00
  0.00000000E+00  0.00000000E+00  0.00000000E+00
  0.00000000E+00  0.00000000E+00  0.00000000E+00
  0.00000000E+00  0.00000000E+00  0.00000000E+00
