(2, 1, 0)
1.0
3.888635 0.000000 0.000000
0.000000 6.323180 -7.301380
0.000000 0.000000 33.000000
Li N
24 8
Selective dynamics
Cartesian
1.94432 3.16159 -2.73801 T T T Li+ 
1.94432 0.00000 2.73800 T T T Li+ 
0.00000 2.10772 -0.91268 T T T Li+ 
0.00000 5.26931 -2.73801 F F F Li+ 
0.00000 1.05387 0.91268 T T T Li+ 
0.00000 4.21546 -4.56338 T T T Li+ 
1.94432 3.16159 0.91268 F F F Li+ 
1.94432 0.00000 6.38869 F F F Li+ 
0.00000 2.10772 2.73800 F F F Li+ 
0.00000 5.26931 0.91268 F F F Li+ 
0.00000 1.05387 4.56337 F F F Li+ 
0.00000 4.21546 -0.91269 F F F Li+ 
1.94432 3.16159 4.56337 F F F Li+ 
1.94432 0.00000 10.03938 F F F Li+ 
0.00000 2.10772 6.38869 F F F Li+ 
0.00000 5.26931 4.56337 F F F Li+ 
0.00000 1.05387 8.21405 F F F Li+ 
0.00000 4.21546 2.73800 F F F Li+ 
1.94432 3.16159 8.21405 T T T Li+ 
1.94432 0.00000 13.69011 T T T Li+ 
0.00000 2.10772 10.03942 T T T Li+ 
0.00000 5.26931 8.21405 T T T Li+ 
0.00000 1.05387 11.86474 T T T Li+ 
0.00000 4.21546 6.38868 F F F Li+ 
0.00000 3.16159 -2.73801 T T T N3- 
0.00000 0.00000 2.73800 T T T N3- 
0.00000 3.16159 0.91268 F F F N3- 
0.00000 0.00000 6.38869 F F F N3- 
0.00000 3.16159 4.56337 F F F N3- 
0.00000 0.00000 10.03938 F F F N3- 
0.00000 3.16159 8.21405 T T T N3- 
0.00000 0.00000 13.69011 T T T N3- 
