Li12 P28                                
   1.00000000000000     
     8.3915500000000005    0.0000000000000000    0.0000000000000000
     0.0000000000000000    9.8478750000000002    0.0000000000000000
     0.0000000000000000    0.0000000000000000   10.5972500000000007
   Li   P 
    12    28
Direct
  0.8505320000000012  0.3078479999999999  0.8160499999999971
  0.3505320000000012  0.1921520000000001  0.1839500000000029
  0.1494679999999988  0.8078479999999999  0.6839500000000029
  0.6494679999999988  0.6921520000000001  0.3160499999999971
  0.5689490000000035  0.0259500000000017  0.0147949999999994
  0.0689490000000035  0.4740499999999983  0.9852050000000006
  0.4310509999999965  0.5259500000000017  0.4852050000000006
  0.9310509999999965  0.9740499999999983  0.5147949999999994
  0.4022379999999970  0.3013710000000032  0.6921239999999997
  0.9022379999999970  0.1986289999999968  0.3078760000000003
  0.5977620000000030  0.8013710000000032  0.8078760000000003
  0.0977620000000030  0.6986289999999968  0.1921239999999997
  0.2807680000000019  0.8754909999999967  0.3188480000000027
  0.7807680000000019  0.6245090000000033  0.6811519999999973
  0.7192319999999981  0.3754909999999967  0.1811519999999973
  0.2192319999999981  0.1245090000000033  0.8188480000000027
  0.6376459999999966  0.0485219999999984  0.3874020000000016
  0.1376459999999966  0.4514780000000016  0.6125979999999984
  0.3623540000000034  0.5485219999999984  0.1125979999999984
  0.8623540000000034  0.9514780000000016  0.8874020000000016
  0.5337969999999999  0.9435280000000006  0.5651319999999984
  0.0337969999999999  0.5564719999999994  0.4348680000000016
  0.4662030000000001  0.4435280000000006  0.9348680000000016
  0.9662030000000001  0.0564719999999994  0.0651319999999984
  0.4060530000000000  0.1348410000000015  0.4942879999999974
  0.9060530000000000  0.3651589999999985  0.5057120000000026
  0.5939470000000000  0.6348410000000015  0.0057120000000026
  0.0939470000000000  0.8651589999999985  0.9942879999999974
  0.3162650000000014  0.9270270000000025  0.8812899999999999
  0.8162650000000014  0.5729729999999975  0.1187100000000001
  0.6837349999999986  0.4270270000000025  0.6187100000000001
  0.1837349999999986  0.0729729999999975  0.3812899999999999
  0.1287250000000029  0.2180310000000034  0.9946169999999981
  0.6287250000000029  0.2819689999999966  0.0053830000000019
  0.8712749999999971  0.7180310000000034  0.5053830000000019
  0.3712749999999971  0.7819689999999966  0.4946169999999981
  0.9664929999999998  0.0705030000000022  0.7341920000000002
  0.4664929999999998  0.4294969999999978  0.2658079999999998
  0.0335070000000002  0.5705030000000022  0.7658079999999998
  0.5335070000000002  0.9294969999999978  0.2341920000000002
 
  0.00000000E+00  0.00000000E+00  0.00000000E+00
  0.00000000E+00  0.00000000E+00  0.00000000E+00
  0.00000000E+00  0.00000000E+00  0.00000000E+00
  0.00000000E+00  0.00000000E+00  0.00000000E+00
  0.00000000E+00  0.00000000E+00  0.00000000E+00
  0.00000000E+00  0.00000000E+00  0.00000000E+00
  0.00000000E+00  0.00000000E+00  0.00000000E+00
  0.00000000E+00  0.00000000E+00  0.00000000E+00
  0.00000000E+00  0.00000000E+00  0.00000000E+00
  0.00000000E+00  0.00000000E+00  0.00000000E+00
  0.00000000E+00  0.00000000E+00  0.00000000E+00
  0.00000000E+00  0.00000000E+00  0.00000000E+00
  0.00000000E+00  0.00000000E+00  0.00000000E+00
  0.00000000E+00  0.00000000E+00  0.00000000E+00
  0.00000000E+00  0.00000000E+00  0.00000000E+00
  0.00000000E+00  0.00000000E+00  0.00000000E+00
  0.00000000E+00  0.00000000E+00  0.00000000E+00
  0.00000000E+00  0.00000000E+00  0.00000000E+00
  0.00000000E+00  0.00000000E+00  0.00000000E+00
  0.00000000E+00  0.00000000E+00  0.00000000E+00
  0.00000000E+00  0.00000000E+00  0.00000000E+00
  0.00000000E+00  0.00000000E+00  0.00000000E+00
  0.00000000E+00  0.00000000E+00  0.00000000E+00
  0.00000000E+00  0.00000000E+00  0.00000000E+00
  0.00000000E+00  0.00000000E+00  0.00000000E+00
  0.00000000E+00  0.00000000E+00  0.00000000E+00
  0.00000000E+00  0.00000000E+00  0.00000000E+00
  0.00000000E+00  0.00000000E+00  0.00000000E+00
  0.00000000E+00  0.00000000E+00  0.00000000E+00
  0.00000000E+00  0.00000000E+00  0.00000000E+00
  0.00000000E+00  0.00000000E+00  0.00000000E+00
  0.00000000E+00  0.00000000E+00  0.00000000E+00
  0.00000000E+00  0.00000000E+00  0.00000000E+00
  0.00000000E+00  0.00000000E+00  0.00000000E+00
  0.00000000E+00  0.00000000E+00  0.00000000E+00
  0.00000000E+00  0.00000000E+00  0.00000000E+00
  0.00000000E+00  0.00000000E+00  0.00000000E+00
  0.00000000E+00  0.00000000E+00  0.00000000E+00
  0.00000000E+00  0.00000000E+00  0.00000000E+00
  0.00000000E+00  0.00000000E+00  0.00000000E+00
