Li71 P24 N1 O94                         
   1.00000000000000     
    14.7346108493805499   -0.0079452343161272    0.0093195985456761
    -0.0057045178311454   10.5488981957010619    0.0006354576224526
     0.0077919506613251    0.0007624626552318   12.3350044535312247
   Li   P    N    O 
    71    24     1    94
Direct
  0.1702591113423833  0.4224693925317307 -0.0009439614958736
  0.1686556087518472  0.4213659216121380  0.4987890305128055
  0.1693988645536244  0.9142750839465795 -0.0039225597231102
  0.1699512727206898  0.9226751327882740  0.4971625255021985
  0.5028039265282872  0.4219753627264115 -0.0000229845710310
  0.5029801250868621  0.4217963010392622  0.4998515810321703
  0.5065595174367155  0.9207339575618546  0.0008233984642779
  0.5034130577857054  0.9226006844022969  0.5001785628174754
  0.8343016288382463  0.4230050543973132 -0.0008122527373532
  0.8366445243683758  0.4226088187481554  0.4998512117436746
  0.8332670106755103  0.9194254213955966  0.0024048864581266
  0.8373878503023241  0.9246342699385566  0.4988207785526877
  0.0008072742411311  0.0727647575174519  0.7459308162372431
  0.0035181097693561  0.5846333226350112  0.2531158097019436
  0.0026968174569237  0.5783200528993919  0.7478321435844479
  0.3385965630302372  0.0749393234943657  0.2533116414742485
  0.3359160881898228  0.0761570338734728  0.7492284906694363
  0.3365504221443104  0.5782888301700336  0.2505438652894784
  0.3367146726094848  0.5779822484294675  0.7494064071005935
  0.6754427233209422  0.0740982941759714  0.2515662185297839
  0.6694065117801151  0.0771732470467236  0.7492246676835492
  0.6694744472796785  0.5793490328657146  0.2505004167742523
  0.6691001256637139  0.5781963844803505  0.7494674133596233
  0.1840165206421634  0.1680233502594707  0.1351067987443906
  0.1683505105442843  0.1621265469437997  0.6254604375905238
  0.1699720003192845  0.6652060014466304  0.1261217530122638
  0.1694545247274110  0.6628695024712709  0.6250170641627777
  0.5065580818770558  0.1621830110842993  0.1286447006871546
  0.5027244501870602  0.1630143746104688  0.6259466057905232
  0.5030290409665050  0.6623428955482016  0.1265482770094122
  0.5026484991740261  0.6630940971402420  0.6259047167763292
  0.8339854075336548  0.1639804279029410  0.1300478832486527
  0.8365054414952072  0.1635999652957924  0.6261740279223658
  0.8356035623229108  0.6641713705889537  0.1264850131388212
  0.8360926655572529  0.6641165281863655  0.6258265491970356
 -0.0030659706437985  0.3593917614767131  0.1277993672025325
  0.0029950462292852  0.3357681708932568  0.6231716713474286
 -0.0005150683971493  0.8394504407353518  0.1279466980174434
  0.0035530527077987  0.8377386852624561  0.6217026886029990
  0.3378266987051378  0.3365867802655546  0.1236490339606315
  0.3358323993419348  0.3363984945868437  0.6233958710759708
  0.3396741019603625  0.8356126957780984  0.1246078150651169
  0.3363152568592364  0.8364201034804229  0.6232780108220610
  0.6690752658535353  0.3374308514117518  0.1240618261550017
  0.6693495201394526  0.3363005270123426  0.6237949641649657
  0.6683648259530397  0.8341997997114475  0.1234079966981971
  0.6695389982308587  0.8364628914499007  0.6233470579277514
  0.0025068195496329  0.3356901104028698  0.3766579508326791
  0.0012173849436039  0.3405110624169257  0.8734680350963900
  0.0019619347709143  0.8473609642560691  0.3730099096787765
  0.0010984253102704  0.8310085950291054  0.8720930088680688
  0.3362834013803688  0.3359860757509974  0.3763996058968655
  0.3349520532804569  0.3374627687614634  0.8761912303994129
  0.3379001462575587  0.8363595168631898  0.3765322824755346
  0.3372238379919393  0.8366861481139956  0.8772452986225999
  0.6699661175749294  0.3361541707517832  0.3764433945995747
  0.6685738807546908  0.3369384819476120  0.8754831781947887
  0.6687022807060758  0.8345541205677808  0.3783513184016268
  0.6690759784973226  0.8361565522811930  0.8759949613887117
  0.1661975129936714  0.1604045684242777  0.3728789632039033
  0.1669922994436883  0.1633097744374731  0.8681987982760536
  0.1694151201704527  0.6660934893520185  0.3741550535985291
  0.1703474792487800  0.6614383240286678  0.8726153526220553
  0.5044120157365007  0.1625539661016356  0.3737995284562523
  0.5037657592794682  0.1632643926737039  0.8730534918120033
  0.5029954021540066  0.6624491144165060  0.3742846619117811
  0.5026581559113147  0.6629429207993217  0.8735542835613848
  0.8405862050888160  0.1615470931350796  0.3725685014327115
  0.8332790857352662  0.1661053527477037  0.8716061158642691
  0.8363029839354127  0.6656785283597562  0.3739390291507543
  0.8352423147601301  0.6628237317946263  0.8734684373973055
  0.1668238004796758  0.4143311304528130  0.2504890013539942
  0.1667119238350439  0.4123194345333242  0.7488779999188974
  0.1690742148297413  0.9095264649683605  0.2476960739494278
  0.1674708154618264  0.9102731909451044  0.7490637689223018
  0.5004308208017556  0.4124141831411898  0.2502154636499347
  0.4999022956749365  0.4120285059603191  0.7498577551827432
  0.5021465545474434  0.9113016052977064  0.2509940478916804
  0.5004588012176087  0.9118662580897432  0.7499934460832478
  0.8333695103827579  0.4136060468741737  0.2507063618368550
  0.8331818994585056  0.4132542318193615  0.7495940105771495
  0.8294247942290844  0.9123781890432037  0.2498429632270499
  0.8330465321241414  0.9120123209372138  0.7507765535964197
 -0.0010680073466499  0.0841114393222737 -0.0080107823736968
  0.0018907551577309  0.0909629122090528  0.5040188270304847
  0.0000732038813682  0.5884075563941169 -0.0007778601612516
  0.0002175277236656  0.5896201895738290  0.5000977876012236
  0.3372333635527276  0.0852556087453860  0.0031350984481856
  0.3342596186126760  0.0876279348856794  0.5003086152556145
  0.3338343439986499  0.5870640810408442  0.0000388294941909
  0.3337688941736708  0.5870540811101820  0.4997201729623640
  0.6665933645566143  0.0883482493886104 -0.0006608868157032
  0.6675855386189040  0.0879306189994897  0.5007119548794554
  0.6666123408904063  0.5870345697618454 -0.0006016218354173
  0.6672061698465193  0.5867522622937592  0.5004498470617706
  0.2267650857949071  0.0880237241845422  0.0013556234567307
  0.0403186347119861  0.1680120947272942  0.4087814839627948
  0.0341229679070383  0.1573439954425035  0.8907739525444555
  0.0355035407407580  0.6603598822912381  0.3971880803549398
  0.0357655800611834  0.6557530089194020  0.8949309371461307
  0.3703423170050098  0.1568036624302207  0.3967916257035706
  0.3672374050583387  0.1570507134462623  0.8978458236787981
  0.3696800299258374  0.6559422331767192  0.3961768342644220
  0.3692026574000434  0.6562476796559246  0.8962936492232569
  0.7030857796672397  0.1575581155800267  0.3975968126886915
  0.7019056033618847  0.1569124220671261  0.8951170046814416
  0.7026611261515124  0.6554778536933810  0.3967273289819926
  0.7020654922491982  0.6564233589747913  0.8957198439171313
  0.2022637842377591  0.0509846259404265  0.2483915202264015
  0.2010087620292667  0.0506681559615781  0.7496270480183617
  0.2009225701129694  0.5540576600198850  0.2500188279099751
  0.2013976728189785  0.5520040554998749  0.7492063861279179
  0.5371246456985199  0.0508905633583971  0.2509699267960936
  0.5338171720329871  0.0523549785184954  0.7501601577664037
  0.5341054734825925  0.5526461041532804  0.2502738061765055
  0.5336340904297943  0.5522926899858084  0.7499555230773338
  0.8527394235989146  0.0546105371637119  0.2485561217614665
  0.8663059326179812  0.0525631616732635  0.7521258755240871
  0.8678692784256378  0.5535281906316243  0.2495875694709349
  0.8672062729858880  0.5533128465989289  0.7499629674162029
  0.0609575515451976  0.4125445141413783  0.2505456307717081
  0.0609852587725997  0.4108819693047532  0.7491543274788290
  0.0652374611485099  0.8989958590842357  0.2469075760020474
  0.0616138379151795  0.9071678689913668  0.7506400870697244
  0.3946505153445058  0.4094490272568312  0.2501493079224623
  0.3941627613896277  0.4089694272733016  0.7499607964178426
  0.3964230414984760  0.9094397364354779  0.2509121856354263
  0.3947086224119414  0.9087337543026031  0.7503005417480952
  0.7277924025553587  0.4107069299549971  0.2497162377873879
  0.7275185976252049  0.4101504869711546  0.7499005202375164
  0.7237734520101473  0.8983726607959730  0.2504373462172654
  0.7274641119849604  0.9082930681334200  0.7502172973936895
  0.2286992479536231  0.0905074617101833  0.4997079074357367
  0.2280568412453762  0.5903013863037728 -0.0000463230343199
  0.2280621000433427  0.5898254543721104  0.4993516637816938
  0.5609901105115618  0.0910565370851892 -0.0007662561990689
  0.5617629002269808  0.0905529488734944  0.5006863287689240
  0.5609440780997468  0.5903147038403527 -0.0004113324304807
  0.5614566388057375  0.5897709682401828  0.5004932195082015
  0.8941579560141544  0.0933798576295568  0.0010085073565713
  0.8958223853219720  0.0917113833665717  0.5016595807298786
  0.8943943895235712  0.5905446749927989 -0.0006005149240539
  0.8944176414627277  0.5918754398386954  0.5001452802973425
  0.2006278002092098  0.3449094006685154  0.1456196714411467
  0.2016892140050959  0.3426047359886342  0.6454566636993586
  0.2076143079955753  0.8431517230102679  0.1432647359142918
  0.2022377464733378  0.8425696526869297  0.6446132871409880
  0.5356660514413780  0.3437018390259505  0.1461667422756239
  0.5354154978977927  0.3428912197881024  0.6463046251920097
  0.5363002497042072  0.8414283762142786  0.1469616484584358
  0.5357138636380936  0.8430318817747965  0.6461489988109634
  0.8688170126984947  0.3442292313559642  0.1462566959742687
  0.8687357674453280  0.3439533310761814  0.6462890730677868
  0.8668999479061474  0.8443622866790126  0.1457774638142265
  0.8694773971636480  0.8438241260654583  0.6473772689976454
  0.0338530146347836  0.1540604734413136  0.6129493519378196
  0.0354123655155103  0.6574878799783742  0.1025721877819500
  0.0353661617870981  0.6579577424543446  0.6044121518771794
  0.3733906018208845  0.1551077774412698  0.1065172213930234
  0.3690867464515677  0.1567741936915808  0.6043985245577310
  0.3696251420645162  0.6551787800228190  0.1038122221752974
  0.3688778902170637  0.6564386993374283  0.6035256948995485
  0.7015775799395648  0.1581504311372206  0.1025099075285695
  0.7024274562497138  0.1565489718034677  0.6051074577653244
  0.7022633086150117  0.6554650853931504  0.1030262642573034
  0.7023680996873782  0.6564537335949060  0.6040505518745682
  0.0335731785156525  0.4474036701407799 -0.0003961880295628
  0.0339295902640821  0.4495102477875553  0.4998676827413611
  0.0327506930106269  0.9452104303283506 -0.0024993283795619
  0.0355519317269365  0.9503120089209780  0.5008826794195500
  0.3669127548372647  0.4464668908936467 -0.0003411090605408
  0.3674570597831993  0.4468320904070847  0.5000865865437439
  0.3741608616042971  0.9467139380010493  0.0014320337629657
  0.3683194585044782  0.9476025722398843  0.5005896645761122
  0.6999707282815391  0.4466621935647858 -0.0009583753771067
  0.7007308324205693  0.4465421881161108  0.5007410588494592
  0.6999456009568931  0.9479012610755068 -0.0002720753808832
  0.7011875252113421  0.9476628835748769  0.5007505310729156
  0.2026172691597922  0.3434334912618482  0.3524924617538091
  0.2011528132471528  0.3424307465102681  0.8528586218067602
  0.2067749992785782  0.8429133068975790  0.3519687317912785
  0.2032288272282133  0.8397262519436570  0.8518302655998679
  0.5358045599822491  0.3430368244781815  0.3536857491785216
  0.5349910747068862  0.3428401455776891  0.8537231036742624
  0.5359791150406942  0.8416653968700456  0.3550493571727291
  0.5360475260027490  0.8425824213871275  0.8534815659194410
  0.8685707306017449  0.3446116012457850  0.3539511045276966
  0.8682521296187670  0.3441382493136263  0.8537300696914404
  0.8680262489114164  0.8454662092659306  0.3531352290290520
  0.8682723072799857  0.8432428831545755  0.8550277666731901
 
  0.00000000E+00  0.00000000E+00  0.00000000E+00
  0.00000000E+00  0.00000000E+00  0.00000000E+00
  0.00000000E+00  0.00000000E+00  0.00000000E+00
  0.00000000E+00  0.00000000E+00  0.00000000E+00
  0.00000000E+00  0.00000000E+00  0.00000000E+00
  0.00000000E+00  0.00000000E+00  0.00000000E+00
  0.00000000E+00  0.00000000E+00  0.00000000E+00
  0.00000000E+00  0.00000000E+00  0.00000000E+00
  0.00000000E+00  0.00000000E+00  0.00000000E+00
  0.00000000E+00  0.00000000E+00  0.00000000E+00
  0.00000000E+00  0.00000000E+00  0.00000000E+00
  0.00000000E+00  0.00000000E+00  0.00000000E+00
  0.00000000E+00  0.00000000E+00  0.00000000E+00
  0.00000000E+00  0.00000000E+00  0.00000000E+00
  0.00000000E+00  0.00000000E+00  0.00000000E+00
  0.00000000E+00  0.00000000E+00  0.00000000E+00
  0.00000000E+00  0.00000000E+00  0.00000000E+00
  0.00000000E+00  0.00000000E+00  0.00000000E+00
  0.00000000E+00  0.00000000E+00  0.00000000E+00
  0.00000000E+00  0.00000000E+00  0.00000000E+00
  0.00000000E+00  0.00000000E+00  0.00000000E+00
  0.00000000E+00  0.00000000E+00  0.00000000E+00
  0.00000000E+00  0.00000000E+00  0.00000000E+00
  0.00000000E+00  0.00000000E+00  0.00000000E+00
  0.00000000E+00  0.00000000E+00  0.00000000E+00
  0.00000000E+00  0.00000000E+00  0.00000000E+00
  0.00000000E+00  0.00000000E+00  0.00000000E+00
  0.00000000E+00  0.00000000E+00  0.00000000E+00
  0.00000000E+00  0.00000000E+00  0.00000000E+00
  0.00000000E+00  0.00000000E+00  0.00000000E+00
  0.00000000E+00  0.00000000E+00  0.00000000E+00
  0.00000000E+00  0.00000000E+00  0.00000000E+00
  0.00000000E+00  0.00000000E+00  0.00000000E+00
  0.00000000E+00  0.00000000E+00  0.00000000E+00
  0.00000000E+00  0.00000000E+00  0.00000000E+00
  0.00000000E+00  0.00000000E+00  0.00000000E+00
  0.00000000E+00  0.00000000E+00  0.00000000E+00
  0.00000000E+00  0.00000000E+00  0.00000000E+00
  0.00000000E+00  0.00000000E+00  0.00000000E+00
  0.00000000E+00  0.00000000E+00  0.00000000E+00
  0.00000000E+00  0.00000000E+00  0.00000000E+00
  0.00000000E+00  0.00000000E+00  0.00000000E+00
  0.00000000E+00  0.00000000E+00  0.00000000E+00
  0.00000000E+00  0.00000000E+00  0.00000000E+00
  0.00000000E+00  0.00000000E+00  0.00000000E+00
  0.00000000E+00  0.00000000E+00  0.00000000E+00
  0.00000000E+00  0.00000000E+00  0.00000000E+00
  0.00000000E+00  0.00000000E+00  0.00000000E+00
  0.00000000E+00  0.00000000E+00  0.00000000E+00
  0.00000000E+00  0.00000000E+00  0.00000000E+00
  0.00000000E+00  0.00000000E+00  0.00000000E+00
  0.00000000E+00  0.00000000E+00  0.00000000E+00
  0.00000000E+00  0.00000000E+00  0.00000000E+00
  0.00000000E+00  0.00000000E+00  0.00000000E+00
  0.00000000E+00  0.00000000E+00  0.00000000E+00
  0.00000000E+00  0.00000000E+00  0.00000000E+00
  0.00000000E+00  0.00000000E+00  0.00000000E+00
  0.00000000E+00  0.00000000E+00  0.00000000E+00
  0.00000000E+00  0.00000000E+00  0.00000000E+00
  0.00000000E+00  0.00000000E+00  0.00000000E+00
  0.00000000E+00  0.00000000E+00  0.00000000E+00
  0.00000000E+00  0.00000000E+00  0.00000000E+00
  0.00000000E+00  0.00000000E+00  0.00000000E+00
  0.00000000E+00  0.00000000E+00  0.00000000E+00
  0.00000000E+00  0.00000000E+00  0.00000000E+00
  0.00000000E+00  0.00000000E+00  0.00000000E+00
  0.00000000E+00  0.00000000E+00  0.00000000E+00
  0.00000000E+00  0.00000000E+00  0.00000000E+00
  0.00000000E+00  0.00000000E+00  0.00000000E+00
  0.00000000E+00  0.00000000E+00  0.00000000E+00
  0.00000000E+00  0.00000000E+00  0.00000000E+00
  0.00000000E+00  0.00000000E+00  0.00000000E+00
  0.00000000E+00  0.00000000E+00  0.00000000E+00
  0.00000000E+00  0.00000000E+00  0.00000000E+00
  0.00000000E+00  0.00000000E+00  0.00000000E+00
  0.00000000E+00  0.00000000E+00  0.00000000E+00
  0.00000000E+00  0.00000000E+00  0.00000000E+00
  0.00000000E+00  0.00000000E+00  0.00000000E+00
  0.00000000E+00  0.00000000E+00  0.00000000E+00
  0.00000000E+00  0.00000000E+00  0.00000000E+00
  0.00000000E+00  0.00000000E+00  0.00000000E+00
  0.00000000E+00  0.00000000E+00  0.00000000E+00
  0.00000000E+00  0.00000000E+00  0.00000000E+00
  0.00000000E+00  0.00000000E+00  0.00000000E+00
  0.00000000E+00  0.00000000E+00  0.00000000E+00
  0.00000000E+00  0.00000000E+00  0.00000000E+00
  0.00000000E+00  0.00000000E+00  0.00000000E+00
  0.00000000E+00  0.00000000E+00  0.00000000E+00
  0.00000000E+00  0.00000000E+00  0.00000000E+00
  0.00000000E+00  0.00000000E+00  0.00000000E+00
  0.00000000E+00  0.00000000E+00  0.00000000E+00
  0.00000000E+00  0.00000000E+00  0.00000000E+00
  0.00000000E+00  0.00000000E+00  0.00000000E+00
  0.00000000E+00  0.00000000E+00  0.00000000E+00
  0.00000000E+00  0.00000000E+00  0.00000000E+00
  0.00000000E+00  0.00000000E+00  0.00000000E+00
  0.00000000E+00  0.00000000E+00  0.00000000E+00
  0.00000000E+00  0.00000000E+00  0.00000000E+00
  0.00000000E+00  0.00000000E+00  0.00000000E+00
  0.00000000E+00  0.00000000E+00  0.00000000E+00
  0.00000000E+00  0.00000000E+00  0.00000000E+00
  0.00000000E+00  0.00000000E+00  0.00000000E+00
  0.00000000E+00  0.00000000E+00  0.00000000E+00
  0.00000000E+00  0.00000000E+00  0.00000000E+00
  0.00000000E+00  0.00000000E+00  0.00000000E+00
  0.00000000E+00  0.00000000E+00  0.00000000E+00
  0.00000000E+00  0.00000000E+00  0.00000000E+00
  0.00000000E+00  0.00000000E+00  0.00000000E+00
  0.00000000E+00  0.00000000E+00  0.00000000E+00
  0.00000000E+00  0.00000000E+00  0.00000000E+00
  0.00000000E+00  0.00000000E+00  0.00000000E+00
  0.00000000E+00  0.00000000E+00  0.00000000E+00
  0.00000000E+00  0.00000000E+00  0.00000000E+00
  0.00000000E+00  0.00000000E+00  0.00000000E+00
  0.00000000E+00  0.00000000E+00  0.00000000E+00
  0.00000000E+00  0.00000000E+00  0.00000000E+00
  0.00000000E+00  0.00000000E+00  0.00000000E+00
  0.00000000E+00  0.00000000E+00  0.00000000E+00
  0.00000000E+00  0.00000000E+00  0.00000000E+00
  0.00000000E+00  0.00000000E+00  0.00000000E+00
  0.00000000E+00  0.00000000E+00  0.00000000E+00
  0.00000000E+00  0.00000000E+00  0.00000000E+00
  0.00000000E+00  0.00000000E+00  0.00000000E+00
  0.00000000E+00  0.00000000E+00  0.00000000E+00
  0.00000000E+00  0.00000000E+00  0.00000000E+00
  0.00000000E+00  0.00000000E+00  0.00000000E+00
  0.00000000E+00  0.00000000E+00  0.00000000E+00
  0.00000000E+00  0.00000000E+00  0.00000000E+00
  0.00000000E+00  0.00000000E+00  0.00000000E+00
  0.00000000E+00  0.00000000E+00  0.00000000E+00
  0.00000000E+00  0.00000000E+00  0.00000000E+00
  0.00000000E+00  0.00000000E+00  0.00000000E+00
  0.00000000E+00  0.00000000E+00  0.00000000E+00
  0.00000000E+00  0.00000000E+00  0.00000000E+00
  0.00000000E+00  0.00000000E+00  0.00000000E+00
  0.00000000E+00  0.00000000E+00  0.00000000E+00
  0.00000000E+00  0.00000000E+00  0.00000000E+00
  0.00000000E+00  0.00000000E+00  0.00000000E+00
  0.00000000E+00  0.00000000E+00  0.00000000E+00
  0.00000000E+00  0.00000000E+00  0.00000000E+00
  0.00000000E+00  0.00000000E+00  0.00000000E+00
  0.00000000E+00  0.00000000E+00  0.00000000E+00
  0.00000000E+00  0.00000000E+00  0.00000000E+00
  0.00000000E+00  0.00000000E+00  0.00000000E+00
  0.00000000E+00  0.00000000E+00  0.00000000E+00
  0.00000000E+00  0.00000000E+00  0.00000000E+00
  0.00000000E+00  0.00000000E+00  0.00000000E+00
  0.00000000E+00  0.00000000E+00  0.00000000E+00
  0.00000000E+00  0.00000000E+00  0.00000000E+00
  0.00000000E+00  0.00000000E+00  0.00000000E+00
  0.00000000E+00  0.00000000E+00  0.00000000E+00
  0.00000000E+00  0.00000000E+00  0.00000000E+00
  0.00000000E+00  0.00000000E+00  0.00000000E+00
  0.00000000E+00  0.00000000E+00  0.00000000E+00
  0.00000000E+00  0.00000000E+00  0.00000000E+00
  0.00000000E+00  0.00000000E+00  0.00000000E+00
  0.00000000E+00  0.00000000E+00  0.00000000E+00
  0.00000000E+00  0.00000000E+00  0.00000000E+00
  0.00000000E+00  0.00000000E+00  0.00000000E+00
  0.00000000E+00  0.00000000E+00  0.00000000E+00
  0.00000000E+00  0.00000000E+00  0.00000000E+00
  0.00000000E+00  0.00000000E+00  0.00000000E+00
  0.00000000E+00  0.00000000E+00  0.00000000E+00
  0.00000000E+00  0.00000000E+00  0.00000000E+00
  0.00000000E+00  0.00000000E+00  0.00000000E+00
  0.00000000E+00  0.00000000E+00  0.00000000E+00
  0.00000000E+00  0.00000000E+00  0.00000000E+00
  0.00000000E+00  0.00000000E+00  0.00000000E+00
  0.00000000E+00  0.00000000E+00  0.00000000E+00
  0.00000000E+00  0.00000000E+00  0.00000000E+00
  0.00000000E+00  0.00000000E+00  0.00000000E+00
  0.00000000E+00  0.00000000E+00  0.00000000E+00
  0.00000000E+00  0.00000000E+00  0.00000000E+00
  0.00000000E+00  0.00000000E+00  0.00000000E+00
  0.00000000E+00  0.00000000E+00  0.00000000E+00
  0.00000000E+00  0.00000000E+00  0.00000000E+00
  0.00000000E+00  0.00000000E+00  0.00000000E+00
  0.00000000E+00  0.00000000E+00  0.00000000E+00
  0.00000000E+00  0.00000000E+00  0.00000000E+00
  0.00000000E+00  0.00000000E+00  0.00000000E+00
  0.00000000E+00  0.00000000E+00  0.00000000E+00
  0.00000000E+00  0.00000000E+00  0.00000000E+00
  0.00000000E+00  0.00000000E+00  0.00000000E+00
  0.00000000E+00  0.00000000E+00  0.00000000E+00
  0.00000000E+00  0.00000000E+00  0.00000000E+00
  0.00000000E+00  0.00000000E+00  0.00000000E+00
  0.00000000E+00  0.00000000E+00  0.00000000E+00
  0.00000000E+00  0.00000000E+00  0.00000000E+00
  0.00000000E+00  0.00000000E+00  0.00000000E+00
  0.00000000E+00  0.00000000E+00  0.00000000E+00
