Li73 P24 N1 O95                         
   1.00000000000000     
    14.6982626353886801    0.0261630352414077   -0.0009890654157250
     0.0187461681006671   10.5796282926050029   -0.0008094322675596
    -0.0008265353549232   -0.0009478145774654   12.3036316490865012
   Li   P    N    O 
    73    24     1    95
Direct
  0.1824666932297900  0.4519829001469057  0.0013256032559524
  0.1697532889023834  0.4188473367966366  0.4986377580590339
  0.1725929504940391  0.9243099330210853  0.0071083388167863
  0.1715047465869093  0.9237945693131416  0.4914263496477090
  0.5021252375394999  0.4247644451931340  0.0005622636527534
  0.5028656665933187  0.4222657597873153  0.4995022452545551
  0.5011641818792821  0.9234290219730531  0.0010647176278818
  0.5031557452359512  0.9226067183404130  0.4988057831663616
  0.8330657373937034  0.4189315753600404  0.0002163700987537
  0.8349741450846886  0.4210756431676158  0.4998641433231040
  0.8373692085870158  0.9226254235208914  0.0006570306122736
  0.8378518111673164  0.9220901859309655  0.4993304452923042
  0.0237904525889723  0.0721334363849969  0.2538359416020396
  0.0026164872624075  0.0753866651338136  0.7479828347883094
  0.0024128642905601  0.5792056206737010  0.2512983574559749
  0.0015744508010851  0.5777947741184976  0.7485418995238055
  0.3308443394489287  0.0745109873663217  0.2557146502544495
  0.3390212996092789  0.0758014415041053  0.7463101177322446
  0.3359463963234415  0.5807779522047085  0.2498760974187017
  0.3371525916838380  0.5793383005691145  0.7501078469256556
  0.6702506941193842  0.0769603893798967  0.2502311135897923
  0.6691555719570192  0.0761148858600492  0.7497807786822880
  0.6693932875163255  0.5786812228940079  0.2506237160304979
  0.6689459179934962  0.5784446995177319  0.7494467289725154
  0.1801683281436104  0.1567509325002390  0.1393799076046597
  0.1684274171657350  0.1618559124907363  0.6252888143512133
  0.1684723473225100  0.6696518181178270  0.1289268062932988
  0.1694957199764082  0.6602972761067460  0.6249643061853293
  0.5014976552665596  0.1638894567906553  0.1272073920405619
  0.5040664902828266  0.1630104217666762  0.6258517959605859
  0.5052073948681478  0.6662933328285099  0.1272660634203491
  0.5021257507817729  0.6632875500313119  0.6258273333116786
  0.8361044171399123  0.1613365864069796  0.1280706907576927
  0.8354226697323733  0.1622539108762531  0.6269287181038032
  0.8372013741187065  0.6619048025687113  0.1254542363800778
  0.8357470404763653  0.6629150574983358  0.6262115999416680
 -0.0046495817762159  0.3389585174012983  0.1310866778354379
  0.0014940119127998  0.3353556277214300  0.6235896693497203
  0.0047870991562569  0.8334674103501017  0.1246908908741024
  0.0042524113575656  0.8357903150751388  0.6221328835238190
  0.3357414013695440  0.3402411456591879  0.1235408023615884
  0.3374340280349944  0.3350001338082402  0.6249366153043628
  0.3325692378147785  0.8418272087818347  0.1268808837120744
  0.3360978808915873  0.8355307115989445  0.6218126846482390
  0.6683368135702581  0.3367499925321152  0.1239122941821776
  0.6683624500359107  0.3362705490482232  0.6232478933141897
  0.6710117915271021  0.8376780946871599  0.1238665060601574
  0.6701097944549308  0.8367165683170035  0.6233491470277503
  0.0020023591383992  0.3364110537307065  0.3769941984487242
 -0.0049184624619030  0.3388542355217377  0.8689394973025183
  0.0048788044063652  0.8342392402326096  0.3763969836461843
  0.0041320417962027  0.8349304841811146  0.8764691286494802
  0.3367425566257908  0.3351710432773890  0.3746288673378547
  0.3363184529653764  0.3399216422820071  0.8770049875768877
  0.3326386754824437  0.8367603862791876  0.3747322729523018
  0.3359536462430109  0.8399624837135624  0.8762110099920524
  0.6688923695654954  0.3361338785281070  0.3766096772588644
  0.6678314769574506  0.3368975565482921  0.8763257591869102
  0.6715674861617248  0.8374365925036695  0.3757023831497056
  0.6697192476109745  0.8369948061994351  0.8770173279939187
  0.1705065409920826  0.1627678998496647  0.3749852277336977
  0.1773095594733537  0.1548958645321193  0.8589798933908996
  0.1687011344709914  0.6602884504169663  0.3728091599431895
  0.1692611974178096  0.6690862840672998  0.8725703284145908
  0.5030927821691105  0.1631486475846668  0.3734427247911676
  0.5022337960643029  0.1636016605454486  0.8732100456027244
  0.5023249564510743  0.6645720262458333  0.3737411149227612
  0.5051246248367772  0.6651413787101152  0.8731418769523057
  0.8388214164318440  0.1611681852246318  0.3725112768789633
  0.8331733434423347  0.1624071647813942  0.8728439055633717
  0.8368165824139997  0.6630657434078373  0.3742291039505103
  0.8362046878883197  0.6616167221645571  0.8742285005700309
  0.1156752818004316  0.2707784773396178  0.0001856555066185
  0.1653166149261319  0.4122427023729449  0.2458145016239474
  0.1651872687648765  0.4115510585754208  0.7545757279907187
  0.1676118158888752  0.9127832795114978  0.2522431276087353
  0.1675393086039629  0.9095700919515751  0.7475448253592972
  0.5000097310715497  0.4136462018413882  0.2495849943940015
  0.4997601796573776  0.4130408319134888  0.7505099644655081
  0.5017295902241156  0.9129821200077934  0.2500839130242614
  0.5007413082061000  0.9118893905173334  0.7498088875106200
  0.8317622252469589  0.4122314987663854  0.2506492010580556
  0.8313350470790275  0.4118387686590544  0.7494164643974982
  0.8361613704952280  0.9117720121044044  0.2493036122858136
  0.8344732363556409  0.9108486082269488  0.7507608193937036
  0.0012976924301694  0.0888429552436309 -0.0016126959528307
 -0.0001623226411780  0.0881389973750998  0.5018387480028527
  0.0013767477932090  0.5816734774578675 -0.0008856920163014
 -0.0000715666247707  0.5848234733270851  0.5008293057649632
  0.3315051552500698  0.0938487496066550 -0.0017634595670690
  0.3349812476127660  0.0885170705866737  0.5012771948070432
  0.3365650954654310  0.5970489893668051 -0.0000171877779492
  0.3332448928402973  0.5848406742427501  0.4999261093952905
  0.6663646747832078  0.0879887112957268 -0.0000126329686447
  0.6680436990136932  0.0873967025596704  0.4999595786005827
  0.6670904222641906  0.5878356448134362  0.0000527645527007
  0.6667074635803162  0.5878113750136077  0.5000033129404495
  0.1978556611658802  0.0537969314638699  0.2568735071790557
  0.0346479053106265  0.1605216602841859  0.4001908627771247
  0.0396462237537996  0.1612771060875560  0.8957855864832813
  0.0346215002717057  0.6527387699076816  0.3967396674230761
  0.0360225693386989  0.6518012614613351  0.8955783717272300
  0.3713362862933963  0.1582128927698051  0.3986062552988870
  0.3668237481112110  0.1596883402291990  0.8925699653986577
  0.3684893440973506  0.6546341572588467  0.3966136558828678
  0.3729959947935946  0.6616993701358236  0.8950598760304930
  0.7036030769895009  0.1567568099962047  0.3963621553158899
  0.7008113314779479  0.1572229733527781  0.8955759673518584
  0.7025987599714426  0.6566690664487136  0.3963668031133600
  0.7025100174881466  0.6565694043914878  0.8959962739368571
  0.2028000190298443  0.0484762975714166  0.7440429476773259
  0.2001837743226580  0.5507527057776909  0.2449258186920829
  0.2004725633528224  0.5500066877471691  0.7544785178333729
  0.5353031253313272  0.0528656003939324  0.2501016102102986
  0.5338966558655577  0.0518710289287675  0.7497993128472888
  0.5343621577475658  0.5529850664921799  0.2500575603722859
  0.5339080385817779  0.5524746178129916  0.7500365820839378
  0.8709020246411178  0.0506902276376642  0.2488216859101877
  0.8679578106405730  0.0508202124398150  0.7514207742721941
  0.8665096174704174  0.5513479544704857  0.2496489302926519
  0.8662256840979892  0.5508860923217571  0.7503470802558300
  0.0594757040273178  0.4099110451172854  0.2498225534427747
  0.0594576540438514  0.4098406287778570  0.7502260518845714
  0.0596725811364958  0.8958323996804725  0.2502283172192395
  0.0614519082365033  0.9087849617284132  0.7496309042044838
  0.3939986387818636  0.4120619953789165  0.2492316240643380
  0.3937217610615076  0.4112713257034896  0.7507849373907929
  0.3962144844077009  0.9095368791787666  0.2505566772731952
  0.3948158073570970  0.9083114945029765  0.7493788553853856
  0.7259831288296844  0.4102562000349191  0.2506366675022443
  0.7256056777981679  0.4100513457471565  0.7494289543906113
  0.7298905749269814  0.9105009887454624  0.2492616400414721
  0.7285631531421844  0.9084234826018857  0.7506768231174999
  0.2247354565976249  0.1022260444098773 -0.0029410776972544
  0.2293616793891772  0.0936637962409929  0.5034715623104375
  0.2307962626959959  0.6093603333332577 -0.0003496872012552
  0.2272114889373363  0.5848949478664623  0.5000594571812671
  0.5604031737721910  0.0904197598581171  0.0002792461002347
  0.5621324728200716  0.0900132195626506  0.4995122417516558
  0.5612345313539013  0.5915239194257648  0.0001501161272687
  0.5607826641882725  0.5910220520682835  0.4998650108318062
  0.8959957828093134  0.0937268225348662 -0.0016087520384748
  0.8937853527593410  0.0899630286254209  0.5018050979114781
  0.8956282463601115  0.5819588877775068 -0.0012212333281555
  0.8939199233768039  0.5876179398668422  0.5012206487856833
  0.1966367607384013  0.3456451361772008  0.1366740336957666
  0.2032522648850521  0.3387960825197707  0.6544143880857299
  0.2019973330220597  0.8391146272954898  0.1460021492536951
  0.2018119657081850  0.8380326625859907  0.6448082507173254
  0.5347441580314134  0.3444412664303279  0.1451809060513306
  0.5349600081986106  0.3431577677246946  0.6469073364857471
  0.5376032113967565  0.8448500966417752  0.1456005943806147
  0.5364156783661476  0.8424786856467432  0.6461546751786181
  0.8660531444220121  0.3420409653339410  0.1463337874297913
  0.8674145187759804  0.3422311975707954  0.6462003230039078
  0.8700301711580078  0.8413420710970648  0.1447569733487537
  0.8700576760691058  0.8419260924488251  0.6468786918423455
  0.0395568789908761  0.1647179986322372  0.0979084251862387
  0.0343346833001187  0.1561459507939346  0.6071656437344732
  0.0356512257353144  0.6502732648360084  0.1028570363259061
  0.0352048042418619  0.6544783266124823  0.6045999340084010
  0.3678370153601561  0.1631590531007016  0.1008005844316271
  0.3715382224550547  0.1560625506672805  0.6056710540441621
  0.3734008374352145  0.6622201372624218  0.1040880161091472
  0.3677672630562646  0.6546453608535430  0.6040616899876781
  0.7020903402072382  0.1573986547786796  0.1035095896226685
  0.7022028547625413  0.1565493801707525  0.6045864515259675
  0.7030200387534660  0.6566207958353507  0.1037134236606850
  0.7021037339904522  0.6566658837444674  0.6040540966825180
  0.0377439371061251  0.4409614438165976 -0.0013743778623900
  0.0343311981169606  0.4449234936473174  0.5014882865831399
  0.0349818938722906  0.9500659275880805 -0.0009102741928183
  0.0344453968857358  0.9487450985476474  0.5005802256189872
  0.3635637174653235  0.4537805882020178 -0.0001592612385950
  0.3677152658816515  0.4450767743785850  0.5003546026231430
  0.3626729898314443  0.9530281092441673 -0.0004778744953731
  0.3676475864610109  0.9478807051211428  0.5001102813984184
  0.7001264443481002  0.4474776777749274 -0.0001220979077789
  0.7000302511451387  0.4475465016520316  0.5001804526029169
  0.7016616926980594  0.9487324218294990 -0.0003508601492866
  0.7024620739222420  0.9477278675690666  0.5003329551629871
  0.2033711209416701  0.3427864923282760  0.3474523988467546
  0.1963614984815099  0.3439128435162382  0.8632656444612371
  0.2012954249740514  0.8313832957181759  0.3544159124169938
  0.2026749156862183  0.8445082037909150  0.8533721332290005
  0.5351825138228117  0.3435508247673482  0.3531714609669570
  0.5343252016657444  0.3440152488010882  0.8550310075937120
  0.5379066097787899  0.8433436157721239  0.3536158607386328
  0.5362197950248947  0.8440736513359205  0.8543897995806948
  0.8677943824131986  0.3429764533076203  0.3540323317308213
  0.8657637437593457  0.3414805463488118  0.8535772909328687
  0.8699323982322700  0.8415635119546260  0.3535996103673085
  0.8700399929267070  0.8416334457513169  0.8549059942433846
 
  0.00000000E+00  0.00000000E+00  0.00000000E+00
  0.00000000E+00  0.00000000E+00  0.00000000E+00
  0.00000000E+00  0.00000000E+00  0.00000000E+00
  0.00000000E+00  0.00000000E+00  0.00000000E+00
  0.00000000E+00  0.00000000E+00  0.00000000E+00
  0.00000000E+00  0.00000000E+00  0.00000000E+00
  0.00000000E+00  0.00000000E+00  0.00000000E+00
  0.00000000E+00  0.00000000E+00  0.00000000E+00
  0.00000000E+00  0.00000000E+00  0.00000000E+00
  0.00000000E+00  0.00000000E+00  0.00000000E+00
  0.00000000E+00  0.00000000E+00  0.00000000E+00
  0.00000000E+00  0.00000000E+00  0.00000000E+00
  0.00000000E+00  0.00000000E+00  0.00000000E+00
  0.00000000E+00  0.00000000E+00  0.00000000E+00
  0.00000000E+00  0.00000000E+00  0.00000000E+00
  0.00000000E+00  0.00000000E+00  0.00000000E+00
  0.00000000E+00  0.00000000E+00  0.00000000E+00
  0.00000000E+00  0.00000000E+00  0.00000000E+00
  0.00000000E+00  0.00000000E+00  0.00000000E+00
  0.00000000E+00  0.00000000E+00  0.00000000E+00
  0.00000000E+00  0.00000000E+00  0.00000000E+00
  0.00000000E+00  0.00000000E+00  0.00000000E+00
  0.00000000E+00  0.00000000E+00  0.00000000E+00
  0.00000000E+00  0.00000000E+00  0.00000000E+00
  0.00000000E+00  0.00000000E+00  0.00000000E+00
  0.00000000E+00  0.00000000E+00  0.00000000E+00
  0.00000000E+00  0.00000000E+00  0.00000000E+00
  0.00000000E+00  0.00000000E+00  0.00000000E+00
  0.00000000E+00  0.00000000E+00  0.00000000E+00
  0.00000000E+00  0.00000000E+00  0.00000000E+00
  0.00000000E+00  0.00000000E+00  0.00000000E+00
  0.00000000E+00  0.00000000E+00  0.00000000E+00
  0.00000000E+00  0.00000000E+00  0.00000000E+00
  0.00000000E+00  0.00000000E+00  0.00000000E+00
  0.00000000E+00  0.00000000E+00  0.00000000E+00
  0.00000000E+00  0.00000000E+00  0.00000000E+00
  0.00000000E+00  0.00000000E+00  0.00000000E+00
  0.00000000E+00  0.00000000E+00  0.00000000E+00
  0.00000000E+00  0.00000000E+00  0.00000000E+00
  0.00000000E+00  0.00000000E+00  0.00000000E+00
  0.00000000E+00  0.00000000E+00  0.00000000E+00
  0.00000000E+00  0.00000000E+00  0.00000000E+00
  0.00000000E+00  0.00000000E+00  0.00000000E+00
  0.00000000E+00  0.00000000E+00  0.00000000E+00
  0.00000000E+00  0.00000000E+00  0.00000000E+00
  0.00000000E+00  0.00000000E+00  0.00000000E+00
  0.00000000E+00  0.00000000E+00  0.00000000E+00
  0.00000000E+00  0.00000000E+00  0.00000000E+00
  0.00000000E+00  0.00000000E+00  0.00000000E+00
  0.00000000E+00  0.00000000E+00  0.00000000E+00
  0.00000000E+00  0.00000000E+00  0.00000000E+00
  0.00000000E+00  0.00000000E+00  0.00000000E+00
  0.00000000E+00  0.00000000E+00  0.00000000E+00
  0.00000000E+00  0.00000000E+00  0.00000000E+00
  0.00000000E+00  0.00000000E+00  0.00000000E+00
  0.00000000E+00  0.00000000E+00  0.00000000E+00
  0.00000000E+00  0.00000000E+00  0.00000000E+00
  0.00000000E+00  0.00000000E+00  0.00000000E+00
  0.00000000E+00  0.00000000E+00  0.00000000E+00
  0.00000000E+00  0.00000000E+00  0.00000000E+00
  0.00000000E+00  0.00000000E+00  0.00000000E+00
  0.00000000E+00  0.00000000E+00  0.00000000E+00
  0.00000000E+00  0.00000000E+00  0.00000000E+00
  0.00000000E+00  0.00000000E+00  0.00000000E+00
  0.00000000E+00  0.00000000E+00  0.00000000E+00
  0.00000000E+00  0.00000000E+00  0.00000000E+00
  0.00000000E+00  0.00000000E+00  0.00000000E+00
  0.00000000E+00  0.00000000E+00  0.00000000E+00
  0.00000000E+00  0.00000000E+00  0.00000000E+00
  0.00000000E+00  0.00000000E+00  0.00000000E+00
  0.00000000E+00  0.00000000E+00  0.00000000E+00
  0.00000000E+00  0.00000000E+00  0.00000000E+00
  0.00000000E+00  0.00000000E+00  0.00000000E+00
  0.00000000E+00  0.00000000E+00  0.00000000E+00
  0.00000000E+00  0.00000000E+00  0.00000000E+00
  0.00000000E+00  0.00000000E+00  0.00000000E+00
  0.00000000E+00  0.00000000E+00  0.00000000E+00
  0.00000000E+00  0.00000000E+00  0.00000000E+00
  0.00000000E+00  0.00000000E+00  0.00000000E+00
  0.00000000E+00  0.00000000E+00  0.00000000E+00
  0.00000000E+00  0.00000000E+00  0.00000000E+00
  0.00000000E+00  0.00000000E+00  0.00000000E+00
  0.00000000E+00  0.00000000E+00  0.00000000E+00
  0.00000000E+00  0.00000000E+00  0.00000000E+00
  0.00000000E+00  0.00000000E+00  0.00000000E+00
  0.00000000E+00  0.00000000E+00  0.00000000E+00
  0.00000000E+00  0.00000000E+00  0.00000000E+00
  0.00000000E+00  0.00000000E+00  0.00000000E+00
  0.00000000E+00  0.00000000E+00  0.00000000E+00
  0.00000000E+00  0.00000000E+00  0.00000000E+00
  0.00000000E+00  0.00000000E+00  0.00000000E+00
  0.00000000E+00  0.00000000E+00  0.00000000E+00
  0.00000000E+00  0.00000000E+00  0.00000000E+00
  0.00000000E+00  0.00000000E+00  0.00000000E+00
  0.00000000E+00  0.00000000E+00  0.00000000E+00
  0.00000000E+00  0.00000000E+00  0.00000000E+00
  0.00000000E+00  0.00000000E+00  0.00000000E+00
  0.00000000E+00  0.00000000E+00  0.00000000E+00
  0.00000000E+00  0.00000000E+00  0.00000000E+00
  0.00000000E+00  0.00000000E+00  0.00000000E+00
  0.00000000E+00  0.00000000E+00  0.00000000E+00
  0.00000000E+00  0.00000000E+00  0.00000000E+00
  0.00000000E+00  0.00000000E+00  0.00000000E+00
  0.00000000E+00  0.00000000E+00  0.00000000E+00
  0.00000000E+00  0.00000000E+00  0.00000000E+00
  0.00000000E+00  0.00000000E+00  0.00000000E+00
  0.00000000E+00  0.00000000E+00  0.00000000E+00
  0.00000000E+00  0.00000000E+00  0.00000000E+00
  0.00000000E+00  0.00000000E+00  0.00000000E+00
  0.00000000E+00  0.00000000E+00  0.00000000E+00
  0.00000000E+00  0.00000000E+00  0.00000000E+00
  0.00000000E+00  0.00000000E+00  0.00000000E+00
  0.00000000E+00  0.00000000E+00  0.00000000E+00
  0.00000000E+00  0.00000000E+00  0.00000000E+00
  0.00000000E+00  0.00000000E+00  0.00000000E+00
  0.00000000E+00  0.00000000E+00  0.00000000E+00
  0.00000000E+00  0.00000000E+00  0.00000000E+00
  0.00000000E+00  0.00000000E+00  0.00000000E+00
  0.00000000E+00  0.00000000E+00  0.00000000E+00
  0.00000000E+00  0.00000000E+00  0.00000000E+00
  0.00000000E+00  0.00000000E+00  0.00000000E+00
  0.00000000E+00  0.00000000E+00  0.00000000E+00
  0.00000000E+00  0.00000000E+00  0.00000000E+00
  0.00000000E+00  0.00000000E+00  0.00000000E+00
  0.00000000E+00  0.00000000E+00  0.00000000E+00
  0.00000000E+00  0.00000000E+00  0.00000000E+00
  0.00000000E+00  0.00000000E+00  0.00000000E+00
  0.00000000E+00  0.00000000E+00  0.00000000E+00
  0.00000000E+00  0.00000000E+00  0.00000000E+00
  0.00000000E+00  0.00000000E+00  0.00000000E+00
  0.00000000E+00  0.00000000E+00  0.00000000E+00
  0.00000000E+00  0.00000000E+00  0.00000000E+00
  0.00000000E+00  0.00000000E+00  0.00000000E+00
  0.00000000E+00  0.00000000E+00  0.00000000E+00
  0.00000000E+00  0.00000000E+00  0.00000000E+00
  0.00000000E+00  0.00000000E+00  0.00000000E+00
  0.00000000E+00  0.00000000E+00  0.00000000E+00
  0.00000000E+00  0.00000000E+00  0.00000000E+00
  0.00000000E+00  0.00000000E+00  0.00000000E+00
  0.00000000E+00  0.00000000E+00  0.00000000E+00
  0.00000000E+00  0.00000000E+00  0.00000000E+00
  0.00000000E+00  0.00000000E+00  0.00000000E+00
  0.00000000E+00  0.00000000E+00  0.00000000E+00
  0.00000000E+00  0.00000000E+00  0.00000000E+00
  0.00000000E+00  0.00000000E+00  0.00000000E+00
  0.00000000E+00  0.00000000E+00  0.00000000E+00
  0.00000000E+00  0.00000000E+00  0.00000000E+00
  0.00000000E+00  0.00000000E+00  0.00000000E+00
  0.00000000E+00  0.00000000E+00  0.00000000E+00
  0.00000000E+00  0.00000000E+00  0.00000000E+00
  0.00000000E+00  0.00000000E+00  0.00000000E+00
  0.00000000E+00  0.00000000E+00  0.00000000E+00
  0.00000000E+00  0.00000000E+00  0.00000000E+00
  0.00000000E+00  0.00000000E+00  0.00000000E+00
  0.00000000E+00  0.00000000E+00  0.00000000E+00
  0.00000000E+00  0.00000000E+00  0.00000000E+00
  0.00000000E+00  0.00000000E+00  0.00000000E+00
  0.00000000E+00  0.00000000E+00  0.00000000E+00
  0.00000000E+00  0.00000000E+00  0.00000000E+00
  0.00000000E+00  0.00000000E+00  0.00000000E+00
  0.00000000E+00  0.00000000E+00  0.00000000E+00
  0.00000000E+00  0.00000000E+00  0.00000000E+00
  0.00000000E+00  0.00000000E+00  0.00000000E+00
  0.00000000E+00  0.00000000E+00  0.00000000E+00
  0.00000000E+00  0.00000000E+00  0.00000000E+00
  0.00000000E+00  0.00000000E+00  0.00000000E+00
  0.00000000E+00  0.00000000E+00  0.00000000E+00
  0.00000000E+00  0.00000000E+00  0.00000000E+00
  0.00000000E+00  0.00000000E+00  0.00000000E+00
  0.00000000E+00  0.00000000E+00  0.00000000E+00
  0.00000000E+00  0.00000000E+00  0.00000000E+00
  0.00000000E+00  0.00000000E+00  0.00000000E+00
  0.00000000E+00  0.00000000E+00  0.00000000E+00
  0.00000000E+00  0.00000000E+00  0.00000000E+00
  0.00000000E+00  0.00000000E+00  0.00000000E+00
  0.00000000E+00  0.00000000E+00  0.00000000E+00
  0.00000000E+00  0.00000000E+00  0.00000000E+00
  0.00000000E+00  0.00000000E+00  0.00000000E+00
  0.00000000E+00  0.00000000E+00  0.00000000E+00
  0.00000000E+00  0.00000000E+00  0.00000000E+00
  0.00000000E+00  0.00000000E+00  0.00000000E+00
  0.00000000E+00  0.00000000E+00  0.00000000E+00
  0.00000000E+00  0.00000000E+00  0.00000000E+00
  0.00000000E+00  0.00000000E+00  0.00000000E+00
  0.00000000E+00  0.00000000E+00  0.00000000E+00
  0.00000000E+00  0.00000000E+00  0.00000000E+00
  0.00000000E+00  0.00000000E+00  0.00000000E+00
  0.00000000E+00  0.00000000E+00  0.00000000E+00
  0.00000000E+00  0.00000000E+00  0.00000000E+00
  0.00000000E+00  0.00000000E+00  0.00000000E+00
  0.00000000E+00  0.00000000E+00  0.00000000E+00
  0.00000000E+00  0.00000000E+00  0.00000000E+00
  0.00000000E+00  0.00000000E+00  0.00000000E+00
