Li42 P14 O56
1.0
6.176136 0.000000 0.000000
0.000000 5.296402 -4.922448
0.000000 0.000000 63.991824
Li P O
42 14 56
direct
0.000000 0.155480 0.002561 Li+
0.500000 0.844520 0.017102 Li+
0.252873 0.673566 0.042495 Li+
0.247127 0.326434 0.054254 Li+
0.752873 0.326434 0.054254 Li+
0.747127 0.673566 0.042495 Li+
0.000000 0.155480 0.079484 Li+
0.500000 0.844520 0.094025 Li+
0.252873 0.673566 0.119418 Li+
0.247127 0.326434 0.131177 Li+
0.752873 0.326434 0.131177 Li+
0.747127 0.673566 0.119418 Li+
0.000000 0.155480 0.156407 Li+
0.500000 0.844520 0.170949 Li+
0.252873 0.673566 0.196341 Li+
0.247127 0.326434 0.208100 Li+
0.752873 0.326434 0.208100 Li+
0.747127 0.673566 0.196341 Li+
0.000000 0.155480 0.233330 Li+
0.500000 0.844520 0.247872 Li+
0.252873 0.673566 0.273264 Li+
0.247127 0.326434 0.285023 Li+
0.752873 0.326434 0.285023 Li+
0.747127 0.673566 0.273264 Li+
0.000000 0.155480 0.310253 Li+
0.500000 0.844520 0.324795 Li+
0.252873 0.673566 0.350187 Li+
0.247127 0.326434 0.361946 Li+
0.752873 0.326434 0.361946 Li+
0.747127 0.673566 0.350187 Li+
0.000000 0.155480 0.387176 Li+
0.500000 0.844520 0.401718 Li+
0.252873 0.673566 0.427110 Li+
0.247127 0.326434 0.438869 Li+
0.752873 0.326434 0.438869 Li+
0.747127 0.673566 0.427110 Li+
0.000000 0.155480 0.464099 Li+
0.500000 0.844520 0.478641 Li+
0.252873 0.673566 0.504033 Li+
0.247127 0.326434 0.515792 Li+
0.752873 0.326434 0.515792 Li+
0.747127 0.673566 0.504033 Li+
0.500000 0.175739 0.004734 P5+
0.000000 0.824261 0.016159 P5+
0.500000 0.175739 0.081657 P5+
0.000000 0.824261 0.093082 P5+
0.500000 0.175739 0.158581 P5+
0.000000 0.824261 0.170005 P5+
0.500000 0.175739 0.235504 P5+
0.000000 0.824261 0.246928 P5+
0.500000 0.175739 0.312427 P5+
0.000000 0.824261 0.323851 P5+
0.500000 0.175739 0.389350 P5+
0.000000 0.824261 0.400775 P5+
0.500000 0.175739 0.466273 P5+
0.000000 0.824261 0.477698 P5+
0.792862 0.686491 0.074362 O2-
0.500000 0.896492 0.052430 O2-
0.500000 0.181604 0.029511 O2-
0.000000 0.818396 0.040033 O2-
0.292862 0.313509 0.007210 O2-
0.207138 0.686491 0.074362 O2-
0.000000 0.103508 0.029893 O2-
0.707138 0.313509 0.007210 O2-
0.792862 0.686491 0.151285 O2-
0.500000 0.896492 0.129353 O2-
0.500000 0.181604 0.106434 O2-
0.000000 0.818396 0.116956 O2-
0.292862 0.313509 0.084133 O2-
0.207138 0.686491 0.151285 O2-
0.000000 0.103508 0.106816 O2-
0.707138 0.313509 0.084133 O2-
0.792862 0.686491 0.228208 O2-
0.500000 0.896492 0.206276 O2-
0.500000 0.181604 0.183357 O2-
0.000000 0.818396 0.193879 O2-
0.292862 0.313509 0.161056 O2-
0.207138 0.686491 0.228208 O2-
0.000000 0.103508 0.183739 O2-
0.707138 0.313509 0.161056 O2-
0.792862 0.686491 0.305131 O2-
0.500000 0.896492 0.283200 O2-
0.500000 0.181604 0.260280 O2-
0.000000 0.818396 0.270803 O2-
0.292862 0.313509 0.237979 O2-
0.207138 0.686491 0.305131 O2-
0.000000 0.103508 0.260662 O2-
0.707138 0.313509 0.237979 O2-
0.792862 0.686491 0.382055 O2-
0.500000 0.896492 0.360123 O2-
0.500000 0.181604 0.337203 O2-
0.000000 0.818396 0.347726 O2-
0.292862 0.313509 0.314902 O2-
0.207138 0.686491 0.382055 O2-
0.000000 0.103508 0.337585 O2-
0.707138 0.313509 0.314902 O2-
0.792862 0.686491 0.458978 O2-
0.500000 0.896492 0.437046 O2-
0.500000 0.181604 0.414126 O2-
0.000000 0.818396 0.424649 O2-
0.292862 0.313509 0.391825 O2-
0.207138 0.686491 0.458978 O2-
0.000000 0.103508 0.414508 O2-
0.707138 0.313509 0.391825 O2-
0.792862 0.686491 0.535901 O2-
0.500000 0.896492 0.513969 O2-
0.500000 0.181604 0.491049 O2-
0.000000 0.818396 0.501572 O2-
0.292862 0.313509 0.468748 O2-
0.207138 0.686491 0.535901 O2-
0.000000 0.103508 0.491432 O2-
0.707138 0.313509 0.468748 O2-
