Li1 N3                                  
   1.00000000000000     
     1.6655380000000000    2.8224809999999998    0.0003720000000000
    -1.6655380000000000    2.8224809999999998    0.0003720000000000
     0.0000000000000000    1.4710280000000000    4.7315360000000002
   Li   N 
     1     3
Direct
  0.0000000000000000  0.0000000000000000  0.0000000000000000
  0.6058760000000021  0.6058760000000021  0.2565329999999975
  0.3941239999999979  0.3941239999999979  0.7434670000000025
  0.5000000000000000  0.5000000000000000  0.5000000000000000
 
  0.00000000E+00  0.00000000E+00  0.00000000E+00
  0.00000000E+00  0.00000000E+00  0.00000000E+00
  0.00000000E+00  0.00000000E+00  0.00000000E+00
  0.00000000E+00  0.00000000E+00  0.00000000E+00
