Li7 P2 N1 O7                            
   1.00000000000000     
     5.4535340154471434    0.0000000000000000    0.0359091223311062
     0.0000000000000000    6.2628535739435138    0.0000000000000000
     0.0363630404356890    0.0000000000000000    5.3023969308506524
   Li   P    N    O 
     7     2     1     7
Direct
  0.1363040868783382  0.5000000000000000  0.2011081347971940
  0.5322301629503888  0.7494169937732608  0.3221815637470878
  0.5322301629503888  0.2505830062267397  0.3221815637470878
  0.1046991301077901  0.7779607239372166  0.6582202275866604
  0.1046991301077901  0.2220392760627837  0.6582202275866604
  0.5297510830059288  0.0000000000000000  0.8503646641633068
  0.8004711140164539  0.5000000000000000  0.8598725918520660
  0.4040945631702231  0.5000000000000000  0.8169766991679739
  0.0054404712718996  0.0000000000000000  0.1689951389662830
  0.1206913747083784  0.5000000000000000  0.8111174958332911
  0.1042182204811496  0.2011839486363036  0.3068098479833175
  0.1042182204811496  0.7988160513636969  0.3068098479833175
  0.5134578292251395  0.5000000000000000  0.0984915679247792
  0.7161246710844922  0.0000000000000000  0.1765458046873562
  0.5337020565203714  0.7026805021434526  0.6889025852920355
  0.5337020565203714  0.2973194978565474  0.6889025852920355
  0.0997056665197750  0.0000000000000000  0.8914994533895445
 
  0.00000000E+00  0.00000000E+00  0.00000000E+00
  0.00000000E+00  0.00000000E+00  0.00000000E+00
  0.00000000E+00  0.00000000E+00  0.00000000E+00
  0.00000000E+00  0.00000000E+00  0.00000000E+00
  0.00000000E+00  0.00000000E+00  0.00000000E+00
  0.00000000E+00  0.00000000E+00  0.00000000E+00
  0.00000000E+00  0.00000000E+00  0.00000000E+00
  0.00000000E+00  0.00000000E+00  0.00000000E+00
  0.00000000E+00  0.00000000E+00  0.00000000E+00
  0.00000000E+00  0.00000000E+00  0.00000000E+00
  0.00000000E+00  0.00000000E+00  0.00000000E+00
  0.00000000E+00  0.00000000E+00  0.00000000E+00
  0.00000000E+00  0.00000000E+00  0.00000000E+00
  0.00000000E+00  0.00000000E+00  0.00000000E+00
  0.00000000E+00  0.00000000E+00  0.00000000E+00
  0.00000000E+00  0.00000000E+00  0.00000000E+00
  0.00000000E+00  0.00000000E+00  0.00000000E+00
