Li140 P140 O420
1.0
13.312980 0.000000 -5.521558
2.677750 16.540545 0.000000
0.000000 0.000000 60.737138
Li P O
140 140 420
direct
0.944698 0.181780 0.088767 Li+
0.444698 0.681780 0.042332 Li+
0.822834 0.065996 0.078615 Li+
0.322834 0.565996 0.030328 Li+
0.702414 0.950543 0.065726 Li+
0.202414 0.450543 0.021323 Li+
0.582845 0.835452 0.054725 Li+
0.082845 0.335452 0.010584 Li+
0.512460 0.758434 0.004184 Li+
0.012460 0.258434 0.048327 Li+
0.942549 0.681714 0.086155 Li+
0.442549 0.181714 0.044554 Li+
0.821455 0.566270 0.079227 Li+
0.321455 0.066270 0.029465 Li+
0.702271 0.449547 0.063216 Li+
0.202271 0.949547 0.023807 Li+
0.582496 0.332984 0.057374 Li+
0.082496 0.832984 0.007871 Li+
0.510463 0.256366 0.006902 Li+
0.010463 0.756366 0.045246 Li+
0.944698 0.181780 0.179677 Li+
0.444698 0.681780 0.133241 Li+
0.822834 0.065996 0.169524 Li+
0.322834 0.565996 0.121237 Li+
0.702414 0.950543 0.156635 Li+
0.202414 0.450543 0.112232 Li+
0.582845 0.835452 0.145634 Li+
0.082845 0.335452 0.101493 Li+
0.512460 0.758434 0.095093 Li+
0.012460 0.258434 0.139236 Li+
0.942549 0.681714 0.177064 Li+
0.442549 0.181714 0.135463 Li+
0.821455 0.566270 0.170136 Li+
0.321455 0.066270 0.120374 Li+
0.702271 0.449547 0.154125 Li+
0.202271 0.949547 0.114716 Li+
0.582496 0.332984 0.148283 Li+
0.082496 0.832984 0.098780 Li+
0.510463 0.256366 0.097811 Li+
0.010463 0.756366 0.136155 Li+
0.944698 0.181780 0.270586 Li+
0.444698 0.681780 0.224151 Li+
0.822834 0.065996 0.260433 Li+
0.322834 0.565996 0.212146 Li+
0.702414 0.950543 0.247544 Li+
0.202414 0.450543 0.203141 Li+
0.582845 0.835452 0.236543 Li+
0.082845 0.335452 0.192402 Li+
0.512460 0.758434 0.186003 Li+
0.012460 0.258434 0.230145 Li+
0.942549 0.681714 0.267973 Li+
0.442549 0.181714 0.226372 Li+
0.821455 0.566270 0.261045 Li+
0.321455 0.066270 0.211284 Li+
0.702271 0.449547 0.245034 Li+
0.202271 0.949547 0.205625 Li+
0.582496 0.332984 0.239192 Li+
0.082496 0.832984 0.189689 Li+
0.510463 0.256366 0.188720 Li+
0.010463 0.756366 0.227064 Li+
0.944698 0.181780 0.361495 Li+
0.444698 0.681780 0.315060 Li+
0.822834 0.065996 0.351342 Li+
0.322834 0.565996 0.303055 Li+
0.702414 0.950543 0.338453 Li+
0.202414 0.450543 0.294050 Li+
0.582845 0.835452 0.327452 Li+
0.082845 0.335452 0.283311 Li+
0.512460 0.758434 0.276912 Li+
0.012460 0.258434 0.321054 Li+
0.942549 0.681714 0.358882 Li+
0.442549 0.181714 0.317281 Li+
0.821455 0.566270 0.351954 Li+
0.321455 0.066270 0.302193 Li+
0.702271 0.449547 0.335943 Li+
0.202271 0.949547 0.296534 Li+
0.582496 0.332984 0.330101 Li+
0.082496 0.832984 0.280599 Li+
0.510463 0.256366 0.279630 Li+
0.010463 0.756366 0.317973 Li+
0.944698 0.181780 0.452404 Li+
0.444698 0.681780 0.405969 Li+
0.822834 0.065996 0.442251 Li+
0.322834 0.565996 0.393964 Li+
0.702414 0.950543 0.429362 Li+
0.202414 0.450543 0.384959 Li+
0.582845 0.835452 0.418361 Li+
0.082845 0.335452 0.374220 Li+
0.512460 0.758434 0.367821 Li+
0.012460 0.258434 0.411963 Li+
0.942549 0.681714 0.449791 Li+
0.442549 0.181714 0.408190 Li+
0.821455 0.566270 0.442863 Li+
0.321455 0.066270 0.393102 Li+
0.702271 0.449547 0.426852 Li+
0.202271 0.949547 0.387443 Li+
0.582496 0.332984 0.421010 Li+
0.082496 0.832984 0.371508 Li+
0.510463 0.256366 0.370539 Li+
0.010463 0.756366 0.408882 Li+
0.944698 0.181780 0.543313 Li+
0.444698 0.681780 0.496878 Li+
0.822834 0.065996 0.533161 Li+
0.322834 0.565996 0.484873 Li+
0.702414 0.950543 0.520271 Li+
0.202414 0.450543 0.475868 Li+
0.582845 0.835452 0.509270 Li+
0.082845 0.335452 0.465129 Li+
0.512460 0.758434 0.458730 Li+
0.012460 0.258434 0.502872 Li+
0.942549 0.681714 0.540701 Li+
0.442549 0.181714 0.499099 Li+
0.821455 0.566270 0.533772 Li+
0.321455 0.066270 0.484011 Li+
0.702271 0.449547 0.517761 Li+
0.202271 0.949547 0.478352 Li+
0.582496 0.332984 0.511919 Li+
0.082496 0.832984 0.462417 Li+
0.510463 0.256366 0.461448 Li+
0.010463 0.756366 0.499791 Li+
0.944698 0.181780 0.634222 Li+
0.444698 0.681780 0.587787 Li+
0.822834 0.065996 0.624070 Li+
0.322834 0.565996 0.575782 Li+
0.702414 0.950543 0.611180 Li+
0.202414 0.450543 0.566777 Li+
0.582845 0.835452 0.600179 Li+
0.082845 0.335452 0.556038 Li+
0.512460 0.758434 0.549639 Li+
0.012460 0.258434 0.593781 Li+
0.942549 0.681714 0.631610 Li+
0.442549 0.181714 0.590009 Li+
0.821455 0.566270 0.624681 Li+
0.321455 0.066270 0.574920 Li+
0.702271 0.449547 0.608670 Li+
0.202271 0.949547 0.569261 Li+
0.582496 0.332984 0.602828 Li+
0.082496 0.832984 0.553326 Li+
0.510463 0.256366 0.552357 Li+
0.010463 0.756366 0.590700 Li+
0.001192 0.999587 0.031106 P5+
0.501192 0.499587 0.019356 P5+
0.887667 0.906720 0.051882 P5+
0.387667 0.406720 0.068849 P5+
0.795924 0.802939 0.012166 P5+
0.295924 0.302939 0.000974 P5+
0.716706 0.691689 0.037644 P5+
0.216706 0.191689 0.052003 P5+
0.616650 0.591751 0.089387 P5+
0.116650 0.091751 0.072976 P5+
0.909487 0.425433 0.053810 P5+
0.409487 0.925433 0.070888 P5+
0.808986 0.325562 0.014638 P5+
0.308986 0.825562 0.000878 P5+
0.730132 0.213545 0.040382 P5+
0.230132 0.713545 0.051706 P5+
0.637722 0.110144 0.001107 P5+
0.137722 0.610144 0.074179 P5+
0.524425 0.017155 0.021901 P5+
0.024425 0.517155 0.032786 P5+
0.001192 0.999587 0.122015 P5+
0.501192 0.499587 0.110265 P5+
0.887667 0.906720 0.142791 P5+
0.387667 0.406720 0.159758 P5+
0.795924 0.802939 0.103076 P5+
0.295924 0.302939 0.091884 P5+
0.716706 0.691689 0.128553 P5+
0.216706 0.191689 0.142912 P5+
0.616650 0.591751 0.180297 P5+
0.116650 0.091751 0.163885 P5+
0.909487 0.425433 0.144719 P5+
0.409487 0.925433 0.161797 P5+
0.808986 0.325562 0.105547 P5+
0.308986 0.825562 0.091787 P5+
0.730132 0.213545 0.131291 P5+
0.230132 0.713545 0.142615 P5+
0.637722 0.110144 0.092016 P5+
0.137722 0.610144 0.165089 P5+
0.524425 0.017155 0.112810 P5+
0.024425 0.517155 0.123695 P5+
0.001192 0.999587 0.212924 P5+
0.501192 0.499587 0.201175 P5+
0.887667 0.906720 0.233700 P5+
0.387667 0.406720 0.250667 P5+
0.795924 0.802939 0.193985 P5+
0.295924 0.302939 0.182793 P5+
0.716706 0.691689 0.219462 P5+
0.216706 0.191689 0.233821 P5+
0.616650 0.591751 0.271206 P5+
0.116650 0.091751 0.254795 P5+
0.909487 0.425433 0.235628 P5+
0.409487 0.925433 0.252706 P5+
0.808986 0.325562 0.196456 P5+
0.308986 0.825562 0.182696 P5+
0.730132 0.213545 0.222200 P5+
0.230132 0.713545 0.233524 P5+
0.637722 0.110144 0.182925 P5+
0.137722 0.610144 0.255998 P5+
0.524425 0.017155 0.203719 P5+
0.024425 0.517155 0.214604 P5+
0.001192 0.999587 0.303833 P5+
0.501192 0.499587 0.292084 P5+
0.887667 0.906720 0.324609 P5+
0.387667 0.406720 0.341576 P5+
0.795924 0.802939 0.284894 P5+
0.295924 0.302939 0.273702 P5+
0.716706 0.691689 0.310371 P5+
0.216706 0.191689 0.324730 P5+
0.616650 0.591751 0.362115 P5+
0.116650 0.091751 0.345704 P5+
0.909487 0.425433 0.326537 P5+
0.409487 0.925433 0.343615 P5+
0.808986 0.325562 0.287365 P5+
0.308986 0.825562 0.273605 P5+
0.730132 0.213545 0.313110 P5+
0.230132 0.713545 0.324433 P5+
0.637722 0.110144 0.273834 P5+
0.137722 0.610144 0.346907 P5+
0.524425 0.017155 0.294628 P5+
0.024425 0.517155 0.305513 P5+
0.001192 0.999587 0.394742 P5+
0.501192 0.499587 0.382993 P5+
0.887667 0.906720 0.415518 P5+
0.387667 0.406720 0.432485 P5+
0.795924 0.802939 0.375803 P5+
0.295924 0.302939 0.364611 P5+
0.716706 0.691689 0.401280 P5+
0.216706 0.191689 0.415639 P5+
0.616650 0.591751 0.453024 P5+
0.116650 0.091751 0.436613 P5+
0.909487 0.425433 0.417446 P5+
0.409487 0.925433 0.434524 P5+
0.808986 0.325562 0.378274 P5+
0.308986 0.825562 0.364514 P5+
0.730132 0.213545 0.404019 P5+
0.230132 0.713545 0.415342 P5+
0.637722 0.110144 0.364743 P5+
0.137722 0.610144 0.437816 P5+
0.524425 0.017155 0.385537 P5+
0.024425 0.517155 0.396422 P5+
0.001192 0.999587 0.485651 P5+
0.501192 0.499587 0.473902 P5+
0.887667 0.906720 0.506427 P5+
0.387667 0.406720 0.523394 P5+
0.795924 0.802939 0.466712 P5+
0.295924 0.302939 0.455520 P5+
0.716706 0.691689 0.492189 P5+
0.216706 0.191689 0.506549 P5+
0.616650 0.591751 0.543933 P5+
0.116650 0.091751 0.527522 P5+
0.909487 0.425433 0.508355 P5+
0.409487 0.925433 0.525433 P5+
0.808986 0.325562 0.469183 P5+
0.308986 0.825562 0.455424 P5+
0.730132 0.213545 0.494928 P5+
0.230132 0.713545 0.506251 P5+
0.637722 0.110144 0.455652 P5+
0.137722 0.610144 0.528725 P5+
0.524425 0.017155 0.476446 P5+
0.024425 0.517155 0.487331 P5+
0.001192 0.999587 0.576561 P5+
0.501192 0.499587 0.564811 P5+
0.887667 0.906720 0.597336 P5+
0.387667 0.406720 0.614303 P5+
0.795924 0.802939 0.557621 P5+
0.295924 0.302939 0.546429 P5+
0.716706 0.691689 0.583098 P5+
0.216706 0.191689 0.597458 P5+
0.616650 0.591751 0.634842 P5+
0.116650 0.091751 0.618431 P5+
0.909487 0.425433 0.599264 P5+
0.409487 0.925433 0.616343 P5+
0.808986 0.325562 0.560092 P5+
0.308986 0.825562 0.546333 P5+
0.730132 0.213545 0.585837 P5+
0.230132 0.713545 0.597160 P5+
0.637722 0.110144 0.546561 P5+
0.137722 0.610144 0.619634 P5+
0.524425 0.017155 0.567355 P5+
0.024425 0.517155 0.578240 P5+
0.905428 0.964587 0.032980 O2-
0.405428 0.464587 0.000071 O2-
0.800449 0.859372 0.034156 O2-
0.300449 0.359372 0.070717 O2-
0.757206 0.724144 0.018504 O2-
0.257206 0.224144 0.078507 O2-
0.685355 0.607741 0.025911 O2-
0.185355 0.107741 0.058035 O2-
0.058300 0.021852 0.058421 O2-
0.558300 0.521852 0.002425 O2-
0.840686 0.409378 0.026387 O2-
0.340686 0.909378 0.085802 O2-
0.772630 0.290596 0.034285 O2-
0.272630 0.790596 0.065529 O2-
0.726756 0.156445 0.018531 O2-
0.226756 0.656445 0.072943 O2-
0.618048 0.056520 0.020510 O2-
0.118048 0.556520 0.051199 O2-
0.967956 0.495673 0.049965 O2-
0.467956 0.995673 0.085363 O2-
0.955284 0.073889 0.014440 O2-
0.455284 0.573889 0.027675 O2-
0.071165 0.933926 0.025782 O2-
0.571165 0.433926 0.037403 O2-
0.836724 0.958651 0.065409 O2-
0.336724 0.458651 0.046059 O2-
0.982201 0.846743 0.064841 O2-
0.482201 0.346743 0.073078 O2-
0.714989 0.845353 0.080851 O2-
0.214989 0.345353 0.008483 O2-
0.902007 0.775410 0.013325 O2-
0.402007 0.275410 0.019104 O2-
0.622035 0.747295 0.036076 O2-
0.122035 0.247295 0.036357 O2-
0.803128 0.669352 0.061199 O2-
0.303128 0.169352 0.044161 O2-
0.542257 0.667159 0.077590 O2-
0.042257 0.167159 0.071248 O2-
0.685603 0.553292 0.077834 O2-
0.185603 0.053292 0.006157 O2-
0.839056 0.463335 0.065047 O2-
0.339056 0.963335 0.046845 O2-
0.984307 0.350606 0.065878 O2-
0.484307 0.850606 0.072423 O2-
0.720379 0.348215 0.082358 O2-
0.220379 0.848215 0.007957 O2-
0.903854 0.271458 0.015651 O2-
0.403854 0.771458 0.017114 O2-
0.623095 0.241625 0.038519 O2-
0.123095 0.741625 0.034107 O2-
0.808921 0.171199 0.062938 O2-
0.308921 0.671199 0.043475 O2-
0.543593 0.170027 0.078607 O2-
0.043593 0.670027 0.070474 O2-
0.687356 0.055640 0.078765 O2-
0.187356 0.555640 0.005546 O2-
0.452378 0.080441 0.027387 O2-
0.952378 0.580441 0.014200 O2-
0.572944 0.942366 0.038216 O2-
0.072944 0.442366 0.025292 O2-
0.905428 0.964587 0.123889 O2-
0.405428 0.464587 0.090980 O2-
0.800449 0.859372 0.125065 O2-
0.300449 0.359372 0.161626 O2-
0.757206 0.724144 0.109413 O2-
0.257206 0.224144 0.169416 O2-
0.685355 0.607741 0.116820 O2-
0.185355 0.107741 0.148944 O2-
0.058300 0.021852 0.149330 O2-
0.558300 0.521852 0.093334 O2-
0.840686 0.409378 0.117296 O2-
0.340686 0.909378 0.176711 O2-
0.772630 0.290596 0.125195 O2-
0.272630 0.790596 0.156438 O2-
0.726756 0.156445 0.109440 O2-
0.226756 0.656445 0.163852 O2-
0.618048 0.056520 0.111419 O2-
0.118048 0.556520 0.142108 O2-
0.967956 0.495673 0.140874 O2-
0.467956 0.995673 0.176273 O2-
0.955284 0.073889 0.105349 O2-
0.455284 0.573889 0.118585 O2-
0.071165 0.933926 0.116691 O2-
0.571165 0.433926 0.128312 O2-
0.836724 0.958651 0.156318 O2-
0.336724 0.458651 0.136968 O2-
0.982201 0.846743 0.155750 O2-
0.482201 0.346743 0.163987 O2-
0.714989 0.845353 0.171761 O2-
0.214989 0.345353 0.099392 O2-
0.902007 0.775410 0.104234 O2-
0.402007 0.275410 0.110013 O2-
0.622035 0.747295 0.126985 O2-
0.122035 0.247295 0.127267 O2-
0.803128 0.669352 0.152108 O2-
0.303128 0.169352 0.135070 O2-
0.542257 0.667159 0.168499 O2-
0.042257 0.167159 0.162157 O2-
0.685603 0.553292 0.168743 O2-
0.185603 0.053292 0.097066 O2-
0.839056 0.463335 0.155956 O2-
0.339056 0.963335 0.137754 O2-
0.984307 0.350606 0.156787 O2-
0.484307 0.850606 0.163332 O2-
0.720379 0.348215 0.173267 O2-
0.220379 0.848215 0.098866 O2-
0.903854 0.271458 0.106560 O2-
0.403854 0.771458 0.108023 O2-
0.623095 0.241625 0.129428 O2-
0.123095 0.741625 0.125016 O2-
0.808921 0.171199 0.153847 O2-
0.308921 0.671199 0.134384 O2-
0.543593 0.170027 0.169516 O2-
0.043593 0.670027 0.161383 O2-
0.687356 0.055640 0.169674 O2-
0.187356 0.555640 0.096455 O2-
0.452378 0.080441 0.118296 O2-
0.952378 0.580441 0.105109 O2-
0.572944 0.942366 0.129126 O2-
0.072944 0.442366 0.116201 O2-
0.905428 0.964587 0.214798 O2-
0.405428 0.464587 0.181889 O2-
0.800449 0.859372 0.215974 O2-
0.300449 0.359372 0.252535 O2-
0.757206 0.724144 0.200322 O2-
0.257206 0.224144 0.260325 O2-
0.685355 0.607741 0.207730 O2-
0.185355 0.107741 0.239853 O2-
0.058300 0.021852 0.240239 O2-
0.558300 0.521852 0.184243 O2-
0.840686 0.409378 0.208205 O2-
0.340686 0.909378 0.267620 O2-
0.772630 0.290596 0.216104 O2-
0.272630 0.790596 0.247347 O2-
0.726756 0.156445 0.200349 O2-
0.226756 0.656445 0.254761 O2-
0.618048 0.056520 0.202328 O2-
0.118048 0.556520 0.233017 O2-
0.967956 0.495673 0.231783 O2-
0.467956 0.995673 0.267182 O2-
0.955284 0.073889 0.196258 O2-
0.455284 0.573889 0.209494 O2-
0.071165 0.933926 0.207600 O2-
0.571165 0.433926 0.219221 O2-
0.836724 0.958651 0.247227 O2-
0.336724 0.458651 0.227877 O2-
0.982201 0.846743 0.246659 O2-
0.482201 0.346743 0.254896 O2-
0.714989 0.845353 0.262670 O2-
0.214989 0.345353 0.190301 O2-
0.902007 0.775410 0.195143 O2-
0.402007 0.275410 0.200922 O2-
0.622035 0.747295 0.217895 O2-
0.122035 0.247295 0.218176 O2-
0.803128 0.669352 0.243017 O2-
0.303128 0.169352 0.225979 O2-
0.542257 0.667159 0.259408 O2-
0.042257 0.167159 0.253066 O2-
0.685603 0.553292 0.259652 O2-
0.185603 0.053292 0.187976 O2-
0.839056 0.463335 0.246865 O2-
0.339056 0.963335 0.228663 O2-
0.984307 0.350606 0.247697 O2-
0.484307 0.850606 0.254241 O2-
0.720379 0.348215 0.264176 O2-
0.220379 0.848215 0.189775 O2-
0.903854 0.271458 0.197469 O2-
0.403854 0.771458 0.198932 O2-
0.623095 0.241625 0.220337 O2-
0.123095 0.741625 0.215925 O2-
0.808921 0.171199 0.244757 O2-
0.308921 0.671199 0.225293 O2-
0.543593 0.170027 0.260425 O2-
0.043593 0.670027 0.252292 O2-
0.687356 0.055640 0.260583 O2-
0.187356 0.555640 0.187364 O2-
0.452378 0.080441 0.209205 O2-
0.952378 0.580441 0.196018 O2-
0.572944 0.942366 0.220035 O2-
0.072944 0.442366 0.207110 O2-
0.905428 0.964587 0.305707 O2-
0.405428 0.464587 0.272798 O2-
0.800449 0.859372 0.306883 O2-
0.300449 0.359372 0.343444 O2-
0.757206 0.724144 0.291231 O2-
0.257206 0.224144 0.351234 O2-
0.685355 0.607741 0.298639 O2-
0.185355 0.107741 0.330762 O2-
0.058300 0.021852 0.331148 O2-
0.558300 0.521852 0.275152 O2-
0.840686 0.409378 0.299114 O2-
0.340686 0.909378 0.358529 O2-
0.772630 0.290596 0.307013 O2-
0.272630 0.790596 0.338257 O2-
0.726756 0.156445 0.291258 O2-
0.226756 0.656445 0.345670 O2-
0.618048 0.056520 0.293237 O2-
0.118048 0.556520 0.323926 O2-
0.967956 0.495673 0.322692 O2-
0.467956 0.995673 0.358091 O2-
0.955284 0.073889 0.287167 O2-
0.455284 0.573889 0.300403 O2-
0.071165 0.933926 0.298509 O2-
0.571165 0.433926 0.310130 O2-
0.836724 0.958651 0.338136 O2-
0.336724 0.458651 0.318786 O2-
0.982201 0.846743 0.337568 O2-
0.482201 0.346743 0.345805 O2-
0.714989 0.845353 0.353579 O2-
0.214989 0.345353 0.281210 O2-
0.902007 0.775410 0.286052 O2-
0.402007 0.275410 0.291831 O2-
0.622035 0.747295 0.308804 O2-
0.122035 0.247295 0.309085 O2-
0.803128 0.669352 0.333926 O2-
0.303128 0.169352 0.316888 O2-
0.542257 0.667159 0.350317 O2-
0.042257 0.167159 0.343975 O2-
0.685603 0.553292 0.350562 O2-
0.185603 0.053292 0.278885 O2-
0.839056 0.463335 0.337774 O2-
0.339056 0.963335 0.319572 O2-
0.984307 0.350606 0.338606 O2-
0.484307 0.850606 0.345150 O2-
0.720379 0.348215 0.355085 O2-
0.220379 0.848215 0.280684 O2-
0.903854 0.271458 0.288378 O2-
0.403854 0.771458 0.289841 O2-
0.623095 0.241625 0.311247 O2-
0.123095 0.741625 0.306835 O2-
0.808921 0.171199 0.335666 O2-
0.308921 0.671199 0.316202 O2-
0.543593 0.170027 0.351334 O2-
0.043593 0.670027 0.343201 O2-
0.687356 0.055640 0.351492 O2-
0.187356 0.555640 0.278273 O2-
0.452378 0.080441 0.300114 O2-
0.952378 0.580441 0.286927 O2-
0.572944 0.942366 0.310944 O2-
0.072944 0.442366 0.298019 O2-
0.905428 0.964587 0.396616 O2-
0.405428 0.464587 0.363707 O2-
0.800449 0.859372 0.397792 O2-
0.300449 0.359372 0.434353 O2-
0.757206 0.724144 0.382140 O2-
0.257206 0.224144 0.442143 O2-
0.685355 0.607741 0.389548 O2-
0.185355 0.107741 0.421672 O2-
0.058300 0.021852 0.422057 O2-
0.558300 0.521852 0.366061 O2-
0.840686 0.409378 0.390023 O2-
0.340686 0.909378 0.449438 O2-
0.772630 0.290596 0.397922 O2-
0.272630 0.790596 0.429166 O2-
0.726756 0.156445 0.382167 O2-
0.226756 0.656445 0.436579 O2-
0.618048 0.056520 0.384147 O2-
0.118048 0.556520 0.414835 O2-
0.967956 0.495673 0.413601 O2-
0.467956 0.995673 0.449000 O2-
0.955284 0.073889 0.378076 O2-
0.455284 0.573889 0.391312 O2-
0.071165 0.933926 0.389418 O2-
0.571165 0.433926 0.401039 O2-
0.836724 0.958651 0.429045 O2-
0.336724 0.458651 0.409696 O2-
0.982201 0.846743 0.428477 O2-
0.482201 0.346743 0.436714 O2-
0.714989 0.845353 0.444488 O2-
0.214989 0.345353 0.372119 O2-
0.902007 0.775410 0.376962 O2-
0.402007 0.275410 0.382740 O2-
0.622035 0.747295 0.399713 O2-
0.122035 0.247295 0.399994 O2-
0.803128 0.669352 0.424835 O2-
0.303128 0.169352 0.407797 O2-
0.542257 0.667159 0.441226 O2-
0.042257 0.167159 0.434884 O2-
0.685603 0.553292 0.441471 O2-
0.185603 0.053292 0.369794 O2-
0.839056 0.463335 0.428683 O2-
0.339056 0.963335 0.410482 O2-
0.984307 0.350606 0.429515 O2-
0.484307 0.850606 0.436059 O2-
0.720379 0.348215 0.445994 O2-
0.220379 0.848215 0.371593 O2-
0.903854 0.271458 0.379287 O2-
0.403854 0.771458 0.380750 O2-
0.623095 0.241625 0.402156 O2-
0.123095 0.741625 0.397744 O2-
0.808921 0.171199 0.426575 O2-
0.308921 0.671199 0.407111 O2-
0.543593 0.170027 0.442243 O2-
0.043593 0.670027 0.434111 O2-
0.687356 0.055640 0.442401 O2-
0.187356 0.555640 0.369182 O2-
0.452378 0.080441 0.391024 O2-
0.952378 0.580441 0.377836 O2-
0.572944 0.942366 0.401853 O2-
0.072944 0.442366 0.388928 O2-
0.905428 0.964587 0.487525 O2-
0.405428 0.464587 0.454616 O2-
0.800449 0.859372 0.488701 O2-
0.300449 0.359372 0.525262 O2-
0.757206 0.724144 0.473049 O2-
0.257206 0.224144 0.533052 O2-
0.685355 0.607741 0.480457 O2-
0.185355 0.107741 0.512581 O2-
0.058300 0.021852 0.512966 O2-
0.558300 0.521852 0.456970 O2-
0.840686 0.409378 0.480932 O2-
0.340686 0.909378 0.540347 O2-
0.772630 0.290596 0.488831 O2-
0.272630 0.790596 0.520075 O2-
0.726756 0.156445 0.473077 O2-
0.226756 0.656445 0.527488 O2-
0.618048 0.056520 0.475056 O2-
0.118048 0.556520 0.505744 O2-
0.967956 0.495673 0.504511 O2-
0.467956 0.995673 0.539909 O2-
0.955284 0.073889 0.468985 O2-
0.455284 0.573889 0.482221 O2-
0.071165 0.933926 0.480327 O2-
0.571165 0.433926 0.491949 O2-
0.836724 0.958651 0.519954 O2-
0.336724 0.458651 0.500605 O2-
0.982201 0.846743 0.519386 O2-
0.482201 0.346743 0.527623 O2-
0.714989 0.845353 0.535397 O2-
0.214989 0.345353 0.463029 O2-
0.902007 0.775410 0.467871 O2-
0.402007 0.275410 0.473649 O2-
0.622035 0.747295 0.490622 O2-
0.122035 0.247295 0.490903 O2-
0.803128 0.669352 0.515744 O2-
0.303128 0.169352 0.498706 O2-
0.542257 0.667159 0.532135 O2-
0.042257 0.167159 0.525794 O2-
0.685603 0.553292 0.532380 O2-
0.185603 0.053292 0.460703 O2-
0.839056 0.463335 0.519592 O2-
0.339056 0.963335 0.501391 O2-
0.984307 0.350606 0.520424 O2-
0.484307 0.850606 0.526969 O2-
0.720379 0.348215 0.536903 O2-
0.220379 0.848215 0.462502 O2-
0.903854 0.271458 0.470196 O2-
0.403854 0.771458 0.471659 O2-
0.623095 0.241625 0.493065 O2-
0.123095 0.741625 0.488653 O2-
0.808921 0.171199 0.517484 O2-
0.308921 0.671199 0.498020 O2-
0.543593 0.170027 0.533152 O2-
0.043593 0.670027 0.525020 O2-
0.687356 0.055640 0.533310 O2-
0.187356 0.555640 0.460091 O2-
0.452378 0.080441 0.481933 O2-
0.952378 0.580441 0.468745 O2-
0.572944 0.942366 0.492762 O2-
0.072944 0.442366 0.479837 O2-
0.905428 0.964587 0.578434 O2-
0.405428 0.464587 0.545525 O2-
0.800449 0.859372 0.579610 O2-
0.300449 0.359372 0.616172 O2-
0.757206 0.724144 0.563958 O2-
0.257206 0.224144 0.623961 O2-
0.685355 0.607741 0.571366 O2-
0.185355 0.107741 0.603490 O2-
0.058300 0.021852 0.603875 O2-
0.558300 0.521852 0.547879 O2-
0.840686 0.409378 0.571841 O2-
0.340686 0.909378 0.631256 O2-
0.772630 0.290596 0.579740 O2-
0.272630 0.790596 0.610984 O2-
0.726756 0.156445 0.563986 O2-
0.226756 0.656445 0.618397 O2-
0.618048 0.056520 0.565965 O2-
0.118048 0.556520 0.596653 O2-
0.967956 0.495673 0.595420 O2-
0.467956 0.995673 0.630818 O2-
0.955284 0.073889 0.559895 O2-
0.455284 0.573889 0.573130 O2-
0.071165 0.933926 0.571236 O2-
0.571165 0.433926 0.582858 O2-
0.836724 0.958651 0.610864 O2-
0.336724 0.458651 0.591514 O2-
0.982201 0.846743 0.610295 O2-
0.482201 0.346743 0.618532 O2-
0.714989 0.845353 0.626306 O2-
0.214989 0.345353 0.553938 O2-
0.902007 0.775410 0.558780 O2-
0.402007 0.275410 0.564558 O2-
0.622035 0.747295 0.581531 O2-
0.122035 0.247295 0.581812 O2-
0.803128 0.669352 0.606654 O2-
0.303128 0.169352 0.589615 O2-
0.542257 0.667159 0.623044 O2-
0.042257 0.167159 0.616703 O2-
0.685603 0.553292 0.623289 O2-
0.185603 0.053292 0.551612 O2-
0.839056 0.463335 0.610502 O2-
0.339056 0.963335 0.592300 O2-
0.984307 0.350606 0.611333 O2-
0.484307 0.850606 0.617878 O2-
0.720379 0.348215 0.627812 O2-
0.220379 0.848215 0.553411 O2-
0.903854 0.271458 0.561106 O2-
0.403854 0.771458 0.562568 O2-
0.623095 0.241625 0.583974 O2-
0.123095 0.741625 0.579562 O2-
0.808921 0.171199 0.608393 O2-
0.308921 0.671199 0.588929 O2-
0.543593 0.170027 0.624061 O2-
0.043593 0.670027 0.615929 O2-
0.687356 0.055640 0.624219 O2-
0.187356 0.555640 0.551000 O2-
0.452378 0.080441 0.572842 O2-
0.952378 0.580441 0.559654 O2-
0.572944 0.942366 0.583671 O2-
0.072944 0.442366 0.570746 O2-
