Li6 P2                                  
   1.00000000000000     
     2.1124214922190427   -3.6588217138514625    0.0000000000000000
     2.1124214922190427    3.6588217138514625   -0.0000000000000000
     0.0000000000000000    0.0000000000000000    7.5525028588040977
   Li   P 
     6     2
Direct
 -0.0000000000000000  0.0000000000000000  0.2500000000000000
  0.0000000000000000 -0.0000000000000000  0.7500000000000000
  0.3333330000000032  0.6666669999999968  0.5841044660525971
  0.6666669999999968  0.3333330000000032  0.0841044660525972
  0.6666669999999968  0.3333330000000032  0.4158955339474028
  0.3333330000000032  0.6666669999999968  0.9158955339474029
  0.3333330000000032  0.6666669999999968  0.2500000000000000
  0.6666669999999968  0.3333330000000032  0.7500000000000000
 
  0.00000000E+00  0.00000000E+00  0.00000000E+00
  0.00000000E+00  0.00000000E+00  0.00000000E+00
  0.00000000E+00  0.00000000E+00  0.00000000E+00
  0.00000000E+00  0.00000000E+00  0.00000000E+00
  0.00000000E+00  0.00000000E+00  0.00000000E+00
  0.00000000E+00  0.00000000E+00  0.00000000E+00
  0.00000000E+00  0.00000000E+00  0.00000000E+00
  0.00000000E+00  0.00000000E+00  0.00000000E+00
