Li4 P2 N2 O4
1.0
2.675903 -4.486375 0.000000
2.730513 4.577934 0.000000
0.000000 0.000000 4.748969
Li P N O
4 2 2 4
direct
0.325136 0.993793 0.501556 Li
0.993793 0.325136 0.501556 Li
0.674864 0.006207 0.001556 Li
0.006207 0.674864 0.001556 Li
0.653750 0.653750 0.498511 P
0.346250 0.346250 0.998511 P
0.387000 0.387000 0.341176 N
0.613000 0.613000 0.841176 N
0.944497 0.666403 0.419101 O
0.666403 0.944497 0.419101 O
0.055503 0.333597 0.919101 O
0.333597 0.055503 0.919101 O
