Li71 P24 N1 O94                         
   1.00000000000000     
    14.7309177975184245   -0.0040724569900894    0.0048744576996138
    -0.0029411814429723   10.5806186576843171   -0.0056949513942308
     0.0040830250700245   -0.0066417741087631   12.3093520246076906
   Li   P    N    O 
    71    24     1    94
Direct
  0.2022471292301019  0.4153356975623605 -0.0024333618381792
  0.1679806084478378  0.4200084664597510  0.5040222172818953
  0.1689382869588343  0.9327810885232468  0.0085130052746650
  0.1707118514326557  0.9219051255043800  0.4996705151375838
  0.5007711065478608  0.4214331766380112  0.0008314507402714
  0.5036100483657848  0.4219805593440942  0.4996993625696215
  0.5033875476523257  0.9233801294033902  0.0003709838730956
  0.5028730069151712  0.9228812189809700  0.4995850897985502
  0.8319296604014238  0.4206334417590689  0.0003120150568978
  0.8368644838067811  0.4217933940761625  0.4991166280806972
  0.8346050415508255  0.9204919016133247 -0.0009681320606699
  0.8367251181939616  0.9234111445010705  0.4992080350321468
  0.0101173874018722  0.0761139076026029  0.2488426654497690
  0.0037920589263595  0.0739379830977411  0.7483316815499446
  0.0016881668863268  0.5811141379337856  0.2524879727226954
  0.0022000472027950  0.5776742609465900  0.7469380062285452
  0.3319293816851823  0.0785189436028901  0.2464845940091080
  0.3365552865984796  0.0771473878596540  0.7512788276279593
  0.3355895918151460  0.5764297452482442  0.2513605455460399
  0.3372476100360535  0.5775105523697521  0.7496966085625588
  0.6703782564108787  0.0772752244422064  0.2498243605673713
  0.6690970409040350  0.0764883900836809  0.7493667081474681
  0.6691773948048956  0.5774744860686704  0.2507436155859764
  0.6680595459900055  0.5776322136118492  0.7494093346942298
  0.1699194271183780  0.1622647089911499  0.6265811294150442
  0.1722973057107590  0.6688913496464232  0.1267045856611297
  0.1701080636777196  0.6634229990987147  0.6262957068927826
  0.5020552306126845  0.1627753507552379  0.1263237544953248
  0.5027194373028530  0.1627853494846860  0.6263559240348668
  0.5027026939253958  0.6639128029528624  0.1271384776833269
  0.5024298039813152  0.6634281533199331  0.6257323948775271
  0.8384568256104578  0.1607505318990079  0.1247063617821764
  0.8362248080546124  0.1626360503191356  0.6256363301453837
  0.8328039205699127  0.6651547228394501  0.1294312089817004
  0.8350285147780598  0.6636975099508651  0.6260054948661763
 -0.0007797265350077  0.3198920274165530  0.1406916063798639
  0.0031928615828226  0.3366567377077971  0.6222857534526905
  0.0026541441154969  0.8448758456253315  0.1264038845262143
  0.0031147683259955  0.8371466221986561  0.6227380055113074
  0.3331527503926646  0.3303258925810985  0.1282730235908193
  0.3362264843855938  0.3354029523403358  0.6225293864944670
  0.3368892316494957  0.8394646383577103  0.1234163883263835
  0.3363445262075495  0.8365143596153399  0.6235787016454307
  0.6694150200107146  0.3357578052454323  0.1240882887322940
  0.6692398447307562  0.3363187133779486  0.6232820747023587
  0.6686694480755263  0.8375076917566292  0.1238641931790768
  0.6691239539066919  0.8368189718326234  0.6231365118126332
  0.0087626679969464  0.3394105457802537  0.3752466498285880
 -0.0033206810948208  0.3185680980891217  0.8576395251031188
  0.0034667722213218  0.8373400834877183  0.3771494940300821
  0.0026044056137624  0.8434646818774989  0.8748933763804991
  0.3396519007439028  0.3350900114968598  0.3761351278705427
  0.3398746193894714  0.3319896895802076  0.8737088740578460
  0.3354553492730465  0.8362265789883044  0.3763068452803480
  0.3362258011579339  0.8392079386602925  0.8776319189952723
  0.6694280153665558  0.3363143296083372  0.3764004174180458
  0.6676718703741039  0.3362289701046923  0.8762267925994101
  0.6692671708140547  0.8370268924995591  0.3763196781383776
  0.6685778620015075  0.8372313286705634  0.8759882025037136
  0.1709034116095087  0.1595951858139633  0.3749995231742140
  0.1686360625317524  0.1614190345940265  0.8786083863430457
  0.1682976084994138  0.6621900401448072  0.3775535488181029
  0.1720091914463649  0.6665067578742813  0.8726064099116301
  0.5026830289050891  0.1623958834682878  0.3730571439595021
  0.5039190483336018  0.1623782074389244  0.8737486367424366
  0.5025222954998014  0.6632598097516950  0.3738306864866717
  0.5028761772770881  0.6641017017518686  0.8734401734745769
  0.8378701464870781  0.1635642453786773  0.3724055013536611
  0.8330335357856489  0.1610387890957762  0.8714030912235807
  0.8359096179145374  0.6640575624624694  0.3748734451513958
  0.8325807559136974  0.6646020984226197  0.8703786290445801
  0.1660861178775469  0.4195145454863055  0.2444687646915125
  0.1672369834300822  0.4121988447569746  0.7512049211815438
  0.1687981501910382  0.9106661118535876  0.2543620591343596
  0.1673095044540098  0.9122081071083956  0.7500564468401441
  0.5013264840372084  0.4123198205042231  0.2494872391712009
  0.5002718395285356  0.4123881294343514  0.7496348184500153
  0.5007060432927452  0.9123014874762762  0.2502623813135304
  0.5005747495317627  0.9118216019493602  0.7496559302700941
  0.8340270964944756  0.4136116493005498  0.2494373850724058
  0.8329643141817379  0.4128352834390723  0.7501969765076792
  0.8340954082448108  0.9120339106997295  0.2502839978910424
  0.8337270526175138  0.9113933936490978  0.7488192772174918
 -0.0042827181048199  0.0867361655869604  0.0001924308545287
  0.0006755781199974  0.0887315028159332  0.4999308058522388
 -0.0019134059566501  0.5981648852267804 -0.0004547120887640
 -0.0007860072175991  0.5879679502320191  0.5010848788232599
  0.3349716200460444  0.0871385569110648 -0.0014372342327371
  0.3344506334416411  0.0869527322103125  0.5006512543483637
  0.3334586699223593  0.5898603281436939 -0.0003366882298169
  0.3341825723836775  0.5862100476952545  0.5007089924460917
  0.6674023450187436  0.0878567941062796 -0.0001525699953431
  0.6677222488700491  0.0881638105887979  0.4998680760626569
  0.6658121759547158  0.5876604655557682 -0.0000375084643049
  0.6671981951182885  0.5876443402649110  0.5001316215753099
  0.2048630601154465  0.3509314977911604  0.3533482722022447
  0.0362418240521513  0.1580166921872306  0.3964974431968772
  0.0333103348883636  0.1557531453971643  0.8965122477153876
  0.0339969620770395  0.6568538492156064  0.3972823978539571
  0.0355738560821644  0.6581601402952353  0.8935932330255845
  0.3701882967426571  0.1557640639047206  0.3970846994105222
  0.3729767084368933  0.1563662896803868  0.8949093246143996
  0.3689350770318441  0.6555931956869506  0.3968180988677733
  0.3698301149133584  0.6571788190739636  0.8957766165116796
  0.7036156293676198  0.1573216712996069  0.3962493085244248
  0.7015701767211600  0.1568659270828306  0.8951067206074762
  0.7026630151068929  0.6570654574193895  0.3964957640515411
  0.7012187848087578  0.6567020765251924  0.8959551968299022
  0.2034735158746159  0.0471190677256581  0.2608667852835990
  0.1998858557657375  0.0523026171482202  0.7496601990067221
  0.1982566224351774  0.5605074061196640  0.2518690329629290
  0.2003317757041038  0.5520093944819493  0.7509655875779996
  0.5355198165696211  0.0516706945763287  0.2500670549249621
  0.5348326280863445  0.0514209956241273  0.7494259354983125
  0.5352610252459264  0.5521685143655318  0.2500677120313846
  0.5338088066340111  0.5523237977358626  0.7496240848885094
  0.8682175342529613  0.0512912103446537  0.2498765561893241
  0.8678014184102661  0.0510176274564560  0.7486656973255486
  0.8667365172228975  0.5539682093402448  0.2495635676214358
  0.8670581102818449  0.5524005184287021  0.7504779423847606
  0.0592074052872044  0.4173411122850906  0.2426099211341340
  0.0609256850963827  0.4099192482928139  0.7528064957124442
  0.0624712407721221  0.9070874099478659  0.2520246989228210
  0.0612602824874719  0.9086165245064410  0.7491562583506146
  0.3958708946346083  0.4099222253272365  0.2489903425556763
  0.3945428348599546  0.4095250368671704  0.7488790059498486
  0.3951943525887923  0.9097574505363483  0.2504325983116644
  0.3949356736451922  0.9089600154310057  0.7498953511866704
  0.7284593593562819  0.4094042797528026  0.2502364267461170
  0.7275306849377052  0.4096034840102675  0.7503499843029885
  0.7283209776011854  0.9089124848011922  0.2499304609136957
  0.7280582102834802  0.9087618153671212  0.7496641108125188
  0.2311058861326129  0.0875678277963801 -0.0059428320979578
  0.2287853279014665  0.0892810567141589  0.5020362209744954
  0.2274752839303278  0.5956665764863462 -0.0009248295570321
  0.2283268692045771  0.5868594029173406  0.5017263579987339
  0.5619306159802709  0.0910963097090284  0.0007174527299437
  0.5620693203650676  0.0911154523099432  0.4997806429327043
  0.5602469306631754  0.5900094594770219  0.0000839810313232
  0.5615546914534897  0.5899910703868148  0.4999198727698683
  0.8897792030475341  0.0857937642733476 -0.0063258418834204
  0.8948617672382387  0.0913631088567160  0.4997003855435342
  0.8928383621931567  0.5920569632910205 -0.0004229511992335
  0.8934886198762967  0.5901953262477452  0.5013512177858319
  0.2018248300532827  0.3574812955954813  0.1397540160713620
  0.2011162375543489  0.3428053327847900  0.6472750516226785
  0.2038234113805309  0.8437354334574091  0.1486714340085693
  0.2024682327353418  0.8425737879859251  0.6461575955922937
  0.5368343699012852  0.3434266313520505  0.1454922067668467
  0.5362865088994532  0.3428995822392513  0.6462976835367952
  0.5361221013351886  0.8427836674079200  0.1463678098424593
  0.5357889202387242  0.8426397263208520  0.6455672700997397
  0.8688732027047751  0.3460414003104897  0.1439349696712020
  0.8693743770377701  0.3429166155719561  0.6474163552484171
  0.8691402521153603  0.8421303931136013  0.1461960810511749
  0.8688425322006341  0.8424290347461936  0.6448050512542051
  0.0231361535351701  0.1555598000940984  0.1051418518453675
  0.0353604745398285  0.1577134093361911  0.6044880113776977
  0.0356685562256016  0.6611505448171384  0.1038680520376036
  0.0350020845265214  0.6570190312753148  0.6048510638483228
  0.3707807316219107  0.1565904338341217  0.1024655709133675
  0.3696565719857030  0.1561986584763446  0.6048466809786796
  0.3694002290885176  0.6564907641740378  0.1039398877347448
  0.3688109792712193  0.6564635707335408  0.6045584533502825
  0.7039107990834350  0.1569143850040593  0.1032170257961974
  0.7029114164256729  0.1570780736524333  0.6041060397934268
  0.7014796232131919  0.6568726070644854  0.1036882613669909
  0.7020720249898256  0.6566528998186431  0.6044070835314853
  0.0328869383794706  0.4483175785116048  0.5015848457825713
  0.0316544585665146  0.9477544091783326  0.0001096303624890
  0.0342288123080297  0.9489268083760467  0.5004481902986675
  0.3619109949000821  0.4472595486425773 -0.0009006458032572
  0.3694139534585602  0.4472661203194217  0.5010661529843482
  0.3710988504447818  0.9475628931013779 -0.0000919013534711
  0.3681455103865744  0.9470626809796601  0.5006457409126845
  0.7000034418379593  0.4480362231144214 -0.0002045446862992
  0.7013702299961387  0.4479337345297438  0.5000708234321982
  0.7005393327350263  0.9476789852076154 -0.0005567010988027
  0.7013327799749710  0.9482683680048600  0.4999671739170744
  0.2027204023307690  0.3425989209646132  0.8543943547499718
  0.2014635554257329  0.8357971194555253  0.3571834840359057
  0.2020071790219562  0.8434734750062194  0.8539854775174465
  0.5363435229538205  0.3428659184912927  0.3533891411878039
  0.5348312359199249  0.3440491799342412  0.8541927112236926
  0.5360222730699430  0.8428990373471854  0.3541621774043781
  0.5361833033986197  0.8428624920491177  0.8534120498430131
  0.8713195404268679  0.3441236641838794  0.3518355535555114
  0.8684301894971265  0.3441714310718280  0.8549437948928973
  0.8691987576347786  0.8426901206884309  0.3540986190978739
  0.8691188884093934  0.8414176325947325  0.8524090139591538
 
  0.00000000E+00  0.00000000E+00  0.00000000E+00
  0.00000000E+00  0.00000000E+00  0.00000000E+00
  0.00000000E+00  0.00000000E+00  0.00000000E+00
  0.00000000E+00  0.00000000E+00  0.00000000E+00
  0.00000000E+00  0.00000000E+00  0.00000000E+00
  0.00000000E+00  0.00000000E+00  0.00000000E+00
  0.00000000E+00  0.00000000E+00  0.00000000E+00
  0.00000000E+00  0.00000000E+00  0.00000000E+00
  0.00000000E+00  0.00000000E+00  0.00000000E+00
  0.00000000E+00  0.00000000E+00  0.00000000E+00
  0.00000000E+00  0.00000000E+00  0.00000000E+00
  0.00000000E+00  0.00000000E+00  0.00000000E+00
  0.00000000E+00  0.00000000E+00  0.00000000E+00
  0.00000000E+00  0.00000000E+00  0.00000000E+00
  0.00000000E+00  0.00000000E+00  0.00000000E+00
  0.00000000E+00  0.00000000E+00  0.00000000E+00
  0.00000000E+00  0.00000000E+00  0.00000000E+00
  0.00000000E+00  0.00000000E+00  0.00000000E+00
  0.00000000E+00  0.00000000E+00  0.00000000E+00
  0.00000000E+00  0.00000000E+00  0.00000000E+00
  0.00000000E+00  0.00000000E+00  0.00000000E+00
  0.00000000E+00  0.00000000E+00  0.00000000E+00
  0.00000000E+00  0.00000000E+00  0.00000000E+00
  0.00000000E+00  0.00000000E+00  0.00000000E+00
  0.00000000E+00  0.00000000E+00  0.00000000E+00
  0.00000000E+00  0.00000000E+00  0.00000000E+00
  0.00000000E+00  0.00000000E+00  0.00000000E+00
  0.00000000E+00  0.00000000E+00  0.00000000E+00
  0.00000000E+00  0.00000000E+00  0.00000000E+00
  0.00000000E+00  0.00000000E+00  0.00000000E+00
  0.00000000E+00  0.00000000E+00  0.00000000E+00
  0.00000000E+00  0.00000000E+00  0.00000000E+00
  0.00000000E+00  0.00000000E+00  0.00000000E+00
  0.00000000E+00  0.00000000E+00  0.00000000E+00
  0.00000000E+00  0.00000000E+00  0.00000000E+00
  0.00000000E+00  0.00000000E+00  0.00000000E+00
  0.00000000E+00  0.00000000E+00  0.00000000E+00
  0.00000000E+00  0.00000000E+00  0.00000000E+00
  0.00000000E+00  0.00000000E+00  0.00000000E+00
  0.00000000E+00  0.00000000E+00  0.00000000E+00
  0.00000000E+00  0.00000000E+00  0.00000000E+00
  0.00000000E+00  0.00000000E+00  0.00000000E+00
  0.00000000E+00  0.00000000E+00  0.00000000E+00
  0.00000000E+00  0.00000000E+00  0.00000000E+00
  0.00000000E+00  0.00000000E+00  0.00000000E+00
  0.00000000E+00  0.00000000E+00  0.00000000E+00
  0.00000000E+00  0.00000000E+00  0.00000000E+00
  0.00000000E+00  0.00000000E+00  0.00000000E+00
  0.00000000E+00  0.00000000E+00  0.00000000E+00
  0.00000000E+00  0.00000000E+00  0.00000000E+00
  0.00000000E+00  0.00000000E+00  0.00000000E+00
  0.00000000E+00  0.00000000E+00  0.00000000E+00
  0.00000000E+00  0.00000000E+00  0.00000000E+00
  0.00000000E+00  0.00000000E+00  0.00000000E+00
  0.00000000E+00  0.00000000E+00  0.00000000E+00
  0.00000000E+00  0.00000000E+00  0.00000000E+00
  0.00000000E+00  0.00000000E+00  0.00000000E+00
  0.00000000E+00  0.00000000E+00  0.00000000E+00
  0.00000000E+00  0.00000000E+00  0.00000000E+00
  0.00000000E+00  0.00000000E+00  0.00000000E+00
  0.00000000E+00  0.00000000E+00  0.00000000E+00
  0.00000000E+00  0.00000000E+00  0.00000000E+00
  0.00000000E+00  0.00000000E+00  0.00000000E+00
  0.00000000E+00  0.00000000E+00  0.00000000E+00
  0.00000000E+00  0.00000000E+00  0.00000000E+00
  0.00000000E+00  0.00000000E+00  0.00000000E+00
  0.00000000E+00  0.00000000E+00  0.00000000E+00
  0.00000000E+00  0.00000000E+00  0.00000000E+00
  0.00000000E+00  0.00000000E+00  0.00000000E+00
  0.00000000E+00  0.00000000E+00  0.00000000E+00
  0.00000000E+00  0.00000000E+00  0.00000000E+00
  0.00000000E+00  0.00000000E+00  0.00000000E+00
  0.00000000E+00  0.00000000E+00  0.00000000E+00
  0.00000000E+00  0.00000000E+00  0.00000000E+00
  0.00000000E+00  0.00000000E+00  0.00000000E+00
  0.00000000E+00  0.00000000E+00  0.00000000E+00
  0.00000000E+00  0.00000000E+00  0.00000000E+00
  0.00000000E+00  0.00000000E+00  0.00000000E+00
  0.00000000E+00  0.00000000E+00  0.00000000E+00
  0.00000000E+00  0.00000000E+00  0.00000000E+00
  0.00000000E+00  0.00000000E+00  0.00000000E+00
  0.00000000E+00  0.00000000E+00  0.00000000E+00
  0.00000000E+00  0.00000000E+00  0.00000000E+00
  0.00000000E+00  0.00000000E+00  0.00000000E+00
  0.00000000E+00  0.00000000E+00  0.00000000E+00
  0.00000000E+00  0.00000000E+00  0.00000000E+00
  0.00000000E+00  0.00000000E+00  0.00000000E+00
  0.00000000E+00  0.00000000E+00  0.00000000E+00
  0.00000000E+00  0.00000000E+00  0.00000000E+00
  0.00000000E+00  0.00000000E+00  0.00000000E+00
  0.00000000E+00  0.00000000E+00  0.00000000E+00
  0.00000000E+00  0.00000000E+00  0.00000000E+00
  0.00000000E+00  0.00000000E+00  0.00000000E+00
  0.00000000E+00  0.00000000E+00  0.00000000E+00
  0.00000000E+00  0.00000000E+00  0.00000000E+00
  0.00000000E+00  0.00000000E+00  0.00000000E+00
  0.00000000E+00  0.00000000E+00  0.00000000E+00
  0.00000000E+00  0.00000000E+00  0.00000000E+00
  0.00000000E+00  0.00000000E+00  0.00000000E+00
  0.00000000E+00  0.00000000E+00  0.00000000E+00
  0.00000000E+00  0.00000000E+00  0.00000000E+00
  0.00000000E+00  0.00000000E+00  0.00000000E+00
  0.00000000E+00  0.00000000E+00  0.00000000E+00
  0.00000000E+00  0.00000000E+00  0.00000000E+00
  0.00000000E+00  0.00000000E+00  0.00000000E+00
  0.00000000E+00  0.00000000E+00  0.00000000E+00
  0.00000000E+00  0.00000000E+00  0.00000000E+00
  0.00000000E+00  0.00000000E+00  0.00000000E+00
  0.00000000E+00  0.00000000E+00  0.00000000E+00
  0.00000000E+00  0.00000000E+00  0.00000000E+00
  0.00000000E+00  0.00000000E+00  0.00000000E+00
  0.00000000E+00  0.00000000E+00  0.00000000E+00
  0.00000000E+00  0.00000000E+00  0.00000000E+00
  0.00000000E+00  0.00000000E+00  0.00000000E+00
  0.00000000E+00  0.00000000E+00  0.00000000E+00
  0.00000000E+00  0.00000000E+00  0.00000000E+00
  0.00000000E+00  0.00000000E+00  0.00000000E+00
  0.00000000E+00  0.00000000E+00  0.00000000E+00
  0.00000000E+00  0.00000000E+00  0.00000000E+00
  0.00000000E+00  0.00000000E+00  0.00000000E+00
  0.00000000E+00  0.00000000E+00  0.00000000E+00
  0.00000000E+00  0.00000000E+00  0.00000000E+00
  0.00000000E+00  0.00000000E+00  0.00000000E+00
  0.00000000E+00  0.00000000E+00  0.00000000E+00
  0.00000000E+00  0.00000000E+00  0.00000000E+00
  0.00000000E+00  0.00000000E+00  0.00000000E+00
  0.00000000E+00  0.00000000E+00  0.00000000E+00
  0.00000000E+00  0.00000000E+00  0.00000000E+00
  0.00000000E+00  0.00000000E+00  0.00000000E+00
  0.00000000E+00  0.00000000E+00  0.00000000E+00
  0.00000000E+00  0.00000000E+00  0.00000000E+00
  0.00000000E+00  0.00000000E+00  0.00000000E+00
  0.00000000E+00  0.00000000E+00  0.00000000E+00
  0.00000000E+00  0.00000000E+00  0.00000000E+00
  0.00000000E+00  0.00000000E+00  0.00000000E+00
  0.00000000E+00  0.00000000E+00  0.00000000E+00
  0.00000000E+00  0.00000000E+00  0.00000000E+00
  0.00000000E+00  0.00000000E+00  0.00000000E+00
  0.00000000E+00  0.00000000E+00  0.00000000E+00
  0.00000000E+00  0.00000000E+00  0.00000000E+00
  0.00000000E+00  0.00000000E+00  0.00000000E+00
  0.00000000E+00  0.00000000E+00  0.00000000E+00
  0.00000000E+00  0.00000000E+00  0.00000000E+00
  0.00000000E+00  0.00000000E+00  0.00000000E+00
  0.00000000E+00  0.00000000E+00  0.00000000E+00
  0.00000000E+00  0.00000000E+00  0.00000000E+00
  0.00000000E+00  0.00000000E+00  0.00000000E+00
  0.00000000E+00  0.00000000E+00  0.00000000E+00
  0.00000000E+00  0.00000000E+00  0.00000000E+00
  0.00000000E+00  0.00000000E+00  0.00000000E+00
  0.00000000E+00  0.00000000E+00  0.00000000E+00
  0.00000000E+00  0.00000000E+00  0.00000000E+00
  0.00000000E+00  0.00000000E+00  0.00000000E+00
  0.00000000E+00  0.00000000E+00  0.00000000E+00
  0.00000000E+00  0.00000000E+00  0.00000000E+00
  0.00000000E+00  0.00000000E+00  0.00000000E+00
  0.00000000E+00  0.00000000E+00  0.00000000E+00
  0.00000000E+00  0.00000000E+00  0.00000000E+00
  0.00000000E+00  0.00000000E+00  0.00000000E+00
  0.00000000E+00  0.00000000E+00  0.00000000E+00
  0.00000000E+00  0.00000000E+00  0.00000000E+00
  0.00000000E+00  0.00000000E+00  0.00000000E+00
  0.00000000E+00  0.00000000E+00  0.00000000E+00
  0.00000000E+00  0.00000000E+00  0.00000000E+00
  0.00000000E+00  0.00000000E+00  0.00000000E+00
  0.00000000E+00  0.00000000E+00  0.00000000E+00
  0.00000000E+00  0.00000000E+00  0.00000000E+00
  0.00000000E+00  0.00000000E+00  0.00000000E+00
  0.00000000E+00  0.00000000E+00  0.00000000E+00
  0.00000000E+00  0.00000000E+00  0.00000000E+00
  0.00000000E+00  0.00000000E+00  0.00000000E+00
  0.00000000E+00  0.00000000E+00  0.00000000E+00
  0.00000000E+00  0.00000000E+00  0.00000000E+00
  0.00000000E+00  0.00000000E+00  0.00000000E+00
  0.00000000E+00  0.00000000E+00  0.00000000E+00
  0.00000000E+00  0.00000000E+00  0.00000000E+00
  0.00000000E+00  0.00000000E+00  0.00000000E+00
  0.00000000E+00  0.00000000E+00  0.00000000E+00
  0.00000000E+00  0.00000000E+00  0.00000000E+00
  0.00000000E+00  0.00000000E+00  0.00000000E+00
  0.00000000E+00  0.00000000E+00  0.00000000E+00
  0.00000000E+00  0.00000000E+00  0.00000000E+00
  0.00000000E+00  0.00000000E+00  0.00000000E+00
  0.00000000E+00  0.00000000E+00  0.00000000E+00
  0.00000000E+00  0.00000000E+00  0.00000000E+00
  0.00000000E+00  0.00000000E+00  0.00000000E+00
  0.00000000E+00  0.00000000E+00  0.00000000E+00
  0.00000000E+00  0.00000000E+00  0.00000000E+00
  0.00000000E+00  0.00000000E+00  0.00000000E+00
  0.00000000E+00  0.00000000E+00  0.00000000E+00
