Li61 P7 N32                             
   1.00000000000000     
     0.0037691921549798    9.5005321130001530    0.0234504578556761
     0.0186144677052310    0.0236265045041236    9.5846688412698455
     9.5605436446848984    0.0036716382745922    0.0186526828610753
   Li   P    N 
    61     7    32
Direct
  0.4986038093290592 -0.0012243273373558  0.4924046711198231
  0.0086168861119350  0.4830723530226575  0.0176180275808822
  0.5005193326069672 -0.0021580993278830 -0.0083939619216333
  0.0029124586088474 -0.0031736867617755  0.4966472237939573
  0.5188793667743103  0.5161214860196908 -0.0229868514617637
  0.0093556291107471  0.4971085263399506  0.4964924388315755
  0.7500245750451220  0.0002543869138978  0.4905149883164340
  0.2503916117901497 -0.0095150444339761  0.4934969276853762
  0.7687817710336392  0.4922805394909964  0.5025541046393792
  0.2358593515274703  0.5056232634272281  0.4977024623721430
  0.2658327786274849  0.0002345694650250 -0.0087880611938708
  0.7404579294870184 -0.0184278402825584 -0.0156939353751710
  0.8134604991516780  0.5848020050906002  0.0637403977136985
  0.5010537863409299  0.2414882193116433 -0.0227385746653552
  0.4892356883583276  0.7562564393464197  0.0133499422237502
 -0.0318952296054968  0.4863626730529529  0.2653390911792308
 -0.0110548258467301  0.5021407408293638  0.7291001770308589
  0.2388944611293233  0.2013227345947331  0.2197201030239930
  0.2452140121631077  0.7940969702761158  0.7708045014025987
  0.2707259953146060  0.2793669576884026  0.7255962808252556
  0.2590210433346433  0.7026316074801824  0.2774648946063021
  0.7618717983123380  0.2949489227940010  0.2977674974718740
  0.7606772892835140  0.7043451257859680  0.6877562091479122
  0.7440005862428632  0.2000392594742713  0.7953848807721895
  0.7327275205789366  0.8046259914693902  0.1806113351374522
  0.9890437112874397  0.2439134995560735  0.2376895045010996
  0.9810291907598643  0.7602218829639362  0.7423726964963699
  0.2622422026847021  0.2289857531783426  0.4860155093061200
  0.2667523527536951  0.7514226273571450  0.5212380732595169
  0.7523357441889558  0.2319158259746015  0.5466419222341009
  0.7503332988396306  0.7690125812406711  0.4399635140657687
  0.7249892963981097  0.5554785033043980  0.2806134585669150
  0.8157389574365901  0.4197759384473602  0.9217722271919746
  0.1899170661161072  0.4508923325287238  0.2307634811836091
  0.0974884341025238  0.6321421631563052  0.8836220691155737
  0.5112988181113562  0.7492316472740110  0.2530807054873221
  0.5182787506578109  0.2475692920345506  0.7403966564122164
  0.2387288446755562  0.9633294651783428  0.2502573757060894
  0.2373102438166978  0.0315602491330422  0.7342973434912066
  0.2535792004785332  0.2401262490952248  0.9741956228874433
  0.2470795791651672  0.7676728127096922  0.0304966239470843
  0.7546818381983640  0.9521974227104550  0.7287437330583419
  0.7636483400599511  0.0362363498733709  0.2477852680117932
  0.7009997764897800  0.7172790469340939  0.9243027405950329
  0.7558730359850983  0.2143447737002028  0.0385426117926057
  0.0115298644033790  0.2494764752247614  0.7575813750632815
  0.0096150952227226  0.7467906737134128  0.2295167131277601
  0.5041833870437549  0.2546814317050379  0.2271079716454781
  0.4868947351612324  0.7296335630169544  0.7491715365291957
  0.0021657039455620  0.2544603058274130  0.0072497667261968
 -0.0479178663634310  0.7663720058964671 -0.0217559301943439
  0.5132296202003842  0.2330957530825726  0.4927418863831245
  0.5072025838059442  0.7613778664149653  0.5020053891582947
  0.4837229086596244  0.5272755612691983  0.2214762876152100
  0.4950857129717402  0.4762935985433265  0.7556444023922810
  0.0032857147941328 -0.0027891521257360  0.2612516020238816
 -0.0016748957180390  0.0046410222492506  0.7368312432346703
  0.3642562953005919  0.3773742022458513  0.3489997912440976
  0.2533985038882848  0.5256456283001351  0.7299148813504844
  0.7276690596466215  0.4778749753997129  0.7404885038508263
  0.6677649690058984  0.4196061814256293  0.0888119832266237
  0.5023751966276269  0.5012843325963777  0.4983539514481125
  0.0043527817503565  0.0019610810771025 -0.0005151746264168
  0.2611025753460400  0.4992953490431059 -0.0011158469850170
  0.0048288842738635  0.7465665283891572  0.4925082353346814
  0.0070525993582512  0.2468285692397951  0.4977252615541486
  0.4999048350552194  0.0025177730274678  0.2418091290847408
  0.4971153175961077 -0.0069754014229621  0.7425928683074198
  0.6043221536383542  0.5951947975376368  0.6025263806791682
  0.5980636268078597  0.4005327445010864  0.3876287250170641
  0.8997059159421857  0.9085048610098684  0.1065932904309423
  0.9015681873552477  0.1028447415463649  0.8960674488616495
  0.1024960485530562  0.8941119997485650  0.8946846297474146
  0.1114867638060861  0.0994706617476945  0.0985474748020212
  0.3958955689487678  0.6041448038120548  0.4010531023265536
  0.3944088612888499  0.3911327841313992  0.5883286877686589
  0.1125867491954445  0.3429724785588099  0.3875378869909926
  0.1052886224409424  0.6504781273355725  0.6065076633242608
  0.1131080088867640  0.1448244744976971  0.5996151251674460
  0.1145310223728185  0.8451534297004223  0.3927181997415141
  0.8954697139178331  0.1482333340298404  0.4021891186924036
  0.8897301289726517  0.8495007151717219  0.5834119050362043
  0.8651030448284837  0.3789544971953845  0.1269828803918691
  0.8774956961316249  0.6166346744938975  0.8615640139302876
  0.1535492990821784  0.5990846668473546  0.1018494846015970
  0.1595283293094395  0.4053512243716378  0.8855381544753076
  0.3977514671773407  0.8953157390240041  0.1459745256443704
  0.3967243934278128  0.1033572425643271  0.8399794134090057
  0.3916294132812252  0.1071058535578531  0.3427131442274828
  0.3875576683665688  0.8958911746791970  0.6412284143325896
  0.3529514595199013  0.3888137626736319  0.1049258250620313
  0.3492962387406563  0.6145308446568866  0.8962068919212760
  0.6115861662736150  0.0878957922813084  0.6419315955172040
  0.6110914245659812  0.9075723365290256  0.3447559995532294
  0.6272304466888576  0.6354092694082966  0.1166845067879584
  0.6308857172139073  0.3583984215823376  0.8770932209043940
  0.9106816063921490  0.3514628475404961  0.6010306873603121
  0.9072131119681472  0.6419362234506618  0.3895455371332878
  0.5995511545643596  0.1032565332012946  0.1370149132690346
  0.5935226013483010  0.8841734283941902  0.8436404178306582
 
  0.00000000E+00  0.00000000E+00  0.00000000E+00
  0.00000000E+00  0.00000000E+00  0.00000000E+00
  0.00000000E+00  0.00000000E+00  0.00000000E+00
  0.00000000E+00  0.00000000E+00  0.00000000E+00
  0.00000000E+00  0.00000000E+00  0.00000000E+00
  0.00000000E+00  0.00000000E+00  0.00000000E+00
  0.00000000E+00  0.00000000E+00  0.00000000E+00
  0.00000000E+00  0.00000000E+00  0.00000000E+00
  0.00000000E+00  0.00000000E+00  0.00000000E+00
  0.00000000E+00  0.00000000E+00  0.00000000E+00
  0.00000000E+00  0.00000000E+00  0.00000000E+00
  0.00000000E+00  0.00000000E+00  0.00000000E+00
  0.00000000E+00  0.00000000E+00  0.00000000E+00
  0.00000000E+00  0.00000000E+00  0.00000000E+00
  0.00000000E+00  0.00000000E+00  0.00000000E+00
  0.00000000E+00  0.00000000E+00  0.00000000E+00
  0.00000000E+00  0.00000000E+00  0.00000000E+00
  0.00000000E+00  0.00000000E+00  0.00000000E+00
  0.00000000E+00  0.00000000E+00  0.00000000E+00
  0.00000000E+00  0.00000000E+00  0.00000000E+00
  0.00000000E+00  0.00000000E+00  0.00000000E+00
  0.00000000E+00  0.00000000E+00  0.00000000E+00
  0.00000000E+00  0.00000000E+00  0.00000000E+00
  0.00000000E+00  0.00000000E+00  0.00000000E+00
  0.00000000E+00  0.00000000E+00  0.00000000E+00
  0.00000000E+00  0.00000000E+00  0.00000000E+00
  0.00000000E+00  0.00000000E+00  0.00000000E+00
  0.00000000E+00  0.00000000E+00  0.00000000E+00
  0.00000000E+00  0.00000000E+00  0.00000000E+00
  0.00000000E+00  0.00000000E+00  0.00000000E+00
  0.00000000E+00  0.00000000E+00  0.00000000E+00
  0.00000000E+00  0.00000000E+00  0.00000000E+00
  0.00000000E+00  0.00000000E+00  0.00000000E+00
  0.00000000E+00  0.00000000E+00  0.00000000E+00
  0.00000000E+00  0.00000000E+00  0.00000000E+00
  0.00000000E+00  0.00000000E+00  0.00000000E+00
  0.00000000E+00  0.00000000E+00  0.00000000E+00
  0.00000000E+00  0.00000000E+00  0.00000000E+00
  0.00000000E+00  0.00000000E+00  0.00000000E+00
  0.00000000E+00  0.00000000E+00  0.00000000E+00
  0.00000000E+00  0.00000000E+00  0.00000000E+00
  0.00000000E+00  0.00000000E+00  0.00000000E+00
  0.00000000E+00  0.00000000E+00  0.00000000E+00
  0.00000000E+00  0.00000000E+00  0.00000000E+00
  0.00000000E+00  0.00000000E+00  0.00000000E+00
  0.00000000E+00  0.00000000E+00  0.00000000E+00
  0.00000000E+00  0.00000000E+00  0.00000000E+00
  0.00000000E+00  0.00000000E+00  0.00000000E+00
  0.00000000E+00  0.00000000E+00  0.00000000E+00
  0.00000000E+00  0.00000000E+00  0.00000000E+00
  0.00000000E+00  0.00000000E+00  0.00000000E+00
  0.00000000E+00  0.00000000E+00  0.00000000E+00
  0.00000000E+00  0.00000000E+00  0.00000000E+00
  0.00000000E+00  0.00000000E+00  0.00000000E+00
  0.00000000E+00  0.00000000E+00  0.00000000E+00
  0.00000000E+00  0.00000000E+00  0.00000000E+00
  0.00000000E+00  0.00000000E+00  0.00000000E+00
  0.00000000E+00  0.00000000E+00  0.00000000E+00
  0.00000000E+00  0.00000000E+00  0.00000000E+00
  0.00000000E+00  0.00000000E+00  0.00000000E+00
  0.00000000E+00  0.00000000E+00  0.00000000E+00
  0.00000000E+00  0.00000000E+00  0.00000000E+00
  0.00000000E+00  0.00000000E+00  0.00000000E+00
  0.00000000E+00  0.00000000E+00  0.00000000E+00
  0.00000000E+00  0.00000000E+00  0.00000000E+00
  0.00000000E+00  0.00000000E+00  0.00000000E+00
  0.00000000E+00  0.00000000E+00  0.00000000E+00
  0.00000000E+00  0.00000000E+00  0.00000000E+00
  0.00000000E+00  0.00000000E+00  0.00000000E+00
  0.00000000E+00  0.00000000E+00  0.00000000E+00
  0.00000000E+00  0.00000000E+00  0.00000000E+00
  0.00000000E+00  0.00000000E+00  0.00000000E+00
  0.00000000E+00  0.00000000E+00  0.00000000E+00
  0.00000000E+00  0.00000000E+00  0.00000000E+00
  0.00000000E+00  0.00000000E+00  0.00000000E+00
  0.00000000E+00  0.00000000E+00  0.00000000E+00
  0.00000000E+00  0.00000000E+00  0.00000000E+00
  0.00000000E+00  0.00000000E+00  0.00000000E+00
  0.00000000E+00  0.00000000E+00  0.00000000E+00
  0.00000000E+00  0.00000000E+00  0.00000000E+00
  0.00000000E+00  0.00000000E+00  0.00000000E+00
  0.00000000E+00  0.00000000E+00  0.00000000E+00
  0.00000000E+00  0.00000000E+00  0.00000000E+00
  0.00000000E+00  0.00000000E+00  0.00000000E+00
  0.00000000E+00  0.00000000E+00  0.00000000E+00
  0.00000000E+00  0.00000000E+00  0.00000000E+00
  0.00000000E+00  0.00000000E+00  0.00000000E+00
  0.00000000E+00  0.00000000E+00  0.00000000E+00
  0.00000000E+00  0.00000000E+00  0.00000000E+00
  0.00000000E+00  0.00000000E+00  0.00000000E+00
  0.00000000E+00  0.00000000E+00  0.00000000E+00
  0.00000000E+00  0.00000000E+00  0.00000000E+00
  0.00000000E+00  0.00000000E+00  0.00000000E+00
  0.00000000E+00  0.00000000E+00  0.00000000E+00
  0.00000000E+00  0.00000000E+00  0.00000000E+00
  0.00000000E+00  0.00000000E+00  0.00000000E+00
  0.00000000E+00  0.00000000E+00  0.00000000E+00
  0.00000000E+00  0.00000000E+00  0.00000000E+00
  0.00000000E+00  0.00000000E+00  0.00000000E+00
  0.00000000E+00  0.00000000E+00  0.00000000E+00
