Li56 P28 O98
1.0
6.730959 0.000000 -2.599490
-2.035903 8.419349 5.263538
0.000000 0.000000 57.865962
Li P O
56 28 98
Selective dynamics
direct
0.144977 0.012029 0.067592 F F F Li
0.855023 0.987971 0.023317 F F F Li
0.588727 0.248347 0.077816 F F F Li
0.411273 0.751653 0.013093 T T T Li
0.327738 0.208724 0.023955 F F F Li
0.672262 0.791276 0.066954 F F F Li
0.241886 0.549204 0.081259 F F F Li
0.758114 0.450796 0.009651 T T T Li
0.144977 0.012029 0.158501 F F F Li
0.855023 0.987971 0.114227 F F F Li
0.588727 0.248347 0.168725 F F F Li
0.411273 0.751653 0.104002 F F F Li
0.327738 0.208724 0.114864 F F F Li
0.672262 0.791276 0.157863 F F F Li
0.241886 0.549204 0.172168 F F F Li
0.758114 0.450796 0.100560 F F F Li
0.144977 0.012029 0.249410 F F F Li
0.855023 0.987971 0.205136 F F F Li
0.588727 0.248347 0.259634 F F F Li
0.411273 0.751653 0.194911 F F F Li
0.327738 0.208724 0.205773 F F F Li
0.672262 0.791276 0.248772 F F F Li
0.241886 0.549204 0.263077 F F F Li
0.758114 0.450796 0.191469 F F F Li
0.144977 0.012029 0.340319 F F F Li
0.855023 0.987971 0.296045 F F F Li
0.588727 0.248347 0.350543 F F F Li
0.411273 0.751653 0.285820 F F F Li
0.327738 0.208724 0.296682 F F F Li
0.672262 0.791276 0.339681 F F F Li
0.241886 0.549204 0.353986 F F F Li
0.758114 0.450796 0.282378 F F F Li
0.144977 0.012029 0.431228 F F F Li
0.855023 0.987971 0.386954 F F F Li
0.588727 0.248347 0.441452 F F F Li
0.411273 0.751653 0.376729 F F F Li
0.327738 0.208724 0.387592 F F F Li
0.672262 0.791276 0.430590 F F F Li
0.241886 0.549204 0.444895 F F F Li
0.758114 0.450796 0.373287 F F F Li
0.144977 0.012029 0.522137 F F F Li
0.855023 0.987971 0.477863 F F F Li
0.588727 0.248347 0.532361 F F F Li
0.411273 0.751653 0.467639 F F F Li
0.327738 0.208724 0.478501 F F F Li
0.672262 0.791276 0.521499 F F F Li
0.241886 0.549204 0.535804 F F F Li
0.758114 0.450796 0.464196 F F F Li
0.144977 0.012029 0.613046 F F F Li
0.855023 0.987971 0.568772 F F F Li
0.588727 0.248347 0.623271 T T T Li
0.411273 0.751653 0.558548 F F F Li
0.327738 0.208724 0.569410 F F F Li
0.672262 0.791276 0.612408 F F F Li
0.241886 0.549204 0.626713 T T T Li
0.758114 0.450796 0.555105 F F F Li
0.213298 0.368044 0.050724 F F F P
0.786702 0.631956 0.040185 F F F P
0.779241 0.154498 0.051021 F F F P
0.220759 0.845502 0.039888 F F F P
0.213298 0.368044 0.141633 F F F P
0.786702 0.631956 0.131094 F F F P
0.779241 0.154498 0.141930 F F F P
0.220759 0.845502 0.130797 F F F P
0.213298 0.368044 0.232542 F F F P
0.786702 0.631956 0.222003 F F F P
0.779241 0.154498 0.232839 F F F P
0.220759 0.845502 0.221706 F F F P
0.213298 0.368044 0.323451 F F F P
0.786702 0.631956 0.312912 F F F P
0.779241 0.154498 0.323748 F F F P
0.220759 0.845502 0.312615 F F F P
0.213298 0.368044 0.414361 F F F P
0.786702 0.631956 0.403821 F F F P
0.779241 0.154498 0.414657 F F F P
0.220759 0.845502 0.403525 F F F P
0.213298 0.368044 0.505270 F F F P
0.786702 0.631956 0.494730 F F F P
0.779241 0.154498 0.505566 F F F P
0.220759 0.845502 0.494434 F F F P
0.213298 0.368044 0.596179 F F F P
0.786702 0.631956 0.585639 F F F P
0.779241 0.154498 0.596475 F F F P
0.220759 0.845502 0.585343 F F F P
0.741759 0.125660 0.077675 F F F O
0.605720 0.209316 0.025869 F F F O
0.394280 0.790684 0.065041 F F F O
0.848591 0.018024 0.054460 F F F O
0.743350 0.623545 0.013081 T T T O
0.256650 0.376455 0.077828 F F F O
0.732189 0.473810 0.064668 F F F O
0.267811 0.526190 0.026241 T T T O
0.702403 0.763496 0.036207 F F F O
0.297597 0.236504 0.054702 F F F O
0.962384 0.316106 0.040984 F F F O
0.037616 0.683894 0.049925 F F F O
0.151409 0.981976 0.036449 F F F O
0.258241 0.874340 0.013234 T T T O
0.741759 0.125660 0.168584 F F F O
0.605720 0.209316 0.116778 F F F O
0.394280 0.790684 0.155950 F F F O
0.848591 0.018024 0.145370 F F F O
0.743350 0.623545 0.103990 F F F O
0.256650 0.376455 0.168737 F F F O
0.732189 0.473810 0.155577 F F F O
0.267811 0.526190 0.117150 F F F O
0.702403 0.763496 0.127117 F F F O
0.297597 0.236504 0.145611 F F F O
0.962384 0.316106 0.131893 F F F O
0.037616 0.683894 0.140834 F F F O
0.151409 0.981976 0.127358 F F F O
0.258241 0.874340 0.104143 F F F O
0.741759 0.125660 0.259493 F F F O
0.605720 0.209316 0.207687 F F F O
0.394280 0.790684 0.246859 F F F O
0.848591 0.018024 0.236279 F F F O
0.743350 0.623545 0.194899 F F F O
0.256650 0.376455 0.259646 F F F O
0.732189 0.473810 0.246486 F F F O
0.267811 0.526190 0.208059 F F F O
0.702403 0.763496 0.218026 F F F O
0.297597 0.236504 0.236520 F F F O
0.962384 0.316106 0.222802 F F F O
0.037616 0.683894 0.231743 F F F O
0.151409 0.981976 0.218267 F F F O
0.258241 0.874340 0.195052 F F F O
0.741759 0.125660 0.350403 F F F O
0.605720 0.209316 0.298596 F F F O
0.394280 0.790684 0.337768 F F F O
0.848591 0.018024 0.327188 F F F O
0.743350 0.623545 0.285809 F F F O
0.256650 0.376455 0.350555 F F F O
0.732189 0.473810 0.337395 F F F O
0.267811 0.526190 0.298969 F F F O
0.702403 0.763496 0.308935 F F F O
0.297597 0.236504 0.327429 F F F O
0.962384 0.316106 0.313711 F F F O
0.037616 0.683894 0.322652 F F F O
0.151409 0.981976 0.309176 F F F O
0.258241 0.874340 0.285961 F F F O
0.741759 0.125660 0.441312 F F F O
0.605720 0.209316 0.389505 F F F O
0.394280 0.790684 0.428677 F F F O
0.848591 0.018024 0.418097 F F F O
0.743350 0.623545 0.376718 F F F O
0.256650 0.376455 0.441464 F F F O
0.732189 0.473810 0.428304 F F F O
0.267811 0.526190 0.389878 F F F O
0.702403 0.763496 0.399844 F F F O
0.297597 0.236504 0.418338 F F F O
0.962384 0.316106 0.404620 F F F O
0.037616 0.683894 0.413561 F F F O
0.151409 0.981976 0.400085 F F F O
0.258241 0.874340 0.376870 F F F O
0.741759 0.125660 0.532221 F F F O
0.605720 0.209316 0.480414 F F F O
0.394280 0.790684 0.519586 F F F O
0.848591 0.018024 0.509006 F F F O
0.743350 0.623545 0.467627 F F F O
0.256650 0.376455 0.532373 F F F O
0.732189 0.473810 0.519213 F F F O
0.267811 0.526190 0.480787 F F F O
0.702403 0.763496 0.490753 F F F O
0.297597 0.236504 0.509247 F F F O
0.962384 0.316106 0.495530 F F F O
0.037616 0.683894 0.504470 F F F O
0.151409 0.981976 0.490994 F F F O
0.258241 0.874340 0.467779 F F F O
0.741759 0.125660 0.623130 T T T O
0.605720 0.209316 0.571323 F F F O
0.394280 0.790684 0.610495 F F F O
0.848591 0.018024 0.599915 F F F O
0.743350 0.623545 0.558536 F F F O
0.256650 0.376455 0.623282 T T T O
0.732189 0.473810 0.610122 T T T O
0.267811 0.526190 0.571696 F F F O
0.702403 0.763496 0.581662 F F F O
0.297597 0.236504 0.600156 F F F O
0.962384 0.316106 0.586439 F F F O
0.037616 0.683894 0.595380 F F F O
0.151409 0.981976 0.581903 F F F O
0.258241 0.874340 0.558688 F F F O
