(2, 2, 1)
1.0
3.668361 0.000000 -6.353787
-0.000000 15.141436 -4.235858
0.000000 0.000000 59.302014
Li P
48 16
Selective dynamics
direct
0.000000 0.375000 0.026786 T T T Li+
0.000000 0.875000 0.062500 T T T Li+
0.000000 0.125000 0.008929 T T T Li+
0.000000 0.625000 0.044643 T T T Li+
0.333333 0.042060 0.003004 T T T Li+
0.333333 0.542060 0.038719 T T T Li+
0.666667 0.292060 0.020861 T T T Li+
0.666667 0.792060 0.056576 T T T Li+
0.666667 0.457940 0.032710 T T T Li+
0.666667 0.957940 0.068424 T T T Li+
0.333333 0.207940 0.014853 T T T Li+
0.333333 0.707941 0.050567 T T T Li+
0.000000 0.375000 0.098214 F F F Li+
0.000000 0.875000 0.133929 F F F Li+
0.000000 0.125000 0.080357 T T T Li+
0.000000 0.625000 0.116071 F F F Li+
0.333333 0.042060 0.074433 T T T Li+
0.333333 0.542060 0.110147 F F F Li+
0.666667 0.292060 0.092290 F F F Li+
0.666667 0.792060 0.128004 F F F Li+
0.666667 0.457940 0.104139 F F F Li+
0.666667 0.957940 0.139853 F F F Li+
0.333333 0.207940 0.086281 F F F Li+
0.333333 0.707941 0.121996 F F F Li+
0.000000 0.375000 0.169643 F F F Li+
0.000000 0.875000 0.205357 T T T Li+
0.000000 0.125000 0.151786 F F F Li+
0.000000 0.625000 0.187500 F F F Li+
0.333333 0.042060 0.145861 F F F Li+
0.333333 0.542060 0.181576 F F F Li+
0.666667 0.292060 0.163719 F F F Li+
0.666667 0.792060 0.199433 F F F Li+
0.666667 0.457940 0.175567 F F F Li+
0.666667 0.957940 0.211281 T T T Li+
0.333333 0.207940 0.157710 F F F Li+
0.333333 0.707941 0.193424 F F F Li+
0.000000 0.375000 0.241071 T T T Li+
0.000000 0.875000 0.276786 T T T Li+
0.000000 0.125000 0.223214 T T T Li+
0.000000 0.625000 0.258929 T T T Li+
0.333333 0.042060 0.217290 T T T Li+
0.333333 0.542060 0.253004 T T T Li+
0.666667 0.292060 0.235147 T T T Li+
0.666667 0.792060 0.270861 T T T Li+
0.666667 0.457940 0.246996 T T T Li+
0.666667 0.957940 0.282710 T T T Li+
0.333333 0.207940 0.229139 T T T Li+
0.333333 0.707941 0.264853 T T T Li+
0.333333 0.375000 0.026786 T T T P3+
0.333333 0.875000 0.062500 T T T P3+
0.666667 0.125000 0.008929 T T T P3+
0.666667 0.625000 0.044643 T T T P3+
0.333333 0.375000 0.098214 F F F P3+
0.333333 0.875000 0.133929 F F F P3+
0.666667 0.125000 0.080357 F F F P3+
0.666667 0.625000 0.116071 F F F P3+
0.333333 0.375000 0.169643 F F F P3+
0.333333 0.875000 0.205357 F F F P3+
0.666667 0.125000 0.151786 F F F P3+
0.666667 0.625000 0.187500 F F F P3+
0.333333 0.375000 0.241071 T T T P3+
0.333333 0.875000 0.276786 T T T P3+
0.666667 0.125000 0.223214 T T T P3+
0.666667 0.625000 0.258929 T T T P3+
