Li12 P28
1.0
7.629388 -0.000000 0.000000
-0.232035 9.846053 0.000000
0.000000 0.000000 10.598231
Li P
12 28
direct
0.850532 0.307848 0.816050 Li
0.350532 0.192152 0.183950 Li
0.149468 0.807848 0.683950 Li
0.649468 0.692152 0.316050 Li
0.568949 0.025950 0.014795 Li
0.068949 0.474050 0.985205 Li
0.431051 0.525950 0.485205 Li
0.931051 0.974050 0.514795 Li
0.402238 0.301371 0.692124 Li
0.902238 0.198629 0.307876 Li
0.597762 0.801371 0.807876 Li
0.097762 0.698629 0.192124 Li
0.280768 0.875491 0.318848 P
0.780768 0.624509 0.681152 P
0.719232 0.375491 0.181152 P
0.219232 0.124509 0.818848 P
0.637646 0.048522 0.387402 P
0.137646 0.451478 0.612598 P
0.362354 0.548522 0.112598 P
0.862354 0.951478 0.887402 P
0.533797 0.943528 0.565132 P
0.033797 0.556472 0.434868 P
0.466203 0.443528 0.934868 P
0.966203 0.056472 0.065132 P
0.406053 0.134841 0.494288 P
0.906053 0.365159 0.505712 P
0.593947 0.634841 0.005712 P
0.093947 0.865159 0.994288 P
0.316265 0.927027 0.881290 P
0.816265 0.572973 0.118710 P
0.683735 0.427027 0.618710 P
0.183735 0.072973 0.381290 P
0.128725 0.218031 0.994617 P
0.628725 0.281969 0.005383 P
0.871275 0.718031 0.505383 P
0.371275 0.781969 0.494617 P
0.966493 0.070503 0.734192 P
0.466493 0.429497 0.265808 P
0.033507 0.570503 0.765808 P
0.533507 0.929497 0.234192 P
