Li1
1.0
-1.696101 1.696101 1.696101
1.696101 -1.696101 1.696101
1.696101 1.696101 -1.696101
Li
1
direct
0.000000 0.000000 0.000000 Li
