(1, 0, 2)                               
   1.00000000000000     
     4.2352530876909285    0.0000684120663614   -0.0000645819251049
     4.2352551603915316    7.2872733396356315    7.5595818455524890
    -0.0008978300209557   -0.0377901051693441   60.5164374955159730
   Li   P 
    48    16
Selective dynamics
Direct
  0.9878067202986197  0.5122670044283983  0.0301882914601325   T   T   T
  0.0000000000000000  0.0000000000000000  0.0937500000000000   F   F   F
  0.0000000000000000  0.5000000000000000  0.0937500000000000   F   F   F
  0.0115412283188777  0.9882679084742451  0.0219384251505497   T   T   T
  0.3333330000000032  0.1666669999999968  0.1146820000000019   F   F   F
  0.3333330000000032  0.6666669999999968  0.0521820000000019   F   F   F
  0.6261449751977174  0.3737470784045563  0.0293269922286347   T   T   T
  0.6666669999999968  0.8333330000000032  0.0938480000000013   F   F   F
  0.6666669999999968  0.3333330000000032  0.0728179999999981   F   F   F
  0.6829100010909418  0.8173368065723718  0.0078503552715593   T   T   T
  0.3766352347702896  0.1232861939003285  0.0385873891667851   T   T   T
  0.3333330000000032  0.6666669999999968  0.0936519999999987   F   F   F
  0.0000000000000000  0.5000000000000000  0.1562500000000000   F   F   F
  0.0000000000000000  0.0000000000000000  0.2187500000000000   F   F   F
  0.0000000000000000  0.5000000000000000  0.2187500000000000   F   F   F
  0.0000000000000000  0.0000000000000000  0.1562500000000000   F   F   F
  0.3333330000000032  0.1666669999999968  0.2396820000000019   F   F   F
  0.3333330000000032  0.6666669999999968  0.1771820000000019   F   F   F
  0.6666669999999968  0.3333330000000032  0.1563480000000013   F   F   F
  0.6666669999999968  0.8333330000000032  0.2188480000000013   F   F   F
  0.6666669999999968  0.3333330000000032  0.1978179999999981   F   F   F
  0.6666669999999968  0.8333330000000032  0.1353179999999981   F   F   F
  0.3333330000000032  0.1666669999999968  0.1561519999999987   F   F   F
  0.3333330000000032  0.6666669999999968  0.2186519999999987   F   F   F
  0.0000000000000000  0.5000000000000000  0.2812500000000000   F   F   F
  0.0000000000000000  0.0000000000000000  0.3437500000000000   F   F   F
  0.0000000000000000  0.5000000000000000  0.3437500000000000   F   F   F
  0.0000000000000000  0.0000000000000000  0.2812500000000000   F   F   F
  0.3333330000000032  0.1666669999999968  0.3646820000000019   F   F   F
  0.3333330000000032  0.6666669999999968  0.3021820000000019   F   F   F
  0.6666669999999968  0.3333330000000032  0.2813480000000013   F   F   F
  0.6666669999999968  0.8333330000000032  0.3438480000000013   F   F   F
  0.6666669999999968  0.3333330000000032  0.3228179999999981   F   F   F
  0.6666669999999968  0.8333330000000032  0.2603179999999981   F   F   F
  0.3333330000000032  0.1666669999999968  0.2811519999999987   F   F   F
  0.3333330000000032  0.6666669999999968  0.3436519999999987   F   F   F
  0.0000000000000000  0.5000000000000000  0.4062500000000000   F   F   F
  0.9884189015124610  0.0117491968697686  0.4780569690704344   T   T   T
  0.0121682982863974  0.4877466558367002  0.4698117836258685   T   T   T
  0.0000000000000000  0.0000000000000000  0.4062500000000000   F   F   F
  0.3171023039692403  0.1826453317522880  0.4921523248703699   T   T   T
  0.3333330000000032  0.6666669999999968  0.4271820000000019   F   F   F
  0.6666669999999968  0.3333330000000032  0.4063480000000013   F   F   F
  0.6233819731815254  0.8767132251707060  0.4614163440467702   T   T   T
  0.6666669999999968  0.3333330000000032  0.4478179999999981   F   F   F
  0.6666669999999968  0.8333330000000032  0.3853179999999981   F   F   F
  0.3333330000000032  0.1666669999999968  0.4061519999999987   F   F   F
  0.3737922350734479  0.6263138472845605  0.4706637201021874   T   T   T
  0.3333330000000032  0.1666669999999968  0.0729169999999968   F   F   F
  0.3419423253507738  0.6582719349526072  0.0145874966605680   T   T   T
  0.6666669999999968  0.3333330000000032  0.1145830000000032   F   F   F
  0.6495949106040098  0.8503204252286631  0.0497231011955537   T   T   T
  0.3333330000000032  0.1666669999999968  0.1979169999999968   F   F   F
  0.3333330000000032  0.6666669999999968  0.1354169999999968   F   F   F
  0.6666669999999968  0.3333330000000032  0.2395830000000032   F   F   F
  0.6666669999999968  0.8333330000000032  0.1770830000000032   F   F   F
  0.3333330000000032  0.1666669999999968  0.3229169999999968   F   F   F
  0.3333330000000032  0.6666669999999968  0.2604169999999968   F   F   F
  0.6666669999999968  0.3333330000000032  0.3645830000000032   F   F   F
  0.6666669999999968  0.8333330000000032  0.3020830000000032   F   F   F
  0.3503609869269786  0.1496919276424865  0.4502778046578501   T   T   T
  0.3333330000000032  0.6666669999999968  0.3854169999999968   F   F   F
  0.6580887576684841  0.3417178106262923  0.4854159636097601   T   T   T
  0.6666669999999968  0.8333330000000032  0.4270830000000032   F   F   F
 
  0.00000000E+00  0.00000000E+00  0.00000000E+00
  0.00000000E+00  0.00000000E+00  0.00000000E+00
  0.00000000E+00  0.00000000E+00  0.00000000E+00
  0.00000000E+00  0.00000000E+00  0.00000000E+00
  0.00000000E+00  0.00000000E+00  0.00000000E+00
  0.00000000E+00  0.00000000E+00  0.00000000E+00
  0.00000000E+00  0.00000000E+00  0.00000000E+00
  0.00000000E+00  0.00000000E+00  0.00000000E+00
  0.00000000E+00  0.00000000E+00  0.00000000E+00
  0.00000000E+00  0.00000000E+00  0.00000000E+00
  0.00000000E+00  0.00000000E+00  0.00000000E+00
  0.00000000E+00  0.00000000E+00  0.00000000E+00
  0.00000000E+00  0.00000000E+00  0.00000000E+00
  0.00000000E+00  0.00000000E+00  0.00000000E+00
  0.00000000E+00  0.00000000E+00  0.00000000E+00
  0.00000000E+00  0.00000000E+00  0.00000000E+00
  0.00000000E+00  0.00000000E+00  0.00000000E+00
  0.00000000E+00  0.00000000E+00  0.00000000E+00
  0.00000000E+00  0.00000000E+00  0.00000000E+00
  0.00000000E+00  0.00000000E+00  0.00000000E+00
  0.00000000E+00  0.00000000E+00  0.00000000E+00
  0.00000000E+00  0.00000000E+00  0.00000000E+00
  0.00000000E+00  0.00000000E+00  0.00000000E+00
  0.00000000E+00  0.00000000E+00  0.00000000E+00
  0.00000000E+00  0.00000000E+00  0.00000000E+00
  0.00000000E+00  0.00000000E+00  0.00000000E+00
  0.00000000E+00  0.00000000E+00  0.00000000E+00
  0.00000000E+00  0.00000000E+00  0.00000000E+00
  0.00000000E+00  0.00000000E+00  0.00000000E+00
  0.00000000E+00  0.00000000E+00  0.00000000E+00
  0.00000000E+00  0.00000000E+00  0.00000000E+00
  0.00000000E+00  0.00000000E+00  0.00000000E+00
  0.00000000E+00  0.00000000E+00  0.00000000E+00
  0.00000000E+00  0.00000000E+00  0.00000000E+00
  0.00000000E+00  0.00000000E+00  0.00000000E+00
  0.00000000E+00  0.00000000E+00  0.00000000E+00
  0.00000000E+00  0.00000000E+00  0.00000000E+00
  0.00000000E+00  0.00000000E+00  0.00000000E+00
  0.00000000E+00  0.00000000E+00  0.00000000E+00
  0.00000000E+00  0.00000000E+00  0.00000000E+00
  0.00000000E+00  0.00000000E+00  0.00000000E+00
  0.00000000E+00  0.00000000E+00  0.00000000E+00
  0.00000000E+00  0.00000000E+00  0.00000000E+00
  0.00000000E+00  0.00000000E+00  0.00000000E+00
  0.00000000E+00  0.00000000E+00  0.00000000E+00
  0.00000000E+00  0.00000000E+00  0.00000000E+00
  0.00000000E+00  0.00000000E+00  0.00000000E+00
  0.00000000E+00  0.00000000E+00  0.00000000E+00
  0.00000000E+00  0.00000000E+00  0.00000000E+00
  0.00000000E+00  0.00000000E+00  0.00000000E+00
  0.00000000E+00  0.00000000E+00  0.00000000E+00
  0.00000000E+00  0.00000000E+00  0.00000000E+00
  0.00000000E+00  0.00000000E+00  0.00000000E+00
  0.00000000E+00  0.00000000E+00  0.00000000E+00
  0.00000000E+00  0.00000000E+00  0.00000000E+00
  0.00000000E+00  0.00000000E+00  0.00000000E+00
  0.00000000E+00  0.00000000E+00  0.00000000E+00
  0.00000000E+00  0.00000000E+00  0.00000000E+00
  0.00000000E+00  0.00000000E+00  0.00000000E+00
  0.00000000E+00  0.00000000E+00  0.00000000E+00
  0.00000000E+00  0.00000000E+00  0.00000000E+00
  0.00000000E+00  0.00000000E+00  0.00000000E+00
  0.00000000E+00  0.00000000E+00  0.00000000E+00
  0.00000000E+00  0.00000000E+00  0.00000000E+00
