(1, 0, 2)
1.0
4.235858 0.000000 0.000000
4.235858 7.336722 7.570718
0.000000 0.000000 60.565744
Li P
48 16
Selective dynamics
direct
0.000000 0.500000 0.031250 T T T Li+
0.000000 0.000000 0.093750 F F F Li+
0.000000 0.500000 0.093750 F F F Li+
0.000000 0.000000 0.031250 T T T Li+
0.333333 0.166667 0.114682 F F F Li+
0.333333 0.666667 0.052182 F F F Li+
0.666667 0.333333 0.031348 T T T Li+
0.666667 0.833333 0.093848 F F F Li+
0.666667 0.333333 0.072818 F F F Li+
0.666667 0.833333 0.010318 T T T Li+
0.333333 0.166667 0.031152 T T T Li+
0.333333 0.666667 0.093652 F F F Li+
0.000000 0.500000 0.156250 F F F Li+
0.000000 0.000000 0.218750 F F F Li+
0.000000 0.500000 0.218750 F F F Li+
0.000000 0.000000 0.156250 F F F Li+
0.333333 0.166667 0.239682 F F F Li+
0.333333 0.666667 0.177182 F F F Li+
0.666667 0.333333 0.156348 F F F Li+
0.666667 0.833333 0.218848 F F F Li+
0.666667 0.333333 0.197818 F F F Li+
0.666667 0.833333 0.135318 F F F Li+
0.333333 0.166667 0.156152 F F F Li+
0.333333 0.666667 0.218652 F F F Li+
0.000000 0.500000 0.281250 F F F Li+
0.000000 0.000000 0.343750 F F F Li+
0.000000 0.500000 0.343750 F F F Li+
0.000000 0.000000 0.281250 F F F Li+
0.333333 0.166667 0.364682 F F F Li+
0.333333 0.666667 0.302182 F F F Li+
0.666667 0.333333 0.281348 F F F Li+
0.666667 0.833333 0.343848 F F F Li+
0.666667 0.333333 0.322818 F F F Li+
0.666667 0.833333 0.260318 F F F Li+
0.333333 0.166667 0.281152 F F F Li+
0.333333 0.666667 0.343652 F F F Li+
0.000000 0.500000 0.406250 F F F Li+
0.000000 0.000000 0.468750 T T T Li+
0.000000 0.500000 0.468750 T T T Li+
0.000000 0.000000 0.406250 F F F Li+
0.333333 0.166667 0.489682 T T T Li+
0.333333 0.666667 0.427182 F F F Li+
0.666667 0.333333 0.406348 F F F Li+
0.666667 0.833333 0.468848 T T T Li+
0.666667 0.333333 0.447818 F F F Li+
0.666667 0.833333 0.385318 F F F Li+
0.333333 0.166667 0.406152 F F F Li+
0.333333 0.666667 0.468652 T T T Li+
0.333333 0.166667 0.072917 F F F P3+
0.333333 0.666667 0.010417 T T T P3+
0.666667 0.333333 0.114583 F F F P3+
0.666667 0.833333 0.052083 T T T P3+
0.333333 0.166667 0.197917 F F F P3+
0.333333 0.666667 0.135417 F F F P3+
0.666667 0.333333 0.239583 F F F P3+
0.666667 0.833333 0.177083 F F F P3+
0.333333 0.166667 0.322917 F F F P3+
0.333333 0.666667 0.260417 F F F P3+
0.666667 0.333333 0.364583 F F F P3+
0.666667 0.833333 0.302083 F F F P3+
0.333333 0.166667 0.447917 T T T P3+
0.333333 0.666667 0.385417 F F F P3+
0.666667 0.333333 0.489583 T T T P3+
0.666667 0.833333 0.427083 F F F P3+
