Li71 P24 N1 O94                         
   1.00000000000000     
    14.7389211032492149    0.0016789140747506    0.0156543062954214
     0.0011973189749679   10.5659299138169676    0.0127606796504765
     0.0130796523594672    0.0148575242193489   12.3153880967791416
   Li   P    N    O 
    71    24     1    94
Direct
  0.1696301293100282  0.4183735478447910  0.0039916989844726
  0.1728495983407594  0.4231138470872524  0.5013596336590264
  0.1684897983297025  0.9311103245731326  0.0071565488714953
  0.1735448352451319  0.9214538397861241  0.5002352080753825
  0.5025656885620277  0.4223593397899877  0.0002502229665272
  0.5041560947933975  0.4239084547611766  0.5011469683523007
  0.5034592777399103  0.9224972132306117 -0.0000814884614636
  0.5020345776539125  0.9218172559395285  0.4999507266077405
  0.8361925620168261  0.4233188069233785 -0.0004750286986083
  0.8327657332140533  0.4230608965758503  0.5012195642950067
  0.8353815750003335  0.9193289382598965 -0.0021122631911074
  0.8330449495404179  0.9181955921242343  0.4987119124714423
  0.0045129961275004  0.0684189760422377  0.2269210237328141
  0.0024745745099879  0.0751415590853536  0.7556629330810084
  0.0017785763293035  0.5789213480864084  0.2451658108163574
  0.0036723615457578  0.5770095224476585  0.7515290088111772
  0.3348352666389237  0.0743984369418930  0.2399335068212960
  0.3365636296635695  0.0775392997584392  0.7527754694117921
  0.3378360614811637  0.5793824048919031  0.2506158342279926
  0.3365468047516888  0.5778394150588155  0.7517577022973750
  0.6684877200870699  0.0775318087784623  0.2478837369574986
  0.6684580903405588  0.0766521530634813  0.7498660062689340
  0.6688016806469899  0.5785320903426401  0.2493917552889137
  0.6690532359764294  0.5780715355107864  0.7504176624991474
  0.1729087964149180  0.1644177123116982  0.6291455264080580
  0.1708152227680683  0.6622899497231993  0.1284490936097661
  0.1705116727582619  0.6632044226748762  0.6278713588899320
  0.5022079197466491  0.1630952703254249  0.1248330390769718
  0.5024534595683904  0.1634565204760120  0.6269499474093126
  0.5026052880578800  0.6635185493739704  0.1257016134558007
  0.5024280690397444  0.6639236441184905  0.6270854634987458
  0.8387801275984245  0.1618851195456511  0.1221614590344690
  0.8326272721513461  0.1659012971678171  0.6272632474181365
  0.8356448104312713  0.6629727709527045  0.1259732304095909
  0.8353203241668953  0.6627260694264082  0.6263470795734455
  0.0001408987718207  0.3350831707141607  0.1220823687226872
  0.0021981510166948  0.3404616377036199  0.6264793970603760
  0.0048203625688013  0.8357131302898506  0.1230892588954275
  0.0026003665012825  0.8312822762985913  0.6275268837191564
  0.3345532117935888  0.3322153038265492  0.1230682056008237
  0.3370640880950069  0.3376195665235655  0.6251405084892215
  0.3360963894275582  0.8365400079061519  0.1222718574195537
  0.3361417251882268  0.8369854144612577  0.6252327230120091
  0.6699667603482592  0.3360368979406519  0.1227976529372752
  0.6680358072527837  0.3374393096662855  0.6243107962194867
  0.6696935490573946  0.8370815267529937  0.1235008501256799
  0.6680741623516874  0.8365313554062739  0.6236046403885303
 -0.0080086773546671  0.3500165162623080  0.3784120649920152
  0.0030325545657133  0.3360959620510395  0.8769895572111481
  0.0029765598673449  0.8342059838244347  0.3742780158779547
  0.0040143789535005  0.8368263751677119  0.8773762685521117
  0.3431292713524641  0.3418536451255328  0.3782510781619079
  0.3364463991362253  0.3347070573518751  0.8774906768771039
  0.3350714407594447  0.8364033315442101  0.3759782034549601
  0.3357037203061330  0.8374378288137252  0.8780515634752873
  0.6674512233450453  0.3371985046684272  0.3763466896275873
  0.6693570481845250  0.3368819692737983  0.8764328161037553
  0.6685721480867205  0.8371851282262913  0.3756799877755834
  0.6692857897727487  0.8366596995326132  0.8755017734404257
  0.2034773568149672  0.1698728157732741  0.3629780725326061
  0.1683749023259972  0.1629861974993387  0.8790745046672543
  0.1698547821816807  0.6626602083684505  0.3770197429163986
  0.1700010144339112  0.6633171110053344  0.8755082097348403
  0.5009898037618061  0.1627422438647522  0.3724690055670569
  0.5036522635769937  0.1630177164289111  0.8740095733548001
  0.5026834786087452  0.6637119642146695  0.3736292909860203
  0.5020853334014190  0.6634255801594110  0.8739568323402709
  0.8316751897275370  0.1625960745153157  0.3696604192249828
  0.8341450345218266  0.1629060011269975  0.8700268411379781
  0.8355689871034349  0.6626045134084111  0.3738992032019259
  0.8364889739012081  0.6631156541463039  0.8730918889200024
  0.1726140175779153  0.4166345452399122  0.2543029609184073
  0.1673771467121424  0.4122429613964378  0.7512823272828137
  0.1684952169987520  0.9110274747757253  0.2534533411432566
  0.1669682241258547  0.9121952962580149  0.7506680182468110
  0.5008860851179058  0.4125387695269888  0.2493186198125821
  0.5005368258014616  0.4124923226909429  0.7506637238340758
  0.5004959209864851  0.9117176802549489  0.2499070000065500
  0.5003860065671270  0.9120474613735116  0.7499081187668287
  0.8311727804796631  0.4122569066019687  0.2495496185225755
  0.8334186327214711  0.4125772653700818  0.7499363704934934
  0.8345918625434916  0.9118132091570074  0.2503414078779371
  0.8337628870019577  0.9117032767317077  0.7475551805740492
 -0.0045678712986620  0.0879246556932988 -0.0030117767636569
 -0.0008521065101122  0.0846088030845433  0.5066526667976665
  0.0003106879278660  0.5878522392160477 -0.0004630583459707
 -0.0003256360434387  0.5868761909515956  0.5001295813213127
  0.3349046902128338  0.0863667558976615 -0.0023375175938471
  0.3332778008316500  0.0879720311080220  0.5009477951192611
  0.3338372862708878  0.5869727899798776  0.0003036947393719
  0.3349683870304443  0.5890659458090337  0.5020873251582961
  0.6677367943292533  0.0870500776536666 -0.0009139869372460
  0.6656448626534589  0.0880103490575611  0.4992936735550231
  0.6672700730525493  0.5881910554384158 -0.0004516518520871
  0.6666130798569331  0.5887737893081697  0.5000784043059385
  0.0625649001055066  0.4055055157235428  0.2560333044316773
  0.0328520778639414  0.1559670584983697  0.8932527651966474
  0.0345002338715102  0.6553962687648034  0.3959007936227352
  0.0353668358072520  0.6566300390803733  0.8951931439871813
  0.3658431556093404  0.1575129171836150  0.3954825438404471
  0.3726837960786646  0.1563381122467203  0.8942487321241911
  0.3701808148455908  0.6579673846654590  0.3979888693526137
  0.3688420620935531  0.6566836678186067  0.8961080832855454
  0.7009899714952214  0.1567986803371476  0.3950347963083211
  0.7019319714581641  0.1563047029565266  0.8943790991225151
  0.7024198316362434  0.6577388978149488  0.3961785119913399
  0.7028268549157949  0.6573579109030820  0.8955193042104366
  0.2045024310563483  0.0471443752662908  0.2575069667675581
  0.2001137674486813  0.0522320453779825  0.7500338280247688
  0.2040833533338757  0.5582856270274189  0.2565656570868115
  0.2007801755009781  0.5522712587434212  0.7510099741005950
  0.5337867399185484  0.0520042053747922  0.2497385060684672
  0.5345690909472359  0.0518401107330592  0.7494546412596266
  0.5347627148321961  0.5525632733489463  0.2499468462133634
  0.5343428039624926  0.5524830218537439  0.7500071125715900
  0.8698116211737994  0.0515160542000009  0.2502562729748282
  0.8674909689078567  0.0518133490553865  0.7456627651894659
  0.8656933843977059  0.5517446504613752  0.2508887596089179
  0.8676622514469323  0.5522075422261149  0.7493720258504499
  0.0614655877822809  0.4096181030446032  0.7505846912937040
  0.0619240409477730  0.9103547097879279  0.2517021903395122
  0.0608531147573493  0.9093481935316905  0.7493723702947653
  0.3954496397367895  0.4102739122744394  0.2483342457673376
  0.3949511262638568  0.4096731847195341  0.7510456234641484
  0.3949794213739002  0.9076536592736886  0.2496573755483419
  0.3947923616919166  0.9093791077628639  0.7503165317569850
  0.7256535904270812  0.4101737636029888  0.2503466202754040
  0.7277875350993128  0.4099830373265802  0.7494724948129927
  0.7289845098712705  0.9105199333389783  0.2500933170905899
  0.7281771181517857  0.9090554870228310  0.7483403780792498
  0.2310946737419997  0.0861829098800455 -0.0061755063872417
  0.2272718937145290  0.0914630059886106  0.5017754702449212
  0.2282191517590781  0.5898150870250179  0.0009310923447940
  0.2292784034955075  0.5907735841135245  0.5028456724605479
  0.5622480378080139  0.0900751083634300  0.0001112276840323
  0.5601187288711846  0.0906774348497652  0.4996370057730922
  0.5616616527517709  0.5909018920354810 -0.0002910601075472
  0.5611149682324889  0.5922278283888349  0.5003020602227009
  0.8894182150641902  0.0846816934068769 -0.0086733549274303
  0.8942559789449388  0.0928391924253995  0.4982859673745536
  0.8944644985420286  0.5914400510833431 -0.0000320139961617
  0.8939779693465839  0.5889045973225854  0.5005222242051144
  0.2047048255027128  0.3542400500977109  0.1481863655485973
  0.2026563243651851  0.3436562110511142  0.6469404591001633
  0.2025601923602628  0.8415709741561680  0.1491400618525582
  0.2020229869020405  0.8432235858835869  0.6463451227380517
  0.5371459796099340  0.3431093299383891  0.1462405586017951
  0.5356247264911400  0.3432552985359139  0.6465921793288938
  0.5369485532898842  0.8426248932017177  0.1466863971012951
  0.5354115600970027  0.8433042424428643  0.6455866954304068
  0.8659642070561752  0.3436340071362927  0.1457999351417973
  0.8686122007308699  0.3430837780672501  0.6458147970551146
  0.8701480395494940  0.8421938410498382  0.1471375240873473
  0.8689486996809080  0.8429365946354826  0.6431002561088216
  0.0215136894771494  0.1605755163533629  0.1003099062991765
  0.0360757398772694  0.1588317268855771  0.6056983217054926
  0.0358044100822518  0.6575558689456477  0.1027461597333480
  0.0354357743162882  0.6550859837949641  0.6038038359997654
  0.3711101086659245  0.1558475826024030  0.1011808606423320
  0.3691085358509645  0.1572595572185522  0.6039447954465827
  0.3695904295477960  0.6564215317747303  0.1036520643880846
  0.3695704630672858  0.6584833469678623  0.6058583803091939
  0.7037448744772253  0.1559326342933954  0.1025674287768787
  0.7012132088111952  0.1574960651422937  0.6027449832537620
  0.7025583569830397  0.6573037937071762  0.1033182937552091
  0.7023273300758507  0.6572501492903676  0.6038418612786572
  0.0331609512081354  0.4476933996506614 -0.0000345492122074
  0.0335739383206837  0.4463509603923925  0.5000622941576277
  0.0319718628571049  0.9488972703312107  0.0004448065352498
  0.0346225364048975  0.9468596253251503  0.5007006143842125
  0.3680341689776606  0.4472461884414977 -0.0000723814603724
  0.3698368754978705  0.4495785834400635  0.5027435553085355
  0.3711926093021593  0.9466232798203033 -0.0004665389123674
  0.3666484502876280  0.9480690599529219  0.5002935896336734
  0.7012129176010236  0.4482759092161847 -0.0004490975621237
  0.6995434986040011  0.4482668283650507  0.5001435190837518
  0.7010510020154517  0.9467446917898178 -0.0010785776035286
  0.7000119005620152  0.9482363334033551  0.4996762169003350
  0.2119522999929917  0.3491318955523626  0.3580193495426159
  0.2021093389483773  0.3425443798358396  0.8547255913087716
  0.2002597922988990  0.8378703855558395  0.3576590482813045
  0.2013582470556456  0.8425808118531405  0.8542490372682193
  0.5345728395650073  0.3431911739411495  0.3542744780459204
  0.5364546937385979  0.3435380623800025  0.8542594796154419
  0.5358296691969312  0.8433362289294085  0.3543521384468581
  0.5362933611476558  0.8424832503002659  0.8532040234308781
  0.8652604629949232  0.3413578628285009  0.3541691948488206
  0.8685078957596233  0.3431285789336105  0.8535281494622996
  0.8690049193843061  0.8428816294235357  0.3550478781636223
  0.8696896391245903  0.8422164355158082  0.8506945372062089
 
  0.00000000E+00  0.00000000E+00  0.00000000E+00
  0.00000000E+00  0.00000000E+00  0.00000000E+00
  0.00000000E+00  0.00000000E+00  0.00000000E+00
  0.00000000E+00  0.00000000E+00  0.00000000E+00
  0.00000000E+00  0.00000000E+00  0.00000000E+00
  0.00000000E+00  0.00000000E+00  0.00000000E+00
  0.00000000E+00  0.00000000E+00  0.00000000E+00
  0.00000000E+00  0.00000000E+00  0.00000000E+00
  0.00000000E+00  0.00000000E+00  0.00000000E+00
  0.00000000E+00  0.00000000E+00  0.00000000E+00
  0.00000000E+00  0.00000000E+00  0.00000000E+00
  0.00000000E+00  0.00000000E+00  0.00000000E+00
  0.00000000E+00  0.00000000E+00  0.00000000E+00
  0.00000000E+00  0.00000000E+00  0.00000000E+00
  0.00000000E+00  0.00000000E+00  0.00000000E+00
  0.00000000E+00  0.00000000E+00  0.00000000E+00
  0.00000000E+00  0.00000000E+00  0.00000000E+00
  0.00000000E+00  0.00000000E+00  0.00000000E+00
  0.00000000E+00  0.00000000E+00  0.00000000E+00
  0.00000000E+00  0.00000000E+00  0.00000000E+00
  0.00000000E+00  0.00000000E+00  0.00000000E+00
  0.00000000E+00  0.00000000E+00  0.00000000E+00
  0.00000000E+00  0.00000000E+00  0.00000000E+00
  0.00000000E+00  0.00000000E+00  0.00000000E+00
  0.00000000E+00  0.00000000E+00  0.00000000E+00
  0.00000000E+00  0.00000000E+00  0.00000000E+00
  0.00000000E+00  0.00000000E+00  0.00000000E+00
  0.00000000E+00  0.00000000E+00  0.00000000E+00
  0.00000000E+00  0.00000000E+00  0.00000000E+00
  0.00000000E+00  0.00000000E+00  0.00000000E+00
  0.00000000E+00  0.00000000E+00  0.00000000E+00
  0.00000000E+00  0.00000000E+00  0.00000000E+00
  0.00000000E+00  0.00000000E+00  0.00000000E+00
  0.00000000E+00  0.00000000E+00  0.00000000E+00
  0.00000000E+00  0.00000000E+00  0.00000000E+00
  0.00000000E+00  0.00000000E+00  0.00000000E+00
  0.00000000E+00  0.00000000E+00  0.00000000E+00
  0.00000000E+00  0.00000000E+00  0.00000000E+00
  0.00000000E+00  0.00000000E+00  0.00000000E+00
  0.00000000E+00  0.00000000E+00  0.00000000E+00
  0.00000000E+00  0.00000000E+00  0.00000000E+00
  0.00000000E+00  0.00000000E+00  0.00000000E+00
  0.00000000E+00  0.00000000E+00  0.00000000E+00
  0.00000000E+00  0.00000000E+00  0.00000000E+00
  0.00000000E+00  0.00000000E+00  0.00000000E+00
  0.00000000E+00  0.00000000E+00  0.00000000E+00
  0.00000000E+00  0.00000000E+00  0.00000000E+00
  0.00000000E+00  0.00000000E+00  0.00000000E+00
  0.00000000E+00  0.00000000E+00  0.00000000E+00
  0.00000000E+00  0.00000000E+00  0.00000000E+00
  0.00000000E+00  0.00000000E+00  0.00000000E+00
  0.00000000E+00  0.00000000E+00  0.00000000E+00
  0.00000000E+00  0.00000000E+00  0.00000000E+00
  0.00000000E+00  0.00000000E+00  0.00000000E+00
  0.00000000E+00  0.00000000E+00  0.00000000E+00
  0.00000000E+00  0.00000000E+00  0.00000000E+00
  0.00000000E+00  0.00000000E+00  0.00000000E+00
  0.00000000E+00  0.00000000E+00  0.00000000E+00
  0.00000000E+00  0.00000000E+00  0.00000000E+00
  0.00000000E+00  0.00000000E+00  0.00000000E+00
  0.00000000E+00  0.00000000E+00  0.00000000E+00
  0.00000000E+00  0.00000000E+00  0.00000000E+00
  0.00000000E+00  0.00000000E+00  0.00000000E+00
  0.00000000E+00  0.00000000E+00  0.00000000E+00
  0.00000000E+00  0.00000000E+00  0.00000000E+00
  0.00000000E+00  0.00000000E+00  0.00000000E+00
  0.00000000E+00  0.00000000E+00  0.00000000E+00
  0.00000000E+00  0.00000000E+00  0.00000000E+00
  0.00000000E+00  0.00000000E+00  0.00000000E+00
  0.00000000E+00  0.00000000E+00  0.00000000E+00
  0.00000000E+00  0.00000000E+00  0.00000000E+00
  0.00000000E+00  0.00000000E+00  0.00000000E+00
  0.00000000E+00  0.00000000E+00  0.00000000E+00
  0.00000000E+00  0.00000000E+00  0.00000000E+00
  0.00000000E+00  0.00000000E+00  0.00000000E+00
  0.00000000E+00  0.00000000E+00  0.00000000E+00
  0.00000000E+00  0.00000000E+00  0.00000000E+00
  0.00000000E+00  0.00000000E+00  0.00000000E+00
  0.00000000E+00  0.00000000E+00  0.00000000E+00
  0.00000000E+00  0.00000000E+00  0.00000000E+00
  0.00000000E+00  0.00000000E+00  0.00000000E+00
  0.00000000E+00  0.00000000E+00  0.00000000E+00
  0.00000000E+00  0.00000000E+00  0.00000000E+00
  0.00000000E+00  0.00000000E+00  0.00000000E+00
  0.00000000E+00  0.00000000E+00  0.00000000E+00
  0.00000000E+00  0.00000000E+00  0.00000000E+00
  0.00000000E+00  0.00000000E+00  0.00000000E+00
  0.00000000E+00  0.00000000E+00  0.00000000E+00
  0.00000000E+00  0.00000000E+00  0.00000000E+00
  0.00000000E+00  0.00000000E+00  0.00000000E+00
  0.00000000E+00  0.00000000E+00  0.00000000E+00
  0.00000000E+00  0.00000000E+00  0.00000000E+00
  0.00000000E+00  0.00000000E+00  0.00000000E+00
  0.00000000E+00  0.00000000E+00  0.00000000E+00
  0.00000000E+00  0.00000000E+00  0.00000000E+00
  0.00000000E+00  0.00000000E+00  0.00000000E+00
  0.00000000E+00  0.00000000E+00  0.00000000E+00
  0.00000000E+00  0.00000000E+00  0.00000000E+00
  0.00000000E+00  0.00000000E+00  0.00000000E+00
  0.00000000E+00  0.00000000E+00  0.00000000E+00
  0.00000000E+00  0.00000000E+00  0.00000000E+00
  0.00000000E+00  0.00000000E+00  0.00000000E+00
  0.00000000E+00  0.00000000E+00  0.00000000E+00
  0.00000000E+00  0.00000000E+00  0.00000000E+00
  0.00000000E+00  0.00000000E+00  0.00000000E+00
  0.00000000E+00  0.00000000E+00  0.00000000E+00
  0.00000000E+00  0.00000000E+00  0.00000000E+00
  0.00000000E+00  0.00000000E+00  0.00000000E+00
  0.00000000E+00  0.00000000E+00  0.00000000E+00
  0.00000000E+00  0.00000000E+00  0.00000000E+00
  0.00000000E+00  0.00000000E+00  0.00000000E+00
  0.00000000E+00  0.00000000E+00  0.00000000E+00
  0.00000000E+00  0.00000000E+00  0.00000000E+00
  0.00000000E+00  0.00000000E+00  0.00000000E+00
  0.00000000E+00  0.00000000E+00  0.00000000E+00
  0.00000000E+00  0.00000000E+00  0.00000000E+00
  0.00000000E+00  0.00000000E+00  0.00000000E+00
  0.00000000E+00  0.00000000E+00  0.00000000E+00
  0.00000000E+00  0.00000000E+00  0.00000000E+00
  0.00000000E+00  0.00000000E+00  0.00000000E+00
  0.00000000E+00  0.00000000E+00  0.00000000E+00
  0.00000000E+00  0.00000000E+00  0.00000000E+00
  0.00000000E+00  0.00000000E+00  0.00000000E+00
  0.00000000E+00  0.00000000E+00  0.00000000E+00
  0.00000000E+00  0.00000000E+00  0.00000000E+00
  0.00000000E+00  0.00000000E+00  0.00000000E+00
  0.00000000E+00  0.00000000E+00  0.00000000E+00
  0.00000000E+00  0.00000000E+00  0.00000000E+00
  0.00000000E+00  0.00000000E+00  0.00000000E+00
  0.00000000E+00  0.00000000E+00  0.00000000E+00
  0.00000000E+00  0.00000000E+00  0.00000000E+00
  0.00000000E+00  0.00000000E+00  0.00000000E+00
  0.00000000E+00  0.00000000E+00  0.00000000E+00
  0.00000000E+00  0.00000000E+00  0.00000000E+00
  0.00000000E+00  0.00000000E+00  0.00000000E+00
  0.00000000E+00  0.00000000E+00  0.00000000E+00
  0.00000000E+00  0.00000000E+00  0.00000000E+00
  0.00000000E+00  0.00000000E+00  0.00000000E+00
  0.00000000E+00  0.00000000E+00  0.00000000E+00
  0.00000000E+00  0.00000000E+00  0.00000000E+00
  0.00000000E+00  0.00000000E+00  0.00000000E+00
  0.00000000E+00  0.00000000E+00  0.00000000E+00
  0.00000000E+00  0.00000000E+00  0.00000000E+00
  0.00000000E+00  0.00000000E+00  0.00000000E+00
  0.00000000E+00  0.00000000E+00  0.00000000E+00
  0.00000000E+00  0.00000000E+00  0.00000000E+00
  0.00000000E+00  0.00000000E+00  0.00000000E+00
  0.00000000E+00  0.00000000E+00  0.00000000E+00
  0.00000000E+00  0.00000000E+00  0.00000000E+00
  0.00000000E+00  0.00000000E+00  0.00000000E+00
  0.00000000E+00  0.00000000E+00  0.00000000E+00
  0.00000000E+00  0.00000000E+00  0.00000000E+00
  0.00000000E+00  0.00000000E+00  0.00000000E+00
  0.00000000E+00  0.00000000E+00  0.00000000E+00
  0.00000000E+00  0.00000000E+00  0.00000000E+00
  0.00000000E+00  0.00000000E+00  0.00000000E+00
  0.00000000E+00  0.00000000E+00  0.00000000E+00
  0.00000000E+00  0.00000000E+00  0.00000000E+00
  0.00000000E+00  0.00000000E+00  0.00000000E+00
  0.00000000E+00  0.00000000E+00  0.00000000E+00
  0.00000000E+00  0.00000000E+00  0.00000000E+00
  0.00000000E+00  0.00000000E+00  0.00000000E+00
  0.00000000E+00  0.00000000E+00  0.00000000E+00
  0.00000000E+00  0.00000000E+00  0.00000000E+00
  0.00000000E+00  0.00000000E+00  0.00000000E+00
  0.00000000E+00  0.00000000E+00  0.00000000E+00
  0.00000000E+00  0.00000000E+00  0.00000000E+00
  0.00000000E+00  0.00000000E+00  0.00000000E+00
  0.00000000E+00  0.00000000E+00  0.00000000E+00
  0.00000000E+00  0.00000000E+00  0.00000000E+00
  0.00000000E+00  0.00000000E+00  0.00000000E+00
  0.00000000E+00  0.00000000E+00  0.00000000E+00
  0.00000000E+00  0.00000000E+00  0.00000000E+00
  0.00000000E+00  0.00000000E+00  0.00000000E+00
  0.00000000E+00  0.00000000E+00  0.00000000E+00
  0.00000000E+00  0.00000000E+00  0.00000000E+00
  0.00000000E+00  0.00000000E+00  0.00000000E+00
  0.00000000E+00  0.00000000E+00  0.00000000E+00
  0.00000000E+00  0.00000000E+00  0.00000000E+00
  0.00000000E+00  0.00000000E+00  0.00000000E+00
  0.00000000E+00  0.00000000E+00  0.00000000E+00
  0.00000000E+00  0.00000000E+00  0.00000000E+00
  0.00000000E+00  0.00000000E+00  0.00000000E+00
  0.00000000E+00  0.00000000E+00  0.00000000E+00
  0.00000000E+00  0.00000000E+00  0.00000000E+00
  0.00000000E+00  0.00000000E+00  0.00000000E+00
  0.00000000E+00  0.00000000E+00  0.00000000E+00
  0.00000000E+00  0.00000000E+00  0.00000000E+00
  0.00000000E+00  0.00000000E+00  0.00000000E+00
  0.00000000E+00  0.00000000E+00  0.00000000E+00
