Li5 P2 N1 O6                            
   1.00000000000000     
    -0.3741402185130969    0.4064426629521602    5.2117814540864096
     5.8812201955356116    0.4315346219353470   -0.4390551413342172
     0.3749564991366125    5.1392607138688211    0.3868941288425480
   Li   P    N    O 
     5     2     1     6
Direct
  0.7288603797343496  0.0575872642853773  0.8527074886102675
  0.3878935264608071  0.7236918656441066  0.2766789908927811
  0.0330489872380763  0.6870840450656143  0.8823649821915236
  0.0039432588047640  0.4150050539768578  0.4630998830781518
  0.4585499853505794  0.2195441051258452  0.3527514149646220
  0.5284660150773819  0.5278539402098691  0.7698833663579443
 -0.1148560748596315 -0.0981227291797847  0.3872493690672132
  0.7466295454363781  0.7663819796159900  0.6850219320137738
  0.0782045131032581  0.1069404823081343  0.4366747702594374
  0.0328833789357509  0.7392526529117747  0.2281172701189971
  0.6413564300225366  0.3240865831744363  0.6557198388964702
  0.4727029638200789  0.4816203610641909  0.0747293555366881
  0.2757410612812435  0.5618566247556922  0.6526022309758321
  0.6728330295944591 -0.0127822289581037  0.2304271070362972
 
  0.00000000E+00  0.00000000E+00  0.00000000E+00
  0.00000000E+00  0.00000000E+00  0.00000000E+00
  0.00000000E+00  0.00000000E+00  0.00000000E+00
  0.00000000E+00  0.00000000E+00  0.00000000E+00
  0.00000000E+00  0.00000000E+00  0.00000000E+00
  0.00000000E+00  0.00000000E+00  0.00000000E+00
  0.00000000E+00  0.00000000E+00  0.00000000E+00
  0.00000000E+00  0.00000000E+00  0.00000000E+00
  0.00000000E+00  0.00000000E+00  0.00000000E+00
  0.00000000E+00  0.00000000E+00  0.00000000E+00
  0.00000000E+00  0.00000000E+00  0.00000000E+00
  0.00000000E+00  0.00000000E+00  0.00000000E+00
  0.00000000E+00  0.00000000E+00  0.00000000E+00
  0.00000000E+00  0.00000000E+00  0.00000000E+00
