Li56 P28 O98
1.0
4.907295 0.000000 -1.895193
-0.730671 8.419349 5.315209
0.000000 0.000000 72.154804
Li P O
56 28 98
Selective dynamics
direct
0.744463 0.987971 0.053653 F F F Li
0.255537 0.012029 0.080243 F F F Li
0.395677 0.751653 0.032910 F F F Li
0.604323 0.248347 0.000986 T T T Li
0.027769 0.791276 0.055047 F F F Li
0.972231 0.208724 0.078849 F F F Li
0.056952 0.450796 0.097680 F F F Li
0.943048 0.549204 0.036216 T T T Li
0.744463 0.987971 0.153653 F F F Li
0.255537 0.012029 0.180243 F F F Li
0.395677 0.751653 0.132910 F F F Li
0.604323 0.248347 0.100986 F F F Li
0.027769 0.791276 0.155047 F F F Li
0.972231 0.208724 0.178849 F F F Li
0.056952 0.450796 0.197680 F F F Li
0.943048 0.549204 0.136216 F F F Li
0.744463 0.987971 0.253653 F F F Li
0.255537 0.012029 0.280243 F F F Li
0.395677 0.751653 0.232910 F F F Li
0.604323 0.248347 0.200986 F F F Li
0.027769 0.791276 0.255047 F F F Li
0.972231 0.208724 0.278849 F F F Li
0.056952 0.450796 0.297680 F F F Li
0.943048 0.549204 0.236216 F F F Li
0.744463 0.987971 0.353653 F F F Li
0.255537 0.012029 0.380243 F F F Li
0.395677 0.751653 0.332910 F F F Li
0.604323 0.248347 0.300986 F F F Li
0.027769 0.791276 0.355047 F F F Li
0.972231 0.208724 0.378849 F F F Li
0.056952 0.450796 0.397680 F F F Li
0.943048 0.549204 0.336216 F F F Li
0.744463 0.987971 0.453653 F F F Li
0.255537 0.012029 0.480243 F F F Li
0.395677 0.751653 0.432910 F F F Li
0.604323 0.248347 0.400986 F F F Li
0.027769 0.791276 0.455047 F F F Li
0.972231 0.208724 0.478849 F F F Li
0.056952 0.450796 0.497680 F F F Li
0.943048 0.549204 0.436216 F F F Li
0.744463 0.987971 0.553653 F F F Li
0.255537 0.012029 0.580243 F F F Li
0.395677 0.751653 0.532910 F F F Li
0.604323 0.248347 0.500986 F F F Li
0.027769 0.791276 0.555047 F F F Li
0.972231 0.208724 0.578849 F F F Li
0.056952 0.450796 0.597680 F F F Li
0.943048 0.549204 0.536216 F F F Li
0.744463 0.987971 0.653653 F F F Li
0.255537 0.012029 0.680243 F F F Li
0.395677 0.751653 0.632910 F F F Li
0.604323 0.248347 0.600986 F F F Li
0.027769 0.791276 0.655047 F F F Li
0.972231 0.208724 0.678849 F F F Li
0.056952 0.450796 0.697680 T T T Li
0.943048 0.549204 0.636216 F F F Li
0.573990 0.631956 0.082423 F F F P
0.426010 0.368044 0.051473 F F F P
0.784272 0.845502 0.004474 T T T P
0.215728 0.154498 0.029422 F F F P
0.573990 0.631956 0.182423 F F F P
0.426010 0.368044 0.151473 F F F P
0.784272 0.845502 0.104474 F F F P
0.215728 0.154498 0.129422 F F F P
0.573990 0.631956 0.282423 F F F P
0.426010 0.368044 0.251473 F F F P
0.784272 0.845502 0.204474 F F F P
0.215728 0.154498 0.229422 F F F P
0.573990 0.631956 0.382423 F F F P
0.426010 0.368044 0.351473 F F F P
0.784272 0.845502 0.304474 F F F P
0.215728 0.154498 0.329422 F F F P
0.573990 0.631956 0.482423 F F F P
0.426010 0.368044 0.451473 F F F P
0.784272 0.845502 0.404474 F F F P
0.215728 0.154498 0.429422 F F F P
0.573990 0.631956 0.582423 F F F P
0.426010 0.368044 0.551473 F F F P
0.784272 0.845502 0.504474 F F F P
0.215728 0.154498 0.529422 F F F P
0.573990 0.631956 0.682423 T T T P
0.426010 0.368044 0.651473 F F F P
0.784272 0.845502 0.604474 F F F P
0.215728 0.154498 0.629422 F F F P
0.519912 0.874340 0.005338 T T T O
0.006130 0.790684 0.027308 T T T O
0.993870 0.209316 0.006588 T T T O
0.882911 0.981976 0.083891 F F F O
0.732561 0.376455 0.054968 F F F O
0.267439 0.623545 0.078928 F F F O
0.314844 0.526190 0.041110 F F F O
0.685156 0.473810 0.092786 F F F O
0.338222 0.236504 0.073057 F F F O
0.661778 0.763496 0.060839 F F F O
0.733069 0.683894 0.002320 T T T O
0.266931 0.316106 0.031576 F F F O
0.117089 0.018024 0.050005 F F F O
0.480088 0.125660 0.028558 F F F O
0.519912 0.874340 0.105338 F F F O
0.006130 0.790684 0.127308 F F F O
0.993870 0.209316 0.106588 F F F O
0.882911 0.981976 0.183891 F F F O
0.732561 0.376455 0.154968 F F F O
0.267439 0.623545 0.178928 F F F O
0.314844 0.526190 0.141110 F F F O
0.685156 0.473810 0.192786 F F F O
0.338222 0.236504 0.173057 F F F O
0.661778 0.763496 0.160839 F F F O
0.733069 0.683894 0.102320 F F F O
0.266931 0.316106 0.131576 F F F O
0.117089 0.018024 0.150005 F F F O
0.480088 0.125660 0.128558 F F F O
0.519912 0.874340 0.205338 F F F O
0.006130 0.790684 0.227308 F F F O
0.993870 0.209316 0.206588 F F F O
0.882911 0.981976 0.283891 F F F O
0.732561 0.376455 0.254968 F F F O
0.267439 0.623545 0.278929 F F F O
0.314844 0.526190 0.241110 F F F O
0.685156 0.473810 0.292786 F F F O
0.338222 0.236504 0.273057 F F F O
0.661778 0.763496 0.260839 F F F O
0.733069 0.683894 0.202320 F F F O
0.266931 0.316106 0.231576 F F F O
0.117089 0.018024 0.250005 F F F O
0.480088 0.125660 0.228558 F F F O
0.519912 0.874340 0.305338 F F F O
0.006130 0.790684 0.327308 F F F O
0.993870 0.209316 0.306588 F F F O
0.882911 0.981976 0.383891 F F F O
0.732561 0.376455 0.354967 F F F O
0.267439 0.623545 0.378929 F F F O
0.314844 0.526190 0.341110 F F F O
0.685156 0.473810 0.392786 F F F O
0.338222 0.236504 0.373057 F F F O
0.661778 0.763496 0.360839 F F F O
0.733069 0.683894 0.302320 F F F O
0.266931 0.316106 0.331576 F F F O
0.117089 0.018024 0.350005 F F F O
0.480088 0.125660 0.328558 F F F O
0.519912 0.874340 0.405338 F F F O
0.006130 0.790684 0.427308 F F F O
0.993870 0.209316 0.406588 F F F O
0.882911 0.981976 0.483891 F F F O
0.732561 0.376455 0.454968 F F F O
0.267439 0.623545 0.478929 F F F O
0.314844 0.526190 0.441110 F F F O
0.685156 0.473810 0.492786 F F F O
0.338222 0.236504 0.473057 F F F O
0.661778 0.763496 0.460839 F F F O
0.733069 0.683894 0.402320 F F F O
0.266931 0.316106 0.431576 F F F O
0.117089 0.018024 0.450005 F F F O
0.480088 0.125660 0.428558 F F F O
0.519912 0.874340 0.505338 F F F O
0.006130 0.790684 0.527308 F F F O
0.993870 0.209316 0.506588 F F F O
0.882911 0.981976 0.583891 F F F O
0.732561 0.376455 0.554968 F F F O
0.267439 0.623545 0.578928 F F F O
0.314844 0.526190 0.541110 F F F O
0.685156 0.473810 0.592786 F F F O
0.338222 0.236504 0.573057 F F F O
0.661778 0.763496 0.560839 F F F O
0.733069 0.683894 0.502320 F F F O
0.266931 0.316106 0.531576 F F F O
0.117089 0.018024 0.550005 F F F O
0.480088 0.125660 0.528558 F F F O
0.519912 0.874340 0.605338 F F F O
0.006130 0.790684 0.627308 F F F O
0.993870 0.209316 0.606588 F F F O
0.882911 0.981976 0.683891 F F F O
0.732561 0.376455 0.654968 F F F O
0.267439 0.623545 0.678928 T T T O
0.314844 0.526190 0.641110 F F F O
0.685156 0.473810 0.692786 T T T O
0.338222 0.236504 0.673057 F F F O
0.661778 0.763496 0.660839 T T T O
0.733069 0.683894 0.602320 F F F O
0.266931 0.316106 0.631576 F F F O
0.117089 0.018024 0.650005 F F F O
0.480088 0.125660 0.628558 F F F O
