Li84 P196
1.0
9.847875 0.000000 0.000000
0.000000 10.597250 -7.628682
0.000000 0.000000 76.286820
Li P
84 196
Selective dynamics
direct
0.307848 0.816050 0.011683 T T T Li
0.192152 0.183950 0.098473 F F F Li
0.807848 0.683950 0.028366 T T T Li
0.692152 0.316050 0.041576 F F F Li
0.025950 0.014795 0.003399 T T T Li
0.474050 0.985205 0.050440 F F F Li
0.525950 0.485205 0.036650 T T T Li
0.974050 0.514795 0.089609 F F F Li
0.301371 0.692124 0.054461 F F F Li
0.198629 0.307876 0.066036 F F F Li
0.801371 0.807876 0.085588 F F F Li
0.698629 0.192124 0.074013 F F F Li
0.307848 0.816050 0.111683 F F F Li
0.192152 0.183950 0.198473 F F F Li
0.807848 0.683950 0.128366 F F F Li
0.692152 0.316050 0.141576 F F F Li
0.025950 0.014795 0.103399 F F F Li
0.474050 0.985205 0.150440 F F F Li
0.525950 0.485205 0.136650 F F F Li
0.974050 0.514795 0.189609 F F F Li
0.301371 0.692124 0.154461 F F F Li
0.198629 0.307876 0.166036 F F F Li
0.801371 0.807876 0.185588 F F F Li
0.698629 0.192124 0.174013 F F F Li
0.307848 0.816050 0.211683 F F F Li
0.192152 0.183950 0.298473 F F F Li
0.807848 0.683950 0.228366 F F F Li
0.692152 0.316050 0.241576 F F F Li
0.025950 0.014795 0.203399 F F F Li
0.474050 0.985205 0.250440 F F F Li
0.525950 0.485205 0.236650 F F F Li
0.974050 0.514795 0.289609 F F F Li
0.301371 0.692124 0.254461 F F F Li
0.198629 0.307876 0.266036 F F F Li
0.801371 0.807876 0.285588 F F F Li
0.698629 0.192124 0.274013 F F F Li
0.307848 0.816050 0.311683 F F F Li
0.192152 0.183950 0.398473 F F F Li
0.807848 0.683950 0.328366 F F F Li
0.692152 0.316050 0.341576 F F F Li
0.025950 0.014795 0.303399 F F F Li
0.474050 0.985205 0.350440 F F F Li
0.525950 0.485205 0.336650 F F F Li
0.974050 0.514795 0.389609 F F F Li
0.301371 0.692124 0.354461 F F F Li
0.198629 0.307876 0.366036 F F F Li
0.801371 0.807876 0.385588 F F F Li
0.698629 0.192124 0.374013 F F F Li
0.307848 0.816050 0.411683 F F F Li
0.192152 0.183950 0.498473 F F F Li
0.807848 0.683950 0.428366 F F F Li
0.692152 0.316050 0.441576 F F F Li
0.025950 0.014795 0.403399 F F F Li
0.474050 0.985205 0.450440 F F F Li
0.525950 0.485205 0.436650 F F F Li
0.974050 0.514795 0.489609 F F F Li
0.301371 0.692124 0.454461 F F F Li
0.198629 0.307876 0.466036 F F F Li
0.801371 0.807876 0.485588 F F F Li
0.698629 0.192124 0.474013 F F F Li
0.307848 0.816050 0.511683 F F F Li
0.192152 0.183950 0.598473 F F F Li
0.807848 0.683950 0.528366 F F F Li
0.692152 0.316050 0.541576 F F F Li
0.025950 0.014795 0.503399 F F F Li
0.474050 0.985205 0.550440 F F F Li
0.525950 0.485205 0.536650 F F F Li
0.974050 0.514795 0.589609 F F F Li
0.301371 0.692124 0.554461 F F F Li
0.198629 0.307876 0.566036 F F F Li
0.801371 0.807876 0.585588 F F F Li
0.698629 0.192124 0.574013 F F F Li
0.307848 0.816050 0.611683 F F F Li
0.192152 0.183950 0.698473 F F F Li
0.807848 0.683950 0.628366 F F F Li
0.692152 0.316050 0.641576 F F F Li
0.025950 0.014795 0.603399 F F F Li
0.474050 0.985205 0.650440 F F F Li
0.525950 0.485205 0.636650 F F F Li
0.974050 0.514795 0.689609 T T T Li
0.301371 0.692124 0.654461 T T T Li
0.198629 0.307876 0.666036 T T T Li
0.801371 0.807876 0.685588 T T T Li
0.698629 0.192124 0.674013 T T T Li
0.875491 0.318848 0.004986 T T T P
0.624509 0.681152 0.091217 F F F P
0.375491 0.181152 0.035063 F F F P
0.124509 0.818848 0.048833 F F F P
0.048522 0.387402 0.047529 T T T P
0.451478 0.612598 0.020049 T T T P
0.548522 0.112598 0.092520 F F F P
0.951478 0.887402 0.020000 T T T P
0.943528 0.565132 0.054918 F F F P
0.556472 0.434868 0.091891 F F F P
0.443528 0.934868 0.085132 F F F P
0.056472 0.065132 0.048158 F F F P
0.134841 0.494288 0.035059 T T T P
0.365159 0.505712 0.086201 F F F P
0.634841 0.005712 0.004991 T T T P
0.865159 0.994288 0.053848 F F F P
0.927027 0.881290 0.064780 F F F P
0.572973 0.118710 0.038522 T T T P
0.427027 0.618710 0.075269 F F F P
0.072973 0.381290 0.001527 T T T P
0.218031 0.994617 0.057359 F F F P
0.281969 0.005383 0.008435 T T T P
0.718031 0.505383 0.082690 F F F P
0.781969 0.494617 0.031614 F F F P
0.070503 0.734192 0.015093 T T T P
0.429497 0.265808 0.018255 F F F P
0.570503 0.765808 0.024956 T T T P
0.929497 0.234192 0.021795 T T T P
0.875491 0.318848 0.104986 F F F P
0.624509 0.681152 0.191217 F F F P
0.375491 0.181152 0.135063 F F F P
0.124509 0.818848 0.148833 F F F P
0.048522 0.387402 0.147529 F F F P
0.451478 0.612598 0.120049 F F F P
0.548522 0.112598 0.192520 F F F P
0.951478 0.887402 0.120000 F F F P
0.943528 0.565132 0.154918 F F F P
0.556472 0.434868 0.191891 F F F P
0.443528 0.934868 0.185132 F F F P
0.056472 0.065132 0.148158 F F F P
0.134841 0.494288 0.135059 F F F P
0.365159 0.505712 0.186201 F F F P
0.634841 0.005712 0.104991 F F F P
0.865159 0.994288 0.153848 F F F P
0.927027 0.881290 0.164780 F F F P
0.572973 0.118710 0.138522 F F F P
0.427027 0.618710 0.175269 F F F P
0.072973 0.381290 0.101527 F F F P
0.218031 0.994617 0.157359 F F F P
0.281969 0.005383 0.108435 F F F P
0.718031 0.505383 0.182690 F F F P
0.781969 0.494617 0.131614 F F F P
0.070503 0.734192 0.115093 F F F P
0.429497 0.265808 0.118255 F F F P
0.570503 0.765808 0.124956 F F F P
0.929497 0.234192 0.121795 F F F P
0.875491 0.318848 0.204986 F F F P
0.624509 0.681152 0.291217 F F F P
0.375491 0.181152 0.235063 F F F P
0.124509 0.818848 0.248833 F F F P
0.048522 0.387402 0.247529 F F F P
0.451478 0.612598 0.220049 F F F P
0.548522 0.112598 0.292520 F F F P
0.951478 0.887402 0.220000 F F F P
0.943528 0.565132 0.254918 F F F P
0.556472 0.434868 0.291891 F F F P
0.443528 0.934868 0.285132 F F F P
0.056472 0.065132 0.248158 F F F P
0.134841 0.494288 0.235059 F F F P
0.365159 0.505712 0.286201 F F F P
0.634841 0.005712 0.204991 F F F P
0.865159 0.994288 0.253848 F F F P
0.927027 0.881290 0.264780 F F F P
0.572973 0.118710 0.238522 F F F P
0.427027 0.618710 0.275269 F F F P
0.072973 0.381290 0.201527 F F F P
0.218031 0.994617 0.257359 F F F P
0.281969 0.005383 0.208435 F F F P
0.718031 0.505383 0.282690 F F F P
0.781969 0.494617 0.231614 F F F P
0.070503 0.734192 0.215093 F F F P
0.429497 0.265808 0.218255 F F F P
0.570503 0.765808 0.224956 F F F P
0.929497 0.234192 0.221795 F F F P
0.875491 0.318848 0.304986 F F F P
0.624509 0.681152 0.391217 F F F P
0.375491 0.181152 0.335063 F F F P
0.124509 0.818848 0.348833 F F F P
0.048522 0.387402 0.347529 F F F P
0.451478 0.612598 0.320049 F F F P
0.548522 0.112598 0.392520 F F F P
0.951478 0.887402 0.320000 F F F P
0.943528 0.565132 0.354918 F F F P
0.556472 0.434868 0.391891 F F F P
0.443528 0.934868 0.385132 F F F P
0.056472 0.065132 0.348158 F F F P
0.134841 0.494288 0.335059 F F F P
0.365159 0.505712 0.386201 F F F P
0.634841 0.005712 0.304991 F F F P
0.865159 0.994288 0.353848 F F F P
0.927027 0.881290 0.364780 F F F P
0.572973 0.118710 0.338522 F F F P
0.427027 0.618710 0.375269 F F F P
0.072973 0.381290 0.301527 F F F P
0.218031 0.994617 0.357359 F F F P
0.281969 0.005383 0.308435 F F F P
0.718031 0.505383 0.382690 F F F P
0.781969 0.494617 0.331614 F F F P
0.070503 0.734192 0.315093 F F F P
0.429497 0.265808 0.318255 F F F P
0.570503 0.765808 0.324956 F F F P
0.929497 0.234192 0.321795 F F F P
0.875491 0.318848 0.404986 F F F P
0.624509 0.681152 0.491217 F F F P
0.375491 0.181152 0.435063 F F F P
0.124509 0.818848 0.448833 F F F P
0.048522 0.387402 0.447529 F F F P
0.451478 0.612598 0.420049 F F F P
0.548522 0.112598 0.492520 F F F P
0.951478 0.887402 0.420000 F F F P
0.943528 0.565132 0.454918 F F F P
0.556472 0.434868 0.491891 F F F P
0.443528 0.934868 0.485132 F F F P
0.056472 0.065132 0.448158 F F F P
0.134841 0.494288 0.435059 F F F P
0.365159 0.505712 0.486201 F F F P
0.634841 0.005712 0.404991 F F F P
0.865159 0.994288 0.453848 F F F P
0.927027 0.881290 0.464780 F F F P
0.572973 0.118710 0.438522 F F F P
0.427027 0.618710 0.475269 F F F P
0.072973 0.381290 0.401527 F F F P
0.218031 0.994617 0.457359 F F F P
0.281969 0.005383 0.408435 F F F P
0.718031 0.505383 0.482690 F F F P
0.781969 0.494617 0.431614 F F F P
0.070503 0.734192 0.415093 F F F P
0.429497 0.265808 0.418255 F F F P
0.570503 0.765808 0.424956 F F F P
0.929497 0.234192 0.421795 F F F P
0.875491 0.318848 0.504986 F F F P
0.624509 0.681152 0.591217 F F F P
0.375491 0.181152 0.535063 F F F P
0.124509 0.818848 0.548833 F F F P
0.048522 0.387402 0.547529 F F F P
0.451478 0.612598 0.520049 F F F P
0.548522 0.112598 0.592520 F F F P
0.951478 0.887402 0.520000 F F F P
0.943528 0.565132 0.554918 F F F P
0.556472 0.434868 0.591891 F F F P
0.443528 0.934868 0.585132 F F F P
0.056472 0.065132 0.548158 F F F P
0.134841 0.494288 0.535059 F F F P
0.365159 0.505712 0.586201 F F F P
0.634841 0.005712 0.504991 F F F P
0.865159 0.994288 0.553848 F F F P
0.927027 0.881290 0.564780 F F F P
0.572973 0.118710 0.538522 F F F P
0.427027 0.618710 0.575269 F F F P
0.072973 0.381290 0.501527 F F F P
0.218031 0.994617 0.557359 F F F P
0.281969 0.005383 0.508435 F F F P
0.718031 0.505383 0.582690 F F F P
0.781969 0.494617 0.531614 F F F P
0.070503 0.734192 0.515093 F F F P
0.429497 0.265808 0.518255 F F F P
0.570503 0.765808 0.524956 F F F P
0.929497 0.234192 0.521795 F F F P
0.875491 0.318848 0.604986 F F F P
0.624509 0.681152 0.691217 T T T P
0.375491 0.181152 0.635063 F F F P
0.124509 0.818848 0.648833 F F F P
0.048522 0.387402 0.647529 F F F P
0.451478 0.612598 0.620049 F F F P
0.548522 0.112598 0.692520 T T T P
0.951478 0.887402 0.620000 F F F P
0.943528 0.565132 0.654918 F F F P
0.556472 0.434868 0.691891 T T T P
0.443528 0.934868 0.685132 T T T P
0.056472 0.065132 0.648158 F F F P
0.134841 0.494288 0.635059 F F F P
0.365159 0.505712 0.686201 T T T P
0.634841 0.005712 0.604991 F F F P
0.865159 0.994288 0.653848 T T T P
0.927027 0.881290 0.664780 T T T P
0.572973 0.118710 0.638522 F F F P
0.427027 0.618710 0.675269 T T T P
0.072973 0.381290 0.601527 F F F P
0.218031 0.994617 0.657359 F F F P
0.281969 0.005383 0.608435 F F F P
0.718031 0.505383 0.682690 T T T P
0.781969 0.494617 0.631614 F F F P
0.070503 0.734192 0.615093 F F F P
0.429497 0.265808 0.618255 F F F P
0.570503 0.765808 0.624956 F F F P
0.929497 0.234192 0.621795 F F F P
