Li71 P24 N1 O94                         
   1.00000000000000     
    14.7588217503991661   -0.0132190371966058   -0.0019653660642126
    -0.0094661808261276   10.5465164903769999    0.0047730634601385
    -0.0016343588612305    0.0056083906079908   12.3387741696331403
   Li   P    N    O 
    71    24     1    94
Direct
  0.2019444265349747  0.4111322963724959  0.0012962041988914
  0.1692057851367483  0.4219633379984095  0.4991177157619536
  0.1683496019654281  0.9206174457565572  0.0038608104597460
  0.1704342285125368  0.9233491600525746  0.4980502503334643
  0.5016017951068751  0.4206624244329849  0.0000687606381829
  0.5023221318363511  0.4209641150538875  0.4999724820066464
  0.5068484330932959  0.9213093319710749 -0.0002682493384505
  0.5033470169132455  0.9231577275053622  0.4999154657894369
  0.8326520497006522  0.4199275429986266  0.0010662624806966
  0.8363870341765707  0.4223756723999305  0.4996294905798612
  0.8357857398486001  0.9245938306806297  0.0008696845323402
  0.8372605362491741  0.9254205354184957  0.4986522351757826
  0.0004409396108031  0.0693636181494395  0.7462430424819628
  0.0024556147603848  0.5814228282272600  0.2530624046766269
  0.0014553554288558  0.5798940534024464  0.7465823205374627
  0.3352882172003452  0.0753432005360644  0.2506919449439077
  0.3374725789895326  0.0761685806271456  0.7490817201904655
  0.3366889993623959  0.5783579925308070  0.2510020635077777
  0.3370051693406733  0.5778213244734817  0.7490607935301070
  0.6764201835961455  0.0743543288662879  0.2511911508467259
  0.6702771500463086  0.0759952182723434  0.7487748260999163
  0.6689087144139862  0.5795070936966878  0.2510908284394989
  0.6680598898769667  0.5780811445389796  0.7491319968984289
  0.1612633970646833  0.1636184351229323  0.1298091629904019
  0.1682985151033213  0.1616758121473265  0.6269223602273588
  0.1715240264008404  0.6658975953191125  0.1277131554295349
  0.1698245144779765  0.6647665401388518  0.6251444993126207
  0.5066088920868896  0.1614795466815744  0.1281738424622203
  0.5028600468289778  0.1627549991435936  0.6259058805143819
  0.5034985742714684  0.6629451168289092  0.1265847050122314
  0.5024522692372222  0.6628647012457861  0.6253841786685432
  0.8353516260989147  0.1612654213498881  0.1260755735201816
  0.8363815008657600  0.1633723729591423  0.6258002037099811
  0.8327257019310745  0.6668751065148010  0.1292724844067372
  0.8353114272433378  0.6639704012303597  0.6250390095171600
 -0.0067803578160170  0.3070421354515679  0.1580195459716528
  0.0037731452159990  0.3364401076551529  0.6223786644484746
 -0.0012434366537776  0.8548104585320960  0.1290612478685199
  0.0034872720233776  0.8382944973287417  0.6219482528196443
  0.3382534843166932  0.3322573088792261  0.1275111472366801
  0.3353179883396563  0.3361059991496876  0.6231688413016442
  0.3393488906434791  0.8378197096679113  0.1231711325234066
  0.3369428306173011  0.8366617182466505  0.6231896884435881
  0.6687531296349735  0.3366905034107813  0.1247995755418535
  0.6688943093515900  0.3357305071956211  0.6237020442428149
  0.6681836186545608  0.8350801761762781  0.1228274596615883
  0.6690946410686077  0.8359259711808938  0.6227525757148622
  0.0041479662876110  0.3385402898026059  0.3798695463138884
 -0.0045208234625747  0.3186000745851472  0.8543001546275336
  0.0016837077213706  0.8469040970918323  0.3740916586911155
  0.0016906815707054  0.8432930211868443  0.8754816582181960
  0.3357214555523623  0.3358570148991475  0.3768809876654864
  0.3382625783104430  0.3317100174844445  0.8730895517742495
  0.3385951843481282  0.8370981962665233  0.3764157716194249
  0.3378967646292924  0.8372813495603879  0.8769823094609328
  0.6695217561910293  0.3360705998341328  0.3767404428541385
  0.6681572887960258  0.3363358432915510  0.8754752577289595
  0.6681801416893529  0.8348708177556726  0.3783017412464428
  0.6691751943049766  0.8364181771918416  0.8761393323686646
  0.1663730635267009  0.1603548812668182  0.3719277637926534
  0.1632126550771032  0.1664432908102091  0.8715496750308215
  0.1696282380636485  0.6665149898876759  0.3740549579106977
  0.1716483795551327  0.6641787351354819  0.8732119843411751
  0.5039376908642557  0.1621293993002612  0.3733187201091516
  0.5062467680842345  0.1618779103409784  0.8718145521278046
  0.5030115500670734  0.6625326956912366  0.3745830754108134
  0.5030386407901219  0.6632151161656993  0.8731408287782715
  0.8402760305970592  0.1623763307346290  0.3723165673542080
  0.8337690477311154  0.1624498410340698  0.8723511984139531
  0.8360011659393352  0.6661880223237554  0.3746021890192100
  0.8324175624843433  0.6647439171849844  0.8709708313637368
  0.1676273449652056  0.4139698557141028  0.2504857601390592
  0.1667754349031645  0.4142909333162440  0.7500442437180304
  0.1696777716634348  0.9090494869989495  0.2498041349428127
  0.1683892073730393  0.9110996790436009  0.7508128608356799
  0.5003992831718160  0.4123740694268060  0.2505673695140168
  0.4999421403116162  0.4121692036379247  0.7494908984143102
  0.5020539134903258  0.9118397240627752  0.2505373794819395
  0.5012563024517686  0.9113116201801325  0.7491741312672066
  0.8326608338445550  0.4147953780793656  0.2504756436995957
  0.8325740804703119  0.4139847656637595  0.7498591397400476
  0.8290173705182341  0.9128896182139555  0.2501820559628558
  0.8325992236944176  0.9110082632523339  0.7493895596980602
 -0.0009849045961297  0.0912793793456339 -0.0068324414904351
  0.0019915760391183  0.0920753791755659  0.5041184004499468
 -0.0021573699042139  0.5978930408414868  0.0001580825216803
  0.0002563591628194  0.5900002832697377  0.5004412381951356
  0.3393641756172787  0.0856100842501579 -0.0012550014991053
  0.3342974812872174  0.0880672060069564  0.5001136056565331
  0.3333972626853783  0.5877390865110329 -0.0000281937028172
  0.3337022799528375  0.5870967095825901  0.5000059981759131
  0.6669723586501953  0.0882775973442899 -0.0008150746779206
  0.6675418526355935  0.0882492507698746  0.5005577481444990
  0.6657630435808772  0.5863982286645339 -0.0005243698834367
  0.6669521708929770  0.5862201772151570  0.5006086881364445
  0.2295612646349179  0.0919382990547726 -0.0013307340152412
  0.0404240273938694  0.1698509440689052  0.4092967766846517
  0.0302957496730767  0.1511817537692406  0.8828436351740097
  0.0353150951402419  0.6595213262777644  0.3971205128786575
  0.0355082100952332  0.6589194332303061  0.8945306896776520
  0.3698839405145214  0.1569598723403442  0.3963232451197063
  0.3743781942028827  0.1545992327125914  0.8941175038633201
  0.3698478725249141  0.6558103344455009  0.3965545311612120
  0.3694173782599325  0.6549503006767915  0.8960392657550122
  0.7032262696122794  0.1580232822402243  0.3976845681686564
  0.7014968230163384  0.1568063229700028  0.8945760788491592
  0.7022498456860644  0.6555828141795694  0.3971666803695916
  0.7010195286072762  0.6556806028117776  0.8956848852056406
  0.2015636548729509  0.0506911451803004  0.2481500350294666
  0.2016978952813156  0.0517433215576825  0.7521145418362694
  0.2011031001720988  0.5542096070463263  0.2500309170386531
  0.2009622719355682  0.5539967384932079  0.7498304338906403
  0.5374636525186068  0.0512715363360415  0.2506615294240776
  0.5353201401453684  0.0513993723580241  0.7488336156235490
  0.5341530779820746  0.5526096657159121  0.2503613304033939
  0.5334097234023805  0.5525447459093151  0.7495172044646720
  0.8514314413543301  0.0553193263490449  0.2489054795234538
  0.8648923309974466  0.0516675219292064  0.7496410924872344
  0.8664670512880760  0.5550796158313047  0.2494969100975955
  0.8663999956812313  0.5541825102446757  0.7502181523578100
  0.0617257871526168  0.4122764603321170  0.2493192440116211
  0.0608501931953499  0.4128566343719580  0.7519852638497579
  0.0661404381659632  0.8963137830702251  0.2500497666488209
  0.0628175000746489  0.9057475552297385  0.7499781713429656
  0.3948120607268428  0.4096360147621763  0.2509582835829509
  0.3943424995586771  0.4090931074101944  0.7491463213963224
  0.3965455237582905  0.9104617160978125  0.2500402864982572
  0.3957116401599173  0.9083411661355758  0.7496457545136588
  0.7272976544938621  0.4111314786371553  0.2507444025995166
  0.7272931206824143  0.4100614542058049  0.7498747166208147
  0.7236325739629010  0.8975964189955061  0.2504343452924214
  0.7271651183202325  0.9061350837905929  0.7496125531894297
  0.2288803421354167  0.0912008785457569  0.5003644983046535
  0.2275887675181109  0.5921899069311746  0.0002896363981533
  0.2281774256944352  0.5903218563206785  0.4997940416568935
  0.5615512789498158  0.0908760949276576 -0.0004892996654097
  0.5618986015049490  0.0911235769236722  0.5003787621045083
  0.5602516187138236  0.5891006214372068 -0.0004870024387598
  0.5613772328759302  0.5886137749932338  0.5004638998179520
  0.8933871395101356  0.0930097555766448 -0.0024409090366716
  0.8960830162600739  0.0927543826627956  0.5012751688033370
  0.8926998986571144  0.5923557051836278 -0.0002382868089497
  0.8946040467516397  0.5912579423289774  0.5003909693699602
  0.2034139822553400  0.3438884245999410  0.1475313881624388
  0.2005613951803576  0.3439984191405207  0.6467079796021674
  0.2080371867389372  0.8411578806292664  0.1462017888622521
  0.2041178268242345  0.8435012744010393  0.6467423641713301
  0.5348567069066302  0.3435652801104659  0.1462580025896264
  0.5355970582150498  0.3427966356606836  0.6463821802817812
  0.5363539793322276  0.8417816377597760  0.1467787384670843
  0.5359307605615978  0.8421690643728257  0.6453153203195426
  0.8673892743120787  0.3454639912658298  0.1460871040637974
  0.8692691045397759  0.3444660507480479  0.6474616073016426
  0.8667584320739622  0.8452957340906159  0.1462171230669679
  0.8689515202431976  0.8427892908974401  0.6460371065515239
  0.0384529067500172  0.1717696079250747  0.0856044063659141
  0.0336538836516279  0.1548424366831571  0.6133504102716080
  0.0354275817113170  0.6604866949259214  0.1044541531689575
  0.0353340504855440  0.6588133008132415  0.6045076241705941
  0.3722657513185799  0.1548150763020475  0.1039809143026522
  0.3694974713160947  0.1574273212924666  0.6040353365578481
  0.3703328549778283  0.6546195694972154  0.1032767610413020
  0.3690200903061837  0.6561349981602256  0.6038340272087087
  0.7020751736982828  0.1583527993537264  0.1021065736897150
  0.7025141627333022  0.1567293584821245  0.6049298732909848
  0.7012237733079953  0.6553982872903736  0.1029181551857276
  0.7019428308463579  0.6557329708873666  0.6043391427971311
  0.0343490661027833  0.4500442103304356  0.5013661585815665
  0.0322350744097757  0.9508474376180742 -0.0010323373312427
  0.0356332725737662  0.9514646019979007  0.5011585457746509
  0.3616907397704740  0.4444056921015963 -0.0002618345143087
  0.3669376329725966  0.4466448621961237  0.5004015934152336
  0.3759363395382250  0.9464785916258824 -0.0011592690581173
  0.3685756470546959  0.9481510371460895  0.5006387819751082
  0.6995289422803179  0.4462732408439439 -0.0005250145672639
  0.7009739098466166  0.4462557859625997  0.5008282925018367
  0.7004213228204526  0.9479165637924132 -0.0005209419652892
  0.7008938013594107  0.9478664222612717  0.5005318580912884
  0.2021740216143861  0.3445208651880493  0.3539253826854977
  0.2019478612125295  0.3444850270522750  0.8536261575437750
  0.2079355295047750  0.8436787283669228  0.3545452805654605
  0.2036595820314871  0.8418079292047805  0.8545775843537298
  0.5359536415467469  0.3428919949894280  0.3538196918285649
  0.5347494762712831  0.3436038290847720  0.8537789520119884
  0.5355580354692890  0.8419269483449634  0.3548003745678467
  0.5368196791984750  0.8420287205383684  0.8527361701802073
  0.8697982667187956  0.3458998941745439  0.3530799696995954
  0.8678267567330291  0.3454236734258297  0.8546029835401064
  0.8677919577115413  0.8460142243562566  0.3535190945974158
  0.8684491908675439  0.8425610245972525  0.8535569249308783
 
  0.00000000E+00  0.00000000E+00  0.00000000E+00
  0.00000000E+00  0.00000000E+00  0.00000000E+00
  0.00000000E+00  0.00000000E+00  0.00000000E+00
  0.00000000E+00  0.00000000E+00  0.00000000E+00
  0.00000000E+00  0.00000000E+00  0.00000000E+00
  0.00000000E+00  0.00000000E+00  0.00000000E+00
  0.00000000E+00  0.00000000E+00  0.00000000E+00
  0.00000000E+00  0.00000000E+00  0.00000000E+00
  0.00000000E+00  0.00000000E+00  0.00000000E+00
  0.00000000E+00  0.00000000E+00  0.00000000E+00
  0.00000000E+00  0.00000000E+00  0.00000000E+00
  0.00000000E+00  0.00000000E+00  0.00000000E+00
  0.00000000E+00  0.00000000E+00  0.00000000E+00
  0.00000000E+00  0.00000000E+00  0.00000000E+00
  0.00000000E+00  0.00000000E+00  0.00000000E+00
  0.00000000E+00  0.00000000E+00  0.00000000E+00
  0.00000000E+00  0.00000000E+00  0.00000000E+00
  0.00000000E+00  0.00000000E+00  0.00000000E+00
  0.00000000E+00  0.00000000E+00  0.00000000E+00
  0.00000000E+00  0.00000000E+00  0.00000000E+00
  0.00000000E+00  0.00000000E+00  0.00000000E+00
  0.00000000E+00  0.00000000E+00  0.00000000E+00
  0.00000000E+00  0.00000000E+00  0.00000000E+00
  0.00000000E+00  0.00000000E+00  0.00000000E+00
  0.00000000E+00  0.00000000E+00  0.00000000E+00
  0.00000000E+00  0.00000000E+00  0.00000000E+00
  0.00000000E+00  0.00000000E+00  0.00000000E+00
  0.00000000E+00  0.00000000E+00  0.00000000E+00
  0.00000000E+00  0.00000000E+00  0.00000000E+00
  0.00000000E+00  0.00000000E+00  0.00000000E+00
  0.00000000E+00  0.00000000E+00  0.00000000E+00
  0.00000000E+00  0.00000000E+00  0.00000000E+00
  0.00000000E+00  0.00000000E+00  0.00000000E+00
  0.00000000E+00  0.00000000E+00  0.00000000E+00
  0.00000000E+00  0.00000000E+00  0.00000000E+00
  0.00000000E+00  0.00000000E+00  0.00000000E+00
  0.00000000E+00  0.00000000E+00  0.00000000E+00
  0.00000000E+00  0.00000000E+00  0.00000000E+00
  0.00000000E+00  0.00000000E+00  0.00000000E+00
  0.00000000E+00  0.00000000E+00  0.00000000E+00
  0.00000000E+00  0.00000000E+00  0.00000000E+00
  0.00000000E+00  0.00000000E+00  0.00000000E+00
  0.00000000E+00  0.00000000E+00  0.00000000E+00
  0.00000000E+00  0.00000000E+00  0.00000000E+00
  0.00000000E+00  0.00000000E+00  0.00000000E+00
  0.00000000E+00  0.00000000E+00  0.00000000E+00
  0.00000000E+00  0.00000000E+00  0.00000000E+00
  0.00000000E+00  0.00000000E+00  0.00000000E+00
  0.00000000E+00  0.00000000E+00  0.00000000E+00
  0.00000000E+00  0.00000000E+00  0.00000000E+00
  0.00000000E+00  0.00000000E+00  0.00000000E+00
  0.00000000E+00  0.00000000E+00  0.00000000E+00
  0.00000000E+00  0.00000000E+00  0.00000000E+00
  0.00000000E+00  0.00000000E+00  0.00000000E+00
  0.00000000E+00  0.00000000E+00  0.00000000E+00
  0.00000000E+00  0.00000000E+00  0.00000000E+00
  0.00000000E+00  0.00000000E+00  0.00000000E+00
  0.00000000E+00  0.00000000E+00  0.00000000E+00
  0.00000000E+00  0.00000000E+00  0.00000000E+00
  0.00000000E+00  0.00000000E+00  0.00000000E+00
  0.00000000E+00  0.00000000E+00  0.00000000E+00
  0.00000000E+00  0.00000000E+00  0.00000000E+00
  0.00000000E+00  0.00000000E+00  0.00000000E+00
  0.00000000E+00  0.00000000E+00  0.00000000E+00
  0.00000000E+00  0.00000000E+00  0.00000000E+00
  0.00000000E+00  0.00000000E+00  0.00000000E+00
  0.00000000E+00  0.00000000E+00  0.00000000E+00
  0.00000000E+00  0.00000000E+00  0.00000000E+00
  0.00000000E+00  0.00000000E+00  0.00000000E+00
  0.00000000E+00  0.00000000E+00  0.00000000E+00
  0.00000000E+00  0.00000000E+00  0.00000000E+00
  0.00000000E+00  0.00000000E+00  0.00000000E+00
  0.00000000E+00  0.00000000E+00  0.00000000E+00
  0.00000000E+00  0.00000000E+00  0.00000000E+00
  0.00000000E+00  0.00000000E+00  0.00000000E+00
  0.00000000E+00  0.00000000E+00  0.00000000E+00
  0.00000000E+00  0.00000000E+00  0.00000000E+00
  0.00000000E+00  0.00000000E+00  0.00000000E+00
  0.00000000E+00  0.00000000E+00  0.00000000E+00
  0.00000000E+00  0.00000000E+00  0.00000000E+00
  0.00000000E+00  0.00000000E+00  0.00000000E+00
  0.00000000E+00  0.00000000E+00  0.00000000E+00
  0.00000000E+00  0.00000000E+00  0.00000000E+00
  0.00000000E+00  0.00000000E+00  0.00000000E+00
  0.00000000E+00  0.00000000E+00  0.00000000E+00
  0.00000000E+00  0.00000000E+00  0.00000000E+00
  0.00000000E+00  0.00000000E+00  0.00000000E+00
  0.00000000E+00  0.00000000E+00  0.00000000E+00
  0.00000000E+00  0.00000000E+00  0.00000000E+00
  0.00000000E+00  0.00000000E+00  0.00000000E+00
  0.00000000E+00  0.00000000E+00  0.00000000E+00
  0.00000000E+00  0.00000000E+00  0.00000000E+00
  0.00000000E+00  0.00000000E+00  0.00000000E+00
  0.00000000E+00  0.00000000E+00  0.00000000E+00
  0.00000000E+00  0.00000000E+00  0.00000000E+00
  0.00000000E+00  0.00000000E+00  0.00000000E+00
  0.00000000E+00  0.00000000E+00  0.00000000E+00
  0.00000000E+00  0.00000000E+00  0.00000000E+00
  0.00000000E+00  0.00000000E+00  0.00000000E+00
  0.00000000E+00  0.00000000E+00  0.00000000E+00
  0.00000000E+00  0.00000000E+00  0.00000000E+00
  0.00000000E+00  0.00000000E+00  0.00000000E+00
  0.00000000E+00  0.00000000E+00  0.00000000E+00
  0.00000000E+00  0.00000000E+00  0.00000000E+00
  0.00000000E+00  0.00000000E+00  0.00000000E+00
  0.00000000E+00  0.00000000E+00  0.00000000E+00
  0.00000000E+00  0.00000000E+00  0.00000000E+00
  0.00000000E+00  0.00000000E+00  0.00000000E+00
  0.00000000E+00  0.00000000E+00  0.00000000E+00
  0.00000000E+00  0.00000000E+00  0.00000000E+00
  0.00000000E+00  0.00000000E+00  0.00000000E+00
  0.00000000E+00  0.00000000E+00  0.00000000E+00
  0.00000000E+00  0.00000000E+00  0.00000000E+00
  0.00000000E+00  0.00000000E+00  0.00000000E+00
  0.00000000E+00  0.00000000E+00  0.00000000E+00
  0.00000000E+00  0.00000000E+00  0.00000000E+00
  0.00000000E+00  0.00000000E+00  0.00000000E+00
  0.00000000E+00  0.00000000E+00  0.00000000E+00
  0.00000000E+00  0.00000000E+00  0.00000000E+00
  0.00000000E+00  0.00000000E+00  0.00000000E+00
  0.00000000E+00  0.00000000E+00  0.00000000E+00
  0.00000000E+00  0.00000000E+00  0.00000000E+00
  0.00000000E+00  0.00000000E+00  0.00000000E+00
  0.00000000E+00  0.00000000E+00  0.00000000E+00
  0.00000000E+00  0.00000000E+00  0.00000000E+00
  0.00000000E+00  0.00000000E+00  0.00000000E+00
  0.00000000E+00  0.00000000E+00  0.00000000E+00
  0.00000000E+00  0.00000000E+00  0.00000000E+00
  0.00000000E+00  0.00000000E+00  0.00000000E+00
  0.00000000E+00  0.00000000E+00  0.00000000E+00
  0.00000000E+00  0.00000000E+00  0.00000000E+00
  0.00000000E+00  0.00000000E+00  0.00000000E+00
  0.00000000E+00  0.00000000E+00  0.00000000E+00
  0.00000000E+00  0.00000000E+00  0.00000000E+00
  0.00000000E+00  0.00000000E+00  0.00000000E+00
  0.00000000E+00  0.00000000E+00  0.00000000E+00
  0.00000000E+00  0.00000000E+00  0.00000000E+00
  0.00000000E+00  0.00000000E+00  0.00000000E+00
  0.00000000E+00  0.00000000E+00  0.00000000E+00
  0.00000000E+00  0.00000000E+00  0.00000000E+00
  0.00000000E+00  0.00000000E+00  0.00000000E+00
  0.00000000E+00  0.00000000E+00  0.00000000E+00
  0.00000000E+00  0.00000000E+00  0.00000000E+00
  0.00000000E+00  0.00000000E+00  0.00000000E+00
  0.00000000E+00  0.00000000E+00  0.00000000E+00
  0.00000000E+00  0.00000000E+00  0.00000000E+00
  0.00000000E+00  0.00000000E+00  0.00000000E+00
  0.00000000E+00  0.00000000E+00  0.00000000E+00
  0.00000000E+00  0.00000000E+00  0.00000000E+00
  0.00000000E+00  0.00000000E+00  0.00000000E+00
  0.00000000E+00  0.00000000E+00  0.00000000E+00
  0.00000000E+00  0.00000000E+00  0.00000000E+00
  0.00000000E+00  0.00000000E+00  0.00000000E+00
  0.00000000E+00  0.00000000E+00  0.00000000E+00
  0.00000000E+00  0.00000000E+00  0.00000000E+00
  0.00000000E+00  0.00000000E+00  0.00000000E+00
  0.00000000E+00  0.00000000E+00  0.00000000E+00
  0.00000000E+00  0.00000000E+00  0.00000000E+00
  0.00000000E+00  0.00000000E+00  0.00000000E+00
  0.00000000E+00  0.00000000E+00  0.00000000E+00
  0.00000000E+00  0.00000000E+00  0.00000000E+00
  0.00000000E+00  0.00000000E+00  0.00000000E+00
  0.00000000E+00  0.00000000E+00  0.00000000E+00
  0.00000000E+00  0.00000000E+00  0.00000000E+00
  0.00000000E+00  0.00000000E+00  0.00000000E+00
  0.00000000E+00  0.00000000E+00  0.00000000E+00
  0.00000000E+00  0.00000000E+00  0.00000000E+00
  0.00000000E+00  0.00000000E+00  0.00000000E+00
  0.00000000E+00  0.00000000E+00  0.00000000E+00
  0.00000000E+00  0.00000000E+00  0.00000000E+00
  0.00000000E+00  0.00000000E+00  0.00000000E+00
  0.00000000E+00  0.00000000E+00  0.00000000E+00
  0.00000000E+00  0.00000000E+00  0.00000000E+00
  0.00000000E+00  0.00000000E+00  0.00000000E+00
  0.00000000E+00  0.00000000E+00  0.00000000E+00
  0.00000000E+00  0.00000000E+00  0.00000000E+00
  0.00000000E+00  0.00000000E+00  0.00000000E+00
  0.00000000E+00  0.00000000E+00  0.00000000E+00
  0.00000000E+00  0.00000000E+00  0.00000000E+00
  0.00000000E+00  0.00000000E+00  0.00000000E+00
  0.00000000E+00  0.00000000E+00  0.00000000E+00
  0.00000000E+00  0.00000000E+00  0.00000000E+00
  0.00000000E+00  0.00000000E+00  0.00000000E+00
  0.00000000E+00  0.00000000E+00  0.00000000E+00
  0.00000000E+00  0.00000000E+00  0.00000000E+00
  0.00000000E+00  0.00000000E+00  0.00000000E+00
  0.00000000E+00  0.00000000E+00  0.00000000E+00
  0.00000000E+00  0.00000000E+00  0.00000000E+00
  0.00000000E+00  0.00000000E+00  0.00000000E+00
  0.00000000E+00  0.00000000E+00  0.00000000E+00
