P28 N28 O28
1.0
4.524130 0.000000 0.000000
0.000000 4.831544 0.000000
0.000000 0.000000 70.436140
P N O
28 28 28
Selective dynamics
direct
0.000000 0.250000 0.044476 T T T P5+
0.000000 0.750000 0.066572 T T T P5+
0.500000 0.750000 0.094476 T T T P5+
0.500000 0.250000 0.016572 T T T P5+
0.000000 0.250000 0.144476 F F F P5+
0.000000 0.750000 0.166572 F F F P5+
0.500000 0.750000 0.194476 F F F P5+
0.500000 0.250000 0.116572 F F F P5+
0.000000 0.250000 0.244476 F F F P5+
0.000000 0.750000 0.266572 F F F P5+
0.500000 0.750000 0.294476 F F F P5+
0.500000 0.250000 0.216572 F F F P5+
0.000000 0.250000 0.344476 F F F P5+
0.000000 0.750000 0.366572 F F F P5+
0.500000 0.750000 0.394476 F F F P5+
0.500000 0.250000 0.316572 F F F P5+
0.000000 0.250000 0.444476 F F F P5+
0.000000 0.750000 0.466572 F F F P5+
0.500000 0.750000 0.494476 F F F P5+
0.500000 0.250000 0.416572 F F F P5+
0.000000 0.250000 0.544476 F F F P5+
0.000000 0.750000 0.566572 F F F P5+
0.500000 0.750000 0.594476 F F F P5+
0.500000 0.250000 0.516572 F F F P5+
0.000000 0.250000 0.644476 T T T P5+
0.000000 0.750000 0.666572 T T T P5+
0.500000 0.750000 0.694476 T T T P5+
0.500000 0.250000 0.616572 T T T P5+
0.859231 0.500000 0.055524 T T T N3-
0.140769 0.000000 0.055524 T T T N3-
0.359231 0.000000 0.005524 T T T N3-
0.640769 0.500000 0.005524 T T T N3-
0.859231 0.500000 0.155524 F F F N3-
0.140769 0.000000 0.155524 F F F N3-
0.359231 0.000000 0.105524 F F F N3-
0.640769 0.500000 0.105524 F F F N3-
0.859231 0.500000 0.255524 F F F N3-
0.140769 0.000000 0.255524 F F F N3-
0.359231 0.000000 0.205524 F F F N3-
0.640769 0.500000 0.205524 F F F N3-
0.859231 0.500000 0.355524 F F F N3-
0.140769 0.000000 0.355524 F F F N3-
0.359231 0.000000 0.305524 F F F N3-
0.640769 0.500000 0.305524 F F F N3-
0.859231 0.500000 0.455524 F F F N3-
0.140769 0.000000 0.455524 F F F N3-
0.359231 0.000000 0.405524 F F F N3-
0.640769 0.500000 0.405524 F F F N3-
0.859231 0.500000 0.555524 F F F N3-
0.140769 0.000000 0.555524 F F F N3-
0.359231 0.000000 0.505524 F F F N3-
0.640769 0.500000 0.505524 F F F N3-
0.859231 0.500000 0.655524 T T T N3-
0.140769 0.000000 0.655524 T T T N3-
0.359231 0.000000 0.605524 T T T N3-
0.640769 0.500000 0.605524 T T T N3-
0.250000 0.627000 0.080524 T T T O2-
0.750000 0.873000 0.080524 T T T O2-
0.750000 0.127000 0.030524 T T T O2-
0.250000 0.373000 0.030524 T T T O2-
0.250000 0.627000 0.180524 F F F O2-
0.750000 0.873000 0.180524 F F F O2-
0.750000 0.127000 0.130524 F F F O2-
0.250000 0.373000 0.130524 F F F O2-
0.250000 0.627000 0.280524 F F F O2-
0.750000 0.873000 0.280524 F F F O2-
0.750000 0.127000 0.230524 F F F O2-
0.250000 0.373000 0.230524 F F F O2-
0.250000 0.627000 0.380524 F F F O2-
0.750000 0.873000 0.380524 F F F O2-
0.750000 0.127000 0.330524 F F F O2-
0.250000 0.373000 0.330524 F F F O2-
0.250000 0.627000 0.480524 F F F O2-
0.750000 0.873000 0.480524 F F F O2-
0.750000 0.127000 0.430524 F F F O2-
0.250000 0.373000 0.430524 F F F O2-
0.250000 0.627000 0.580524 F F F O2-
0.750000 0.873000 0.580524 F F F O2-
0.750000 0.127000 0.530524 F F F O2-
0.250000 0.373000 0.530524 F F F O2-
0.250000 0.627000 0.680524 F F F O2-
0.750000 0.873000 0.680524 F F F O2-
0.750000 0.127000 0.630524 F F F O2-
0.250000 0.373000 0.630524 F F F O2-
