Li56 P28 O98
1.0
8.662005 0.000000 0.002996
-1.582033 6.542399 -7.860032
0.000000 0.000000 68.387046
Li P O
56 28 98
direct
0.987971 0.855023 0.016056 Li+
0.012029 0.144977 0.000750 Li+
0.751653 0.411273 0.032014 Li+
0.248347 0.588727 0.061714 Li+
0.791276 0.672262 0.023790 Li+
0.208724 0.327738 0.069939 Li+
0.450796 0.758114 0.032639 Li+
0.549204 0.241886 0.061090 Li+
0.987971 0.855023 0.092979 Li+
0.012029 0.144977 0.077673 Li+
0.751653 0.411273 0.108937 Li+
0.248347 0.588727 0.138637 Li+
0.791276 0.672262 0.100713 Li+
0.208724 0.327738 0.146862 Li+
0.450796 0.758114 0.109562 Li+
0.549204 0.241886 0.138013 Li+
0.987971 0.855023 0.169902 Li+
0.012029 0.144977 0.154596 Li+
0.751653 0.411273 0.185861 Li+
0.248347 0.588727 0.215561 Li+
0.791276 0.672262 0.177636 Li+
0.208724 0.327738 0.223785 Li+
0.450796 0.758114 0.186485 Li+
0.549204 0.241886 0.214936 Li+
0.987971 0.855023 0.246825 Li+
0.012029 0.144977 0.231519 Li+
0.751653 0.411273 0.262784 Li+
0.248347 0.588727 0.292484 Li+
0.791276 0.672262 0.254559 Li+
0.208724 0.327738 0.300708 Li+
0.450796 0.758114 0.263408 Li+
0.549204 0.241886 0.291859 Li+
0.987971 0.855023 0.323748 Li+
0.012029 0.144977 0.308442 Li+
0.751653 0.411273 0.339707 Li+
0.248347 0.588727 0.369407 Li+
0.791276 0.672262 0.331482 Li+
0.208724 0.327738 0.377631 Li+
0.450796 0.758114 0.340331 Li+
0.549204 0.241886 0.368782 Li+
0.987971 0.855023 0.400671 Li+
0.012029 0.144977 0.385365 Li+
0.751653 0.411273 0.416630 Li+
0.248347 0.588727 0.446330 Li+
0.791276 0.672262 0.408405 Li+
0.208724 0.327738 0.454554 Li+
0.450796 0.758114 0.417254 Li+
0.549204 0.241886 0.445705 Li+
0.987971 0.855023 0.477594 Li+
0.012029 0.144977 0.462289 Li+
0.751653 0.411273 0.493553 Li+
0.248347 0.588727 0.523253 Li+
0.791276 0.672262 0.485328 Li+
0.208724 0.327738 0.531477 Li+
0.450796 0.758114 0.494177 Li+
0.549204 0.241886 0.522629 Li+
0.631956 0.786702 0.074610 P5+
0.368044 0.213298 0.019119 P5+
0.845502 0.220759 0.047251 P5+
0.154498 0.779241 0.046477 P5+
0.631956 0.786702 0.151533 P5+
0.368044 0.213298 0.096042 P5+
0.845502 0.220759 0.124174 P5+
0.154498 0.779241 0.123400 P5+
0.631956 0.786702 0.228456 P5+
0.368044 0.213298 0.172965 P5+
0.845502 0.220759 0.201098 P5+
0.154498 0.779241 0.200324 P5+
0.631956 0.786702 0.305379 P5+
0.368044 0.213298 0.249888 P5+
0.845502 0.220759 0.278021 P5+
0.154498 0.779241 0.277247 P5+
0.631956 0.786702 0.382302 P5+
0.368044 0.213298 0.326811 P5+
0.845502 0.220759 0.354944 P5+
0.154498 0.779241 0.354170 P5+
0.631956 0.786702 0.459225 P5+
0.368044 0.213298 0.403734 P5+
0.845502 0.220759 0.431867 P5+
0.154498 0.779241 0.431093 P5+
0.631956 0.786702 0.536148 P5+
0.368044 0.213298 0.480657 P5+
0.845502 0.220759 0.508790 P5+
0.154498 0.779241 0.508016 P5+
0.874340 0.258241 0.029799 O2-
0.790684 0.394280 0.000742 O2-
0.209316 0.605720 0.016064 O2-
0.981976 0.151409 0.049504 O2-
0.376455 0.256650 0.046034 O2-
0.623545 0.743350 0.047694 O2-
0.526190 0.267811 0.014761 O2-
0.473810 0.732189 0.002045 O2-
0.236504 0.297597 0.018850 O2-
0.763496 0.702403 0.074878 O2-
0.683894 0.037616 0.029225 O2-
0.316106 0.962384 0.064504 O2-
0.018024 0.848591 0.044224 O2-
0.125660 0.741759 0.063930 O2-
0.874340 0.258241 0.106722 O2-
0.790684 0.394280 0.077665 O2-
0.209316 0.605720 0.092987 O2-
0.981976 0.151409 0.126427 O2-
0.376455 0.256650 0.122958 O2-
0.623545 0.743350 0.124617 O2-
0.526190 0.267811 0.091684 O2-
0.473810 0.732189 0.078968 O2-
0.236504 0.297597 0.095774 O2-
0.763496 0.702403 0.151801 O2-
0.683894 0.037616 0.106148 O2-
0.316106 0.962384 0.141427 O2-
0.018024 0.848591 0.121147 O2-
0.125660 0.741759 0.140853 O2-
0.874340 0.258241 0.183645 O2-
0.790684 0.394280 0.154588 O2-
0.209316 0.605720 0.169910 O2-
0.981976 0.151409 0.203351 O2-
0.376455 0.256650 0.199881 O2-
0.623545 0.743350 0.201540 O2-
0.526190 0.267811 0.168607 O2-
0.473810 0.732189 0.155891 O2-
0.236504 0.297597 0.172697 O2-
0.763496 0.702403 0.228724 O2-
0.683894 0.037616 0.183071 O2-
0.316106 0.962384 0.218350 O2-
0.018024 0.848591 0.198071 O2-
0.125660 0.741759 0.217776 O2-
0.874340 0.258241 0.260568 O2-
0.790684 0.394280 0.231511 O2-
0.209316 0.605720 0.246833 O2-
0.981976 0.151409 0.280274 O2-
0.376455 0.256650 0.276804 O2-
0.623545 0.743350 0.278464 O2-
0.526190 0.267811 0.245530 O2-
0.473810 0.732189 0.232814 O2-
0.236504 0.297597 0.249620 O2-
0.763496 0.702403 0.305648 O2-
0.683894 0.037616 0.259994 O2-
0.316106 0.962384 0.295273 O2-
0.018024 0.848591 0.274994 O2-
0.125660 0.741759 0.294699 O2-
0.874340 0.258241 0.337492 O2-
0.790684 0.394280 0.308434 O2-
0.209316 0.605720 0.323756 O2-
0.981976 0.151409 0.357197 O2-
0.376455 0.256650 0.353727 O2-
0.623545 0.743350 0.355387 O2-
0.526190 0.267811 0.322453 O2-
0.473810 0.732189 0.309737 O2-
0.236504 0.297597 0.326543 O2-
0.763496 0.702403 0.382571 O2-
0.683894 0.037616 0.336917 O2-
0.316106 0.962384 0.372196 O2-
0.018024 0.848591 0.351917 O2-
0.125660 0.741759 0.371622 O2-
0.874340 0.258241 0.414415 O2-
0.790684 0.394280 0.385357 O2-
0.209316 0.605720 0.400679 O2-
0.981976 0.151409 0.434120 O2-
0.376455 0.256650 0.430650 O2-
0.623545 0.743350 0.432310 O2-
0.526190 0.267811 0.399376 O2-
0.473810 0.732189 0.386660 O2-
0.236504 0.297597 0.403466 O2-
0.763496 0.702403 0.459494 O2-
0.683894 0.037616 0.413840 O2-
0.316106 0.962384 0.449119 O2-
0.018024 0.848591 0.428840 O2-
0.125660 0.741759 0.448545 O2-
0.874340 0.258241 0.491338 O2-
0.790684 0.394280 0.462281 O2-
0.209316 0.605720 0.477602 O2-
0.981976 0.151409 0.511043 O2-
0.376455 0.256650 0.507573 O2-
0.623545 0.743350 0.509233 O2-
0.526190 0.267811 0.476299 O2-
0.473810 0.732189 0.463583 O2-
0.236504 0.297597 0.480389 O2-
0.763496 0.702403 0.536417 O2-
0.683894 0.037616 0.490763 O2-
0.316106 0.962384 0.526042 O2-
0.018024 0.848591 0.505763 O2-
0.125660 0.741759 0.525468 O2-
