Li56 P56
1.0
4.970385 0.000000 0.000000
0.000000 9.037780 -4.836985
0.000000 0.000000 67.126464
Li P
56 56
direct
0.388247 0.329300 0.059751 Li+
0.888247 0.170700 0.023583 Li+
0.611753 0.670700 0.023583 Li+
0.111753 0.829300 0.059751 Li+
0.658316 0.029786 0.060481 Li+
0.158316 0.470214 0.022853 Li+
0.341684 0.970214 0.022853 Li+
0.841684 0.529786 0.060481 Li+
0.388247 0.329300 0.143084 Li+
0.888247 0.170700 0.106916 Li+
0.611753 0.670700 0.106916 Li+
0.111753 0.829300 0.143084 Li+
0.658316 0.029786 0.143814 Li+
0.158316 0.470214 0.106186 Li+
0.341684 0.970214 0.106186 Li+
0.841684 0.529786 0.143814 Li+
0.388247 0.329300 0.226417 Li+
0.888247 0.170700 0.190249 Li+
0.611753 0.670700 0.190249 Li+
0.111753 0.829300 0.226417 Li+
0.658316 0.029786 0.227147 Li+
0.158316 0.470214 0.189519 Li+
0.341684 0.970214 0.189519 Li+
0.841684 0.529786 0.227147 Li+
0.388247 0.329300 0.309751 Li+
0.888247 0.170700 0.273583 Li+
0.611753 0.670700 0.273583 Li+
0.111753 0.829300 0.309751 Li+
0.658316 0.029786 0.310481 Li+
0.158316 0.470214 0.272853 Li+
0.341684 0.970214 0.272853 Li+
0.841684 0.529786 0.310481 Li+
0.388247 0.329300 0.393084 Li+
0.888247 0.170700 0.356916 Li+
0.611753 0.670700 0.356916 Li+
0.111753 0.829300 0.393084 Li+
0.658316 0.029786 0.393814 Li+
0.158316 0.470214 0.356186 Li+
0.341684 0.970214 0.356186 Li+
0.841684 0.529786 0.393814 Li+
0.388247 0.329300 0.476417 Li+
0.888247 0.170700 0.440249 Li+
0.611753 0.670700 0.440249 Li+
0.111753 0.829300 0.476417 Li+
0.658316 0.029786 0.477147 Li+
0.158316 0.470214 0.439519 Li+
0.341684 0.970214 0.439519 Li+
0.841684 0.529786 0.477147 Li+
0.388247 0.329300 0.559751 Li+
0.888247 0.170700 0.523583 Li+
0.611753 0.670700 0.523583 Li+
0.111753 0.829300 0.559751 Li+
0.658316 0.029786 0.560481 Li+
0.158316 0.470214 0.522853 Li+
0.341684 0.970214 0.522853 Li+
0.841684 0.529786 0.560481 Li+
0.894904 0.292916 0.068054 P-
0.394904 0.207084 0.015280 P-
0.105096 0.707084 0.015280 P-
0.605096 0.792916 0.068054 P-
0.156027 0.111742 0.066932 P-
0.656027 0.388258 0.016402 P-
0.843973 0.888258 0.016402 P-
0.343973 0.611742 0.066932 P-
0.894904 0.292916 0.151387 P-
0.394904 0.207084 0.098613 P-
0.105096 0.707084 0.098613 P-
0.605096 0.792916 0.151387 P-
0.156027 0.111742 0.150265 P-
0.656027 0.388258 0.099735 P-
0.843973 0.888258 0.099735 P-
0.343973 0.611742 0.150265 P-
0.894904 0.292916 0.234720 P-
0.394904 0.207084 0.181946 P-
0.105096 0.707084 0.181946 P-
0.605096 0.792916 0.234720 P-
0.156027 0.111742 0.233598 P-
0.656027 0.388258 0.183068 P-
0.843973 0.888258 0.183068 P-
0.343973 0.611742 0.233598 P-
0.894904 0.292916 0.318054 P-
0.394904 0.207084 0.265280 P-
0.105096 0.707084 0.265280 P-
0.605096 0.792916 0.318054 P-
0.156027 0.111742 0.316932 P-
0.656027 0.388258 0.266402 P-
0.843973 0.888258 0.266402 P-
0.343973 0.611742 0.316932 P-
0.894904 0.292916 0.401387 P-
0.394904 0.207084 0.348613 P-
0.105096 0.707084 0.348613 P-
0.605096 0.792916 0.401387 P-
0.156027 0.111742 0.400265 P-
0.656027 0.388258 0.349735 P-
0.843973 0.888258 0.349735 P-
0.343973 0.611742 0.400265 P-
0.894904 0.292916 0.484720 P-
0.394904 0.207084 0.431946 P-
0.105096 0.707084 0.431946 P-
0.605096 0.792916 0.484720 P-
0.156027 0.111742 0.483598 P-
0.656027 0.388258 0.433068 P-
0.843973 0.888258 0.433068 P-
0.343973 0.611742 0.483598 P-
0.894904 0.292916 0.568054 P-
0.394904 0.207084 0.515280 P-
0.105096 0.707084 0.515280 P-
0.605096 0.792916 0.568054 P-
0.156027 0.111742 0.566932 P-
0.656027 0.388258 0.516401 P-
0.843973 0.888258 0.516402 P-
0.343973 0.611742 0.566932 P-
