(2, 2, 1)                               
   1.00000000000000     
     3.6362379513537859    0.0331417840445301   -6.3707122883181393
    -0.0206623568141029   15.2098993379363794   -4.3371392067386871
     0.7687571270875982   -0.2219716574884751   59.9117538398565657
   Li   P 
    48    16
Selective dynamics
Direct
  0.0373266489806889  0.3758979676369814  0.0291372326704997   T   T   T
  0.0420050992154092  0.8683814874168929  0.0654383459309327   T   T   T
 -0.0080010685180310  0.1173382594366516  0.0121972714051846   T   T   T
 -0.0125280072595166  0.6239712484404819  0.0468456035097247   T   T   T
  0.5138287676157794  0.0489863529551729  0.0215144543918246   T   T   T
  0.3914185319056315  0.5387795293922244  0.0449504091369662   T   T   T
  0.7031031014093613  0.2927180830465544  0.0287033162383461   T   T   T
  0.6898836024191687  0.7881006460346279  0.0625825012047035   T   T   T
  0.6916131959290280  0.4653485549595675  0.0397758093151431   T   T   T
  0.6861593769763263  0.9662065767847065  0.0790289468115621   T   T   T
  0.3593222080042669  0.2187318014009118  0.0170751382446947   T   T   T
  0.3929183251086142  0.7129618297945143  0.0573190121523712   T   T   T
  0.0000000000000000  0.3750000000000000  0.0982139999999987   F   F   F
  0.0000000000000000  0.8750000000000000  0.1339290000000020   F   F   F
  0.0281516384629749  0.1533860783464567  0.0870021205988322   T   T   T
  0.0000000000000000  0.6250000000000000  0.1160709999999980   F   F   F
  0.2374353855732596  0.0339317491907926  0.0688439895277265   T   T   T
  0.3333330000000032  0.5420599999999993  0.1101469999999978   F   F   F
  0.6666669999999968  0.2920599999999993  0.0922899999999984   F   F   F
  0.6666669999999968  0.7920599999999993  0.1280039999999971   F   F   F
  0.6666669999999968  0.4579400000000007  0.1041390000000035   F   F   F
  0.6666669999999968  0.9579400000000007  0.1398530000000022   F   F   F
  0.3333330000000032  0.2079400000000007  0.0862809999999996   F   F   F
  0.3333330000000032  0.7079409999999982  0.1219960000000029   F   F   F
  0.0000000000000000  0.3750000000000000  0.1696430000000007   F   F   F
 -0.0281597804931608  0.8466152942249209  0.1987109433643018   T   T   T
  0.0000000000000000  0.1250000000000000  0.1517860000000013   F   F   F
  0.0000000000000000  0.6250000000000000  0.1875000000000000   F   F   F
  0.3333330000000032  0.0420599999999993  0.1458609999999965   F   F   F
  0.3333330000000032  0.5420599999999993  0.1815759999999997   F   F   F
  0.6666669999999968  0.2920599999999993  0.1637190000000004   F   F   F
  0.6666669999999968  0.7920599999999993  0.1994329999999991   F   F   F
  0.6666669999999968  0.4579400000000007  0.1755670000000009   F   F   F
  0.7625552629759872  0.9660670465862070  0.2168686426364695   T   T   T
  0.3333330000000032  0.2079400000000007  0.1577100000000016   F   F   F
  0.3333330000000032  0.7079409999999982  0.1934240000000003   F   F   F
  0.0125278744720970  0.3760373973799100  0.2388694936390329   T   T   T
  0.0079958815383474  0.8826629461684840  0.2735156436394374   T   T   T
 -0.0420131255050020  0.1316238917830433  0.2202767844319459   T   T   T
 -0.0373302880267206  0.6241025597293370  0.2565760533829570   T   T   T
  0.3138341729624746  0.0337956304733031  0.2066854072292338   T   T   T
  0.3083842125786930  0.5346546463474769  0.2459378436616517   T   T   T
  0.6070745691492849  0.2870355631059792  0.2283942411006763   T   T   T
  0.6406714019035331  0.7812660095386152  0.2686362090893712   T   T   T
  0.6085835736833876  0.4612203182354764  0.2407642480725937   T   T   T
  0.4861724497611174  0.9510169157971045  0.2642008471359305   T   T   T
  0.3101479015907340  0.2118994098369434  0.2231358318104874   T   T   T
  0.2969097024146959  0.7072805990767490  0.2570125105279868   T   T   T
  0.3745659462847716  0.3792566009106554  0.0320209879417777   T   T   T
  0.3728350566023376  0.8734838844122785  0.0675093026543446   T   T   T
  0.7009529834524987  0.1357525563158046  0.0173066451835490   T   T   T
  0.6851625172457236  0.6262040846523277  0.0493704568209867   T   T   T
  0.3333330000000032  0.3750000000000000  0.0982139999999987   F   F   F
  0.3333330000000032  0.8750000000000000  0.1339290000000020   F   F   F
  0.6666669999999968  0.1250000000000000  0.0803569999999993   F   F   F
  0.6666669999999968  0.6250000000000000  0.1160709999999980   F   F   F
  0.3333330000000032  0.3750000000000000  0.1696430000000007   F   F   F
  0.3333330000000032  0.8750000000000000  0.2053569999999993   F   F   F
  0.6666669999999968  0.1250000000000000  0.1517860000000013   F   F   F
  0.6666669999999968  0.6250000000000000  0.1875000000000000   F   F   F
  0.3148413520111629  0.3737987308813182  0.2363442640828117   T   T   T
  0.2990465181165210  0.8642479112094744  0.2684080956338271   T   T   T
  0.6271547109266881  0.1265157992017358  0.2182043821884459   T   T   T
  0.6254366550344237  0.6207452120657609  0.2536933505553027   T   T   T
 
  0.00000000E+00  0.00000000E+00  0.00000000E+00
  0.00000000E+00  0.00000000E+00  0.00000000E+00
  0.00000000E+00  0.00000000E+00  0.00000000E+00
  0.00000000E+00  0.00000000E+00  0.00000000E+00
  0.00000000E+00  0.00000000E+00  0.00000000E+00
  0.00000000E+00  0.00000000E+00  0.00000000E+00
  0.00000000E+00  0.00000000E+00  0.00000000E+00
  0.00000000E+00  0.00000000E+00  0.00000000E+00
  0.00000000E+00  0.00000000E+00  0.00000000E+00
  0.00000000E+00  0.00000000E+00  0.00000000E+00
  0.00000000E+00  0.00000000E+00  0.00000000E+00
  0.00000000E+00  0.00000000E+00  0.00000000E+00
  0.00000000E+00  0.00000000E+00  0.00000000E+00
  0.00000000E+00  0.00000000E+00  0.00000000E+00
  0.00000000E+00  0.00000000E+00  0.00000000E+00
  0.00000000E+00  0.00000000E+00  0.00000000E+00
  0.00000000E+00  0.00000000E+00  0.00000000E+00
  0.00000000E+00  0.00000000E+00  0.00000000E+00
  0.00000000E+00  0.00000000E+00  0.00000000E+00
  0.00000000E+00  0.00000000E+00  0.00000000E+00
  0.00000000E+00  0.00000000E+00  0.00000000E+00
  0.00000000E+00  0.00000000E+00  0.00000000E+00
  0.00000000E+00  0.00000000E+00  0.00000000E+00
  0.00000000E+00  0.00000000E+00  0.00000000E+00
  0.00000000E+00  0.00000000E+00  0.00000000E+00
  0.00000000E+00  0.00000000E+00  0.00000000E+00
  0.00000000E+00  0.00000000E+00  0.00000000E+00
  0.00000000E+00  0.00000000E+00  0.00000000E+00
  0.00000000E+00  0.00000000E+00  0.00000000E+00
  0.00000000E+00  0.00000000E+00  0.00000000E+00
  0.00000000E+00  0.00000000E+00  0.00000000E+00
  0.00000000E+00  0.00000000E+00  0.00000000E+00
  0.00000000E+00  0.00000000E+00  0.00000000E+00
  0.00000000E+00  0.00000000E+00  0.00000000E+00
  0.00000000E+00  0.00000000E+00  0.00000000E+00
  0.00000000E+00  0.00000000E+00  0.00000000E+00
  0.00000000E+00  0.00000000E+00  0.00000000E+00
  0.00000000E+00  0.00000000E+00  0.00000000E+00
  0.00000000E+00  0.00000000E+00  0.00000000E+00
  0.00000000E+00  0.00000000E+00  0.00000000E+00
  0.00000000E+00  0.00000000E+00  0.00000000E+00
  0.00000000E+00  0.00000000E+00  0.00000000E+00
  0.00000000E+00  0.00000000E+00  0.00000000E+00
  0.00000000E+00  0.00000000E+00  0.00000000E+00
  0.00000000E+00  0.00000000E+00  0.00000000E+00
  0.00000000E+00  0.00000000E+00  0.00000000E+00
  0.00000000E+00  0.00000000E+00  0.00000000E+00
  0.00000000E+00  0.00000000E+00  0.00000000E+00
  0.00000000E+00  0.00000000E+00  0.00000000E+00
  0.00000000E+00  0.00000000E+00  0.00000000E+00
  0.00000000E+00  0.00000000E+00  0.00000000E+00
  0.00000000E+00  0.00000000E+00  0.00000000E+00
  0.00000000E+00  0.00000000E+00  0.00000000E+00
  0.00000000E+00  0.00000000E+00  0.00000000E+00
  0.00000000E+00  0.00000000E+00  0.00000000E+00
  0.00000000E+00  0.00000000E+00  0.00000000E+00
  0.00000000E+00  0.00000000E+00  0.00000000E+00
  0.00000000E+00  0.00000000E+00  0.00000000E+00
  0.00000000E+00  0.00000000E+00  0.00000000E+00
  0.00000000E+00  0.00000000E+00  0.00000000E+00
  0.00000000E+00  0.00000000E+00  0.00000000E+00
  0.00000000E+00  0.00000000E+00  0.00000000E+00
  0.00000000E+00  0.00000000E+00  0.00000000E+00
  0.00000000E+00  0.00000000E+00  0.00000000E+00
