Li71 P24 N1 O94                         
   1.00000000000000     
    14.7549378523786938    0.0090131663834146   -0.0100808274750439
     0.0064197883976373   10.5452480098044621    0.0108820611524420
    -0.0083824457204240    0.0126958340508378   12.3417333936240645
   Li   P    N    O 
    71    24     1    94
Direct
  0.2053856622804323  0.4141048527087349 -0.0003734476213101
  0.1682065208404576  0.4235361657178907  0.4986972098637669
  0.1710583330008838  0.9230286505964816  0.0018115711053741
  0.1703696486494455  0.9234941702692577  0.4972044916197552
  0.5020887442140751  0.4205580234263549 -0.0001592937745613
  0.5028764380822178  0.4208215308504060  0.4999446472517027
  0.5025966750888247  0.9210456409502124  0.0000006331562098
  0.5029624547104413  0.9227745562352235  0.4997559693439339
  0.8339581349362452  0.4197057544037645  0.0025530115860724
  0.8360874868348658  0.4250908730925904  0.5006330454219039
  0.8367041915531329  0.9255712713371967  0.0008143139979183
  0.8369757553748621  0.9260697972032750  0.4987821856360840
  0.0005404687787210  0.0696463905311798  0.7456588765787028
 -0.0005858123275292  0.5841424968151073  0.2560588368920469
  0.0010732200607352  0.5789169295665682  0.7484394394694799
  0.3356085458399313  0.0764545596064253  0.2504442308708979
  0.3365316040492144  0.0756805920263122  0.7484031509774252
  0.3408697777160982  0.5798429135903770  0.2505659962580278
  0.3366818762684203  0.5777495713789003  0.7483351273372159
  0.6753860473130948  0.0746452086043794  0.2508943804700824
  0.6693816899024029  0.0756076700682303  0.7489787302058770
  0.6693913579604186  0.5795125229119859  0.2511498236218616
  0.6682600935274291  0.5774974916406268  0.7495078923594444
  0.1688507854638202  0.1627263735703435  0.1264678311819773
  0.1677607311383966  0.1613722392254020  0.6256430027430914
  0.1728352824818247  0.6671092168875045  0.1276116326341142
  0.1694914441340486  0.6631758676966174  0.6254958126286756
  0.5047231745861407  0.1609295701179359  0.1267748717500015
  0.5022683543220295  0.1623938123383659  0.6257833226740277
  0.5047864703411410  0.6628110569112056  0.1264239755553618
  0.5022685877107589  0.6625595212603549  0.6255730007827131
  0.8326089439558402  0.1615954638723936  0.1243321265715972
  0.8359268612895178  0.1643439306973719  0.6259941757078274
  0.8322160808307533  0.6677611508260785  0.1298146357343256
  0.8349357802083983  0.6652774207678966  0.6260430207502301
 -0.0099314405154368  0.2845913014715185  0.1713525424479369
  0.0036783854837547  0.3372096841879919  0.6236930535517909
  0.0002271167529073  0.8535242720353879  0.1282771072449258
  0.0031223160397673  0.8377005936198245  0.6216636313482351
  0.3421533240703450  0.3340768960703588  0.1265207322392028
  0.3346382040101813  0.3360699796533937  0.6227167464724689
  0.3383862817362366  0.8376066239659244  0.1240192435423797
  0.3365489373146739  0.8365149001037538  0.6224104927374118
  0.6680904757261189  0.3366096634701822  0.1242036502293746
  0.6692368112634175  0.3354711739371595  0.6242808815669595
  0.6677710527129938  0.8356050415459281  0.1224481538300971
  0.6688483881227383  0.8359883106074906  0.6232479940199018
 -0.0015577597929242  0.3376944251128242  0.3834763540388963
 -0.0028860206901365  0.3174927150489526  0.8576599568879810
  0.0021329205725897  0.8485898408753212  0.3740705375437723
  0.0025711977751457  0.8415397285013493  0.8744390439704192
  0.3372480473990347  0.3365762942095892  0.3771495798957055
  0.3397638469764295  0.3327094740889613  0.8717502201772630
  0.3381161384350874  0.8375273127292017  0.3763081982669944
  0.3366414122577330  0.8368923358505611  0.8756876361796616
  0.6702981047315066  0.3359671239087990  0.3771011553644749
  0.6678907663905137  0.3359708383703303  0.8759172022531886
  0.6682652391676066  0.8351907791687299  0.3780590158328877
  0.6684644699823098  0.8365152296474526  0.8763318074509870
  0.1649058074196130  0.1618932102811782  0.3702644645865884
  0.1689045130258116  0.1595835756345751  0.8716809680882256
  0.1705504708073446  0.6666595046595004  0.3726637022474359
  0.1709605725904584  0.6640430004214635  0.8732631274011540
  0.5039150620324456  0.1621767702053866  0.3735010554778346
  0.5031452894131168  0.1613631880369296  0.8722706308259758
  0.5035129811726524  0.6628486583613680  0.3747476825961260
  0.5033913440411574  0.6625986484217719  0.8726125864745597
  0.8382363256627713  0.1625122508783469  0.3731895357023363
  0.8338755877296397  0.1624204472936860  0.8729776284301247
  0.8349973609787058  0.6682997704582930  0.3748786394408622
  0.8322697750716690  0.6653373975337479  0.8722771555728728
  0.1722278083884911  0.4165988581366230  0.2477426767339572
  0.1670537056786320  0.4124247004754689  0.7509696939851077
  0.1693883546092466  0.9109134020349328  0.2495357331005734
  0.1681469812410000  0.9100870510725907  0.7489727873732952
  0.5013679084829415  0.4118762734070927  0.2507743521562696
  0.5000295204365767  0.4117332252328291  0.7491173543267337
  0.5016216774005441  0.9120139502010184  0.2502707516190378
  0.5003331181794094  0.9109634917292584  0.7493877979057137
  0.8317523969471077  0.4145759160867292  0.2508404312844155
  0.8328032095325414  0.4140211700801856  0.7508708382510728
  0.8290785840179101  0.9140899328526703  0.2496529002500975
  0.8325210767732188  0.9115483605748220  0.7496694700627735
  0.0017233477834822  0.0897004414173269 -0.0076658172809129
  0.0011071917613226  0.0924611459167410  0.5039684194837545
 -0.0022520252917899  0.5965368030498408  0.0014635102798261
 -0.0000918537018101  0.5913268379482735  0.5010596681843158
  0.3350592003992146  0.0872937523397126 -0.0009184490404635
  0.3337417254245323  0.0886171178456481  0.4995048173375318
  0.3349486483646383  0.5893442619890900 -0.0010942581648423
  0.3339907192300929  0.5874181724273554  0.5000485608307931
  0.6658716154128373  0.0874549174523447 -0.0013949120869289
  0.6670282686503528  0.0877068081838667  0.5008862540666135
  0.6658174785164879  0.5863343593796821 -0.0005984852870730
  0.6667470158174016  0.5865125855504696  0.5011797705190777
  0.0618756289313916  0.4120467736706443  0.2495935672275571
  0.0386783071134242  0.1696685974353206  0.4082517076644430
  0.0331457063477862  0.1490501807468138  0.8820083924316322
  0.0354909685695256  0.6623250167921726  0.3990084474132476
  0.0352993701698500  0.6579504065041809  0.8958395351810133
  0.3699409887783034  0.1576529661884840  0.3961586240182807
  0.3703942793342642  0.1555503036380544  0.8948281784684415
  0.3705259370558946  0.6566497804317590  0.3971656119461753
  0.3704444396911924  0.6558443627231354  0.8946064164568097
  0.7023591869763327  0.1573649060030957  0.3978900589499592
  0.7007440499192942  0.1562940236443602  0.8943840745503931
  0.7018999486743907  0.6559283106120113  0.3977884295698242
  0.7006033139823017  0.6558565212753589  0.8956445088093087
  0.2020957426122982  0.0518802613355706  0.2488641446229315
  0.2017262060076686  0.0502015907022482  0.7489053772059425
  0.2090525040595712  0.5555851095063004  0.2481652852719194
  0.2011613016645624  0.5520799099078701  0.7509960237508982
  0.5366197156320284  0.0514050220247259  0.2503404507891883
  0.5340481278986212  0.0510725454980381  0.7491252078397659
  0.5345693479742434  0.5522490122972784  0.2504749117771897
  0.5336907453086378  0.5518039502361053  0.7493789207396589
  0.8504156028930732  0.0569836592701832  0.2481302391155271
  0.8644125401599456  0.0523207300364345  0.7500199692665009
  0.8641528543246348  0.5553178795788728  0.2501900076909723
  0.8659693121695597  0.5543763481416233  0.7514597653159536
  0.0612084783626409  0.4116017309213294  0.7539509191781417
  0.0658494556378836  0.8989743970720164  0.2499491335372763
  0.0626080387140821  0.9051864853554630  0.7486590960482828
  0.3958545414399586  0.4093619743623845  0.2516286347490447
  0.3944273818685010  0.4092375156300676  0.7479549293228656
  0.3961095124191708  0.9105781846307498  0.2500321968678696
  0.3948470595254950  0.9081528952996457  0.7493071417650498
  0.7263425855334014  0.4104645193209081  0.2500073298746727
  0.7274841998770170  0.4095135303728528  0.7508948001221275
  0.7237390783509036  0.8980311165592828  0.2499110557307979
  0.7270807494163549  0.9063026011604106  0.7500529615523300
  0.2296492134148405  0.0916672682341489 -0.0012036752444520
  0.2283344050247364  0.0921168410840243  0.4988621361399441
  0.2292120639645914  0.5945355902911140 -0.0004097929998396
  0.2284256347627990  0.5906656239036890  0.4995486283697299
  0.5604094376180018  0.0889513761492945 -0.0014748932699290
  0.5613737360559953  0.0902553095271947  0.5006576250683200
  0.5603109435093059  0.5884066676701383 -0.0007110501515196
  0.5611964189225556  0.5888458436455687  0.5007155839600159
  0.8959965256724379  0.0939048953953068 -0.0019433001739426
  0.8951782302381699  0.0931288184743522  0.5014844411798327
  0.8925182622157031  0.5927204712693707  0.0012500887800490
  0.8942380922479238  0.5938671468703119  0.5006929893689643
  0.2087421788157346  0.3462824968509309  0.1450000454494221
  0.1999214131050893  0.3432153560257950  0.6467140310953733
  0.2073478534297272  0.8437322988243713  0.1453339874065977
  0.2037450226794900  0.8413024837419429  0.6456345757105076
  0.5349800715704223  0.3430378673371752  0.1462386804992401
  0.5359425717611581  0.3421887251463415  0.6463415903872700
  0.5356779692328499  0.8422525617749972  0.1463017260131797
  0.5355430894765975  0.8417201064797204  0.6459309582300926
  0.8673641378576769  0.3436985605470756  0.1478274593241494
  0.8692948104094889  0.3453809160629484  0.6479580448226026
  0.8674370338171744  0.8465169096373449  0.1461065456790652
  0.8687708011207526  0.8437349611458842  0.6461650219280596
  0.0436167513316138  0.1682286571894734  0.0842496923058133
  0.0330954759225522  0.1560719193358857  0.6124479633097352
  0.0358930324655026  0.6584484082557258  0.1056831241165793
  0.0351139680127542  0.6575790080877025  0.6061146275283614
  0.3711167927860479  0.1560654332837526  0.1025026710890300
  0.3687561148472185  0.1574784665102083  0.6036311032490481
  0.3724461932271149  0.6559924680661787  0.1018030008847333
  0.3689754404824319  0.6560125197119474  0.6040534287587979
  0.7003982638443284  0.1581290420790530  0.1014358099668517
  0.7019742167718517  0.1562854974363675  0.6050611471522789
  0.7007946672266926  0.6557860603769827  0.1027035486289336
  0.7015938214895122  0.6558616451011071  0.6048828967504600
  0.0332469107785336  0.4506536485423426  0.5008642717787879
  0.0341364929712535  0.9486289186416768 -0.0024798196908751
  0.0352430101490943  0.9520537556235364  0.5014459467868008
  0.3631117660523719  0.4458029966637511 -0.0015086824810240
  0.3673234203126612  0.4468729732805641  0.5003260635914709
  0.3683507060592259  0.9468660084248171 -0.0008975774317846
  0.3680022526708954  0.9485570745191269  0.5001200831025293
  0.7001069007793198  0.4463193153774743 -0.0005149039771555
  0.7009316332811953  0.4465119009170214  0.5014293823556520
  0.7007356321747159  0.9477819032368743 -0.0006512157432337
  0.7007334889828013  0.9474503094514493  0.5007809474851039
  0.2029948737828569  0.3462616684882872  0.3530283807326454
  0.2032334060874501  0.3416877683127093  0.8539341003165909
  0.2076323862691748  0.8439901707199081  0.3536540490612423
  0.2032609606743568  0.8417932968795331  0.8534734013370321
  0.5370448478555703  0.3424246182272380  0.3540318526941172
  0.5341306978236017  0.3428228835264642  0.8537144254166620
  0.5356672570847509  0.8420085265691524  0.3543311432658889
  0.5355535888153342  0.8420638838278757  0.8534809863380836
  0.8673721247018572  0.3460826021355251  0.3546859969165445
  0.8686348515201652  0.3450609997205111  0.8552280532548687
  0.8680118018023614  0.8478741417507337  0.3532733517273225
  0.8688277356056706  0.8430055412995323  0.8536730358577442
 
  0.00000000E+00  0.00000000E+00  0.00000000E+00
  0.00000000E+00  0.00000000E+00  0.00000000E+00
  0.00000000E+00  0.00000000E+00  0.00000000E+00
  0.00000000E+00  0.00000000E+00  0.00000000E+00
  0.00000000E+00  0.00000000E+00  0.00000000E+00
  0.00000000E+00  0.00000000E+00  0.00000000E+00
  0.00000000E+00  0.00000000E+00  0.00000000E+00
  0.00000000E+00  0.00000000E+00  0.00000000E+00
  0.00000000E+00  0.00000000E+00  0.00000000E+00
  0.00000000E+00  0.00000000E+00  0.00000000E+00
  0.00000000E+00  0.00000000E+00  0.00000000E+00
  0.00000000E+00  0.00000000E+00  0.00000000E+00
  0.00000000E+00  0.00000000E+00  0.00000000E+00
  0.00000000E+00  0.00000000E+00  0.00000000E+00
  0.00000000E+00  0.00000000E+00  0.00000000E+00
  0.00000000E+00  0.00000000E+00  0.00000000E+00
  0.00000000E+00  0.00000000E+00  0.00000000E+00
  0.00000000E+00  0.00000000E+00  0.00000000E+00
  0.00000000E+00  0.00000000E+00  0.00000000E+00
  0.00000000E+00  0.00000000E+00  0.00000000E+00
  0.00000000E+00  0.00000000E+00  0.00000000E+00
  0.00000000E+00  0.00000000E+00  0.00000000E+00
  0.00000000E+00  0.00000000E+00  0.00000000E+00
  0.00000000E+00  0.00000000E+00  0.00000000E+00
  0.00000000E+00  0.00000000E+00  0.00000000E+00
  0.00000000E+00  0.00000000E+00  0.00000000E+00
  0.00000000E+00  0.00000000E+00  0.00000000E+00
  0.00000000E+00  0.00000000E+00  0.00000000E+00
  0.00000000E+00  0.00000000E+00  0.00000000E+00
  0.00000000E+00  0.00000000E+00  0.00000000E+00
  0.00000000E+00  0.00000000E+00  0.00000000E+00
  0.00000000E+00  0.00000000E+00  0.00000000E+00
  0.00000000E+00  0.00000000E+00  0.00000000E+00
  0.00000000E+00  0.00000000E+00  0.00000000E+00
  0.00000000E+00  0.00000000E+00  0.00000000E+00
  0.00000000E+00  0.00000000E+00  0.00000000E+00
  0.00000000E+00  0.00000000E+00  0.00000000E+00
  0.00000000E+00  0.00000000E+00  0.00000000E+00
  0.00000000E+00  0.00000000E+00  0.00000000E+00
  0.00000000E+00  0.00000000E+00  0.00000000E+00
  0.00000000E+00  0.00000000E+00  0.00000000E+00
  0.00000000E+00  0.00000000E+00  0.00000000E+00
  0.00000000E+00  0.00000000E+00  0.00000000E+00
  0.00000000E+00  0.00000000E+00  0.00000000E+00
  0.00000000E+00  0.00000000E+00  0.00000000E+00
  0.00000000E+00  0.00000000E+00  0.00000000E+00
  0.00000000E+00  0.00000000E+00  0.00000000E+00
  0.00000000E+00  0.00000000E+00  0.00000000E+00
  0.00000000E+00  0.00000000E+00  0.00000000E+00
  0.00000000E+00  0.00000000E+00  0.00000000E+00
  0.00000000E+00  0.00000000E+00  0.00000000E+00
  0.00000000E+00  0.00000000E+00  0.00000000E+00
  0.00000000E+00  0.00000000E+00  0.00000000E+00
  0.00000000E+00  0.00000000E+00  0.00000000E+00
  0.00000000E+00  0.00000000E+00  0.00000000E+00
  0.00000000E+00  0.00000000E+00  0.00000000E+00
  0.00000000E+00  0.00000000E+00  0.00000000E+00
  0.00000000E+00  0.00000000E+00  0.00000000E+00
  0.00000000E+00  0.00000000E+00  0.00000000E+00
  0.00000000E+00  0.00000000E+00  0.00000000E+00
  0.00000000E+00  0.00000000E+00  0.00000000E+00
  0.00000000E+00  0.00000000E+00  0.00000000E+00
  0.00000000E+00  0.00000000E+00  0.00000000E+00
  0.00000000E+00  0.00000000E+00  0.00000000E+00
  0.00000000E+00  0.00000000E+00  0.00000000E+00
  0.00000000E+00  0.00000000E+00  0.00000000E+00
  0.00000000E+00  0.00000000E+00  0.00000000E+00
  0.00000000E+00  0.00000000E+00  0.00000000E+00
  0.00000000E+00  0.00000000E+00  0.00000000E+00
  0.00000000E+00  0.00000000E+00  0.00000000E+00
  0.00000000E+00  0.00000000E+00  0.00000000E+00
  0.00000000E+00  0.00000000E+00  0.00000000E+00
  0.00000000E+00  0.00000000E+00  0.00000000E+00
  0.00000000E+00  0.00000000E+00  0.00000000E+00
  0.00000000E+00  0.00000000E+00  0.00000000E+00
  0.00000000E+00  0.00000000E+00  0.00000000E+00
  0.00000000E+00  0.00000000E+00  0.00000000E+00
  0.00000000E+00  0.00000000E+00  0.00000000E+00
  0.00000000E+00  0.00000000E+00  0.00000000E+00
  0.00000000E+00  0.00000000E+00  0.00000000E+00
  0.00000000E+00  0.00000000E+00  0.00000000E+00
  0.00000000E+00  0.00000000E+00  0.00000000E+00
  0.00000000E+00  0.00000000E+00  0.00000000E+00
  0.00000000E+00  0.00000000E+00  0.00000000E+00
  0.00000000E+00  0.00000000E+00  0.00000000E+00
  0.00000000E+00  0.00000000E+00  0.00000000E+00
  0.00000000E+00  0.00000000E+00  0.00000000E+00
  0.00000000E+00  0.00000000E+00  0.00000000E+00
  0.00000000E+00  0.00000000E+00  0.00000000E+00
  0.00000000E+00  0.00000000E+00  0.00000000E+00
  0.00000000E+00  0.00000000E+00  0.00000000E+00
  0.00000000E+00  0.00000000E+00  0.00000000E+00
  0.00000000E+00  0.00000000E+00  0.00000000E+00
  0.00000000E+00  0.00000000E+00  0.00000000E+00
  0.00000000E+00  0.00000000E+00  0.00000000E+00
  0.00000000E+00  0.00000000E+00  0.00000000E+00
  0.00000000E+00  0.00000000E+00  0.00000000E+00
  0.00000000E+00  0.00000000E+00  0.00000000E+00
  0.00000000E+00  0.00000000E+00  0.00000000E+00
  0.00000000E+00  0.00000000E+00  0.00000000E+00
  0.00000000E+00  0.00000000E+00  0.00000000E+00
  0.00000000E+00  0.00000000E+00  0.00000000E+00
  0.00000000E+00  0.00000000E+00  0.00000000E+00
  0.00000000E+00  0.00000000E+00  0.00000000E+00
  0.00000000E+00  0.00000000E+00  0.00000000E+00
  0.00000000E+00  0.00000000E+00  0.00000000E+00
  0.00000000E+00  0.00000000E+00  0.00000000E+00
  0.00000000E+00  0.00000000E+00  0.00000000E+00
  0.00000000E+00  0.00000000E+00  0.00000000E+00
  0.00000000E+00  0.00000000E+00  0.00000000E+00
  0.00000000E+00  0.00000000E+00  0.00000000E+00
  0.00000000E+00  0.00000000E+00  0.00000000E+00
  0.00000000E+00  0.00000000E+00  0.00000000E+00
  0.00000000E+00  0.00000000E+00  0.00000000E+00
  0.00000000E+00  0.00000000E+00  0.00000000E+00
  0.00000000E+00  0.00000000E+00  0.00000000E+00
  0.00000000E+00  0.00000000E+00  0.00000000E+00
  0.00000000E+00  0.00000000E+00  0.00000000E+00
  0.00000000E+00  0.00000000E+00  0.00000000E+00
  0.00000000E+00  0.00000000E+00  0.00000000E+00
  0.00000000E+00  0.00000000E+00  0.00000000E+00
  0.00000000E+00  0.00000000E+00  0.00000000E+00
  0.00000000E+00  0.00000000E+00  0.00000000E+00
  0.00000000E+00  0.00000000E+00  0.00000000E+00
  0.00000000E+00  0.00000000E+00  0.00000000E+00
  0.00000000E+00  0.00000000E+00  0.00000000E+00
  0.00000000E+00  0.00000000E+00  0.00000000E+00
  0.00000000E+00  0.00000000E+00  0.00000000E+00
  0.00000000E+00  0.00000000E+00  0.00000000E+00
  0.00000000E+00  0.00000000E+00  0.00000000E+00
  0.00000000E+00  0.00000000E+00  0.00000000E+00
  0.00000000E+00  0.00000000E+00  0.00000000E+00
  0.00000000E+00  0.00000000E+00  0.00000000E+00
  0.00000000E+00  0.00000000E+00  0.00000000E+00
  0.00000000E+00  0.00000000E+00  0.00000000E+00
  0.00000000E+00  0.00000000E+00  0.00000000E+00
  0.00000000E+00  0.00000000E+00  0.00000000E+00
  0.00000000E+00  0.00000000E+00  0.00000000E+00
  0.00000000E+00  0.00000000E+00  0.00000000E+00
  0.00000000E+00  0.00000000E+00  0.00000000E+00
  0.00000000E+00  0.00000000E+00  0.00000000E+00
  0.00000000E+00  0.00000000E+00  0.00000000E+00
  0.00000000E+00  0.00000000E+00  0.00000000E+00
  0.00000000E+00  0.00000000E+00  0.00000000E+00
  0.00000000E+00  0.00000000E+00  0.00000000E+00
  0.00000000E+00  0.00000000E+00  0.00000000E+00
  0.00000000E+00  0.00000000E+00  0.00000000E+00
  0.00000000E+00  0.00000000E+00  0.00000000E+00
  0.00000000E+00  0.00000000E+00  0.00000000E+00
  0.00000000E+00  0.00000000E+00  0.00000000E+00
  0.00000000E+00  0.00000000E+00  0.00000000E+00
  0.00000000E+00  0.00000000E+00  0.00000000E+00
  0.00000000E+00  0.00000000E+00  0.00000000E+00
  0.00000000E+00  0.00000000E+00  0.00000000E+00
  0.00000000E+00  0.00000000E+00  0.00000000E+00
  0.00000000E+00  0.00000000E+00  0.00000000E+00
  0.00000000E+00  0.00000000E+00  0.00000000E+00
  0.00000000E+00  0.00000000E+00  0.00000000E+00
  0.00000000E+00  0.00000000E+00  0.00000000E+00
  0.00000000E+00  0.00000000E+00  0.00000000E+00
  0.00000000E+00  0.00000000E+00  0.00000000E+00
  0.00000000E+00  0.00000000E+00  0.00000000E+00
  0.00000000E+00  0.00000000E+00  0.00000000E+00
  0.00000000E+00  0.00000000E+00  0.00000000E+00
  0.00000000E+00  0.00000000E+00  0.00000000E+00
  0.00000000E+00  0.00000000E+00  0.00000000E+00
  0.00000000E+00  0.00000000E+00  0.00000000E+00
  0.00000000E+00  0.00000000E+00  0.00000000E+00
  0.00000000E+00  0.00000000E+00  0.00000000E+00
  0.00000000E+00  0.00000000E+00  0.00000000E+00
  0.00000000E+00  0.00000000E+00  0.00000000E+00
  0.00000000E+00  0.00000000E+00  0.00000000E+00
  0.00000000E+00  0.00000000E+00  0.00000000E+00
  0.00000000E+00  0.00000000E+00  0.00000000E+00
  0.00000000E+00  0.00000000E+00  0.00000000E+00
  0.00000000E+00  0.00000000E+00  0.00000000E+00
  0.00000000E+00  0.00000000E+00  0.00000000E+00
  0.00000000E+00  0.00000000E+00  0.00000000E+00
  0.00000000E+00  0.00000000E+00  0.00000000E+00
  0.00000000E+00  0.00000000E+00  0.00000000E+00
  0.00000000E+00  0.00000000E+00  0.00000000E+00
  0.00000000E+00  0.00000000E+00  0.00000000E+00
  0.00000000E+00  0.00000000E+00  0.00000000E+00
  0.00000000E+00  0.00000000E+00  0.00000000E+00
  0.00000000E+00  0.00000000E+00  0.00000000E+00
  0.00000000E+00  0.00000000E+00  0.00000000E+00
  0.00000000E+00  0.00000000E+00  0.00000000E+00
  0.00000000E+00  0.00000000E+00  0.00000000E+00
  0.00000000E+00  0.00000000E+00  0.00000000E+00
  0.00000000E+00  0.00000000E+00  0.00000000E+00
