Li14 P14 N28
1.0
4.566748 0.000000 0.207237
2.277733 4.300526 0.227929
0.000000 0.000000 50.420923
Li P N
14 14 28
Selective dynamics
direct
0.570461 0.876693 0.982385 T T T Li
0.897384 0.242078 0.963154 T T T Li
0.878153 0.338232 0.905462 F F F Li
0.205076 0.703616 0.886231 F F F Li
0.185846 0.799770 0.828539 F F F Li
0.512769 0.165155 0.809308 F F F Li
0.493538 0.261308 0.751615 F F F Li
0.820461 0.626693 0.732385 F F F Li
0.801230 0.722847 0.674692 F F F Li
0.128153 0.088232 0.655462 F F F Li
0.108923 0.184385 0.597769 F F F Li
0.435846 0.549770 0.578539 F F F Li
0.416615 0.645924 0.520846 F F F Li
0.743538 0.011308 0.501615 T T T Li
0.224307 0.607462 0.943923 T T T P
0.551230 0.972847 0.924692 F F F P
0.532000 0.069001 0.867000 F F F P
0.858923 0.434385 0.847769 F F F P
0.839692 0.530539 0.790077 F F F P
0.166615 0.895924 0.770846 F F F P
0.147384 0.992078 0.713154 F F F P
0.474307 0.357462 0.693923 F F F P
0.455076 0.453616 0.636231 F F F P
0.782000 0.819001 0.617000 F F F P
0.762769 0.915155 0.559308 F F F P
0.089692 0.280539 0.540077 F F F P
0.070461 0.376693 0.482385 T T T P
0.397384 0.742078 0.463154 T T T P
0.631462 0.238692 0.998385 F F F N
0.336383 0.880079 0.947154 T T T N
0.554772 0.290155 0.934308 F F F N
0.066920 0.559385 0.972769 T T T N
0.939154 0.700230 0.921461 F F F N
0.644076 0.341618 0.870231 F F F N
0.862464 0.751693 0.857385 F F F N
0.374612 0.020924 0.895846 F F F N
0.246847 0.161768 0.844538 F F F N
0.951768 0.803156 0.793308 F F F N
0.170156 0.213232 0.780462 F F F N
0.682304 0.482462 0.818923 F F F N
0.554539 0.623307 0.767615 F F F N
0.259460 0.264695 0.716385 F F F N
0.477849 0.674770 0.703539 F F F N
0.989997 0.944001 0.742000 F F F N
0.862231 0.084845 0.690692 F F F N
0.567152 0.726233 0.639462 F F F N
0.785541 0.136308 0.626615 F F F N
0.297689 0.405539 0.665077 F F F N
0.169924 0.546384 0.613769 F F F N
0.874845 0.187772 0.562539 F F F N
0.093233 0.597847 0.549692 F F F N
0.605381 0.867078 0.588154 F F F N
0.477616 0.007922 0.536846 F F F N
0.182537 0.649310 0.485616 T T T N
0.400926 0.059385 0.472769 T T T N
0.913073 0.328616 0.511231 T T T N
