Li7 P2 N1 O7                            
   1.00000000000000     
     4.9873565864638891    0.0530528091194674   -0.0045177059864668
     0.0566969787853232    6.2459983620632658   -0.0819393574507058
    -0.0021991016603509   -0.0710845384765359    5.3788054146406106
   Li   P    N    O 
     7     2     1     7
Direct
  0.0080159937593603  0.5040196517682626  0.1482946213902979
  0.5125594423163407  0.7196783469348657  0.3409396682934280
  0.5009444920082440  0.2798690152266365  0.3188799311769359
  0.0285380799641331  0.7346360400312977  0.6822717688522945
  0.0323022597031256  0.2653494921128163  0.6886684974648316
  0.4545382805202692 -0.0662534283584077  0.9480337609915958
  0.6785330831108608  0.0091864654090607  0.5955314052963884
  0.5194871239226391  0.5125624017417409  0.8209073426621024
 -0.0022959672435262  0.0053321669564729  0.1881028825039711
  0.6114029581560310  0.7255351467476864  0.6963059089303755
  0.1078147717059258  0.2093790426480000  0.3240048436775086
  0.1203654108755209  0.7993018204930615  0.3045797189298367
  0.6170913844962391  0.4947745097054593  0.1023291067717803
  0.2022609940665040  0.4972133083241612  0.8338763143557965
  0.6853361474342304  0.0031579739106238  0.2286531218894680
  0.6197024047912181  0.2977379629143271  0.6793812778876387
  0.0715531404129097  0.0085200834339375  0.9067498289257504
 
  0.00000000E+00  0.00000000E+00  0.00000000E+00
  0.00000000E+00  0.00000000E+00  0.00000000E+00
  0.00000000E+00  0.00000000E+00  0.00000000E+00
  0.00000000E+00  0.00000000E+00  0.00000000E+00
  0.00000000E+00  0.00000000E+00  0.00000000E+00
  0.00000000E+00  0.00000000E+00  0.00000000E+00
  0.00000000E+00  0.00000000E+00  0.00000000E+00
  0.00000000E+00  0.00000000E+00  0.00000000E+00
  0.00000000E+00  0.00000000E+00  0.00000000E+00
  0.00000000E+00  0.00000000E+00  0.00000000E+00
  0.00000000E+00  0.00000000E+00  0.00000000E+00
  0.00000000E+00  0.00000000E+00  0.00000000E+00
  0.00000000E+00  0.00000000E+00  0.00000000E+00
  0.00000000E+00  0.00000000E+00  0.00000000E+00
  0.00000000E+00  0.00000000E+00  0.00000000E+00
  0.00000000E+00  0.00000000E+00  0.00000000E+00
  0.00000000E+00  0.00000000E+00  0.00000000E+00
