Li61 P7 N32                             
   1.00000000000000     
     0.0000913673714733    9.4882948269721155   -0.0091589545435979
    -0.0045782464564245   -0.0087675999951809    9.5558723688559670
     9.5367684443788185    0.0007413971983625   -0.0046179056713588
   Li   P    N 
    61     7    32
Direct
  0.4958559085713947  0.0009495032187999  0.4986780215143028
  0.0058865531172753  0.4993348602497770 -0.0027376370411955
  0.4961530930278129 -0.0112626458717497 -0.0014385099258126
  0.0001403038084394 -0.0013501783859946  0.5000016782591198
  0.4880298973298334  0.4847819961239738 -0.0062971876446113
  0.0051593486203041  0.4993814030841012  0.5014579080603674
  0.7478804891860450 -0.0055669482107337  0.4986912078240460
  0.2467401518459336 -0.0109690155354742  0.5013921655998308
  0.7669100733253360  0.4951281013099431  0.5000141612875919
  0.2346042501236629  0.5041547362041461  0.5062926382718035
  0.2615875524590521  0.0031815133408910 -0.0019547616819971
  0.7347542129673430 -0.0044663085492654 -0.0022841433911529
  0.6682613040551122  0.5749358300248283 -0.0890948407140735
  0.5150787971527584  0.2280849105829254 -0.0188176928656421
  0.4978966307548915  0.7468717465420252  0.0134189578107344
 -0.0238736733994196  0.4862027241701308  0.2632219424928893
 -0.0068578361059005  0.5100339593459066  0.7430627139402021
  0.2366374599109255  0.2121716651929914  0.2124722464271337
  0.2312126164809796  0.7896551044353716  0.7723511830078321
  0.2569411431141126  0.2917085022183916  0.7196268596062760
  0.2661411621956931  0.7210519068336942  0.2747747225707732
  0.7665789288035447  0.3011271393445624  0.3056635351782751
  0.7538600754769763  0.7037688800129519  0.7029382859883087
  0.7348243148107055  0.1963157357000099  0.8044022366959853
  0.7406092736127033  0.8011113657470875  0.1999995681827336
  0.9901817411400730  0.2419879504526461  0.2431035619558745
  0.9824015050416416  0.7504137524726071  0.7541581140377202
  0.2590735266634027  0.2255641191507952  0.4857469063774845
  0.2631532390849144  0.7497922468869419  0.5217581464217286
  0.7516885804833044  0.2249929146920061  0.5527210154485516
  0.7435630097012852  0.7589645458139405  0.4584492803614304
  0.7276509990684674  0.5535100888336099  0.2823612880346716
  0.8234353819076351  0.4048162188260865  0.9242813284680175
  0.1994483580200004  0.4726271320707222  0.2448883831124927
  0.2317615786630425  0.5423202214931818  0.7456530566226481
  0.5148873029774416  0.7476784611390260  0.2547657938307718
  0.5100584631079911  0.2523527143720760  0.7431745588907014
  0.2340529682932705  0.9729311931851762  0.2528509792693617
  0.2366908606250524  0.0323342747434911  0.7454611456450240
  0.2687578989379811  0.2456254905349776  0.9664025484483123
  0.2540109370809028  0.7654666331858493  0.0238828144771196
  0.7572010945456086  0.9558893283737525  0.7357974769839817
  0.7567004368863948  0.0417484822044812  0.2640574088550309
  0.7561333019334028  0.7754856989637687  0.9524642615136086
  0.7695583023182575  0.2126425323103101  0.0550927932311587
  0.0074650701660113  0.2493739351908804  0.7641201278945626
  0.0134314352581229  0.7435171126364610  0.2334765565431102
  0.5098871419768511  0.2537202889947806  0.2343593472199652
  0.4812819045352178  0.7337197943655528  0.7567353805679444
  0.0154637421605404  0.2597247031610509  0.0137012039190824
  0.0077805221769068  0.7394157666405128 -0.0176014780277533
  0.5130469462348933  0.2348732760918795  0.4960719980907202
  0.5021538302204080  0.7630564646282834  0.5072187422713322
  0.4838546026690329  0.5262843153753162  0.2269216699410655
  0.4864472077157163  0.4819841361779955  0.7556988926976034
 -0.0039535821998879 -0.0092029084599367  0.2608974204303867
 -0.0027827549648327  0.0027168677792646  0.7388255405726155
  0.3618302181533223  0.3709372161155329  0.3519775460720306
  0.7400835867808263  0.4534900260658966  0.7223070692829529
  0.8268069650600501  0.5899772441175575  0.0777913620466505
  0.6734667060232816  0.4212976895025110  0.0929910587267998
  0.5000515959418461  0.5022427873440058  0.4987994131949202
  0.0015284555253171 -0.0012842097427282 -0.0005963852878010
  0.2476661522689391  0.5046192477906249  0.0004726735635031
  0.0017149020098241  0.7482110177862208  0.4966525401792934
  0.0040962373597486  0.2490738770111559  0.5028466718691175
  0.4976915769073026  0.0007686594933956  0.2475058507318346
  0.4977319999481578 -0.0058756567241965  0.7492780089861050
  0.6032472253697680  0.5970432356078867  0.6027529990857072
  0.5962219021907382  0.4024879710700190  0.3868028257860770
  0.8972460266426771  0.8935370804337043  0.0969971911538167
  0.8971776142374577  0.1039438083743981  0.9014250603206356
  0.1057480051269585  0.9033321261589613  0.8924615584786919
  0.1048886669776322  0.0949043301594417  0.1069543515137066
  0.3921181619950224  0.6044469040729225  0.4023561879143349
  0.3944791011739982  0.3894173486735870  0.5880993317192753
  0.1095842060825440  0.3460090390286527  0.3936246852248519
  0.1025399756377128  0.6515963937987902  0.6075147305956181
  0.1099249302995959  0.1478118631602208  0.6046858813623056
  0.1112040534445551  0.8481750905936731  0.3968081217164589
  0.8914597867289916  0.1483423089618180  0.4070930253936263
  0.8882502092537846  0.8490118310414192  0.5913355880385835
  0.8681017025519729  0.3788504121648878  0.1312541803615568
  0.8638135244441714  0.6132204748100875  0.8676596557458658
  0.1453855916335454  0.6067128272222375  0.1050848669452910
  0.1535806290443309  0.4019727308586473  0.8875018042625492
  0.3948816757034660  0.8909633997411949  0.1536165157590714
  0.3997234224802532  0.1033399419772281  0.8495182406180534
  0.3911925768513876  0.1093934224598983  0.3457435386451321
  0.3862957717553300  0.8969098888533102  0.6478666676968307
  0.3407708696564284  0.3932226000959285  0.1103940637898388
  0.3505246987869132  0.6117924420890360  0.9018695302219679
  0.6106832957039400  0.0904203854966294  0.6481364195965005
  0.6086704573157886  0.9073949647493910  0.3518639399471292
  0.6318036782085144  0.6312046951437581  0.1170261892708256
  0.6278004069268602  0.3673330363904490  0.8809331467300422
  0.9051349044952488  0.3530793085599512  0.6067371579077775
  0.9030060211612924  0.6435054885668526  0.3910404826819490
  0.5998425204550835  0.1003934777835811  0.1411411129149936
  0.5965324080108614  0.8861410337246882  0.8494456156754862
 
  0.00000000E+00  0.00000000E+00  0.00000000E+00
  0.00000000E+00  0.00000000E+00  0.00000000E+00
  0.00000000E+00  0.00000000E+00  0.00000000E+00
  0.00000000E+00  0.00000000E+00  0.00000000E+00
  0.00000000E+00  0.00000000E+00  0.00000000E+00
  0.00000000E+00  0.00000000E+00  0.00000000E+00
  0.00000000E+00  0.00000000E+00  0.00000000E+00
  0.00000000E+00  0.00000000E+00  0.00000000E+00
  0.00000000E+00  0.00000000E+00  0.00000000E+00
  0.00000000E+00  0.00000000E+00  0.00000000E+00
  0.00000000E+00  0.00000000E+00  0.00000000E+00
  0.00000000E+00  0.00000000E+00  0.00000000E+00
  0.00000000E+00  0.00000000E+00  0.00000000E+00
  0.00000000E+00  0.00000000E+00  0.00000000E+00
  0.00000000E+00  0.00000000E+00  0.00000000E+00
  0.00000000E+00  0.00000000E+00  0.00000000E+00
  0.00000000E+00  0.00000000E+00  0.00000000E+00
  0.00000000E+00  0.00000000E+00  0.00000000E+00
  0.00000000E+00  0.00000000E+00  0.00000000E+00
  0.00000000E+00  0.00000000E+00  0.00000000E+00
  0.00000000E+00  0.00000000E+00  0.00000000E+00
  0.00000000E+00  0.00000000E+00  0.00000000E+00
  0.00000000E+00  0.00000000E+00  0.00000000E+00
  0.00000000E+00  0.00000000E+00  0.00000000E+00
  0.00000000E+00  0.00000000E+00  0.00000000E+00
  0.00000000E+00  0.00000000E+00  0.00000000E+00
  0.00000000E+00  0.00000000E+00  0.00000000E+00
  0.00000000E+00  0.00000000E+00  0.00000000E+00
  0.00000000E+00  0.00000000E+00  0.00000000E+00
  0.00000000E+00  0.00000000E+00  0.00000000E+00
  0.00000000E+00  0.00000000E+00  0.00000000E+00
  0.00000000E+00  0.00000000E+00  0.00000000E+00
  0.00000000E+00  0.00000000E+00  0.00000000E+00
  0.00000000E+00  0.00000000E+00  0.00000000E+00
  0.00000000E+00  0.00000000E+00  0.00000000E+00
  0.00000000E+00  0.00000000E+00  0.00000000E+00
  0.00000000E+00  0.00000000E+00  0.00000000E+00
  0.00000000E+00  0.00000000E+00  0.00000000E+00
  0.00000000E+00  0.00000000E+00  0.00000000E+00
  0.00000000E+00  0.00000000E+00  0.00000000E+00
  0.00000000E+00  0.00000000E+00  0.00000000E+00
  0.00000000E+00  0.00000000E+00  0.00000000E+00
  0.00000000E+00  0.00000000E+00  0.00000000E+00
  0.00000000E+00  0.00000000E+00  0.00000000E+00
  0.00000000E+00  0.00000000E+00  0.00000000E+00
  0.00000000E+00  0.00000000E+00  0.00000000E+00
  0.00000000E+00  0.00000000E+00  0.00000000E+00
  0.00000000E+00  0.00000000E+00  0.00000000E+00
  0.00000000E+00  0.00000000E+00  0.00000000E+00
  0.00000000E+00  0.00000000E+00  0.00000000E+00
  0.00000000E+00  0.00000000E+00  0.00000000E+00
  0.00000000E+00  0.00000000E+00  0.00000000E+00
  0.00000000E+00  0.00000000E+00  0.00000000E+00
  0.00000000E+00  0.00000000E+00  0.00000000E+00
  0.00000000E+00  0.00000000E+00  0.00000000E+00
  0.00000000E+00  0.00000000E+00  0.00000000E+00
  0.00000000E+00  0.00000000E+00  0.00000000E+00
  0.00000000E+00  0.00000000E+00  0.00000000E+00
  0.00000000E+00  0.00000000E+00  0.00000000E+00
  0.00000000E+00  0.00000000E+00  0.00000000E+00
  0.00000000E+00  0.00000000E+00  0.00000000E+00
  0.00000000E+00  0.00000000E+00  0.00000000E+00
  0.00000000E+00  0.00000000E+00  0.00000000E+00
  0.00000000E+00  0.00000000E+00  0.00000000E+00
  0.00000000E+00  0.00000000E+00  0.00000000E+00
  0.00000000E+00  0.00000000E+00  0.00000000E+00
  0.00000000E+00  0.00000000E+00  0.00000000E+00
  0.00000000E+00  0.00000000E+00  0.00000000E+00
  0.00000000E+00  0.00000000E+00  0.00000000E+00
  0.00000000E+00  0.00000000E+00  0.00000000E+00
  0.00000000E+00  0.00000000E+00  0.00000000E+00
  0.00000000E+00  0.00000000E+00  0.00000000E+00
  0.00000000E+00  0.00000000E+00  0.00000000E+00
  0.00000000E+00  0.00000000E+00  0.00000000E+00
  0.00000000E+00  0.00000000E+00  0.00000000E+00
  0.00000000E+00  0.00000000E+00  0.00000000E+00
  0.00000000E+00  0.00000000E+00  0.00000000E+00
  0.00000000E+00  0.00000000E+00  0.00000000E+00
  0.00000000E+00  0.00000000E+00  0.00000000E+00
  0.00000000E+00  0.00000000E+00  0.00000000E+00
  0.00000000E+00  0.00000000E+00  0.00000000E+00
  0.00000000E+00  0.00000000E+00  0.00000000E+00
  0.00000000E+00  0.00000000E+00  0.00000000E+00
  0.00000000E+00  0.00000000E+00  0.00000000E+00
  0.00000000E+00  0.00000000E+00  0.00000000E+00
  0.00000000E+00  0.00000000E+00  0.00000000E+00
  0.00000000E+00  0.00000000E+00  0.00000000E+00
  0.00000000E+00  0.00000000E+00  0.00000000E+00
  0.00000000E+00  0.00000000E+00  0.00000000E+00
  0.00000000E+00  0.00000000E+00  0.00000000E+00
  0.00000000E+00  0.00000000E+00  0.00000000E+00
  0.00000000E+00  0.00000000E+00  0.00000000E+00
  0.00000000E+00  0.00000000E+00  0.00000000E+00
  0.00000000E+00  0.00000000E+00  0.00000000E+00
  0.00000000E+00  0.00000000E+00  0.00000000E+00
  0.00000000E+00  0.00000000E+00  0.00000000E+00
  0.00000000E+00  0.00000000E+00  0.00000000E+00
  0.00000000E+00  0.00000000E+00  0.00000000E+00
  0.00000000E+00  0.00000000E+00  0.00000000E+00
  0.00000000E+00  0.00000000E+00  0.00000000E+00
