Li42 P14 O56
1.0
5.296402 0.000000 -4.922448
0.000000 6.176136 -4.922448
0.000000 0.000000 68.914272
Li P O
42 14 56
Selective dynamics
direct
0.844520 0.000000 0.027864 T T T Li+
0.155480 0.500000 0.050076 T T T Li+
0.326434 0.747127 0.044149 T T T Li+
0.673566 0.752873 0.033640 T T T Li+
0.673566 0.247127 0.068944 T T T Li+
0.326434 0.252873 0.008845 T T T Li+
0.844520 0.000000 0.099293 F F F Li+
0.155480 0.500000 0.121504 F F F Li+
0.326434 0.747127 0.115578 F F F Li+
0.673566 0.752873 0.105069 F F F Li+
0.673566 0.247127 0.140373 F F F Li+
0.326434 0.252873 0.080274 F F F Li+
0.844520 0.000000 0.170721 F F F Li+
0.155480 0.500000 0.192933 F F F Li+
0.326434 0.747127 0.187006 F F F Li+
0.673566 0.752873 0.176498 F F F Li+
0.673566 0.247127 0.211801 F F F Li+
0.326434 0.252873 0.151702 F F F Li+
0.844520 0.000000 0.242150 F F F Li+
0.155480 0.500000 0.264361 F F F Li+
0.326434 0.747127 0.258435 F F F Li+
0.673566 0.752873 0.247926 F F F Li+
0.673566 0.247127 0.283230 F F F Li+
0.326434 0.252873 0.223131 F F F Li+
0.844520 0.000000 0.313579 F F F Li+
0.155480 0.500000 0.335790 F F F Li+
0.326434 0.747127 0.329863 F F F Li+
0.673566 0.752873 0.319355 F F F Li+
0.673566 0.247127 0.354658 F F F Li+
0.326434 0.252873 0.294560 F F F Li+
0.844520 0.000000 0.385007 F F F Li+
0.155480 0.500000 0.407219 F F F Li+
0.326434 0.747127 0.401292 F F F Li+
0.673566 0.752873 0.390783 F F F Li+
0.673566 0.247127 0.426087 T T T Li+
0.326434 0.252873 0.365988 F F F Li+
0.844520 0.000000 0.456436 T T T Li+
0.155480 0.500000 0.478647 T T T Li+
0.326434 0.747127 0.472720 T T T Li+
0.673566 0.752873 0.462212 T T T Li+
0.673566 0.247127 0.497516 T T T Li+
0.326434 0.252873 0.437417 T T T Li+
0.824261 0.500000 0.061560 T T T P5+
0.175739 0.000000 0.015237 T T T P5+
0.824261 0.500000 0.132989 F F F P5+
0.175739 0.000000 0.086666 F F F P5+
0.824261 0.500000 0.204417 F F F P5+
0.175739 0.000000 0.158094 F F F P5+
0.824261 0.500000 0.275846 F F F P5+
0.175739 0.000000 0.229523 F F F P5+
0.824261 0.500000 0.347275 T T T P5+
0.175739 0.000000 0.300952 F F F P5+
0.824261 0.500000 0.418703 F F F P5+
0.175739 0.000000 0.372380 F F F P5+
0.824261 0.500000 0.490132 T T T P5+
0.175739 0.000000 0.443809 T T T P5+
0.313509 0.207138 0.047416 T T T O2-
0.103508 0.500000 0.017271 T T T O2-
0.818396 0.500000 0.038554 F F F O2-
0.181604 0.000000 0.064497 F F F O2-
0.686491 0.707138 0.002629 F F F O2-
0.313509 0.792862 0.017825 T T T O2-
0.896492 0.000000 0.002484 T T T O2-
0.686491 0.292862 0.044466 F F F O2-
0.313509 0.207138 0.118844 F F F O2-
0.103508 0.500000 0.088700 F F F O2-
0.818396 0.500000 0.109982 F F F O2-
0.181604 0.000000 0.135926 F F F O2-
0.686491 0.707138 0.074057 F F F O2-
0.313509 0.792862 0.089253 F F F O2-
0.896492 0.000000 0.073913 F F F O2-
0.686491 0.292862 0.115895 F F F O2-
0.313509 0.207138 0.190273 F F F O2-
0.103508 0.500000 0.160128 F F F O2-
0.818396 0.500000 0.181411 F F F O2-
0.181604 0.000000 0.207354 F F F O2-
0.686491 0.707138 0.145486 F F F O2-
0.313509 0.792862 0.160682 F F F O2-
0.896492 0.000000 0.145341 F F F O2-
0.686491 0.292862 0.187323 F F F O2-
0.313509 0.207138 0.261701 F F F O2-
0.103508 0.500000 0.231557 F F F O2-
0.818396 0.500000 0.252839 F F F O2-
0.181604 0.000000 0.278783 F F F O2-
0.686491 0.707138 0.216914 F F F O2-
0.313509 0.792862 0.232110 F F F O2-
0.896492 0.000000 0.216770 F F F O2-
0.686491 0.292862 0.258752 F F F O2-
0.313509 0.207138 0.333130 F F F O2-
0.103508 0.500000 0.302985 F F F O2-
0.818396 0.500000 0.324268 F F F O2-
0.181604 0.000000 0.350211 F F F O2-
0.686491 0.707138 0.288343 F F F O2-
0.313509 0.792862 0.303539 F F F O2-
0.896492 0.000000 0.288199 F F F O2-
0.686491 0.292862 0.330180 F F F O2-
0.313509 0.207138 0.404559 F F F O2-
0.103508 0.500000 0.374414 F F F O2-
0.818396 0.500000 0.395696 F F F O2-
0.181604 0.000000 0.421640 F F F O2-
0.686491 0.707138 0.359772 F F F O2-
0.313509 0.792862 0.374967 F F F O2-
0.896492 0.000000 0.359627 F F F O2-
0.686491 0.292862 0.401609 F F F O2-
0.313509 0.207138 0.475987 T T T O2-
0.103508 0.500000 0.445843 T T T O2-
0.818396 0.500000 0.467125 T T T O2-
0.181604 0.000000 0.493068 T T T O2-
0.686491 0.707138 0.431200 T T T O2-
0.313509 0.792862 0.446396 F F F O2-
0.896492 0.000000 0.431056 T T T O2-
0.686491 0.292862 0.473038 T T T O2-
