Li71 P24 N1 O94                         
   1.00000000000000     
    14.7209022023970029    0.0124689051151902    0.0050639722022472
     0.0089368326265918   10.5597407437930535   -0.0115900606805588
     0.0042076129972333   -0.0135179008088492   12.3499659854873212
   Li   P    N    O 
    71    24     1    94
Direct
  0.1683713319976565  0.4267421585137310 -0.0048745520159301
  0.1707578673336304  0.4228970468429553  0.5028908766123876
  0.1684900101955792  0.9234938492990468 -0.0014704788253833
  0.1682205506902189  0.9194785752583540  0.5031248448827418
  0.5038345750394506  0.4223851292574439 -0.0008854691739407
  0.5045316842099092  0.4227263545926062  0.5016495478222917
  0.5042620457987933  0.9226042036960962 -0.0009436614524694
  0.5050535787662455  0.9219414420616507  0.5012217473167189
  0.8363993156072476  0.4227850056496114 -0.0001712935726711
  0.8369735316342887  0.4223592126647250  0.4997547255174373
  0.8360860001145868  0.9249425900249857  0.0005164842741142
  0.8357017087094289  0.9241079742321368  0.4997337065997289
  0.0004923948386665  0.0735920071345681  0.7503188883969312
  0.0010223102327939  0.5846283597756055  0.2499371250680605
  0.0021990388006565  0.5781566677546442  0.7498448393810911
  0.3695949304068792  0.0845357258331108  0.2505646244589365
  0.3366431718748403  0.0772194295162065  0.7505988472025035
  0.3371117291238368  0.5784422525736005  0.2496934368897735
  0.3371172979026353  0.5777054916076885  0.7500753967661242
  0.6790176856832065  0.0754500633358489  0.2501934583078303
  0.6701191046584690  0.0770790066462822  0.7502122451276995
  0.6699635823209581  0.5789258854424965  0.2501603207448105
  0.6699956102568296  0.5775490530380701  0.7500411845448975
  0.1634933833151146  0.1806704977208337  0.1113676068033373
  0.1682492276560899  0.1608536003011237  0.6280842968160735
  0.1680175113059088  0.6617821264236166  0.1216947260973716
  0.1694236869671962  0.6623655409118060  0.6270225334798256
  0.5076741435087451  0.1647204334432680  0.1241861805843102
  0.5031301088075395  0.1631528508848834  0.6273305447414572
  0.5035784812027195  0.6618587774665531  0.1257413479655954
  0.5035304528076906  0.6633450531330795  0.6271594369802357
  0.8396439575778124  0.1625369869222911  0.1281051118090970
  0.8360419802853594  0.1636426183011948  0.6274354661555614
  0.8350109522775400  0.6647674883887386  0.1260795993977481
  0.8361411126181664  0.6632024321248754  0.6263888111713825
 -0.0000706820660858  0.3359131501854546  0.1234121384525540
  0.0030020984017908  0.3352959966113949  0.6241921490024795
 -0.0028173324541475  0.8434463302017006  0.1223798690551271
  0.0022104975375094  0.8366415024965582  0.6241053368896170
  0.3375492892410311  0.3391313579242358  0.1219217067983137
  0.3359973762087023  0.3362635743538291  0.6245982155355223
  0.3398521201091159  0.8358253615075665  0.1225076516475781
  0.3372413794149995  0.8363481430819089  0.6245108650071153
  0.6707124857450745  0.3371374432201696  0.1238620634291292
  0.6699669343532954  0.3364176477537207  0.6243135959248184
  0.6689212205830454  0.8343574946544441  0.1214623648400328
  0.6697687191773989  0.8362371223859961  0.6239481365777388
  0.0023700804537996  0.3349265806482568  0.3744184387197120
  0.0024967934813674  0.3354223758029812  0.8748486355456994
 -0.0028918451084465  0.8423276347373442  0.3778749634081043
  0.0023076286494785  0.8374029813784067  0.8765274091934074
  0.3411253278226548  0.3361433022390372  0.3816179588518578
  0.3358166905961212  0.3371625580141863  0.8760729292480129
  0.3401766457685754  0.8349265363308056  0.3778237512541876
  0.3369318158260232  0.8367284054372702  0.8762818015511354
  0.6706955201192817  0.3368495085177122  0.3765065921325625
  0.6699335434971538  0.3362878685826318  0.8756200196010286
  0.6690206810424763  0.8341382731254038  0.3782713964414580
  0.6696295626601738  0.8362191773117609  0.8763453249265468
  0.1622219354034730  0.1640949927470283  0.3867834359841117
  0.1681261001292591  0.1619013429092581  0.8716019892400253
  0.1686205425231942  0.6574818078496492  0.3754234153772210
  0.1690368387476126  0.6637192988744901  0.8724853870453777
  0.5080718545976808  0.1641829291784331  0.3765644899623592
  0.5031119656321948  0.1636737989102904  0.8733510181627733
  0.5037133111154042  0.6619381684694441  0.3746651817075299
  0.5037763214959833  0.6633642402449200  0.8733671530622320
  0.8405830595715347  0.1625147291828573  0.3726773981000772
  0.8362605864803939  0.1638778780365988  0.8736106115862898
  0.8353845494212943  0.6644104452575281  0.3741269422583517
  0.8356036054702163  0.6638147210701857  0.8736172534861364
  0.1668183972039947  0.4162865454318807  0.2443341141730746
  0.1669669121941031  0.4118122340819157  0.7498883937117830
  0.1647655278236303  0.8977061429363871  0.2505210019908668
  0.1678076831138326  0.9105497562224503  0.7504345089399076
  0.5001719094027625  0.4121457622659394  0.2504394315119091
  0.5005430871893360  0.4120423334411453  0.7501316805393686
  0.5008106638227875  0.9100724460733330  0.2500144039110779
  0.5007073786327898  0.9124309561635355  0.7503217614067891
  0.8330424236489324  0.4139628153634545  0.2499836308791347
  0.8334976279615608  0.4129243998407176  0.7498748363038377
  0.8275949369231618  0.9119963944898826  0.2500194981884041
  0.8324915355648060  0.9116076272239185  0.7502298715711203
  0.0010144345135881  0.0906435446158171 -0.0045066313585009
  0.0002669995542138  0.0892530538591540  0.5055020339176062
 -0.0005704186256104  0.5892347446812457 -0.0010878126527634
  0.0004113326400726  0.5882923320282483  0.5004602376052224
  0.3344502255471060  0.0879506297993954  0.0011720772656282
  0.3348176062919657  0.0854286751305480  0.5002675121897220
  0.3347093575601237  0.5882599039388865 -0.0011802961162053
  0.3348191298450466  0.5874963628942053  0.5010562931421139
  0.6669391872564532  0.0879421510471921 -0.0009150121636420
  0.6670712621906286  0.0877802396156428  0.5013287115564949
  0.6667309916881254  0.5866273236219397 -0.0006817165417580
  0.6670342065802379  0.5868122442481689  0.5009520894357119
  0.1981931839642528  0.3364094500986873  0.3505943214388160
  0.0380352961570998  0.1653616423044179  0.4092303061937382
  0.0338005066892722  0.1533693576407565  0.8873590955889761
  0.0356028825137654  0.6586721599214499  0.3975077991154302
  0.0350278784043545  0.6576142143650698  0.8950863990975674
  0.3705137463790243  0.1551789294188874  0.3967421440811087
  0.3688039916250385  0.1575299617764080  0.8977404544286506
  0.3701248725821536  0.6552998289721228  0.3969753507791884
  0.3704625746806910  0.6574596251165921  0.8957158417407021
  0.7013627601928577  0.1573400039063307  0.3979776083761661
  0.7020791927796264  0.1565924511468053  0.8954022497149019
  0.7019290056626220  0.6553206378261943  0.3972539639017245
  0.7017701902063388  0.6560771551200956  0.8959336278109452
  0.2019954014810477  0.0503704909141535  0.7502998340104262
  0.2013453944812495  0.5564817895124191  0.2458122766397119
  0.2017684977700427  0.5513690251180127  0.7498700852867700
  0.5295971537445997  0.0527180187495071  0.2501594350063029
  0.5339752499254535  0.0525924120982687  0.7503230239464916
  0.5330992838895441  0.5523945601495341  0.2503534777057539
  0.5341200682784465  0.5520618571627481  0.7500715911337287
  0.8493564101954415  0.0542391984623580  0.2502560349653528
  0.8650332568465101  0.0518569392945096  0.7503828491621994
  0.8663328427447482  0.5543655759926744  0.2499349502676287
  0.8668677344826001  0.5531114702998479  0.7500429617569930
  0.0610328369970308  0.4151586469153067  0.2474081817472577
  0.0613327799628632  0.4107150827113679  0.7497530516953498
  0.0613860998780101  0.8874918660428137  0.2503931719979643
  0.0622323180845906  0.9066385655190241  0.7502470105582586
  0.3940595586919157  0.4081123857037865  0.2509218145671550
  0.3946686138611927  0.4090172340918757  0.7502266877555981
  0.3946507975561350  0.9060992681196606  0.2502532737286425
  0.3948487300826136  0.9097259764099148  0.7504484713922581
  0.7271082059366645  0.4108705714272834  0.2504316080832102
  0.7276400847621523  0.4097995488125223  0.7499732095170994
  0.7217883762311569  0.8975339935664669  0.2499982315950497
  0.7266587544626417  0.9077197170004726  0.7502061101244675
  0.2284437761678177  0.0908733712143942  0.0026814278474661
  0.2289356043925695  0.0855501343949988  0.4990381509798983
  0.2288954756365834  0.5921378667120236 -0.0022448988980412
  0.2290271459015157  0.5905233198805090  0.5010860683915058
  0.5608818144416359  0.0904043530401297 -0.0014939899310486
  0.5610237039970863  0.0901830338974135  0.5018771651813571
  0.5608318820619582  0.5898732894233066 -0.0006681566605913
  0.5611164947920599  0.5903440092707096  0.5010147587691480
  0.8951189810971738  0.0921414052500972 -0.0013009767868058
  0.8944015026976360  0.0906183683168215  0.5026871696914913
  0.8936509995882227  0.5920966477470295 -0.0005375297530557
  0.8945770101956273  0.5911224442078342  0.5002179315450522
  0.2030027770612063  0.3508427746739934  0.1387424191125675
  0.2022776366988693  0.3414617476991421  0.6466049793289737
  0.2071427232874931  0.8429807961196901  0.1444604124662196
  0.2036039124684307  0.8412444901942588  0.6468479736427752
  0.5354829834764088  0.3434665754747206  0.1465125475522069
  0.5357902046592212  0.3426690280050183  0.6464354982953761
  0.5356078126544420  0.8424881533876115  0.1457513773806187
  0.5359718065485034  0.8430386557937004  0.6466889364694467
  0.8677265120564321  0.3454024125292534  0.1457627943651932
  0.8688393385929798  0.3440015849488124  0.6460678898286502
  0.8657292899751202  0.8449499852985911  0.1462106528513224
  0.8683017540685245  0.8427539205514262  0.6465193818022665
  0.0395677291926975  0.1675990534731369  0.0910892251139190
  0.0335650291728337  0.1527509216812459  0.6131878774404637
  0.0348725734024084  0.6595895081653663  0.1019335354325705
  0.0356001559803646  0.6570527715021854  0.6045123911915559
  0.3699874211572412  0.1572019348834086  0.1051376157313859
  0.3685460769438945  0.1561413486512056  0.6036583774875480
  0.3698798276439788  0.6564019532526234  0.1030256151833408
  0.3700113807315723  0.6571807412624511  0.6043564969737628
  0.7011135296277753  0.1575043971775625  0.1026878870995104
  0.7020252350419650  0.1564775506107739  0.6052631414644645
  0.7015463600508351  0.6553561583792954  0.1031408640972677
  0.7021822669242404  0.6562807867519068  0.6044457951846398
  0.0333069271833133  0.4491871910016511 -0.0009920145316447
  0.0345906743938462  0.4483157455282349  0.4998350084551051
  0.0346238300017696  0.9499141609326651 -0.0008153644849452
  0.0343182046304188  0.9486456650283815  0.5015501686360001
  0.3682578098575339  0.4480381735063388 -0.0013112643964416
  0.3688115043012890  0.4474044829411165  0.5019654763149178
  0.3684848635784992  0.9481961785819759  0.0004205249229245
  0.3699985127676979  0.9462489503210793  0.5004642643193062
  0.7002869371198482  0.4465149035841807 -0.0008847080015820
  0.7004102416604401  0.4466098236658881  0.5009570438360474
  0.7002812078473327  0.9476667456085200 -0.0006893898983140
  0.7002132445146428  0.9473828284233959  0.5007956112766843
  0.2018719460098460  0.3424570704134224  0.8536421545081684
  0.2072584746977663  0.8404048154724404  0.3552839012570929
  0.2033348120968680  0.8424260101859424  0.8544015847519625
  0.5354905827872198  0.3434504887292062  0.3541465756924969
  0.5358007010207789  0.3429460465515033  0.8536243754969430
  0.5358406984024853  0.8423383296127444  0.3538044988855347
  0.5358568945249294  0.8433174371646575  0.8538467185272102
  0.8686079916942832  0.3453038879526737  0.3534113580840094
  0.8686805983259578  0.3440545780936871  0.8534757587046619
  0.8656582976673508  0.8447193394871327  0.3534845079499874
  0.8682201096459552  0.8431288526800053  0.8538491826210318
 
  0.00000000E+00  0.00000000E+00  0.00000000E+00
  0.00000000E+00  0.00000000E+00  0.00000000E+00
  0.00000000E+00  0.00000000E+00  0.00000000E+00
  0.00000000E+00  0.00000000E+00  0.00000000E+00
  0.00000000E+00  0.00000000E+00  0.00000000E+00
  0.00000000E+00  0.00000000E+00  0.00000000E+00
  0.00000000E+00  0.00000000E+00  0.00000000E+00
  0.00000000E+00  0.00000000E+00  0.00000000E+00
  0.00000000E+00  0.00000000E+00  0.00000000E+00
  0.00000000E+00  0.00000000E+00  0.00000000E+00
  0.00000000E+00  0.00000000E+00  0.00000000E+00
  0.00000000E+00  0.00000000E+00  0.00000000E+00
  0.00000000E+00  0.00000000E+00  0.00000000E+00
  0.00000000E+00  0.00000000E+00  0.00000000E+00
  0.00000000E+00  0.00000000E+00  0.00000000E+00
  0.00000000E+00  0.00000000E+00  0.00000000E+00
  0.00000000E+00  0.00000000E+00  0.00000000E+00
  0.00000000E+00  0.00000000E+00  0.00000000E+00
  0.00000000E+00  0.00000000E+00  0.00000000E+00
  0.00000000E+00  0.00000000E+00  0.00000000E+00
  0.00000000E+00  0.00000000E+00  0.00000000E+00
  0.00000000E+00  0.00000000E+00  0.00000000E+00
  0.00000000E+00  0.00000000E+00  0.00000000E+00
  0.00000000E+00  0.00000000E+00  0.00000000E+00
  0.00000000E+00  0.00000000E+00  0.00000000E+00
  0.00000000E+00  0.00000000E+00  0.00000000E+00
  0.00000000E+00  0.00000000E+00  0.00000000E+00
  0.00000000E+00  0.00000000E+00  0.00000000E+00
  0.00000000E+00  0.00000000E+00  0.00000000E+00
  0.00000000E+00  0.00000000E+00  0.00000000E+00
  0.00000000E+00  0.00000000E+00  0.00000000E+00
  0.00000000E+00  0.00000000E+00  0.00000000E+00
  0.00000000E+00  0.00000000E+00  0.00000000E+00
  0.00000000E+00  0.00000000E+00  0.00000000E+00
  0.00000000E+00  0.00000000E+00  0.00000000E+00
  0.00000000E+00  0.00000000E+00  0.00000000E+00
  0.00000000E+00  0.00000000E+00  0.00000000E+00
  0.00000000E+00  0.00000000E+00  0.00000000E+00
  0.00000000E+00  0.00000000E+00  0.00000000E+00
  0.00000000E+00  0.00000000E+00  0.00000000E+00
  0.00000000E+00  0.00000000E+00  0.00000000E+00
  0.00000000E+00  0.00000000E+00  0.00000000E+00
  0.00000000E+00  0.00000000E+00  0.00000000E+00
  0.00000000E+00  0.00000000E+00  0.00000000E+00
  0.00000000E+00  0.00000000E+00  0.00000000E+00
  0.00000000E+00  0.00000000E+00  0.00000000E+00
  0.00000000E+00  0.00000000E+00  0.00000000E+00
  0.00000000E+00  0.00000000E+00  0.00000000E+00
  0.00000000E+00  0.00000000E+00  0.00000000E+00
  0.00000000E+00  0.00000000E+00  0.00000000E+00
  0.00000000E+00  0.00000000E+00  0.00000000E+00
  0.00000000E+00  0.00000000E+00  0.00000000E+00
  0.00000000E+00  0.00000000E+00  0.00000000E+00
  0.00000000E+00  0.00000000E+00  0.00000000E+00
  0.00000000E+00  0.00000000E+00  0.00000000E+00
  0.00000000E+00  0.00000000E+00  0.00000000E+00
  0.00000000E+00  0.00000000E+00  0.00000000E+00
  0.00000000E+00  0.00000000E+00  0.00000000E+00
  0.00000000E+00  0.00000000E+00  0.00000000E+00
  0.00000000E+00  0.00000000E+00  0.00000000E+00
  0.00000000E+00  0.00000000E+00  0.00000000E+00
  0.00000000E+00  0.00000000E+00  0.00000000E+00
  0.00000000E+00  0.00000000E+00  0.00000000E+00
  0.00000000E+00  0.00000000E+00  0.00000000E+00
  0.00000000E+00  0.00000000E+00  0.00000000E+00
  0.00000000E+00  0.00000000E+00  0.00000000E+00
  0.00000000E+00  0.00000000E+00  0.00000000E+00
  0.00000000E+00  0.00000000E+00  0.00000000E+00
  0.00000000E+00  0.00000000E+00  0.00000000E+00
  0.00000000E+00  0.00000000E+00  0.00000000E+00
  0.00000000E+00  0.00000000E+00  0.00000000E+00
  0.00000000E+00  0.00000000E+00  0.00000000E+00
  0.00000000E+00  0.00000000E+00  0.00000000E+00
  0.00000000E+00  0.00000000E+00  0.00000000E+00
  0.00000000E+00  0.00000000E+00  0.00000000E+00
  0.00000000E+00  0.00000000E+00  0.00000000E+00
  0.00000000E+00  0.00000000E+00  0.00000000E+00
  0.00000000E+00  0.00000000E+00  0.00000000E+00
  0.00000000E+00  0.00000000E+00  0.00000000E+00
  0.00000000E+00  0.00000000E+00  0.00000000E+00
  0.00000000E+00  0.00000000E+00  0.00000000E+00
  0.00000000E+00  0.00000000E+00  0.00000000E+00
  0.00000000E+00  0.00000000E+00  0.00000000E+00
  0.00000000E+00  0.00000000E+00  0.00000000E+00
  0.00000000E+00  0.00000000E+00  0.00000000E+00
  0.00000000E+00  0.00000000E+00  0.00000000E+00
  0.00000000E+00  0.00000000E+00  0.00000000E+00
  0.00000000E+00  0.00000000E+00  0.00000000E+00
  0.00000000E+00  0.00000000E+00  0.00000000E+00
  0.00000000E+00  0.00000000E+00  0.00000000E+00
  0.00000000E+00  0.00000000E+00  0.00000000E+00
  0.00000000E+00  0.00000000E+00  0.00000000E+00
  0.00000000E+00  0.00000000E+00  0.00000000E+00
  0.00000000E+00  0.00000000E+00  0.00000000E+00
  0.00000000E+00  0.00000000E+00  0.00000000E+00
  0.00000000E+00  0.00000000E+00  0.00000000E+00
  0.00000000E+00  0.00000000E+00  0.00000000E+00
  0.00000000E+00  0.00000000E+00  0.00000000E+00
  0.00000000E+00  0.00000000E+00  0.00000000E+00
  0.00000000E+00  0.00000000E+00  0.00000000E+00
  0.00000000E+00  0.00000000E+00  0.00000000E+00
  0.00000000E+00  0.00000000E+00  0.00000000E+00
  0.00000000E+00  0.00000000E+00  0.00000000E+00
  0.00000000E+00  0.00000000E+00  0.00000000E+00
  0.00000000E+00  0.00000000E+00  0.00000000E+00
  0.00000000E+00  0.00000000E+00  0.00000000E+00
  0.00000000E+00  0.00000000E+00  0.00000000E+00
  0.00000000E+00  0.00000000E+00  0.00000000E+00
  0.00000000E+00  0.00000000E+00  0.00000000E+00
  0.00000000E+00  0.00000000E+00  0.00000000E+00
  0.00000000E+00  0.00000000E+00  0.00000000E+00
  0.00000000E+00  0.00000000E+00  0.00000000E+00
  0.00000000E+00  0.00000000E+00  0.00000000E+00
  0.00000000E+00  0.00000000E+00  0.00000000E+00
  0.00000000E+00  0.00000000E+00  0.00000000E+00
  0.00000000E+00  0.00000000E+00  0.00000000E+00
  0.00000000E+00  0.00000000E+00  0.00000000E+00
  0.00000000E+00  0.00000000E+00  0.00000000E+00
  0.00000000E+00  0.00000000E+00  0.00000000E+00
  0.00000000E+00  0.00000000E+00  0.00000000E+00
  0.00000000E+00  0.00000000E+00  0.00000000E+00
  0.00000000E+00  0.00000000E+00  0.00000000E+00
  0.00000000E+00  0.00000000E+00  0.00000000E+00
  0.00000000E+00  0.00000000E+00  0.00000000E+00
  0.00000000E+00  0.00000000E+00  0.00000000E+00
  0.00000000E+00  0.00000000E+00  0.00000000E+00
  0.00000000E+00  0.00000000E+00  0.00000000E+00
  0.00000000E+00  0.00000000E+00  0.00000000E+00
  0.00000000E+00  0.00000000E+00  0.00000000E+00
  0.00000000E+00  0.00000000E+00  0.00000000E+00
  0.00000000E+00  0.00000000E+00  0.00000000E+00
  0.00000000E+00  0.00000000E+00  0.00000000E+00
  0.00000000E+00  0.00000000E+00  0.00000000E+00
  0.00000000E+00  0.00000000E+00  0.00000000E+00
  0.00000000E+00  0.00000000E+00  0.00000000E+00
  0.00000000E+00  0.00000000E+00  0.00000000E+00
  0.00000000E+00  0.00000000E+00  0.00000000E+00
  0.00000000E+00  0.00000000E+00  0.00000000E+00
  0.00000000E+00  0.00000000E+00  0.00000000E+00
  0.00000000E+00  0.00000000E+00  0.00000000E+00
  0.00000000E+00  0.00000000E+00  0.00000000E+00
  0.00000000E+00  0.00000000E+00  0.00000000E+00
  0.00000000E+00  0.00000000E+00  0.00000000E+00
  0.00000000E+00  0.00000000E+00  0.00000000E+00
  0.00000000E+00  0.00000000E+00  0.00000000E+00
  0.00000000E+00  0.00000000E+00  0.00000000E+00
  0.00000000E+00  0.00000000E+00  0.00000000E+00
  0.00000000E+00  0.00000000E+00  0.00000000E+00
  0.00000000E+00  0.00000000E+00  0.00000000E+00
  0.00000000E+00  0.00000000E+00  0.00000000E+00
  0.00000000E+00  0.00000000E+00  0.00000000E+00
  0.00000000E+00  0.00000000E+00  0.00000000E+00
  0.00000000E+00  0.00000000E+00  0.00000000E+00
  0.00000000E+00  0.00000000E+00  0.00000000E+00
  0.00000000E+00  0.00000000E+00  0.00000000E+00
  0.00000000E+00  0.00000000E+00  0.00000000E+00
  0.00000000E+00  0.00000000E+00  0.00000000E+00
  0.00000000E+00  0.00000000E+00  0.00000000E+00
  0.00000000E+00  0.00000000E+00  0.00000000E+00
  0.00000000E+00  0.00000000E+00  0.00000000E+00
  0.00000000E+00  0.00000000E+00  0.00000000E+00
  0.00000000E+00  0.00000000E+00  0.00000000E+00
  0.00000000E+00  0.00000000E+00  0.00000000E+00
  0.00000000E+00  0.00000000E+00  0.00000000E+00
  0.00000000E+00  0.00000000E+00  0.00000000E+00
  0.00000000E+00  0.00000000E+00  0.00000000E+00
  0.00000000E+00  0.00000000E+00  0.00000000E+00
  0.00000000E+00  0.00000000E+00  0.00000000E+00
  0.00000000E+00  0.00000000E+00  0.00000000E+00
  0.00000000E+00  0.00000000E+00  0.00000000E+00
  0.00000000E+00  0.00000000E+00  0.00000000E+00
  0.00000000E+00  0.00000000E+00  0.00000000E+00
  0.00000000E+00  0.00000000E+00  0.00000000E+00
  0.00000000E+00  0.00000000E+00  0.00000000E+00
  0.00000000E+00  0.00000000E+00  0.00000000E+00
  0.00000000E+00  0.00000000E+00  0.00000000E+00
  0.00000000E+00  0.00000000E+00  0.00000000E+00
  0.00000000E+00  0.00000000E+00  0.00000000E+00
  0.00000000E+00  0.00000000E+00  0.00000000E+00
  0.00000000E+00  0.00000000E+00  0.00000000E+00
  0.00000000E+00  0.00000000E+00  0.00000000E+00
  0.00000000E+00  0.00000000E+00  0.00000000E+00
  0.00000000E+00  0.00000000E+00  0.00000000E+00
  0.00000000E+00  0.00000000E+00  0.00000000E+00
  0.00000000E+00  0.00000000E+00  0.00000000E+00
  0.00000000E+00  0.00000000E+00  0.00000000E+00
  0.00000000E+00  0.00000000E+00  0.00000000E+00
  0.00000000E+00  0.00000000E+00  0.00000000E+00
  0.00000000E+00  0.00000000E+00  0.00000000E+00
  0.00000000E+00  0.00000000E+00  0.00000000E+00
