Li56 P28 O98
1.0
5.260542 0.000000 0.001820
-2.598943 6.542399 -1.582932
0.000000 0.000000 86.620060
Li P O
56 28 98
direct
0.255537 0.144977 0.059840 Li+
0.744463 0.855023 0.057435 Li+
0.604323 0.588727 0.083472 Li+
0.395677 0.411273 0.033803 Li+
0.972231 0.327738 0.079510 Li+
0.027769 0.672262 0.037765 Li+
0.943048 0.241886 0.013558 Li+
0.056952 0.758114 0.003717 Li+
0.255537 0.144977 0.159840 Li+
0.744463 0.855023 0.157435 Li+
0.604323 0.588727 0.183472 Li+
0.395677 0.411273 0.133803 Li+
0.972231 0.327738 0.179510 Li+
0.027769 0.672262 0.137765 Li+
0.943048 0.241886 0.113558 Li+
0.056952 0.758114 0.103717 Li+
0.255537 0.144977 0.259840 Li+
0.744463 0.855023 0.257435 Li+
0.604323 0.588727 0.283472 Li+
0.395677 0.411273 0.233803 Li+
0.972231 0.327738 0.279510 Li+
0.027769 0.672262 0.237765 Li+
0.943048 0.241886 0.213558 Li+
0.056952 0.758114 0.203717 Li+
0.255537 0.144977 0.359840 Li+
0.744463 0.855023 0.357435 Li+
0.604323 0.588727 0.383472 Li+
0.395677 0.411273 0.333803 Li+
0.972231 0.327738 0.379510 Li+
0.027769 0.672262 0.337765 Li+
0.943048 0.241886 0.313558 Li+
0.056952 0.758114 0.303717 Li+
0.255537 0.144977 0.459840 Li+
0.744463 0.855023 0.457435 Li+
0.604323 0.588727 0.483472 Li+
0.395677 0.411273 0.433803 Li+
0.972231 0.327738 0.479510 Li+
0.027769 0.672262 0.437765 Li+
0.943048 0.241886 0.413558 Li+
0.056952 0.758114 0.403717 Li+
0.255537 0.144977 0.559840 Li+
0.744463 0.855023 0.557435 Li+
0.604323 0.588727 0.583472 Li+
0.395677 0.411273 0.533803 Li+
0.972231 0.327738 0.579510 Li+
0.027769 0.672262 0.537765 Li+
0.943048 0.241886 0.513558 Li+
0.056952 0.758114 0.503717 Li+
0.255537 0.144977 0.659840 Li+
0.744463 0.855023 0.657435 Li+
0.604323 0.588727 0.683472 Li+
0.395677 0.411273 0.633803 Li+
0.972231 0.327738 0.679510 Li+
0.027769 0.672262 0.637765 Li+
0.943048 0.241886 0.613558 Li+
0.056952 0.758114 0.603717 Li+
0.426010 0.213298 0.095442 P5+
0.573990 0.786702 0.021833 P5+
0.215728 0.779241 0.074087 P5+
0.784272 0.220759 0.043188 P5+
0.426010 0.213298 0.195442 P5+
0.573990 0.786702 0.121833 P5+
0.215728 0.779241 0.174087 P5+
0.784272 0.220759 0.143188 P5+
0.426010 0.213298 0.295442 P5+
0.573990 0.786702 0.221833 P5+
0.215728 0.779241 0.274087 P5+
0.784272 0.220759 0.243188 P5+
0.426010 0.213298 0.395442 P5+
0.573990 0.786702 0.321833 P5+
0.215728 0.779241 0.374087 P5+
0.784272 0.220759 0.343188 P5+
0.426010 0.213298 0.495442 P5+
0.573990 0.786702 0.421833 P5+
0.215728 0.779241 0.474087 P5+
0.784272 0.220759 0.443188 P5+
0.426010 0.213298 0.595442 P5+
0.573990 0.786702 0.521833 P5+
0.215728 0.779241 0.574087 P5+
0.784272 0.220759 0.543188 P5+
0.426010 0.213298 0.695442 P5+
0.573990 0.786702 0.621833 P5+
0.215728 0.779241 0.674087 P5+
0.784272 0.220759 0.643188 P5+
0.480088 0.741759 0.071203 O2-
0.993870 0.605720 0.079569 O2-
0.006130 0.394280 0.037706 O2-
0.117089 0.848591 0.060440 O2-
0.267439 0.743350 0.020992 O2-
0.732561 0.256650 0.096283 O2-
0.685156 0.732189 0.006018 O2-
0.314844 0.267811 0.011256 O2-
0.661778 0.702403 0.034987 O2-
0.338222 0.297597 0.082288 O2-
0.266931 0.962384 0.090248 O2-
0.733069 0.037616 0.027027 O2-
0.882911 0.151409 0.056835 O2-
0.519912 0.258241 0.046071 O2-
0.480088 0.741759 0.171203 O2-
0.993870 0.605720 0.179569 O2-
0.006130 0.394280 0.137706 O2-
0.117089 0.848591 0.160440 O2-
0.267439 0.743350 0.120992 O2-
0.732561 0.256650 0.196283 O2-
0.685156 0.732189 0.106018 O2-
0.314844 0.267811 0.111256 O2-
0.661778 0.702403 0.134987 O2-
0.338222 0.297597 0.182288 O2-
0.266931 0.962384 0.190248 O2-
0.733069 0.037616 0.127027 O2-
0.882911 0.151409 0.156835 O2-
0.519912 0.258241 0.146071 O2-
0.480088 0.741759 0.271203 O2-
0.993870 0.605720 0.279569 O2-
0.006130 0.394280 0.237706 O2-
0.117089 0.848591 0.260440 O2-
0.267439 0.743350 0.220992 O2-
0.732561 0.256650 0.296283 O2-
0.685156 0.732189 0.206018 O2-
0.314844 0.267811 0.211256 O2-
0.661778 0.702403 0.234987 O2-
0.338222 0.297597 0.282288 O2-
0.266931 0.962384 0.290248 O2-
0.733069 0.037616 0.227027 O2-
0.882911 0.151409 0.256835 O2-
0.519912 0.258241 0.246071 O2-
0.480088 0.741759 0.371203 O2-
0.993870 0.605720 0.379569 O2-
0.006130 0.394280 0.337706 O2-
0.117089 0.848591 0.360440 O2-
0.267439 0.743350 0.320992 O2-
0.732561 0.256650 0.396283 O2-
0.685156 0.732189 0.306018 O2-
0.314844 0.267811 0.311256 O2-
0.661778 0.702403 0.334987 O2-
0.338222 0.297597 0.382288 O2-
0.266931 0.962384 0.390248 O2-
0.733069 0.037616 0.327027 O2-
0.882911 0.151409 0.356835 O2-
0.519912 0.258241 0.346071 O2-
0.480088 0.741759 0.471203 O2-
0.993870 0.605720 0.479569 O2-
0.006130 0.394280 0.437706 O2-
0.117089 0.848591 0.460440 O2-
0.267439 0.743350 0.420992 O2-
0.732561 0.256650 0.496283 O2-
0.685156 0.732189 0.406018 O2-
0.314844 0.267811 0.411256 O2-
0.661778 0.702403 0.434987 O2-
0.338222 0.297597 0.482288 O2-
0.266931 0.962384 0.490248 O2-
0.733069 0.037616 0.427027 O2-
0.882911 0.151409 0.456835 O2-
0.519912 0.258241 0.446071 O2-
0.480088 0.741759 0.571203 O2-
0.993870 0.605720 0.579569 O2-
0.006130 0.394280 0.537706 O2-
0.117089 0.848591 0.560440 O2-
0.267439 0.743350 0.520992 O2-
0.732561 0.256650 0.596283 O2-
0.685156 0.732189 0.506018 O2-
0.314844 0.267811 0.511256 O2-
0.661778 0.702403 0.534987 O2-
0.338222 0.297597 0.582288 O2-
0.266931 0.962384 0.590248 O2-
0.733069 0.037616 0.527027 O2-
0.882911 0.151409 0.556835 O2-
0.519912 0.258241 0.546071 O2-
0.480088 0.741759 0.671203 O2-
0.993870 0.605720 0.679569 O2-
0.006130 0.394280 0.637706 O2-
0.117089 0.848591 0.660440 O2-
0.267439 0.743350 0.620992 O2-
0.732561 0.256650 0.696283 O2-
0.685156 0.732189 0.606018 O2-
0.314844 0.267811 0.611256 O2-
0.661778 0.702403 0.634987 O2-
0.338222 0.297597 0.682288 O2-
0.266931 0.962384 0.690248 O2-
0.733069 0.037616 0.627027 O2-
0.882911 0.151409 0.656835 O2-
0.519912 0.258241 0.646071 O2-
