Li61 P7 N32                             
   1.00000000000000     
    -0.0362705255980188    9.5798075882569886    0.0192876415135283
     0.0370030835156408    0.0199389967989190    9.6297487369581134
     9.6168561667806891   -0.0372984798595430    0.0375699932959784
   Li   P    N 
    61     7    32
Direct
  0.5009042934228788  0.0118302097040374  0.4929399524215161
 -0.0036476830125389  0.4897979955071626 -0.0125070527716884
  0.4971877720052869  0.0097203548159351 -0.0057134915469594
  0.0074522051424191 -0.0019049791656149  0.4902681866728392
  0.4950793682252264  0.5214833747726568  0.0063775596154214
 -0.0209722058465908  0.4961434197792807  0.4837989797955179
  0.7586027835808686 -0.0003488369810799  0.5032337525774959
  0.2522584371915121  0.0076402850751183  0.4855509705519023
  0.7289573907201491  0.4611220496544405  0.5421039871956129
  0.2207055618126628  0.5100423089939146  0.4885320714242035
  0.2576351322572422  0.0041390254085338 -0.0208569308513727
  0.7382301544799870 -0.0028666475329449  0.0178809103729801
  0.4537566862894110  0.5655028931344513  0.5863405443069276
  0.4843148316012958  0.2589120070899090  0.0149976485170931
  0.5089033227422970  0.7674188301861712 -0.0020193426429895
  0.0227831893223799  0.4705312551676825  0.2383906938010520
 -0.0101961887352671  0.4915833108031626  0.7437707418637912
  0.2710478875155536  0.2694894715978424  0.2606795561779109
  0.2635085175427970  0.7910274713713217  0.8003815290720193
  0.2799692629612850  0.2725184889517576  0.7591458256624557
  0.3000213245267716  0.7906573343432831  0.3098768608245123
  0.7843943326816465  0.3007003797796866  0.2886534035309287
  0.8426508528681680  0.6611389033062739  0.6698336041332791
  0.7338616341889970  0.0429910542837569  0.7901317087147497
  0.7580025724960693  0.8076508564350199  0.2183093386443582
  0.0203265518272285  0.2069425020687171  0.2549213346401178
  0.0294928567107681  0.7940021287848015  0.7219680815081756
  0.2444902319063043  0.2659701784871901  0.5228497893137233
  0.2558653694846483  0.7524239642653693  0.5324343834130885
  0.7380269831305314  0.2345523751610487  0.5188624122418949
  0.7478921325462088  0.7564876056842074  0.4591615027358669
  0.7633034881167525  0.5236384002986946  0.2714501840754122
  0.6828580210944902  0.5413584049202375  0.7712286643234462
  0.2801190594676879  0.5439693413707019  0.2378029685269288
  0.2290706113949712  0.5205246232033974  0.7293238501339513
  0.5148953294710622  0.7346961226673855  0.2414814605165894
  0.5258852878639017  0.2542772598931817  0.7640249004829086
  0.2437796029556402  0.0104547537011194  0.2230862514117744
  0.2279271238675203  0.0302845000154283  0.7312450403293591
  0.2290697322282990  0.2465717944117388  0.0041768040682084
  0.2684729533836961  0.7553255577119865  0.0484487275590718
  0.7010716718752996  0.8335817574025636  0.6789897558782315
  0.7525451981670589  0.0541522389044450  0.2741336922541811
  0.7498092204463686  0.7638946328903091  0.9415654056786986
  0.7274198771477615  0.2414697922291796  0.0402008571313906
  0.0354914709152101  0.2551276561277106  0.7618971119031065
  0.0692195329033385  0.7298422313543046  0.2368999328093955
  0.5381289973245449  0.2350595958408834  0.2824965176287095
  0.5014031948163953  0.7431322682819499  0.7488652837768618
 -0.0196279235970592  0.2547360537070567  0.0127032635906684
  0.0203584511598522  0.7394741264049651 -0.0368184675431078
  0.5045573501618417  0.2568526102446302  0.5337347551636914
  0.5015895701165723  0.7802612449081935  0.4966067740965630
  0.5242434821823634  0.4754148008550070  0.2215280524430326
  0.4514392910640888  0.4678637262401433  0.7946960950890232
 -0.0010994033408837 -0.0348066313521737  0.2460605813248129
 -0.0211641022880790  0.0209018414089967  0.7271770773198843
  0.4296214245545741  0.4292348566809699  0.4298302996185406
  0.5878633269521413  0.5798418555490565  0.4247231863259444
  0.7938487374639128  0.2869043525413987  0.7882701442747212
  0.8897436562724055  0.6569577647081231  0.1267786852209883
 -0.0026796163275415 -0.0021137694223534 -0.0122500858100485
  0.7477367161879223  0.4981267221050829  0.0019040204785124
  0.2411106284487844  0.5036669560904006 -0.0069946577432186
  0.0016253290859238  0.7521350194209021  0.4775542654703873
 -0.0031619457848934  0.2442025190770709  0.5032739460629149
  0.5014727130196698 -0.0017991166604133  0.2410266931903773
  0.4903724623288561  0.0038049909159421  0.7484419176727982
  0.6389110654847943  0.6509413431928466  0.6116069046941233
  0.6256918242558336  0.3823590102990995  0.3827866913811872
  0.9027673430730494  0.8810424928722633  0.0798862653734366
  0.8899194146489624  0.1087957193343743  0.8996916427491468
  0.1009928309702732  0.9102849038279568  0.8760466644820756
  0.0976904913209312  0.0935560098109003  0.0962263871702592
  0.3894695616713471  0.6276173155180590  0.3879331903470886
  0.3712497431897655  0.3882537301187180  0.6264599132179589
  0.0949173557738610  0.3417920663518770  0.3928912469593783
  0.0815191555945834  0.6439599430524473  0.5945659085869860
  0.1029120798545475  0.1422470140936926  0.6012144452263600
  0.1184569551073589  0.8535701980102324  0.3944641026210859
  0.8902605290488497  0.1449299068762415  0.4019894126118053
  0.8935942106011204  0.8508681173835424  0.5778704983510423
  0.8514567114091741  0.4052393634634209  0.1102747595708507
  0.8485140646573242  0.5881818343022100  0.8883403190515623
  0.1352532014102838  0.6005433837981373  0.0946905464099684
  0.1462944411604007  0.4000154666039032  0.8876079669589035
  0.4018685349391095  0.8915398653151062  0.1421996875038955
  0.3936382387612710  0.1107274563092613  0.8480868127891678
  0.3924428608116434  0.0969991147467267  0.3377173440766245
  0.3863674081003776  0.9032274871373593  0.6495659469603391
  0.3437744506642098  0.4021369450734104  0.0966047718700713
  0.3416755788901192  0.6172588903390438  0.9000322459419057
  0.6025320968990461  0.0986612370539448  0.6478238532363859
  0.6129949902421991  0.9045233155777010  0.3438012620542300
  0.6595821405338739  0.6192957243649867  0.0979210470348253
  0.6371026041405985  0.3944754987991049  0.9123088530009815
  0.9005810233156101  0.3428805343406934  0.6113182831452048
  0.9094761914832440  0.6623419379278505  0.3573648478260881
  0.6008519476988119  0.1041332112561207  0.1413071695657812
  0.5959188716007754  0.9012805372674625  0.8513845425801493
 
  0.00000000E+00  0.00000000E+00  0.00000000E+00
  0.00000000E+00  0.00000000E+00  0.00000000E+00
  0.00000000E+00  0.00000000E+00  0.00000000E+00
  0.00000000E+00  0.00000000E+00  0.00000000E+00
  0.00000000E+00  0.00000000E+00  0.00000000E+00
  0.00000000E+00  0.00000000E+00  0.00000000E+00
  0.00000000E+00  0.00000000E+00  0.00000000E+00
  0.00000000E+00  0.00000000E+00  0.00000000E+00
  0.00000000E+00  0.00000000E+00  0.00000000E+00
  0.00000000E+00  0.00000000E+00  0.00000000E+00
  0.00000000E+00  0.00000000E+00  0.00000000E+00
  0.00000000E+00  0.00000000E+00  0.00000000E+00
  0.00000000E+00  0.00000000E+00  0.00000000E+00
  0.00000000E+00  0.00000000E+00  0.00000000E+00
  0.00000000E+00  0.00000000E+00  0.00000000E+00
  0.00000000E+00  0.00000000E+00  0.00000000E+00
  0.00000000E+00  0.00000000E+00  0.00000000E+00
  0.00000000E+00  0.00000000E+00  0.00000000E+00
  0.00000000E+00  0.00000000E+00  0.00000000E+00
  0.00000000E+00  0.00000000E+00  0.00000000E+00
  0.00000000E+00  0.00000000E+00  0.00000000E+00
  0.00000000E+00  0.00000000E+00  0.00000000E+00
  0.00000000E+00  0.00000000E+00  0.00000000E+00
  0.00000000E+00  0.00000000E+00  0.00000000E+00
  0.00000000E+00  0.00000000E+00  0.00000000E+00
  0.00000000E+00  0.00000000E+00  0.00000000E+00
  0.00000000E+00  0.00000000E+00  0.00000000E+00
  0.00000000E+00  0.00000000E+00  0.00000000E+00
  0.00000000E+00  0.00000000E+00  0.00000000E+00
  0.00000000E+00  0.00000000E+00  0.00000000E+00
  0.00000000E+00  0.00000000E+00  0.00000000E+00
  0.00000000E+00  0.00000000E+00  0.00000000E+00
  0.00000000E+00  0.00000000E+00  0.00000000E+00
  0.00000000E+00  0.00000000E+00  0.00000000E+00
  0.00000000E+00  0.00000000E+00  0.00000000E+00
  0.00000000E+00  0.00000000E+00  0.00000000E+00
  0.00000000E+00  0.00000000E+00  0.00000000E+00
  0.00000000E+00  0.00000000E+00  0.00000000E+00
  0.00000000E+00  0.00000000E+00  0.00000000E+00
  0.00000000E+00  0.00000000E+00  0.00000000E+00
  0.00000000E+00  0.00000000E+00  0.00000000E+00
  0.00000000E+00  0.00000000E+00  0.00000000E+00
  0.00000000E+00  0.00000000E+00  0.00000000E+00
  0.00000000E+00  0.00000000E+00  0.00000000E+00
  0.00000000E+00  0.00000000E+00  0.00000000E+00
  0.00000000E+00  0.00000000E+00  0.00000000E+00
  0.00000000E+00  0.00000000E+00  0.00000000E+00
  0.00000000E+00  0.00000000E+00  0.00000000E+00
  0.00000000E+00  0.00000000E+00  0.00000000E+00
  0.00000000E+00  0.00000000E+00  0.00000000E+00
  0.00000000E+00  0.00000000E+00  0.00000000E+00
  0.00000000E+00  0.00000000E+00  0.00000000E+00
  0.00000000E+00  0.00000000E+00  0.00000000E+00
  0.00000000E+00  0.00000000E+00  0.00000000E+00
  0.00000000E+00  0.00000000E+00  0.00000000E+00
  0.00000000E+00  0.00000000E+00  0.00000000E+00
  0.00000000E+00  0.00000000E+00  0.00000000E+00
  0.00000000E+00  0.00000000E+00  0.00000000E+00
  0.00000000E+00  0.00000000E+00  0.00000000E+00
  0.00000000E+00  0.00000000E+00  0.00000000E+00
  0.00000000E+00  0.00000000E+00  0.00000000E+00
  0.00000000E+00  0.00000000E+00  0.00000000E+00
  0.00000000E+00  0.00000000E+00  0.00000000E+00
  0.00000000E+00  0.00000000E+00  0.00000000E+00
  0.00000000E+00  0.00000000E+00  0.00000000E+00
  0.00000000E+00  0.00000000E+00  0.00000000E+00
  0.00000000E+00  0.00000000E+00  0.00000000E+00
  0.00000000E+00  0.00000000E+00  0.00000000E+00
  0.00000000E+00  0.00000000E+00  0.00000000E+00
  0.00000000E+00  0.00000000E+00  0.00000000E+00
  0.00000000E+00  0.00000000E+00  0.00000000E+00
  0.00000000E+00  0.00000000E+00  0.00000000E+00
  0.00000000E+00  0.00000000E+00  0.00000000E+00
  0.00000000E+00  0.00000000E+00  0.00000000E+00
  0.00000000E+00  0.00000000E+00  0.00000000E+00
  0.00000000E+00  0.00000000E+00  0.00000000E+00
  0.00000000E+00  0.00000000E+00  0.00000000E+00
  0.00000000E+00  0.00000000E+00  0.00000000E+00
  0.00000000E+00  0.00000000E+00  0.00000000E+00
  0.00000000E+00  0.00000000E+00  0.00000000E+00
  0.00000000E+00  0.00000000E+00  0.00000000E+00
  0.00000000E+00  0.00000000E+00  0.00000000E+00
  0.00000000E+00  0.00000000E+00  0.00000000E+00
  0.00000000E+00  0.00000000E+00  0.00000000E+00
  0.00000000E+00  0.00000000E+00  0.00000000E+00
  0.00000000E+00  0.00000000E+00  0.00000000E+00
  0.00000000E+00  0.00000000E+00  0.00000000E+00
  0.00000000E+00  0.00000000E+00  0.00000000E+00
  0.00000000E+00  0.00000000E+00  0.00000000E+00
  0.00000000E+00  0.00000000E+00  0.00000000E+00
  0.00000000E+00  0.00000000E+00  0.00000000E+00
  0.00000000E+00  0.00000000E+00  0.00000000E+00
  0.00000000E+00  0.00000000E+00  0.00000000E+00
  0.00000000E+00  0.00000000E+00  0.00000000E+00
  0.00000000E+00  0.00000000E+00  0.00000000E+00
  0.00000000E+00  0.00000000E+00  0.00000000E+00
  0.00000000E+00  0.00000000E+00  0.00000000E+00
  0.00000000E+00  0.00000000E+00  0.00000000E+00
  0.00000000E+00  0.00000000E+00  0.00000000E+00
  0.00000000E+00  0.00000000E+00  0.00000000E+00
