Li8 P4 O14                              
   1.00000000000000     
    -5.3693070000000001   -0.0004040000000000   -0.0008800000000000
     2.6537519999999999    6.8859380000000003   -0.0071340000000000
    -0.0046220000000000   -2.0732539999999999   -8.6010109999999997
   Li   P    O 
     8     4    14
Direct
  0.2555899999999980  0.1452340000000021  0.0120209999999972
  0.7444100000000020  0.8547659999999979  0.9879790000000028
  0.6045459999999991  0.5894290000000026  0.2487679999999983
  0.3954540000000009  0.4105709999999974  0.7512320000000017
  0.9720099999999974  0.3280389999999969  0.2088790000000031
  0.0279900000000026  0.6719599999999986  0.7911209999999969
  0.9435050000000018  0.2417980000000028  0.5485299999999995
  0.0564949999999982  0.7582019999999972  0.4514700000000005
  0.4260810000000035  0.2135140000000035  0.3680889999999977
  0.5739189999999965  0.7864849999999990  0.6319110000000023
  0.2155800000000028  0.7788299999999992  0.1544189999999972
  0.7844199999999972  0.2211700000000008  0.8455810000000028
  0.4818780000000018  0.7419149999999988  0.1257870000000025
  0.9930540000000008  0.6046070000000014  0.2095410000000015
  0.0069459999999992  0.3953929999999986  0.7904589999999985
  0.1165549999999982  0.8485599999999991  0.0173190000000005
  0.2658380000000022  0.7435260000000028  0.6234400000000022
  0.7341619999999978  0.2564739999999972  0.3765599999999978
  0.6859139999999968  0.7315219999999982  0.4731110000000029
  0.3140860000000032  0.2684780000000018  0.5268889999999971
  0.6616240000000033  0.7017990000000012  0.7642219999999966
  0.3383759999999967  0.2982009999999988  0.2357780000000034
  0.2658810000000003  0.9620809999999977  0.3165059999999968
  0.7341189999999997  0.0379190000000023  0.6834940000000032
  0.8834450000000018  0.1514400000000009  0.9826809999999995
  0.5181219999999982  0.2580850000000012  0.8742129999999975
 
  0.00000000E+00  0.00000000E+00  0.00000000E+00
  0.00000000E+00  0.00000000E+00  0.00000000E+00
  0.00000000E+00  0.00000000E+00  0.00000000E+00
  0.00000000E+00  0.00000000E+00  0.00000000E+00
  0.00000000E+00  0.00000000E+00  0.00000000E+00
  0.00000000E+00  0.00000000E+00  0.00000000E+00
  0.00000000E+00  0.00000000E+00  0.00000000E+00
  0.00000000E+00  0.00000000E+00  0.00000000E+00
  0.00000000E+00  0.00000000E+00  0.00000000E+00
  0.00000000E+00  0.00000000E+00  0.00000000E+00
  0.00000000E+00  0.00000000E+00  0.00000000E+00
  0.00000000E+00  0.00000000E+00  0.00000000E+00
  0.00000000E+00  0.00000000E+00  0.00000000E+00
  0.00000000E+00  0.00000000E+00  0.00000000E+00
  0.00000000E+00  0.00000000E+00  0.00000000E+00
  0.00000000E+00  0.00000000E+00  0.00000000E+00
  0.00000000E+00  0.00000000E+00  0.00000000E+00
  0.00000000E+00  0.00000000E+00  0.00000000E+00
  0.00000000E+00  0.00000000E+00  0.00000000E+00
  0.00000000E+00  0.00000000E+00  0.00000000E+00
  0.00000000E+00  0.00000000E+00  0.00000000E+00
  0.00000000E+00  0.00000000E+00  0.00000000E+00
  0.00000000E+00  0.00000000E+00  0.00000000E+00
  0.00000000E+00  0.00000000E+00  0.00000000E+00
  0.00000000E+00  0.00000000E+00  0.00000000E+00
  0.00000000E+00  0.00000000E+00  0.00000000E+00
