Li56 P28 O98
1.0
8.662005 0.000000 0.002996
-1.582033 6.542399 -7.860032
0.000000 0.000000 68.387046
Li P O
56 28 98
direct
0.987971 0.855023 0.007653 Li+
0.012029 0.144977 0.069270 Li+
0.751653 0.411273 0.023612 Li+
0.248347 0.588727 0.053312 Li+
0.791276 0.672262 0.015387 Li+
0.208724 0.327738 0.061536 Li+
0.450796 0.758114 0.024236 Li+
0.549204 0.241886 0.052687 Li+
0.987971 0.855023 0.084576 Li+
0.012029 0.144977 0.146193 Li+
0.751653 0.411273 0.100535 Li+
0.248347 0.588727 0.130235 Li+
0.791276 0.672262 0.092310 Li+
0.208724 0.327738 0.138459 Li+
0.450796 0.758114 0.101159 Li+
0.549204 0.241886 0.129610 Li+
0.987971 0.855023 0.161499 Li+
0.012029 0.144977 0.223116 Li+
0.751653 0.411273 0.177458 Li+
0.248347 0.588727 0.207158 Li+
0.791276 0.672262 0.169233 Li+
0.208724 0.327738 0.215382 Li+
0.450796 0.758114 0.178082 Li+
0.549204 0.241886 0.206533 Li+
0.987971 0.855023 0.238422 Li+
0.012029 0.144977 0.300040 Li+
0.751653 0.411273 0.254381 Li+
0.248347 0.588727 0.284081 Li+
0.791276 0.672262 0.246156 Li+
0.208724 0.327738 0.292305 Li+
0.450796 0.758114 0.255005 Li+
0.549204 0.241886 0.283456 Li+
0.987971 0.855023 0.315345 Li+
0.012029 0.144977 0.376963 Li+
0.751653 0.411273 0.331304 Li+
0.248347 0.588727 0.361004 Li+
0.791276 0.672262 0.323079 Li+
0.208724 0.327738 0.369228 Li+
0.450796 0.758114 0.331928 Li+
0.549204 0.241886 0.360380 Li+
0.987971 0.855023 0.392268 Li+
0.012029 0.144977 0.453886 Li+
0.751653 0.411273 0.408227 Li+
0.248347 0.588727 0.437927 Li+
0.791276 0.672262 0.400002 Li+
0.208724 0.327738 0.446151 Li+
0.450796 0.758114 0.408851 Li+
0.549204 0.241886 0.437303 Li+
0.987971 0.855023 0.469191 Li+
0.012029 0.144977 0.530809 Li+
0.751653 0.411273 0.485150 Li+
0.248347 0.588727 0.514850 Li+
0.791276 0.672262 0.476925 Li+
0.208724 0.327738 0.523075 Li+
0.450796 0.758114 0.485774 Li+
0.549204 0.241886 0.514226 Li+
0.631956 0.786702 0.066207 P5+
0.368044 0.213298 0.010716 P5+
0.845502 0.220759 0.038849 P5+
0.154498 0.779241 0.038075 P5+
0.631956 0.786702 0.143130 P5+
0.368044 0.213298 0.087639 P5+
0.845502 0.220759 0.115772 P5+
0.154498 0.779241 0.114998 P5+
0.631956 0.786702 0.220053 P5+
0.368044 0.213298 0.164562 P5+
0.845502 0.220759 0.192695 P5+
0.154498 0.779241 0.191921 P5+
0.631956 0.786702 0.296976 P5+
0.368044 0.213298 0.241485 P5+
0.845502 0.220759 0.269618 P5+
0.154498 0.779241 0.268844 P5+
0.631956 0.786702 0.373899 P5+
0.368044 0.213298 0.318408 P5+
0.845502 0.220759 0.346541 P5+
0.154498 0.779241 0.345767 P5+
0.631956 0.786702 0.450822 P5+
0.368044 0.213298 0.395331 P5+
0.845502 0.220759 0.423464 P5+
0.154498 0.779241 0.422690 P5+
0.631956 0.786702 0.527746 P5+
0.368044 0.213298 0.472254 P5+
0.845502 0.220759 0.500387 P5+
0.154498 0.779241 0.499613 P5+
0.874340 0.258241 0.021396 O2-
0.790684 0.394280 0.069262 O2-
0.209316 0.605720 0.007661 O2-
0.981976 0.151409 0.041102 O2-
0.376455 0.256650 0.037632 O2-
0.623545 0.743350 0.039291 O2-
0.526190 0.267811 0.006358 O2-
0.473810 0.732189 0.070565 O2-
0.236504 0.297597 0.010448 O2-
0.763496 0.702403 0.066475 O2-
0.683894 0.037616 0.020822 O2-
0.316106 0.962384 0.056101 O2-
0.018024 0.848591 0.035822 O2-
0.125660 0.741759 0.055527 O2-
0.874340 0.258241 0.098319 O2-
0.790684 0.394280 0.146185 O2-
0.209316 0.605720 0.084584 O2-
0.981976 0.151409 0.118025 O2-
0.376455 0.256650 0.114555 O2-
0.623545 0.743350 0.116215 O2-
0.526190 0.267811 0.083281 O2-
0.473810 0.732189 0.147488 O2-
0.236504 0.297597 0.087371 O2-
0.763496 0.702403 0.143399 O2-
0.683894 0.037616 0.097745 O2-
0.316106 0.962384 0.133024 O2-
0.018024 0.848591 0.112745 O2-
0.125660 0.741759 0.132450 O2-
0.874340 0.258241 0.175243 O2-
0.790684 0.394280 0.223108 O2-
0.209316 0.605720 0.161507 O2-
0.981976 0.151409 0.194948 O2-
0.376455 0.256650 0.191478 O2-
0.623545 0.743350 0.193138 O2-
0.526190 0.267811 0.160204 O2-
0.473810 0.732189 0.224411 O2-
0.236504 0.297597 0.164294 O2-
0.763496 0.702403 0.220322 O2-
0.683894 0.037616 0.174668 O2-
0.316106 0.962384 0.209947 O2-
0.018024 0.848591 0.189668 O2-
0.125660 0.741759 0.209373 O2-
0.874340 0.258241 0.252166 O2-
0.790684 0.394280 0.300032 O2-
0.209316 0.605720 0.238430 O2-
0.981976 0.151409 0.271871 O2-
0.376455 0.256650 0.268401 O2-
0.623545 0.743350 0.270061 O2-
0.526190 0.267811 0.237127 O2-
0.473810 0.732189 0.301334 O2-
0.236504 0.297597 0.241217 O2-
0.763496 0.702403 0.297245 O2-
0.683894 0.037616 0.251591 O2-
0.316106 0.962384 0.286870 O2-
0.018024 0.848591 0.266591 O2-
0.125660 0.741759 0.286296 O2-
0.874340 0.258241 0.329089 O2-
0.790684 0.394280 0.376955 O2-
0.209316 0.605720 0.315353 O2-
0.981976 0.151409 0.348794 O2-
0.376455 0.256650 0.345324 O2-
0.623545 0.743350 0.346984 O2-
0.526190 0.267811 0.314050 O2-
0.473810 0.732189 0.378257 O2-
0.236504 0.297597 0.318140 O2-
0.763496 0.702403 0.374168 O2-
0.683894 0.037616 0.328514 O2-
0.316106 0.962384 0.363793 O2-
0.018024 0.848591 0.343514 O2-
0.125660 0.741759 0.363219 O2-
0.874340 0.258241 0.406012 O2-
0.790684 0.394280 0.453878 O2-
0.209316 0.605720 0.392276 O2-
0.981976 0.151409 0.425717 O2-
0.376455 0.256650 0.422247 O2-
0.623545 0.743350 0.423907 O2-
0.526190 0.267811 0.390973 O2-
0.473810 0.732189 0.455180 O2-
0.236504 0.297597 0.395063 O2-
0.763496 0.702403 0.451091 O2-
0.683894 0.037616 0.405437 O2-
0.316106 0.962384 0.440717 O2-
0.018024 0.848591 0.420437 O2-
0.125660 0.741759 0.440142 O2-
0.874340 0.258241 0.482935 O2-
0.790684 0.394280 0.530801 O2-
0.209316 0.605720 0.469199 O2-
0.981976 0.151409 0.502640 O2-
0.376455 0.256650 0.499170 O2-
0.623545 0.743350 0.500830 O2-
0.526190 0.267811 0.467897 O2-
0.473810 0.732189 0.532103 O2-
0.236504 0.297597 0.471986 O2-
0.763496 0.702403 0.528014 O2-
0.683894 0.037616 0.482360 O2-
0.316106 0.962384 0.517640 O2-
0.018024 0.848591 0.497360 O2-
0.125660 0.741759 0.517065 O2-
