Li140 P140 O420
1.0
19.664632 0.000000 0.000000
7.200064 11.197969 5.521558
0.000000 0.000000 66.258696
Li P O
140 140 420
direct
0.181780 0.873522 0.014987 Li+
0.681780 0.873522 0.014088 Li+
0.065996 0.111170 0.079366 Li+
0.565996 0.111170 0.076769 Li+
0.950543 0.347043 0.057929 Li+
0.450543 0.347043 0.058893 Li+
0.835452 0.581703 0.038254 Li+
0.335452 0.581703 0.039458 Li+
0.758434 0.729106 0.068841 Li+
0.258434 0.729106 0.067638 Li+
0.681714 0.375737 0.054254 Li+
0.181714 0.375737 0.057786 Li+
0.566270 0.612275 0.038282 Li+
0.066270 0.612275 0.034334 Li+
0.449547 0.848182 0.013879 Li+
0.949547 0.848182 0.019420 Li+
0.332984 0.084520 0.082143 Li+
0.832984 0.084520 0.078433 Li+
0.256366 0.233171 0.029493 Li+
0.756366 0.233171 0.022974 Li+
0.181780 0.873522 0.098321 Li+
0.681780 0.873522 0.097422 Li+
0.065996 0.111170 0.162699 Li+
0.565996 0.111170 0.160102 Li+
0.950543 0.347043 0.141262 Li+
0.450543 0.347043 0.142226 Li+
0.835452 0.581703 0.121587 Li+
0.335452 0.581703 0.122791 Li+
0.758434 0.729106 0.152174 Li+
0.258434 0.729106 0.150971 Li+
0.681714 0.375737 0.137587 Li+
0.181714 0.375737 0.141119 Li+
0.566270 0.612275 0.121616 Li+
0.066270 0.612275 0.117668 Li+
0.449547 0.848182 0.097212 Li+
0.949547 0.848182 0.102754 Li+
0.332984 0.084520 0.165477 Li+
0.832984 0.084520 0.161766 Li+
0.256366 0.233171 0.112826 Li+
0.756366 0.233171 0.106308 Li+
0.181780 0.873522 0.181654 Li+
0.681780 0.873522 0.180755 Li+
0.065996 0.111170 0.246032 Li+
0.565996 0.111170 0.243435 Li+
0.950543 0.347043 0.224596 Li+
0.450543 0.347043 0.225560 Li+
0.835452 0.581703 0.204921 Li+
0.335452 0.581703 0.206125 Li+
0.758434 0.729106 0.235507 Li+
0.258434 0.729106 0.234304 Li+
0.681714 0.375737 0.220920 Li+
0.181714 0.375737 0.224453 Li+
0.566270 0.612275 0.204949 Li+
0.066270 0.612275 0.201001 Li+
0.449547 0.848182 0.180545 Li+
0.949547 0.848182 0.186087 Li+
0.332984 0.084520 0.248810 Li+
0.832984 0.084520 0.245099 Li+
0.256366 0.233171 0.196160 Li+
0.756366 0.233171 0.189641 Li+
0.181780 0.873522 0.264987 Li+
0.681780 0.873522 0.264088 Li+
0.065996 0.111170 0.329366 Li+
0.565996 0.111170 0.326769 Li+
0.950543 0.347043 0.307929 Li+
0.450543 0.347043 0.308893 Li+
0.835452 0.581703 0.288254 Li+
0.335452 0.581703 0.289458 Li+
0.758434 0.729106 0.318841 Li+
0.258434 0.729106 0.317638 Li+
0.681714 0.375737 0.304254 Li+
0.181714 0.375737 0.307786 Li+
0.566270 0.612275 0.288282 Li+
0.066270 0.612275 0.284334 Li+
0.449547 0.848182 0.263879 Li+
0.949547 0.848182 0.269420 Li+
0.332984 0.084520 0.332143 Li+
0.832984 0.084520 0.328433 Li+
0.256366 0.233171 0.279493 Li+
0.756366 0.233171 0.272974 Li+
0.181780 0.873522 0.348321 Li+
0.681780 0.873522 0.347422 Li+
0.065996 0.111170 0.412699 Li+
0.565996 0.111170 0.410102 Li+
0.950543 0.347043 0.391262 Li+
0.450543 0.347043 0.392226 Li+
0.835452 0.581703 0.371587 Li+
0.335452 0.581703 0.372791 Li+
0.758434 0.729106 0.402174 Li+
0.258434 0.729106 0.400971 Li+
0.681714 0.375737 0.387587 Li+
0.181714 0.375737 0.391119 Li+
0.566270 0.612275 0.371616 Li+
0.066270 0.612275 0.367668 Li+
0.449547 0.848182 0.347212 Li+
0.949547 0.848182 0.352754 Li+
0.332984 0.084520 0.415477 Li+
0.832984 0.084520 0.411766 Li+
0.256366 0.233171 0.362826 Li+
0.756366 0.233171 0.356308 Li+
0.181780 0.873522 0.431654 Li+
0.681780 0.873522 0.430755 Li+
0.065996 0.111170 0.496032 Li+
0.565996 0.111170 0.493435 Li+
0.950543 0.347043 0.474596 Li+
0.450543 0.347043 0.475560 Li+
0.835452 0.581703 0.454921 Li+
0.335452 0.581703 0.456125 Li+
0.758434 0.729106 0.485507 Li+
0.258434 0.729106 0.484304 Li+
0.681714 0.375737 0.470920 Li+
0.181714 0.375737 0.474453 Li+
0.566270 0.612275 0.454949 Li+
0.066270 0.612275 0.451001 Li+
0.449547 0.848182 0.430545 Li+
0.949547 0.848182 0.436087 Li+
0.332984 0.084520 0.498810 Li+
0.832984 0.084520 0.495099 Li+
0.256366 0.233171 0.446160 Li+
0.756366 0.233171 0.439641 Li+
0.181780 0.873522 0.514987 Li+
0.681780 0.873522 0.514088 Li+
0.065996 0.111170 0.579366 Li+
0.565996 0.111170 0.576769 Li+
0.950543 0.347043 0.557929 Li+
0.450543 0.347043 0.558893 Li+
0.835452 0.581703 0.538254 Li+
0.335452 0.581703 0.539458 Li+
0.758434 0.729106 0.568841 Li+
0.258434 0.729106 0.567638 Li+
0.681714 0.375737 0.554254 Li+
0.181714 0.375737 0.557786 Li+
0.566270 0.612275 0.538282 Li+
0.066270 0.612275 0.534334 Li+
0.449547 0.848182 0.513879 Li+
0.949547 0.848182 0.519420 Li+
0.332984 0.084520 0.582143 Li+
0.832984 0.084520 0.578433 Li+
0.256366 0.233171 0.529493 Li+
0.756366 0.233171 0.522974 Li+
0.999587 0.999221 0.030281 P5+
0.499587 0.999221 0.061178 P5+
0.906720 0.205613 0.041587 P5+
0.406720 0.205613 0.015473 P5+
0.802939 0.401137 0.079866 P5+
0.302939 0.401137 0.027940 P5+
0.691689 0.591605 0.010616 P5+
0.191689 0.591605 0.065446 P5+
0.591751 0.791599 0.049720 P5+
0.091751 0.791599 0.076343 P5+
0.425433 0.665080 0.003247 P5+
0.925433 0.665080 0.060569 P5+
0.325562 0.865452 0.042350 P5+
0.825562 0.865452 0.071404 P5+
0.213545 0.056323 0.056615 P5+
0.713545 0.056323 0.025328 P5+
0.110144 0.252134 0.011995 P5+
0.610144 0.252134 0.037312 P5+
0.017155 0.458420 0.023307 P5+
0.517155 0.458420 0.074952 P5+
0.999587 0.999221 0.113615 P5+
0.499587 0.999221 0.144511 P5+
0.906720 0.205613 0.124920 P5+
0.406720 0.205613 0.098807 P5+
0.802939 0.401137 0.163200 P5+
0.302939 0.401137 0.111274 P5+
0.691689 0.591605 0.093949 P5+
0.191689 0.591605 0.148779 P5+
0.591751 0.791599 0.133053 P5+
0.091751 0.791599 0.159676 P5+
0.425433 0.665080 0.086580 P5+
0.925433 0.665080 0.143902 P5+
0.325562 0.865452 0.125683 P5+
0.825562 0.865452 0.154737 P5+
0.213545 0.056323 0.139948 P5+
0.713545 0.056323 0.108661 P5+
0.110144 0.252134 0.095328 P5+
0.610144 0.252134 0.120645 P5+
0.017155 0.458420 0.106641 P5+
0.517155 0.458420 0.158285 P5+
0.999587 0.999221 0.196948 P5+
0.499587 0.999221 0.227844 P5+
0.906720 0.205613 0.208254 P5+
0.406720 0.205613 0.182140 P5+
0.802939 0.401137 0.246533 P5+
0.302939 0.401137 0.194607 P5+
0.691689 0.591605 0.177283 P5+
0.191689 0.591605 0.232112 P5+
0.591751 0.791599 0.216386 P5+
0.091751 0.791599 0.243010 P5+
0.425433 0.665080 0.169914 P5+
0.925433 0.665080 0.227235 P5+
0.325562 0.865452 0.209017 P5+
0.825562 0.865452 0.238070 P5+
0.213545 0.056323 0.223281 P5+
0.713545 0.056323 0.191994 P5+
0.110144 0.252134 0.178662 P5+
0.610144 0.252134 0.203979 P5+
0.017155 0.458420 0.189974 P5+
0.517155 0.458420 0.241619 P5+
0.999587 0.999221 0.280281 P5+
0.499587 0.999221 0.311178 P5+
0.906720 0.205613 0.291587 P5+
0.406720 0.205613 0.265473 P5+
0.802939 0.401137 0.329866 P5+
0.302939 0.401137 0.277940 P5+
0.691689 0.591605 0.260616 P5+
0.191689 0.591605 0.315446 P5+
0.591751 0.791599 0.299720 P5+
0.091751 0.791599 0.326343 P5+
0.425433 0.665080 0.253247 P5+
0.925433 0.665080 0.310569 P5+
0.325562 0.865452 0.292350 P5+
0.825562 0.865452 0.321404 P5+
0.213545 0.056323 0.306615 P5+
0.713545 0.056323 0.275328 P5+
0.110144 0.252134 0.261995 P5+
0.610144 0.252134 0.287312 P5+
0.017155 0.458420 0.273307 P5+
0.517155 0.458420 0.324952 P5+
0.999587 0.999221 0.363615 P5+
0.499587 0.999221 0.394511 P5+
0.906720 0.205613 0.374920 P5+
0.406720 0.205613 0.348807 P5+
0.802939 0.401137 0.413200 P5+
0.302939 0.401137 0.361274 P5+
0.691689 0.591605 0.343949 P5+
0.191689 0.591605 0.398779 P5+
0.591751 0.791599 0.383053 P5+
0.091751 0.791599 0.409676 P5+
0.425433 0.665080 0.336580 P5+
0.925433 0.665080 0.393902 P5+
0.325562 0.865452 0.375683 P5+
0.825562 0.865452 0.404737 P5+
0.213545 0.056323 0.389948 P5+
0.713545 0.056323 0.358661 P5+
0.110144 0.252134 0.345328 P5+
0.610144 0.252134 0.370645 P5+
0.017155 0.458420 0.356641 P5+
0.517155 0.458420 0.408285 P5+
0.999587 0.999221 0.446948 P5+
0.499587 0.999221 0.477844 P5+
0.906720 0.205613 0.458254 P5+
0.406720 0.205613 0.432140 P5+
0.802939 0.401137 0.496533 P5+
0.302939 0.401137 0.444607 P5+
0.691689 0.591605 0.427283 P5+
0.191689 0.591605 0.482112 P5+
0.591751 0.791599 0.466386 P5+
0.091751 0.791599 0.493010 P5+
0.425433 0.665080 0.419914 P5+
0.925433 0.665080 0.477235 P5+
0.325562 0.865452 0.459017 P5+
0.825562 0.865452 0.488070 P5+
0.213545 0.056323 0.473281 P5+
0.713545 0.056323 0.441994 P5+
0.110144 0.252134 0.428662 P5+
0.610144 0.252134 0.453979 P5+
0.017155 0.458420 0.439974 P5+
0.517155 0.458420 0.491619 P5+
0.999587 0.999221 0.530281 P5+
0.499587 0.999221 0.561178 P5+
0.906720 0.205613 0.541587 P5+
0.406720 0.205613 0.515473 P5+
0.802939 0.401137 0.579866 P5+
0.302939 0.401137 0.527940 P5+
0.691689 0.591605 0.510616 P5+
0.191689 0.591605 0.565446 P5+
0.591751 0.791599 0.549720 P5+
0.091751 0.791599 0.576343 P5+
0.425433 0.665080 0.503247 P5+
0.925433 0.665080 0.560569 P5+
0.325562 0.865452 0.542350 P5+
0.825562 0.865452 0.571404 P5+
0.213545 0.056323 0.556615 P5+
0.713545 0.056323 0.525328 P5+
0.110144 0.252134 0.511995 P5+
0.610144 0.252134 0.537312 P5+
0.017155 0.458420 0.523307 P5+
0.517155 0.458420 0.574952 P5+
0.964587 0.129985 0.029083 O2-
0.464587 0.129985 0.040583 O2-
0.859372 0.340179 0.021392 O2-
0.359372 0.340179 0.013240 O2-
0.724144 0.518650 0.079109 O2-
0.224144 0.518650 0.009112 O2-
0.607741 0.706904 0.076199 O2-
0.107741 0.706904 0.063979 O2-
0.021852 0.919848 0.057175 O2-
0.521852 0.919848 0.047512 O2-
0.409378 0.749936 0.060105 O2-
0.909378 0.749936 0.072902 O2-
0.290596 0.936774 0.057447 O2-
0.790596 0.936774 0.044420 O2-
0.156445 0.116799 0.031826 O2-
0.656445 0.116799 0.040037 O2-
0.056520 0.325432 0.025313 O2-
0.556520 0.325432 0.011778 O2-
0.495673 0.536371 0.005576 O2-
0.995673 0.536371 0.079691 O2-
0.073889 0.970827 0.021196 O2-
0.573889 0.970827 0.074995 O2-
0.933926 0.994909 0.019929 O2-
0.433926 0.994909 0.072249 O2-
0.958651 0.204625 0.058315 O2-
0.458651 0.204625 0.082244 O2-
0.846743 0.171056 0.048468 O2-
0.346743 0.171056 0.014352 O2-
0.845353 0.439658 0.063029 O2-
0.345353 0.439658 0.038358 O2-
0.775410 0.322583 0.078634 O2-
0.275410 0.322583 0.042264 O2-
0.747295 0.630670 0.013813 O2-
0.247295 0.630670 0.055738 O2-
0.669352 0.527520 0.030347 O2-
0.169352 0.527520 0.056395 O2-
0.667159 0.790584 0.045189 O2-
0.167159 0.790584 0.081043 O2-
0.553292 0.761105 0.035924 O2-
0.053292 0.761105 0.011887 O2-
0.463335 0.697609 0.016706 O2-
0.963335 0.697609 0.041688 O2-
0.350606 0.665087 0.008074 O2-
0.850606 0.665087 0.055740 O2-
0.348215 0.931406 0.022981 O2-
0.848215 0.931406 0.079780 O2-
0.271458 0.824688 0.038770 O2-
0.771458 0.824688 0.081778 O2-
0.241625 0.135280 0.057247 O2-
0.741625 0.135280 0.011536 O2-
0.171199 0.019880 0.073762 O2-
0.671199 0.019880 0.014254 O2-
0.170027 0.286380 0.004694 O2-
0.670027 0.286380 0.038906 O2-
0.055640 0.257004 0.078640 O2-
0.555640 0.257004 0.053189 O2-
0.080441 0.467181 0.033610 O2-
0.580441 0.467181 0.063189 O2-
0.942366 0.484690 0.032031 O2-
0.442366 0.484690 0.061850 O2-
0.964587 0.129985 0.112416 O2-
0.464587 0.129985 0.123916 O2-
0.859372 0.340179 0.104726 O2-
0.359372 0.340179 0.096574 O2-
0.724144 0.518650 0.162442 O2-
0.224144 0.518650 0.092445 O2-
0.607741 0.706904 0.159533 O2-
0.107741 0.706904 0.147313 O2-
0.021852 0.919848 0.140509 O2-
0.521852 0.919848 0.130846 O2-
0.409378 0.749936 0.143438 O2-
0.909378 0.749936 0.156235 O2-
0.290596 0.936774 0.140780 O2-
0.790596 0.936774 0.127754 O2-
0.156445 0.116799 0.115159 O2-
0.656445 0.116799 0.123370 O2-
0.056520 0.325432 0.108646 O2-
0.556520 0.325432 0.095111 O2-
0.495673 0.536371 0.088909 O2-
0.995673 0.536371 0.163025 O2-
0.073889 0.970827 0.104529 O2-
0.573889 0.970827 0.158329 O2-
0.933926 0.994909 0.103262 O2-
0.433926 0.994909 0.155582 O2-
0.958651 0.204625 0.141648 O2-
0.458651 0.204625 0.165577 O2-
0.846743 0.171056 0.131801 O2-
0.346743 0.171056 0.097685 O2-
0.845353 0.439658 0.146362 O2-
0.345353 0.439658 0.121691 O2-
0.775410 0.322583 0.161968 O2-
0.275410 0.322583 0.125598 O2-
0.747295 0.630670 0.097147 O2-
0.247295 0.630670 0.139071 O2-
0.669352 0.527520 0.113680 O2-
0.169352 0.527520 0.139729 O2-
0.667159 0.790584 0.128523 O2-
0.167159 0.790584 0.164376 O2-
0.553292 0.761105 0.119258 O2-
0.053292 0.761105 0.095221 O2-
0.463335 0.697609 0.100040 O2-
0.963335 0.697609 0.125021 O2-
0.350606 0.665087 0.091408 O2-
0.850606 0.665087 0.139074 O2-
0.348215 0.931406 0.106315 O2-
0.848215 0.931406 0.163114 O2-
0.271458 0.824688 0.122104 O2-
0.771458 0.824688 0.165111 O2-
0.241625 0.135280 0.140580 O2-
0.741625 0.135280 0.094869 O2-
0.171199 0.019880 0.157095 O2-
0.671199 0.019880 0.097587 O2-
0.170027 0.286380 0.088027 O2-
0.670027 0.286380 0.122239 O2-
0.055640 0.257004 0.161973 O2-
0.555640 0.257004 0.136522 O2-
0.080441 0.467181 0.116944 O2-
0.580441 0.467181 0.146522 O2-
0.942366 0.484690 0.115364 O2-
0.442366 0.484690 0.145183 O2-
0.964587 0.129985 0.195749 O2-
0.464587 0.129985 0.207249 O2-
0.859372 0.340179 0.188059 O2-
0.359372 0.340179 0.179907 O2-
0.724144 0.518650 0.245776 O2-
0.224144 0.518650 0.175779 O2-
0.607741 0.706904 0.242866 O2-
0.107741 0.706904 0.230646 O2-
0.021852 0.919848 0.223842 O2-
0.521852 0.919848 0.214179 O2-
0.409378 0.749936 0.226772 O2-
0.909378 0.749936 0.239568 O2-
0.290596 0.936774 0.224113 O2-
0.790596 0.936774 0.211087 O2-
0.156445 0.116799 0.198493 O2-
0.656445 0.116799 0.206703 O2-
0.056520 0.325432 0.191980 O2-
0.556520 0.325432 0.178444 O2-
0.495673 0.536371 0.172243 O2-
0.995673 0.536371 0.246358 O2-
0.073889 0.970827 0.187863 O2-
0.573889 0.970827 0.241662 O2-
0.933926 0.994909 0.186596 O2-
0.433926 0.994909 0.238915 O2-
0.958651 0.204625 0.224981 O2-
0.458651 0.204625 0.248911 O2-
0.846743 0.171056 0.215135 O2-
0.346743 0.171056 0.181019 O2-
0.845353 0.439658 0.229695 O2-
0.345353 0.439658 0.205024 O2-
0.775410 0.322583 0.245301 O2-
0.275410 0.322583 0.208931 O2-
0.747295 0.630670 0.180480 O2-
0.247295 0.630670 0.222404 O2-
0.669352 0.527520 0.197014 O2-
0.169352 0.527520 0.223062 O2-
0.667159 0.790584 0.211856 O2-
0.167159 0.790584 0.247709 O2-
0.553292 0.761105 0.202591 O2-
0.053292 0.761105 0.178554 O2-
0.463335 0.697609 0.183373 O2-
0.963335 0.697609 0.208355 O2-
0.350606 0.665087 0.174741 O2-
0.850606 0.665087 0.222407 O2-
0.348215 0.931406 0.189648 O2-
0.848215 0.931406 0.246447 O2-
0.271458 0.824688 0.205437 O2-
0.771458 0.824688 0.248444 O2-
0.241625 0.135280 0.223913 O2-
0.741625 0.135280 0.178202 O2-
0.171199 0.019880 0.240429 O2-
0.671199 0.019880 0.180920 O2-
0.170027 0.286380 0.171360 O2-
0.670027 0.286380 0.205572 O2-
0.055640 0.257004 0.245306 O2-
0.555640 0.257004 0.219856 O2-
0.080441 0.467181 0.200277 O2-
0.580441 0.467181 0.229855 O2-
0.942366 0.484690 0.198698 O2-
0.442366 0.484690 0.228517 O2-
0.964587 0.129985 0.279083 O2-
0.464587 0.129985 0.290583 O2-
0.859372 0.340179 0.271392 O2-
0.359372 0.340179 0.263240 O2-
0.724144 0.518650 0.329109 O2-
0.224144 0.518650 0.259112 O2-
0.607741 0.706904 0.326199 O2-
0.107741 0.706904 0.313979 O2-
0.021852 0.919848 0.307175 O2-
0.521852 0.919848 0.297512 O2-
0.409378 0.749936 0.310105 O2-
0.909378 0.749936 0.322902 O2-
0.290596 0.936774 0.307447 O2-
0.790596 0.936774 0.294420 O2-
0.156445 0.116799 0.281826 O2-
0.656445 0.116799 0.290037 O2-
0.056520 0.325432 0.275313 O2-
0.556520 0.325432 0.261778 O2-
0.495673 0.536371 0.255576 O2-
0.995673 0.536371 0.329691 O2-
0.073889 0.970827 0.271196 O2-
0.573889 0.970827 0.324995 O2-
0.933926 0.994909 0.269929 O2-
0.433926 0.994909 0.322249 O2-
0.958651 0.204625 0.308315 O2-
0.458651 0.204625 0.332244 O2-
0.846743 0.171056 0.298468 O2-
0.346743 0.171056 0.264352 O2-
0.845353 0.439658 0.313029 O2-
0.345353 0.439658 0.288358 O2-
0.775410 0.322583 0.328634 O2-
0.275410 0.322583 0.292264 O2-
0.747295 0.630670 0.263813 O2-
0.247295 0.630670 0.305738 O2-
0.669352 0.527520 0.280347 O2-
0.169352 0.527520 0.306395 O2-
0.667159 0.790584 0.295189 O2-
0.167159 0.790584 0.331043 O2-
0.553292 0.761105 0.285924 O2-
0.053292 0.761105 0.261887 O2-
0.463335 0.697609 0.266706 O2-
0.963335 0.697609 0.291688 O2-
0.350606 0.665087 0.258074 O2-
0.850606 0.665087 0.305740 O2-
0.348215 0.931406 0.272981 O2-
0.848215 0.931406 0.329780 O2-
0.271458 0.824688 0.288770 O2-
0.771458 0.824688 0.331778 O2-
0.241625 0.135280 0.307247 O2-
0.741625 0.135280 0.261536 O2-
0.171199 0.019880 0.323762 O2-
0.671199 0.019880 0.264254 O2-
0.170027 0.286380 0.254694 O2-
0.670027 0.286380 0.288906 O2-
0.055640 0.257004 0.328640 O2-
0.555640 0.257004 0.303189 O2-
0.080441 0.467181 0.283610 O2-
0.580441 0.467181 0.313189 O2-
0.942366 0.484690 0.282031 O2-
0.442366 0.484690 0.311850 O2-
0.964587 0.129985 0.362416 O2-
0.464587 0.129985 0.373916 O2-
0.859372 0.340179 0.354726 O2-
0.359372 0.340179 0.346574 O2-
0.724144 0.518650 0.412442 O2-
0.224144 0.518650 0.342445 O2-
0.607741 0.706904 0.409533 O2-
0.107741 0.706904 0.397313 O2-
0.021852 0.919848 0.390509 O2-
0.521852 0.919848 0.380846 O2-
0.409378 0.749936 0.393438 O2-
0.909378 0.749936 0.406235 O2-
0.290596 0.936774 0.390780 O2-
0.790596 0.936774 0.377754 O2-
0.156445 0.116799 0.365159 O2-
0.656445 0.116799 0.373370 O2-
0.056520 0.325432 0.358646 O2-
0.556520 0.325432 0.345111 O2-
0.495673 0.536371 0.338909 O2-
0.995673 0.536371 0.413025 O2-
0.073889 0.970827 0.354529 O2-
0.573889 0.970827 0.408329 O2-
0.933926 0.994909 0.353262 O2-
0.433926 0.994909 0.405582 O2-
0.958651 0.204625 0.391648 O2-
0.458651 0.204625 0.415577 O2-
0.846743 0.171056 0.381801 O2-
0.346743 0.171056 0.347685 O2-
0.845353 0.439658 0.396362 O2-
0.345353 0.439658 0.371691 O2-
0.775410 0.322583 0.411968 O2-
0.275410 0.322583 0.375598 O2-
0.747295 0.630670 0.347147 O2-
0.247295 0.630670 0.389071 O2-
0.669352 0.527520 0.363680 O2-
0.169352 0.527520 0.389729 O2-
0.667159 0.790584 0.378523 O2-
0.167159 0.790584 0.414376 O2-
0.553292 0.761105 0.369258 O2-
0.053292 0.761105 0.345221 O2-
0.463335 0.697609 0.350040 O2-
0.963335 0.697609 0.375021 O2-
0.350606 0.665087 0.341408 O2-
0.850606 0.665087 0.389074 O2-
0.348215 0.931406 0.356315 O2-
0.848215 0.931406 0.413114 O2-
0.271458 0.824688 0.372104 O2-
0.771458 0.824688 0.415111 O2-
0.241625 0.135280 0.390580 O2-
0.741625 0.135280 0.344869 O2-
0.171199 0.019880 0.407095 O2-
0.671199 0.019880 0.347587 O2-
0.170027 0.286380 0.338027 O2-
0.670027 0.286380 0.372239 O2-
0.055640 0.257004 0.411973 O2-
0.555640 0.257004 0.386522 O2-
0.080441 0.467181 0.366944 O2-
0.580441 0.467181 0.396522 O2-
0.942366 0.484690 0.365364 O2-
0.442366 0.484690 0.395183 O2-
0.964587 0.129985 0.445749 O2-
0.464587 0.129985 0.457249 O2-
0.859372 0.340179 0.438059 O2-
0.359372 0.340179 0.429907 O2-
0.724144 0.518650 0.495776 O2-
0.224144 0.518650 0.425779 O2-
0.607741 0.706904 0.492866 O2-
0.107741 0.706904 0.480646 O2-
0.021852 0.919848 0.473842 O2-
0.521852 0.919848 0.464179 O2-
0.409378 0.749936 0.476772 O2-
0.909378 0.749936 0.489568 O2-
0.290596 0.936774 0.474113 O2-
0.790596 0.936774 0.461087 O2-
0.156445 0.116799 0.448493 O2-
0.656445 0.116799 0.456703 O2-
0.056520 0.325432 0.441980 O2-
0.556520 0.325432 0.428444 O2-
0.495673 0.536371 0.422243 O2-
0.995673 0.536371 0.496358 O2-
0.073889 0.970827 0.437863 O2-
0.573889 0.970827 0.491662 O2-
0.933926 0.994909 0.436596 O2-
0.433926 0.994909 0.488915 O2-
0.958651 0.204625 0.474981 O2-
0.458651 0.204625 0.498911 O2-
0.846743 0.171056 0.465135 O2-
0.346743 0.171056 0.431019 O2-
0.845353 0.439658 0.479695 O2-
0.345353 0.439658 0.455024 O2-
0.775410 0.322583 0.495301 O2-
0.275410 0.322583 0.458931 O2-
0.747295 0.630670 0.430480 O2-
0.247295 0.630670 0.472404 O2-
0.669352 0.527520 0.447014 O2-
0.169352 0.527520 0.473062 O2-
0.667159 0.790584 0.461856 O2-
0.167159 0.790584 0.497709 O2-
0.553292 0.761105 0.452591 O2-
0.053292 0.761105 0.428554 O2-
0.463335 0.697609 0.433373 O2-
0.963335 0.697609 0.458355 O2-
0.350606 0.665087 0.424741 O2-
0.850606 0.665087 0.472407 O2-
0.348215 0.931406 0.439648 O2-
0.848215 0.931406 0.496447 O2-
0.271458 0.824688 0.455437 O2-
0.771458 0.824688 0.498444 O2-
0.241625 0.135280 0.473913 O2-
0.741625 0.135280 0.428202 O2-
0.171199 0.019880 0.490429 O2-
0.671199 0.019880 0.430920 O2-
0.170027 0.286380 0.421360 O2-
0.670027 0.286380 0.455572 O2-
0.055640 0.257004 0.495306 O2-
0.555640 0.257004 0.469856 O2-
0.080441 0.467181 0.450277 O2-
0.580441 0.467181 0.479855 O2-
0.942366 0.484690 0.448698 O2-
0.442366 0.484690 0.478517 O2-
0.964587 0.129985 0.529083 O2-
0.464587 0.129985 0.540583 O2-
0.859372 0.340179 0.521392 O2-
0.359372 0.340179 0.513240 O2-
0.724144 0.518650 0.579109 O2-
0.224144 0.518650 0.509112 O2-
0.607741 0.706904 0.576199 O2-
0.107741 0.706904 0.563979 O2-
0.021852 0.919848 0.557175 O2-
0.521852 0.919848 0.547512 O2-
0.409378 0.749936 0.560105 O2-
0.909378 0.749936 0.572902 O2-
0.290596 0.936774 0.557447 O2-
0.790596 0.936774 0.544420 O2-
0.156445 0.116799 0.531826 O2-
0.656445 0.116799 0.540037 O2-
0.056520 0.325432 0.525313 O2-
0.556520 0.325432 0.511778 O2-
0.495673 0.536371 0.505576 O2-
0.995673 0.536371 0.579691 O2-
0.073889 0.970827 0.521196 O2-
0.573889 0.970827 0.574995 O2-
0.933926 0.994909 0.519929 O2-
0.433926 0.994909 0.572249 O2-
0.958651 0.204625 0.558315 O2-
0.458651 0.204625 0.582244 O2-
0.846743 0.171056 0.548468 O2-
0.346743 0.171056 0.514352 O2-
0.845353 0.439658 0.563029 O2-
0.345353 0.439658 0.538358 O2-
0.775410 0.322583 0.578634 O2-
0.275410 0.322583 0.542264 O2-
0.747295 0.630670 0.513813 O2-
0.247295 0.630670 0.555738 O2-
0.669352 0.527520 0.530347 O2-
0.169352 0.527520 0.556395 O2-
0.667159 0.790584 0.545189 O2-
0.167159 0.790584 0.581043 O2-
0.553292 0.761105 0.535924 O2-
0.053292 0.761105 0.511887 O2-
0.463335 0.697609 0.516706 O2-
0.963335 0.697609 0.541688 O2-
0.350606 0.665087 0.508074 O2-
0.850606 0.665087 0.555740 O2-
0.348215 0.931406 0.522981 O2-
0.848215 0.931406 0.579780 O2-
0.271458 0.824688 0.538770 O2-
0.771458 0.824688 0.581778 O2-
0.241625 0.135280 0.557247 O2-
0.741625 0.135280 0.511536 O2-
0.171199 0.019880 0.573762 O2-
0.671199 0.019880 0.514254 O2-
0.170027 0.286380 0.504694 O2-
0.670027 0.286380 0.538906 O2-
0.055640 0.257004 0.578640 O2-
0.555640 0.257004 0.553189 O2-
0.080441 0.467181 0.533610 O2-
0.580441 0.467181 0.563189 O2-
0.942366 0.484690 0.532031 O2-
0.442366 0.484690 0.561850 O2-
