Li61 P7 N32                             
   1.00000000000000     
     0.0063370587359541    9.5358221346604086    0.0713300659311533
    -0.0352270673453802    0.0724241551467265    9.5936228901222123
     9.5748958150086683    0.0063247607296874   -0.0344057368542956
   Li   P    N 
    61     7    32
Direct
  0.5024942695104573  0.9967190547953019  0.4999595406474892
 -0.0042788602326236  0.4945892976454431 -0.0021601783682313
  0.4976396071858145  0.0005263465541102  0.9993163110014494
 -0.0010683455482506  0.9870061979224878  0.5024579965676781
  0.4943242863841902  0.5053341474982143  0.9977033790215063
  0.9866921753780847  0.4860726712493805  0.4966844723345300
  0.7507270065562225 -0.0128988457894006  0.5016961990303361
  0.2474399958981665 -0.0055934818020897  0.4901671219186156
  0.7669729847024629  0.4859463421206694  0.5004516135256152
  0.2064100224745707  0.4505029293794657  0.5335863913716037
  0.2591719571970446  0.9923271049093920  0.9831187916610297
  0.7354768401270385  0.9948728878880642  0.0036427261858353
  0.5750197811027691  0.5750125194095885  0.4133980595990984
  0.4938852363231773  0.2482528322532934  0.0084770638693123
  0.4961197291442112  0.7532995950598342 -0.0103272619117749
  0.0174579844883403  0.4681480893635657  0.2386737187108293
 -0.0074229266445957  0.4864334251296012  0.7496771102797268
  0.2476057547858209  0.2806288742618309  0.2430379537616950
  0.2474797894184438  0.7728431152607270  0.7994120479127304
  0.2651984208408105  0.2655650028179757  0.7420596460059583
  0.2940137230075989  0.8022161758502765  0.3037011575912514
  0.7681322903238192  0.2882447935452702  0.2763565402917218
  0.7424541460001894  0.7233856306699953  0.7374832692140805
  0.7652735865077154  0.2248808999727215  0.7729891205721083
  0.7695947659459349  0.7848936952336896  0.2369465571326212
  0.0053087126355336  0.2133216094510920  0.2485861390349693
  0.9918410259921759  0.7392122995965743  0.7594603075441596
  0.2560260103545484  0.2274199444690063  0.4937073621918890
  0.2539646563545189  0.7644450081478495  0.5465007246636330
  0.7385658495541346  0.2336968400845356  0.5100132992641291
  0.7422682881410378  0.7376787270998527  0.5012509168670093
  0.7806616590192265  0.5340389373059620  0.2533335492058085
  0.4941577040255595  0.5000024325865188  0.7759332160980672
  0.3155584721765692  0.5524783955879127  0.2166237476287172
  0.2425392590801590  0.5100154993780613  0.7507585313836714
  0.5166944902872078  0.7321720606258918  0.2332017103420007
  0.5042473740136698  0.2531535124249311  0.7588218099610226
  0.2544813539962384  0.0279931212026848  0.2172552386891712
  0.2362803351580335  0.0213369253527690  0.7363331601851246
  0.2463828669893187  0.2334697781522648  0.9864650616275614
  0.2484246770223120  0.7545315069246961  0.0434613145173757
  0.7560077989581384  0.9755301771566044  0.7529348132902611
  0.7640781580087458  0.0301497281500418  0.2570390036022529
  0.7496123390189349  0.7545598305232055  0.9850916290378549
  0.7422358652808175  0.2357495975887667  0.0264861152930126
  0.0152163003914578  0.2367989695586230  0.7627983208811707
  0.1747185986853547  0.6230902185260513  0.3819161195556621
  0.5245107283606791  0.2324225058175481  0.2758405243526521
  0.5084913012183057  0.7474102814314857  0.7355412852311921
  0.9921125428413196  0.2558729922694610  0.0035463296449355
 -0.0012396026912238  0.7303213459947006  0.9971913441142076
  0.4912757882352882  0.2213514996323611  0.5142066572000609
  0.4983129374957283  0.7738076964419790  0.4918292893217649
  0.5537646021158014  0.4534321903933068  0.2050474676534303
  0.4102427189832173  0.5776801419285269  0.5752652303457150
  0.0086251218006536  0.9750353644933114  0.2623415566675408
  0.9968887246359677  0.9882560397134915  0.7393561287289470
  0.4116245962813845  0.4250522552691918  0.4096701605792407
  0.5708361811592388  0.4182484113762835  0.5772085331306792
  0.7440858365130909  0.4881738230310733  0.7463674631578602
  0.0184419648384364  0.7335273921387409  0.2327149298539450
  0.9975430366195096  0.9922867627368309  0.9991713292436327
  0.7502896438466276  0.4963161532888060 -0.0008063769655312
  0.2418634357716693  0.4939093510291131 -0.0014403300954332
  0.9943352380228219  0.7412227171998625  0.5029355009549981
  0.9969258811096950  0.2341338575010724  0.5041311776877443
  0.5044718838083060  0.9936564670282539  0.2460415692715449
  0.4968826308561863 -0.0023626319128791  0.7530072796237461
  0.6165273901490292  0.6123253819393139  0.6172962957690991
  0.6200156498366814  0.3752432904572160  0.3843354643004521
  0.8982226553608023  0.8903864718095638  0.1031389590171583
  0.8938001264491641  0.0946863011997033  0.8978416612958200
  0.1006573409828756  0.8878679857074904  0.8966609608856221
  0.1011028250866717  0.0952361854754481  0.0989607482101173
  0.3789769693767713  0.6344170754559906  0.3833691660815028
  0.3764444528039498  0.3768633763205039  0.6182899325720650
  0.0957023170325138  0.3332478329064840  0.3950770297749753
  0.0954194881679558  0.6322271715167205  0.6027356737023298
  0.1057025109294720  0.1332255019886448  0.6022925493801513
  0.1068764689729298  0.8359896036618943  0.4054203982266377
  0.8929565262477227  0.1341469976417591  0.4015389822833715
  0.8905843986744191  0.8418969850403690  0.6046928354565141
  0.8517583539475398  0.3975097469690222  0.1073759466517986
  0.8503991122504038  0.5939680513433393  0.8906068041095805
  0.1405396953621325  0.5906264738399425  0.1105338214365504
  0.1444511737695839  0.3928864329829956  0.8922341722413378
  0.3998879189201541  0.8928476632469436  0.1451907146428480
  0.3935213951326835  0.1045740628457718  0.8526087616009926
  0.3938741650457718  0.0943504393393208  0.3512095572164825
  0.3890052838359457  0.8987951829579519  0.6498412008895302
  0.3506734602489793  0.3900766703478130  0.0950735893770817
  0.3400347255040577  0.6088205935748208  0.9055041551122158
  0.6071118104034020  0.0941119343431736  0.6533767258385755
  0.6132090510804020  0.8961561081086999  0.3464029467706607
  0.6506497158465310  0.6087784167927233  0.0985258018922301
  0.6470839909517476  0.3873859285106122  0.9047972964464374
  0.8980430320551775  0.3361979136590699  0.6122616287168551
  0.9003802033201620  0.6436787411633004  0.3890893985746107
  0.6016508597516449  0.0998311853110498  0.1449477126871879
  0.5968697246589569  0.8896812556465412  0.8531206203450221
 
  0.00000000E+00  0.00000000E+00  0.00000000E+00
  0.00000000E+00  0.00000000E+00  0.00000000E+00
  0.00000000E+00  0.00000000E+00  0.00000000E+00
  0.00000000E+00  0.00000000E+00  0.00000000E+00
  0.00000000E+00  0.00000000E+00  0.00000000E+00
  0.00000000E+00  0.00000000E+00  0.00000000E+00
  0.00000000E+00  0.00000000E+00  0.00000000E+00
  0.00000000E+00  0.00000000E+00  0.00000000E+00
  0.00000000E+00  0.00000000E+00  0.00000000E+00
  0.00000000E+00  0.00000000E+00  0.00000000E+00
  0.00000000E+00  0.00000000E+00  0.00000000E+00
  0.00000000E+00  0.00000000E+00  0.00000000E+00
  0.00000000E+00  0.00000000E+00  0.00000000E+00
  0.00000000E+00  0.00000000E+00  0.00000000E+00
  0.00000000E+00  0.00000000E+00  0.00000000E+00
  0.00000000E+00  0.00000000E+00  0.00000000E+00
  0.00000000E+00  0.00000000E+00  0.00000000E+00
  0.00000000E+00  0.00000000E+00  0.00000000E+00
  0.00000000E+00  0.00000000E+00  0.00000000E+00
  0.00000000E+00  0.00000000E+00  0.00000000E+00
  0.00000000E+00  0.00000000E+00  0.00000000E+00
  0.00000000E+00  0.00000000E+00  0.00000000E+00
  0.00000000E+00  0.00000000E+00  0.00000000E+00
  0.00000000E+00  0.00000000E+00  0.00000000E+00
  0.00000000E+00  0.00000000E+00  0.00000000E+00
  0.00000000E+00  0.00000000E+00  0.00000000E+00
  0.00000000E+00  0.00000000E+00  0.00000000E+00
  0.00000000E+00  0.00000000E+00  0.00000000E+00
  0.00000000E+00  0.00000000E+00  0.00000000E+00
  0.00000000E+00  0.00000000E+00  0.00000000E+00
  0.00000000E+00  0.00000000E+00  0.00000000E+00
  0.00000000E+00  0.00000000E+00  0.00000000E+00
  0.00000000E+00  0.00000000E+00  0.00000000E+00
  0.00000000E+00  0.00000000E+00  0.00000000E+00
  0.00000000E+00  0.00000000E+00  0.00000000E+00
  0.00000000E+00  0.00000000E+00  0.00000000E+00
  0.00000000E+00  0.00000000E+00  0.00000000E+00
  0.00000000E+00  0.00000000E+00  0.00000000E+00
  0.00000000E+00  0.00000000E+00  0.00000000E+00
  0.00000000E+00  0.00000000E+00  0.00000000E+00
  0.00000000E+00  0.00000000E+00  0.00000000E+00
  0.00000000E+00  0.00000000E+00  0.00000000E+00
  0.00000000E+00  0.00000000E+00  0.00000000E+00
  0.00000000E+00  0.00000000E+00  0.00000000E+00
  0.00000000E+00  0.00000000E+00  0.00000000E+00
  0.00000000E+00  0.00000000E+00  0.00000000E+00
  0.00000000E+00  0.00000000E+00  0.00000000E+00
  0.00000000E+00  0.00000000E+00  0.00000000E+00
  0.00000000E+00  0.00000000E+00  0.00000000E+00
  0.00000000E+00  0.00000000E+00  0.00000000E+00
  0.00000000E+00  0.00000000E+00  0.00000000E+00
  0.00000000E+00  0.00000000E+00  0.00000000E+00
  0.00000000E+00  0.00000000E+00  0.00000000E+00
  0.00000000E+00  0.00000000E+00  0.00000000E+00
  0.00000000E+00  0.00000000E+00  0.00000000E+00
  0.00000000E+00  0.00000000E+00  0.00000000E+00
  0.00000000E+00  0.00000000E+00  0.00000000E+00
  0.00000000E+00  0.00000000E+00  0.00000000E+00
  0.00000000E+00  0.00000000E+00  0.00000000E+00
  0.00000000E+00  0.00000000E+00  0.00000000E+00
  0.00000000E+00  0.00000000E+00  0.00000000E+00
  0.00000000E+00  0.00000000E+00  0.00000000E+00
  0.00000000E+00  0.00000000E+00  0.00000000E+00
  0.00000000E+00  0.00000000E+00  0.00000000E+00
  0.00000000E+00  0.00000000E+00  0.00000000E+00
  0.00000000E+00  0.00000000E+00  0.00000000E+00
  0.00000000E+00  0.00000000E+00  0.00000000E+00
  0.00000000E+00  0.00000000E+00  0.00000000E+00
  0.00000000E+00  0.00000000E+00  0.00000000E+00
  0.00000000E+00  0.00000000E+00  0.00000000E+00
  0.00000000E+00  0.00000000E+00  0.00000000E+00
  0.00000000E+00  0.00000000E+00  0.00000000E+00
  0.00000000E+00  0.00000000E+00  0.00000000E+00
  0.00000000E+00  0.00000000E+00  0.00000000E+00
  0.00000000E+00  0.00000000E+00  0.00000000E+00
  0.00000000E+00  0.00000000E+00  0.00000000E+00
  0.00000000E+00  0.00000000E+00  0.00000000E+00
  0.00000000E+00  0.00000000E+00  0.00000000E+00
  0.00000000E+00  0.00000000E+00  0.00000000E+00
  0.00000000E+00  0.00000000E+00  0.00000000E+00
  0.00000000E+00  0.00000000E+00  0.00000000E+00
  0.00000000E+00  0.00000000E+00  0.00000000E+00
  0.00000000E+00  0.00000000E+00  0.00000000E+00
  0.00000000E+00  0.00000000E+00  0.00000000E+00
  0.00000000E+00  0.00000000E+00  0.00000000E+00
  0.00000000E+00  0.00000000E+00  0.00000000E+00
  0.00000000E+00  0.00000000E+00  0.00000000E+00
  0.00000000E+00  0.00000000E+00  0.00000000E+00
  0.00000000E+00  0.00000000E+00  0.00000000E+00
  0.00000000E+00  0.00000000E+00  0.00000000E+00
  0.00000000E+00  0.00000000E+00  0.00000000E+00
  0.00000000E+00  0.00000000E+00  0.00000000E+00
  0.00000000E+00  0.00000000E+00  0.00000000E+00
  0.00000000E+00  0.00000000E+00  0.00000000E+00
  0.00000000E+00  0.00000000E+00  0.00000000E+00
  0.00000000E+00  0.00000000E+00  0.00000000E+00
  0.00000000E+00  0.00000000E+00  0.00000000E+00
  0.00000000E+00  0.00000000E+00  0.00000000E+00
  0.00000000E+00  0.00000000E+00  0.00000000E+00
  0.00000000E+00  0.00000000E+00  0.00000000E+00
