Li61 P7 N32                             
   1.00000000000000     
     0.0121705573355933    9.5668969197359814    0.0016486821686660
    -0.0278111124671732    0.0023770741213420    9.6004636849171821
     9.6076718565078902    0.0125319615919095   -0.0273063980833653
   Li   P    N 
    61     7    32
Direct
  0.5085325704823681 -0.0064206793188749  0.4976263540356232
  0.0001784569135864  0.4898459897186363 -0.0126682746635644
  0.4960652156762863 -0.0007618508950841 -0.0015546628161738
  0.0010468196329636 -0.0043630059344839  0.4984816397321463
  0.4943850705501275  0.4978984250615783 -0.0072454742070146
 -0.0072955701457664  0.4926449307527933  0.4907162291910849
  0.7567609225781431  0.0001903251167000  0.5168670189400768
  0.2492963827184806  0.0024399584428685  0.5033235071323228
  0.7690310470518607  0.5098849346469686  0.5055222600894076
  0.2210592645123839  0.4933115863179982  0.5063409297183495
  0.2573827595852336 -0.0076304537626718 -0.0132157841644643
  0.7347457088042191 -0.0057779547659388  0.0115013122452346
  0.5657704753254404  0.5787469550064230  0.4130090960910991
  0.4925347980537234  0.2425425713380812  0.0155190109732264
  0.4934366795913128  0.7532071937525155  0.0005375463291654
  0.0255546467253321  0.4473947124529788  0.2332941357830267
  0.0460342397211191  0.4811493848672436  0.7307947096101066
  0.2670117846907454  0.2664329363340169  0.2467077504914110
  0.1967868919154060  0.7371110391316426  0.7889919776883456
  0.2617566069938727  0.2436548709011898  0.7322267527823597
  0.3076085881815435  0.8183680342692554  0.3263568420590007
  0.7871052813039923  0.2949856337142670  0.2868619855145236
  0.7066340834859407  0.7617331896979990  0.7052903122106793
  0.7633623671971564  0.2296026835079780  0.7812022616257948
  0.7447250891668814  0.7845665372032076  0.2112061711056511
  0.0201235599065655  0.1878472624863412  0.2663480086100403
  0.9423668576634029  0.7153695688496490  0.7431561822710629
  0.2451392069254555  0.2478166564688710  0.5029277484956265
  0.2481725861756212  0.7556637183746900  0.5407611520797715
  0.7382027043340786  0.2455746733454396  0.5168308940183153
  0.7416000162346285  0.7568980072843410  0.4670939230290203
  0.7743221898795311  0.5274239842385164  0.2629476368265838
  0.5704203553789828  0.5377997927463423  0.7854123366261221
  0.3084801167778860  0.5396294972295033  0.2279443786714940
  0.3014220469184494  0.4675264571237344  0.7661988457609886
  0.5009063988747725  0.7260183491260073  0.2395180588913955
  0.5037629572879676  0.2647345108849415  0.7652240770996660
  0.2478278362907160  0.0184443381045048  0.2248860807862855
  0.2332189698886767  0.0023865426490962  0.7487444242140939
  0.2466779687684064  0.2344668999686799  0.9851140826220959
  0.2464571858016254  0.7570992911043730  0.0454302405092114
  0.7525222095874718  0.9913760149188020  0.7693025517482474
  0.7657882055495647  0.0299500796103979  0.2686464741420069
  0.7414089329338596  0.7543743838146539  0.9647899132250654
  0.7402438077416796  0.2374381868582405  0.0349292699038462
  0.0137620063927501  0.2368789879017127  0.7721107443398579
  0.1514200636070833  0.6586200117868893  0.3262837220274706
  0.5462156458083677  0.2261013813949068  0.2905909480239983
  0.4627050249428480  0.7518954513713664  0.7617581656325267
 -0.0122415937087834  0.2496257950608338  0.0175066950981683
 -0.0046169586180830  0.7362885387246497 -0.0264762957287696
  0.4795422199332431  0.2103319187233028  0.5261663496742115
  0.4966897280220836  0.7702424081123929  0.5083919533982725
  0.5548843726623736  0.4480081500454752  0.1995529953495956
  0.4165464268282683  0.5709738081994817  0.5875270333845607
  0.0118714810928647 -0.0628941890786771  0.2510460843553808
 -0.0069038535839148 -0.0151643878784980  0.7351147302391562
  0.4190057531444446  0.4175846829516907  0.4118590300329111
  0.5750733205089356  0.4185861728412490  0.5776165399912541
  0.7938109612880148  0.4738926716101560  0.7445383683049032
  0.9671600635503277  0.6896926101276210  0.1865048262050369
 -0.0054074946257530 -0.0099999416421641 -0.0035019434184736
  0.7551002892123082  0.4982107857337522  0.0021948081411660
  0.2454953847160407  0.4952735402855574 -0.0002749880994887
 -0.0053379230899162  0.7501767083131001  0.4997920799212728
 -0.0034372300713829  0.2397802077897998  0.5115673928631972
  0.5029137595409717 -0.0086345023290496  0.2454556623846846
  0.4955751650087273  0.0015470014854451  0.7528116173100349
  0.6141844080261052  0.6194606546721182  0.6091481264801706
  0.6295270733511411  0.3856868938704474  0.3811073887964685
  0.8930880728715160  0.8808819807259552  0.0931093448565356
  0.8912107782711789  0.0967881203929019  0.9013925954078004
  0.0990161556077348  0.8927857893655353  0.8930554119641524
  0.0979945769151263  0.0874537662275258  0.1030613382692505
  0.3622209403731999  0.6306044746007100  0.3942904285621921
  0.3770707247719587  0.3684717512871256  0.6106048140944893
  0.0947257356475934  0.3336781199789463  0.3965315929595277
  0.0855283061066062  0.6450167490918726  0.6079170758238926
  0.1032946211415187  0.1388518564484459  0.6092914521163085
  0.1117397311060451  0.8485702665258710  0.4099988951518284
  0.8868642576922359  0.1424063485909278  0.4127815351093034
  0.8830978405673893  0.8488933655475192  0.5939817669796161
  0.8555273843440884  0.4016959585027213  0.1107280447585327
  0.8545251997243015  0.5965221412234877  0.8959215816952866
  0.1414803738294050  0.5876011562578439  0.1087204419644551
  0.1536267559681302  0.3918224468953284  0.8914642979539006
  0.3968292545131851  0.8907079758207799  0.1458659364962848
  0.3937417908084914  0.1056429230379023  0.8544762155089831
  0.3972505607281166  0.0920507394407226  0.3489714095401040
  0.3894432738586158  0.9069762039522790  0.6461479295138540
  0.3525834285081795  0.3903079520455980  0.0969519954545919
  0.3446733850389204  0.6117801310832285  0.9071070180351656
  0.6090732830987456  0.0998007520086944  0.6575098967025249
  0.6080406412020234  0.8892563908828566  0.3448317885388164
  0.6511697603042612  0.6093564284550518  0.0975485877277146
  0.6549123459034500  0.3875694485887143  0.9057913376435290
  0.9040911255617420  0.3451644397440627  0.6182646103435058
  0.9071496779128568  0.6494983200721014  0.3825189524813002
  0.6039922329511718  0.0965402802266471  0.1467814519555563
  0.5924293971014497  0.8903882001606718  0.8520903306550729
 
  0.00000000E+00  0.00000000E+00  0.00000000E+00
  0.00000000E+00  0.00000000E+00  0.00000000E+00
  0.00000000E+00  0.00000000E+00  0.00000000E+00
  0.00000000E+00  0.00000000E+00  0.00000000E+00
  0.00000000E+00  0.00000000E+00  0.00000000E+00
  0.00000000E+00  0.00000000E+00  0.00000000E+00
  0.00000000E+00  0.00000000E+00  0.00000000E+00
  0.00000000E+00  0.00000000E+00  0.00000000E+00
  0.00000000E+00  0.00000000E+00  0.00000000E+00
  0.00000000E+00  0.00000000E+00  0.00000000E+00
  0.00000000E+00  0.00000000E+00  0.00000000E+00
  0.00000000E+00  0.00000000E+00  0.00000000E+00
  0.00000000E+00  0.00000000E+00  0.00000000E+00
  0.00000000E+00  0.00000000E+00  0.00000000E+00
  0.00000000E+00  0.00000000E+00  0.00000000E+00
  0.00000000E+00  0.00000000E+00  0.00000000E+00
  0.00000000E+00  0.00000000E+00  0.00000000E+00
  0.00000000E+00  0.00000000E+00  0.00000000E+00
  0.00000000E+00  0.00000000E+00  0.00000000E+00
  0.00000000E+00  0.00000000E+00  0.00000000E+00
  0.00000000E+00  0.00000000E+00  0.00000000E+00
  0.00000000E+00  0.00000000E+00  0.00000000E+00
  0.00000000E+00  0.00000000E+00  0.00000000E+00
  0.00000000E+00  0.00000000E+00  0.00000000E+00
  0.00000000E+00  0.00000000E+00  0.00000000E+00
  0.00000000E+00  0.00000000E+00  0.00000000E+00
  0.00000000E+00  0.00000000E+00  0.00000000E+00
  0.00000000E+00  0.00000000E+00  0.00000000E+00
  0.00000000E+00  0.00000000E+00  0.00000000E+00
  0.00000000E+00  0.00000000E+00  0.00000000E+00
  0.00000000E+00  0.00000000E+00  0.00000000E+00
  0.00000000E+00  0.00000000E+00  0.00000000E+00
  0.00000000E+00  0.00000000E+00  0.00000000E+00
  0.00000000E+00  0.00000000E+00  0.00000000E+00
  0.00000000E+00  0.00000000E+00  0.00000000E+00
  0.00000000E+00  0.00000000E+00  0.00000000E+00
  0.00000000E+00  0.00000000E+00  0.00000000E+00
  0.00000000E+00  0.00000000E+00  0.00000000E+00
  0.00000000E+00  0.00000000E+00  0.00000000E+00
  0.00000000E+00  0.00000000E+00  0.00000000E+00
  0.00000000E+00  0.00000000E+00  0.00000000E+00
  0.00000000E+00  0.00000000E+00  0.00000000E+00
  0.00000000E+00  0.00000000E+00  0.00000000E+00
  0.00000000E+00  0.00000000E+00  0.00000000E+00
  0.00000000E+00  0.00000000E+00  0.00000000E+00
  0.00000000E+00  0.00000000E+00  0.00000000E+00
  0.00000000E+00  0.00000000E+00  0.00000000E+00
  0.00000000E+00  0.00000000E+00  0.00000000E+00
  0.00000000E+00  0.00000000E+00  0.00000000E+00
  0.00000000E+00  0.00000000E+00  0.00000000E+00
  0.00000000E+00  0.00000000E+00  0.00000000E+00
  0.00000000E+00  0.00000000E+00  0.00000000E+00
  0.00000000E+00  0.00000000E+00  0.00000000E+00
  0.00000000E+00  0.00000000E+00  0.00000000E+00
  0.00000000E+00  0.00000000E+00  0.00000000E+00
  0.00000000E+00  0.00000000E+00  0.00000000E+00
  0.00000000E+00  0.00000000E+00  0.00000000E+00
  0.00000000E+00  0.00000000E+00  0.00000000E+00
  0.00000000E+00  0.00000000E+00  0.00000000E+00
  0.00000000E+00  0.00000000E+00  0.00000000E+00
  0.00000000E+00  0.00000000E+00  0.00000000E+00
  0.00000000E+00  0.00000000E+00  0.00000000E+00
  0.00000000E+00  0.00000000E+00  0.00000000E+00
  0.00000000E+00  0.00000000E+00  0.00000000E+00
  0.00000000E+00  0.00000000E+00  0.00000000E+00
  0.00000000E+00  0.00000000E+00  0.00000000E+00
  0.00000000E+00  0.00000000E+00  0.00000000E+00
  0.00000000E+00  0.00000000E+00  0.00000000E+00
  0.00000000E+00  0.00000000E+00  0.00000000E+00
  0.00000000E+00  0.00000000E+00  0.00000000E+00
  0.00000000E+00  0.00000000E+00  0.00000000E+00
  0.00000000E+00  0.00000000E+00  0.00000000E+00
  0.00000000E+00  0.00000000E+00  0.00000000E+00
  0.00000000E+00  0.00000000E+00  0.00000000E+00
  0.00000000E+00  0.00000000E+00  0.00000000E+00
  0.00000000E+00  0.00000000E+00  0.00000000E+00
  0.00000000E+00  0.00000000E+00  0.00000000E+00
  0.00000000E+00  0.00000000E+00  0.00000000E+00
  0.00000000E+00  0.00000000E+00  0.00000000E+00
  0.00000000E+00  0.00000000E+00  0.00000000E+00
  0.00000000E+00  0.00000000E+00  0.00000000E+00
  0.00000000E+00  0.00000000E+00  0.00000000E+00
  0.00000000E+00  0.00000000E+00  0.00000000E+00
  0.00000000E+00  0.00000000E+00  0.00000000E+00
  0.00000000E+00  0.00000000E+00  0.00000000E+00
  0.00000000E+00  0.00000000E+00  0.00000000E+00
  0.00000000E+00  0.00000000E+00  0.00000000E+00
  0.00000000E+00  0.00000000E+00  0.00000000E+00
  0.00000000E+00  0.00000000E+00  0.00000000E+00
  0.00000000E+00  0.00000000E+00  0.00000000E+00
  0.00000000E+00  0.00000000E+00  0.00000000E+00
  0.00000000E+00  0.00000000E+00  0.00000000E+00
  0.00000000E+00  0.00000000E+00  0.00000000E+00
  0.00000000E+00  0.00000000E+00  0.00000000E+00
  0.00000000E+00  0.00000000E+00  0.00000000E+00
  0.00000000E+00  0.00000000E+00  0.00000000E+00
  0.00000000E+00  0.00000000E+00  0.00000000E+00
  0.00000000E+00  0.00000000E+00  0.00000000E+00
  0.00000000E+00  0.00000000E+00  0.00000000E+00
  0.00000000E+00  0.00000000E+00  0.00000000E+00
