Li73 P24 N1 O95                         
   1.00000000000000     
    14.6851804008332181    0.0028278563987972    0.0000606328314934
     0.0020199368443171   10.5814467503244245    0.0148452190936579
     0.0000344303661018    0.0173028582127314   12.3381985844225479
   Li   P    N    O 
    73    24     1    95
Direct
  0.1621466460302027  0.4132158728142314 -0.0037630442293395
  0.1684666033868009  0.4228940610315678  0.5034612777502213
  0.1640006782897040  0.9263155011877118  0.0002178460714095
  0.1690286949537988  0.9224680512521999  0.5005366133861873
  0.5068200267673443  0.4226082271904259 -0.0030024597695465
  0.5028427214431217  0.4226171193285183  0.5016679659573481
  0.5055718240155238  0.9219159702511213 -0.0016664754820120
  0.5041757639017931  0.9237946100009470  0.5003883393573191
  0.8368794347393721  0.4221293890511890 -0.0002315285288728
  0.8364113516426500  0.4215489660577018  0.4998056346226314
  0.8395488850750549  0.9239254488525954 -0.0014780516619518
  0.8367088440752972  0.9236071833381724  0.4996119032272361
  0.0041497722745540  0.0793687856542198  0.2452730048079906
  0.0019554151364810  0.0756034221155077  0.7526275960137270
 -0.0006147078777724  0.5812580792859107  0.2494446595424604
  0.0020626815020900  0.5770480107111577  0.7506348493030121
  0.3369235555624125  0.0720295797885985  0.2511349729300461
  0.3362739055991948  0.0780595421133109  0.7497265962729665
  0.3531727132437522  0.6006164915824900  0.2670052233268816
  0.3352692074621006  0.5749878919140512  0.7484388006048769
  0.6735220080069593  0.0768229294152222  0.2490387559659793
  0.6716744110678935  0.0773220470576407  0.7496131353820816
  0.6698442528769230  0.5796323593288069  0.2499909844925667
  0.6709812475012840  0.5772236793899863  0.7496311174831051
  0.1648359584726911  0.1604154601604113  0.1263781859391828
  0.1683869087926796  0.1624371311463057  0.6276713126848942
  0.1641287196127179  0.6708721888552178  0.1247979569565229
  0.1688541150242918  0.6638917600854531  0.6276822253788170
  0.5078633689921961  0.1580776637606964  0.1261695907806386
  0.5033196808049372  0.1636222092879142  0.6262990718091082
  0.5059799072565457  0.6661002980963259  0.1238164785397442
  0.5035158611478547  0.6636461404543561  0.6279084193113190
  0.8497970030343069  0.1626142757804092  0.1241691155312633
  0.8364561784306744  0.1633361170230581  0.6258805544577905
  0.8356376535357708  0.6647275713938439  0.1260557554949503
  0.8365626363689695  0.6630048972415903  0.6258403806820007
  0.0011633642544051  0.3350389656138006  0.1243764243727271
  0.0022817773368343  0.3353363828860030  0.6248735077131981
  0.0020544716499278  0.8439458470695324  0.1215376123680960
  0.0018546185443296  0.8364434314797931  0.6229768644807047
  0.3519635727781855  0.3130099586351653  0.1202268153110992
  0.3360547675032328  0.3369207451065879  0.6245590803219407
  0.3358784858389923  0.8385107506415219  0.1222012181834053
  0.3367007367394559  0.8379488231935913  0.6244308507031110
  0.6717661446279597  0.3353773321058341  0.1235784800109888
  0.6699799425833048  0.3363392343884926  0.6239920944954962
  0.6716838249745070  0.8375115100614571  0.1229067517702108
  0.6700401372327409  0.8365629862288899  0.6225441910899654
  0.0015411882803419  0.3355838551688236  0.3752711211318441
  0.0015711676257572  0.3302013139225242  0.8788299895626251
  0.0018023739384358  0.8374071294936104  0.3765989189530550
  0.0015749348097907  0.8401848661858854  0.8763265105131942
  0.3360646504948728  0.3377854939702118  0.3780348908736191
  0.3355421550526116  0.3326117995420708  0.8748384203994654
  0.3365667424038982  0.8408986251216436  0.3800942182432306
  0.3353902751084052  0.8388792383733767  0.8727591645804050
  0.6678675957637749  0.3371412599946290  0.3763764007962194
  0.6714971469460004  0.3354116461681764  0.8759339636635762
  0.6709002726331974  0.8372164165708191  0.3773520619039806
  0.6715074674545197  0.8375874327531300  0.8760143226250001
  0.1683350591911270  0.1609693471511900  0.3737281924888106
  0.1646557475429615  0.1594163809745981  0.8758347664425534
  0.1688761241715339  0.6649404706024102  0.3755333866422210
  0.1669613699905427  0.6635899895410505  0.8734587795571326
  0.5024841262528139  0.1624031370765219  0.3730913872774081
  0.5056088096097425  0.1620250488834071  0.8729749644915632
  0.5075552572816439  0.6663859591480628  0.3782116783121037
  0.5069679017027459  0.6647150504326269  0.8701475028348512
  0.8363495289250180  0.1637764978766930  0.3726299083215485
  0.8386453330647557  0.1610989717323936  0.8726722568125745
  0.8350382513478128  0.6637674408384621  0.3746309826197027
  0.8360978921919044  0.6636081264386469  0.8725871809828918
  0.2861598590469476  0.4907667757233111  0.1429240835296104
  0.1669963368617797  0.4128543397610469  0.2547813241312749
  0.1664080497934479  0.4112898523910516  0.7511197320251944
  0.1680781719021398  0.9110934864321684  0.2512441154434770
  0.1672069990741850  0.9108993338297618  0.7493078187914921
  0.4967218942542018  0.4157412137506071  0.2481008258245728
  0.5009026443377186  0.4117520471460697  0.7501581706443626
  0.5017278216848547  0.9107537950338509  0.2503975089125001
  0.5014389793931896  0.9129792289650072  0.7489902442028944
  0.8311115734431310  0.4144451061176312  0.2500824237223359
  0.8332689895232415  0.4124103610375591  0.7497839091792685
  0.8329227950716827  0.9114524379155012  0.2511018391540046
  0.8326907013309728  0.9111066335235812  0.7477633998344965
  0.0006398610194919  0.0906721811793245  0.0030578239890972
  0.0001604756206454  0.0882335055238768  0.5001477484299767
 -0.0009828635483521  0.5895242101970258 -0.0004158725637223
  0.0000685429683160  0.5870016757576100  0.4999508481166859
  0.3359541160948815  0.0822116925244639 -0.0012412616913001
  0.3337382960942689  0.0893081651043699  0.5003906800480193
  0.3364637569346920  0.5901493056481287 -0.0062588476556441
  0.3345277148821472  0.5893641791467331  0.5046092120615034
  0.6687081100718300  0.0873464662849423 -0.0004161689276927
  0.6666944067786271  0.0889336822950536  0.4995099685564839
  0.6664801848535408  0.5876449064896589 -0.0007051861906168
  0.6667301661947573  0.5867178322606500  0.5008585094037473
  0.0343193418728788  0.1615153353605119  0.1068533939774322
  0.0358685230292919  0.1577852424933081  0.3969843943092068
  0.0333984489911456  0.1527417467249358  0.8904913592783541
  0.0356884518083398  0.6562181336477760  0.3961684955704747
  0.0347560760386430  0.6581081687938422  0.8957498218818811
  0.3685703330325692  0.1580347941137379  0.3958053950296206
  0.3718242161823983  0.1552556890827946  0.8971569926003472
  0.3730626193580918  0.6633434834453283  0.4046629829699063
  0.3706085756497750  0.6576421233303406  0.8911649491253444
  0.7011599510939425  0.1584079392701077  0.3954723429732110
  0.7027318620874519  0.1564728974562597  0.8952883310804716
  0.7004107600445776  0.6562898152625752  0.3965732593493441
  0.7016946279186971  0.6564922745262457  0.8955653996903032
  0.2034755932599220  0.0498420895124484  0.2521925441760195
  0.2015611624579503  0.0504803198325481  0.7502029696364735
  0.2062456497335672  0.5524447866712099  0.2509005281749616
  0.2006025035422476  0.5512035613452495  0.7517380553904008
  0.5342126859290977  0.0510089031359040  0.2507446848046824
  0.5355647302905829  0.0524217351044733  0.7487837485545629
  0.5299051073668295  0.5555987977884400  0.2494689304532070
  0.5347535425498177  0.5514588118015702  0.7498987465429262
  0.8652870752919840  0.0511359342275173  0.2524002523501915
  0.8658770408678736  0.0507389666372174  0.7467700617266770
  0.8644614464199720  0.5546391934609545  0.2510911522211285
  0.8667624550504079  0.5524000126660736  0.7492559448886265
  0.0623946165885942  0.4154842529096629  0.2509945601176978
  0.0606553160767607  0.4089350640389676  0.7511025746765191
  0.0625410698834736  0.9064670178845435  0.2519385076703625
  0.0614955485509992  0.9071333914912231  0.7478186769166848
  0.3891111735297584  0.4174551677437094  0.2449122226449386
  0.3946866534325627  0.4088494690048536  0.7510544300268157
  0.3955100699423167  0.9044794858464928  0.2505706788525139
  0.3953613102793975  0.9110888994038928  0.7491285390884527
  0.7246973760043380  0.4114651671260958  0.2513914218802236
  0.7270667017765030  0.4098026163121481  0.7493324950095661
  0.7266603526267267  0.9071877994633587  0.2506980326685377
  0.7264774972882894  0.9082685227133084  0.7481571087300996
  0.2306333146074625  0.0890157550897597  0.0004484593410930
  0.2278293192936883  0.0909149000153638  0.5007734604176801
  0.2300968785021702  0.5877527225631068  0.0018285073149600
  0.2287138453522314  0.5919532404018182  0.5010866101119051
  0.5621924691504562  0.0892960505043855 -0.0008902084422832
  0.5604898256553678  0.0919079818798616  0.4997137157167481
  0.5600822002213660  0.5911466843548342 -0.0013829061434080
  0.5605577827158221  0.5891781333639049  0.5020911802179656
  0.8922295698296888  0.0863525438850243 -0.0060210252655924
  0.8940630368028285  0.0914708634423527  0.4996257061093968
  0.8930211875831290  0.5922209751614012 -0.0003531912327345
  0.8940721086181939  0.5898855517745764  0.4997118511829456
  0.2086780156018967  0.3479523291258879  0.1508147990392258
  0.2023944389927068  0.3433358165024954  0.6472507929912767
  0.2036557721619571  0.8425996262834631  0.1470416205286138
  0.2035015283460012  0.8424765068710656  0.6455619897302598
  0.5307220545890365  0.3449036310430674  0.1451145894060194
  0.5354806559123713  0.3429837538676804  0.6462935921500745
  0.5370479521531965  0.8428399139300005  0.1463865181493620
  0.5358917746314057  0.8431821942386435  0.6453311816149907
  0.8652952689458606  0.3480403115842711  0.1456587244528007
  0.8684623699767889  0.3433191377460483  0.6461588785494136
  0.8683362267901750  0.8425639026521951  0.1477706625157089
  0.8677028925272600  0.8421023974019681  0.6438361817550124
  0.0352516954948016  0.1563403873519408  0.6042749574020911
  0.0341993867845770  0.6587549960755892  0.1034366926201022
  0.0354972029559016  0.6558741589109356  0.6035410636305337
  0.3742742204280541  0.1448972049209346  0.1042793550780186
  0.3691689990297977  0.1590113840726254  0.6035178582377827
  0.3697096369859508  0.6550158682871056  0.1012051564215915
  0.3685545588942735  0.6555289303840147  0.6096334681763080
  0.7024229279761669  0.1567354156611220  0.1034866150634799
  0.7020403416021497  0.1577787166578767  0.6029631908233045
  0.7007855321444212  0.6564553266258262  0.1032687613378739
  0.7024222548838960  0.6559171105350935  0.6038354773848813
  0.0329446077035297  0.4500804651512552  0.0000200530590719
  0.0337566163142851  0.4470750560825774  0.5000961857561276
  0.0322398070043408  0.9453780089405808 -0.0038310120607437
  0.0336899727044252  0.9480632301036882  0.4999200322965698
  0.3678514733295410  0.4484121022650250  0.0007943030768951
  0.3682041808663699  0.4496543789596953  0.5008126527115125
  0.3689983336901136  0.9422628083499350 -0.0036065055688228
  0.3686687286497976  0.9500095650578310  0.5008564469955514
  0.6990259603353133  0.4474760591886519 -0.0001388615710794
  0.6999970505005700  0.4468157834507646  0.4999953949224720
  0.7017106629304246  0.9472200020706393 -0.0004210278725724
  0.7003146525548359  0.9491305728064320  0.4995385750504356
  0.2012189184684960  0.3440170072589231  0.3582360874777840
  0.2022843123996945  0.3413630071535373  0.8545164991663263
  0.2042617110213711  0.8410748855698846  0.3547840733419666
  0.2025744036464677  0.8410931121098798  0.8530216807237909
  0.5292327758786339  0.3457027518968097  0.3520707234255879
  0.5364037708522078  0.3426078778899482  0.8537967206247405
  0.5373773342299438  0.8427664401143008  0.3544677961250958
  0.5367424058900713  0.8432871701905624  0.8525617927332483
  0.8673858875537155  0.3446153660499690  0.3531673588068367
  0.8678346895469292  0.3439146485045556  0.8538148093336667
  0.8677605867721323  0.8418949222702172  0.3552515893663964
  0.8677317174874801  0.8411299343590173  0.8508908864384432
 
  0.00000000E+00  0.00000000E+00  0.00000000E+00
  0.00000000E+00  0.00000000E+00  0.00000000E+00
  0.00000000E+00  0.00000000E+00  0.00000000E+00
  0.00000000E+00  0.00000000E+00  0.00000000E+00
  0.00000000E+00  0.00000000E+00  0.00000000E+00
  0.00000000E+00  0.00000000E+00  0.00000000E+00
  0.00000000E+00  0.00000000E+00  0.00000000E+00
  0.00000000E+00  0.00000000E+00  0.00000000E+00
  0.00000000E+00  0.00000000E+00  0.00000000E+00
  0.00000000E+00  0.00000000E+00  0.00000000E+00
  0.00000000E+00  0.00000000E+00  0.00000000E+00
  0.00000000E+00  0.00000000E+00  0.00000000E+00
  0.00000000E+00  0.00000000E+00  0.00000000E+00
  0.00000000E+00  0.00000000E+00  0.00000000E+00
  0.00000000E+00  0.00000000E+00  0.00000000E+00
  0.00000000E+00  0.00000000E+00  0.00000000E+00
  0.00000000E+00  0.00000000E+00  0.00000000E+00
  0.00000000E+00  0.00000000E+00  0.00000000E+00
  0.00000000E+00  0.00000000E+00  0.00000000E+00
  0.00000000E+00  0.00000000E+00  0.00000000E+00
  0.00000000E+00  0.00000000E+00  0.00000000E+00
  0.00000000E+00  0.00000000E+00  0.00000000E+00
  0.00000000E+00  0.00000000E+00  0.00000000E+00
  0.00000000E+00  0.00000000E+00  0.00000000E+00
  0.00000000E+00  0.00000000E+00  0.00000000E+00
  0.00000000E+00  0.00000000E+00  0.00000000E+00
  0.00000000E+00  0.00000000E+00  0.00000000E+00
  0.00000000E+00  0.00000000E+00  0.00000000E+00
  0.00000000E+00  0.00000000E+00  0.00000000E+00
  0.00000000E+00  0.00000000E+00  0.00000000E+00
  0.00000000E+00  0.00000000E+00  0.00000000E+00
  0.00000000E+00  0.00000000E+00  0.00000000E+00
  0.00000000E+00  0.00000000E+00  0.00000000E+00
  0.00000000E+00  0.00000000E+00  0.00000000E+00
  0.00000000E+00  0.00000000E+00  0.00000000E+00
  0.00000000E+00  0.00000000E+00  0.00000000E+00
  0.00000000E+00  0.00000000E+00  0.00000000E+00
  0.00000000E+00  0.00000000E+00  0.00000000E+00
  0.00000000E+00  0.00000000E+00  0.00000000E+00
  0.00000000E+00  0.00000000E+00  0.00000000E+00
  0.00000000E+00  0.00000000E+00  0.00000000E+00
  0.00000000E+00  0.00000000E+00  0.00000000E+00
  0.00000000E+00  0.00000000E+00  0.00000000E+00
  0.00000000E+00  0.00000000E+00  0.00000000E+00
  0.00000000E+00  0.00000000E+00  0.00000000E+00
  0.00000000E+00  0.00000000E+00  0.00000000E+00
  0.00000000E+00  0.00000000E+00  0.00000000E+00
  0.00000000E+00  0.00000000E+00  0.00000000E+00
  0.00000000E+00  0.00000000E+00  0.00000000E+00
  0.00000000E+00  0.00000000E+00  0.00000000E+00
  0.00000000E+00  0.00000000E+00  0.00000000E+00
  0.00000000E+00  0.00000000E+00  0.00000000E+00
  0.00000000E+00  0.00000000E+00  0.00000000E+00
  0.00000000E+00  0.00000000E+00  0.00000000E+00
  0.00000000E+00  0.00000000E+00  0.00000000E+00
  0.00000000E+00  0.00000000E+00  0.00000000E+00
  0.00000000E+00  0.00000000E+00  0.00000000E+00
  0.00000000E+00  0.00000000E+00  0.00000000E+00
  0.00000000E+00  0.00000000E+00  0.00000000E+00
  0.00000000E+00  0.00000000E+00  0.00000000E+00
  0.00000000E+00  0.00000000E+00  0.00000000E+00
  0.00000000E+00  0.00000000E+00  0.00000000E+00
  0.00000000E+00  0.00000000E+00  0.00000000E+00
  0.00000000E+00  0.00000000E+00  0.00000000E+00
  0.00000000E+00  0.00000000E+00  0.00000000E+00
  0.00000000E+00  0.00000000E+00  0.00000000E+00
  0.00000000E+00  0.00000000E+00  0.00000000E+00
  0.00000000E+00  0.00000000E+00  0.00000000E+00
  0.00000000E+00  0.00000000E+00  0.00000000E+00
  0.00000000E+00  0.00000000E+00  0.00000000E+00
  0.00000000E+00  0.00000000E+00  0.00000000E+00
  0.00000000E+00  0.00000000E+00  0.00000000E+00
  0.00000000E+00  0.00000000E+00  0.00000000E+00
  0.00000000E+00  0.00000000E+00  0.00000000E+00
  0.00000000E+00  0.00000000E+00  0.00000000E+00
  0.00000000E+00  0.00000000E+00  0.00000000E+00
  0.00000000E+00  0.00000000E+00  0.00000000E+00
  0.00000000E+00  0.00000000E+00  0.00000000E+00
  0.00000000E+00  0.00000000E+00  0.00000000E+00
  0.00000000E+00  0.00000000E+00  0.00000000E+00
  0.00000000E+00  0.00000000E+00  0.00000000E+00
  0.00000000E+00  0.00000000E+00  0.00000000E+00
  0.00000000E+00  0.00000000E+00  0.00000000E+00
  0.00000000E+00  0.00000000E+00  0.00000000E+00
  0.00000000E+00  0.00000000E+00  0.00000000E+00
  0.00000000E+00  0.00000000E+00  0.00000000E+00
  0.00000000E+00  0.00000000E+00  0.00000000E+00
  0.00000000E+00  0.00000000E+00  0.00000000E+00
  0.00000000E+00  0.00000000E+00  0.00000000E+00
  0.00000000E+00  0.00000000E+00  0.00000000E+00
  0.00000000E+00  0.00000000E+00  0.00000000E+00
  0.00000000E+00  0.00000000E+00  0.00000000E+00
  0.00000000E+00  0.00000000E+00  0.00000000E+00
  0.00000000E+00  0.00000000E+00  0.00000000E+00
  0.00000000E+00  0.00000000E+00  0.00000000E+00
  0.00000000E+00  0.00000000E+00  0.00000000E+00
  0.00000000E+00  0.00000000E+00  0.00000000E+00
  0.00000000E+00  0.00000000E+00  0.00000000E+00
  0.00000000E+00  0.00000000E+00  0.00000000E+00
  0.00000000E+00  0.00000000E+00  0.00000000E+00
  0.00000000E+00  0.00000000E+00  0.00000000E+00
  0.00000000E+00  0.00000000E+00  0.00000000E+00
  0.00000000E+00  0.00000000E+00  0.00000000E+00
  0.00000000E+00  0.00000000E+00  0.00000000E+00
  0.00000000E+00  0.00000000E+00  0.00000000E+00
  0.00000000E+00  0.00000000E+00  0.00000000E+00
  0.00000000E+00  0.00000000E+00  0.00000000E+00
  0.00000000E+00  0.00000000E+00  0.00000000E+00
  0.00000000E+00  0.00000000E+00  0.00000000E+00
  0.00000000E+00  0.00000000E+00  0.00000000E+00
  0.00000000E+00  0.00000000E+00  0.00000000E+00
  0.00000000E+00  0.00000000E+00  0.00000000E+00
  0.00000000E+00  0.00000000E+00  0.00000000E+00
  0.00000000E+00  0.00000000E+00  0.00000000E+00
  0.00000000E+00  0.00000000E+00  0.00000000E+00
  0.00000000E+00  0.00000000E+00  0.00000000E+00
  0.00000000E+00  0.00000000E+00  0.00000000E+00
  0.00000000E+00  0.00000000E+00  0.00000000E+00
  0.00000000E+00  0.00000000E+00  0.00000000E+00
  0.00000000E+00  0.00000000E+00  0.00000000E+00
  0.00000000E+00  0.00000000E+00  0.00000000E+00
  0.00000000E+00  0.00000000E+00  0.00000000E+00
  0.00000000E+00  0.00000000E+00  0.00000000E+00
  0.00000000E+00  0.00000000E+00  0.00000000E+00
  0.00000000E+00  0.00000000E+00  0.00000000E+00
  0.00000000E+00  0.00000000E+00  0.00000000E+00
  0.00000000E+00  0.00000000E+00  0.00000000E+00
  0.00000000E+00  0.00000000E+00  0.00000000E+00
  0.00000000E+00  0.00000000E+00  0.00000000E+00
  0.00000000E+00  0.00000000E+00  0.00000000E+00
  0.00000000E+00  0.00000000E+00  0.00000000E+00
  0.00000000E+00  0.00000000E+00  0.00000000E+00
  0.00000000E+00  0.00000000E+00  0.00000000E+00
  0.00000000E+00  0.00000000E+00  0.00000000E+00
  0.00000000E+00  0.00000000E+00  0.00000000E+00
  0.00000000E+00  0.00000000E+00  0.00000000E+00
  0.00000000E+00  0.00000000E+00  0.00000000E+00
  0.00000000E+00  0.00000000E+00  0.00000000E+00
  0.00000000E+00  0.00000000E+00  0.00000000E+00
  0.00000000E+00  0.00000000E+00  0.00000000E+00
  0.00000000E+00  0.00000000E+00  0.00000000E+00
  0.00000000E+00  0.00000000E+00  0.00000000E+00
  0.00000000E+00  0.00000000E+00  0.00000000E+00
  0.00000000E+00  0.00000000E+00  0.00000000E+00
  0.00000000E+00  0.00000000E+00  0.00000000E+00
  0.00000000E+00  0.00000000E+00  0.00000000E+00
  0.00000000E+00  0.00000000E+00  0.00000000E+00
  0.00000000E+00  0.00000000E+00  0.00000000E+00
  0.00000000E+00  0.00000000E+00  0.00000000E+00
  0.00000000E+00  0.00000000E+00  0.00000000E+00
  0.00000000E+00  0.00000000E+00  0.00000000E+00
  0.00000000E+00  0.00000000E+00  0.00000000E+00
  0.00000000E+00  0.00000000E+00  0.00000000E+00
  0.00000000E+00  0.00000000E+00  0.00000000E+00
  0.00000000E+00  0.00000000E+00  0.00000000E+00
  0.00000000E+00  0.00000000E+00  0.00000000E+00
  0.00000000E+00  0.00000000E+00  0.00000000E+00
  0.00000000E+00  0.00000000E+00  0.00000000E+00
  0.00000000E+00  0.00000000E+00  0.00000000E+00
  0.00000000E+00  0.00000000E+00  0.00000000E+00
  0.00000000E+00  0.00000000E+00  0.00000000E+00
  0.00000000E+00  0.00000000E+00  0.00000000E+00
  0.00000000E+00  0.00000000E+00  0.00000000E+00
  0.00000000E+00  0.00000000E+00  0.00000000E+00
  0.00000000E+00  0.00000000E+00  0.00000000E+00
  0.00000000E+00  0.00000000E+00  0.00000000E+00
  0.00000000E+00  0.00000000E+00  0.00000000E+00
  0.00000000E+00  0.00000000E+00  0.00000000E+00
  0.00000000E+00  0.00000000E+00  0.00000000E+00
  0.00000000E+00  0.00000000E+00  0.00000000E+00
  0.00000000E+00  0.00000000E+00  0.00000000E+00
  0.00000000E+00  0.00000000E+00  0.00000000E+00
  0.00000000E+00  0.00000000E+00  0.00000000E+00
  0.00000000E+00  0.00000000E+00  0.00000000E+00
  0.00000000E+00  0.00000000E+00  0.00000000E+00
  0.00000000E+00  0.00000000E+00  0.00000000E+00
  0.00000000E+00  0.00000000E+00  0.00000000E+00
  0.00000000E+00  0.00000000E+00  0.00000000E+00
  0.00000000E+00  0.00000000E+00  0.00000000E+00
  0.00000000E+00  0.00000000E+00  0.00000000E+00
  0.00000000E+00  0.00000000E+00  0.00000000E+00
  0.00000000E+00  0.00000000E+00  0.00000000E+00
  0.00000000E+00  0.00000000E+00  0.00000000E+00
  0.00000000E+00  0.00000000E+00  0.00000000E+00
  0.00000000E+00  0.00000000E+00  0.00000000E+00
  0.00000000E+00  0.00000000E+00  0.00000000E+00
  0.00000000E+00  0.00000000E+00  0.00000000E+00
  0.00000000E+00  0.00000000E+00  0.00000000E+00
  0.00000000E+00  0.00000000E+00  0.00000000E+00
  0.00000000E+00  0.00000000E+00  0.00000000E+00
  0.00000000E+00  0.00000000E+00  0.00000000E+00
  0.00000000E+00  0.00000000E+00  0.00000000E+00
  0.00000000E+00  0.00000000E+00  0.00000000E+00
