Li7 P2 N1 O7                            
   1.00000000000000     
     4.8666431668397232   -0.0163347273231849   -0.0497562442995987
    -0.0193938342414940    5.4498162937761965   -0.0318531997788871
    -0.0635429764151290   -0.0370993730443194    6.3329039715234954
   Li   P    N    O 
     7     2     1     7
Direct
  0.0507193886314038  0.6205551344272259  0.2241098977657572
  0.0098452105044077  0.6797307315529089  0.7524066855036693
  0.5287368413821335  0.3372069418111175  0.7638499689757846
  0.4881170263726710  0.8555050437869288 -0.0269690202976204
  0.0557170631618900  0.1876859861458310  0.5348377286124684
  0.5062077442676559  0.3268842990577007  0.2506383223711526
  0.8519498740970158  0.9757737897120030  0.2738564769134695
  0.4882518843247748  0.8248461488321935  0.4973571773418973
  0.0132736362079390  0.1822403311330152 -0.0080226405628562
  0.1191458525607148  0.3360006481684984  0.8051742517358272
  0.6047569862436853  0.0942000297947198  0.4907613292292571
  0.1673052321542855  0.8244412927737699  0.4826283356227842
  0.6856949901151124  0.1665314827499911  0.0168536825281096
  0.6035803592742843  0.6878151772549295  0.2968389046116491
  0.1048218342836409  0.2814963522300779  0.2261237605201378
  0.0927313228420983  0.8955950145082682  0.0062775303205367
  0.5891747535763184  0.6995715960608245  0.7023876088079780
 
  0.00000000E+00  0.00000000E+00  0.00000000E+00
  0.00000000E+00  0.00000000E+00  0.00000000E+00
  0.00000000E+00  0.00000000E+00  0.00000000E+00
  0.00000000E+00  0.00000000E+00  0.00000000E+00
  0.00000000E+00  0.00000000E+00  0.00000000E+00
  0.00000000E+00  0.00000000E+00  0.00000000E+00
  0.00000000E+00  0.00000000E+00  0.00000000E+00
  0.00000000E+00  0.00000000E+00  0.00000000E+00
  0.00000000E+00  0.00000000E+00  0.00000000E+00
  0.00000000E+00  0.00000000E+00  0.00000000E+00
  0.00000000E+00  0.00000000E+00  0.00000000E+00
  0.00000000E+00  0.00000000E+00  0.00000000E+00
  0.00000000E+00  0.00000000E+00  0.00000000E+00
  0.00000000E+00  0.00000000E+00  0.00000000E+00
  0.00000000E+00  0.00000000E+00  0.00000000E+00
  0.00000000E+00  0.00000000E+00  0.00000000E+00
  0.00000000E+00  0.00000000E+00  0.00000000E+00
