Li7 P2 N1 O7                            
   1.00000000000000     
     4.9527386360878367    0.0003250519467360   -0.0067753079697678
    -0.0115836802527318    5.3555493633372269   -0.0393440305520110
     0.0029694444322393   -0.0547026416602404    6.2435185368375192
   Li   P    N    O 
     7     2     1     7
Direct
  0.9758742003168128  0.6886544600436988  0.2579785817738907
  0.9816901625530460  0.6864684922532088  0.7687027788805355
  0.5215235511145195  0.3154796692989495  0.7322531236626083
  0.4837787362969196  0.9271749395316915  0.9796217399667200
  0.0132807915563897  0.1631677954082330  0.5152224500315709
  0.5198155806997806  0.2950799498309684  0.2934356919264615
  0.3914821483416861  0.5006695087729338  0.0265084108373592
  0.4803330878396109  0.8153070383949178  0.5138929225647818
  0.9821468157345056  0.1976016023255754  0.0136322231846651
  0.6691476015538338  0.2313699993122474  0.0107208058603884
  0.1265949191362429  0.3314421616778378  0.8135029957204730
  0.6049338965641241  0.0832160198821461  0.5137949922991509
  0.1666665506983569  0.8281462886773483  0.5138405787905898
  0.5800387361439587  0.6684849341231391  0.3114676758108212
  0.1227603933311843  0.3308482636121466  0.2187917819667927
  0.0870465016073072  0.9138394006223357  0.0116233385675158
  0.5765863265117585  0.6846094762326167  0.7238299081556768
 
  0.00000000E+00  0.00000000E+00  0.00000000E+00
  0.00000000E+00  0.00000000E+00  0.00000000E+00
  0.00000000E+00  0.00000000E+00  0.00000000E+00
  0.00000000E+00  0.00000000E+00  0.00000000E+00
  0.00000000E+00  0.00000000E+00  0.00000000E+00
  0.00000000E+00  0.00000000E+00  0.00000000E+00
  0.00000000E+00  0.00000000E+00  0.00000000E+00
  0.00000000E+00  0.00000000E+00  0.00000000E+00
  0.00000000E+00  0.00000000E+00  0.00000000E+00
  0.00000000E+00  0.00000000E+00  0.00000000E+00
  0.00000000E+00  0.00000000E+00  0.00000000E+00
  0.00000000E+00  0.00000000E+00  0.00000000E+00
  0.00000000E+00  0.00000000E+00  0.00000000E+00
  0.00000000E+00  0.00000000E+00  0.00000000E+00
  0.00000000E+00  0.00000000E+00  0.00000000E+00
  0.00000000E+00  0.00000000E+00  0.00000000E+00
  0.00000000E+00  0.00000000E+00  0.00000000E+00
