Li7 P2 N1 O7                            
   1.00000000000000     
     4.9552531804155180    0.0713003859371181   -0.0123650396339290
     0.0642594910363906    5.2703793307308242   -0.0819493845496133
    -0.0050450238874651   -0.1013602933709255    6.4159420202503794
   Li   P    N    O 
     7     2     1     7
Direct
 -0.0283431802100013  0.6858146736054119  0.2625833155872123
 -0.0182296002076639  0.6850482478587957  0.7725444724826270
  0.5306116583581753  0.3318181431510318  0.7381154042551402
  0.4649736566215190  0.9545152090243109 -0.0714477725753812
  0.0484936435722699  0.1729611863529793  0.5212856913006043
  0.5221337155554876  0.2813101878060720  0.2857643220759933
  0.3910117740466549  0.5216082241887035  0.0482012361683683
  0.4734290971955953  0.8102331950179739  0.5119072042871221
 -0.0141951990640390  0.1917868429577148  0.0169148296856248
  0.6730620064464140  0.2333269098227059  0.0110713574521302
  0.1323194135866816  0.3197929373792439  0.8227277850632738
  0.5719755837330184  0.0887719146762505  0.5164376837425486
  0.1585901435442935  0.8128638292232210  0.5158474250509819
  0.5822811463673697  0.6594906465010797  0.3176149024206122
  0.1222177169431720  0.3254978312182552  0.2192055884179007
  0.0931108013087574  0.8997127509984576  0.0132873824279094
  0.5802576222023274  0.6870072702177937  0.7167591721573323
 
  0.00000000E+00  0.00000000E+00  0.00000000E+00
  0.00000000E+00  0.00000000E+00  0.00000000E+00
  0.00000000E+00  0.00000000E+00  0.00000000E+00
  0.00000000E+00  0.00000000E+00  0.00000000E+00
  0.00000000E+00  0.00000000E+00  0.00000000E+00
  0.00000000E+00  0.00000000E+00  0.00000000E+00
  0.00000000E+00  0.00000000E+00  0.00000000E+00
  0.00000000E+00  0.00000000E+00  0.00000000E+00
  0.00000000E+00  0.00000000E+00  0.00000000E+00
  0.00000000E+00  0.00000000E+00  0.00000000E+00
  0.00000000E+00  0.00000000E+00  0.00000000E+00
  0.00000000E+00  0.00000000E+00  0.00000000E+00
  0.00000000E+00  0.00000000E+00  0.00000000E+00
  0.00000000E+00  0.00000000E+00  0.00000000E+00
  0.00000000E+00  0.00000000E+00  0.00000000E+00
  0.00000000E+00  0.00000000E+00  0.00000000E+00
  0.00000000E+00  0.00000000E+00  0.00000000E+00
