Li392 P56 N224
1.0
9.402378 0.000000 -9.402378
-0.000000 9.402378 -9.402378
0.000000 0.000000 103.426158
Li P N
392 56 224
direct
0.500000 0.500000 0.071540 Li+
0.000000 0.000000 0.026085 Li+
0.000000 0.500000 0.026085 Li+
0.500000 0.000000 0.026085 Li+
0.000000 0.500000 0.071540 Li+
0.500000 0.000000 0.071540 Li+
0.000000 0.500000 0.048813 Li+
0.500000 0.750000 0.003358 Li+
0.500000 0.250000 0.048813 Li+
0.250000 0.000000 0.048813 Li+
0.750000 0.000000 0.003358 Li+
0.000000 0.500000 0.003358 Li+
0.225374 0.225374 0.042096 Li+
0.725374 0.274626 0.005597 Li+
0.274626 0.725374 0.005597 Li+
0.274626 0.274626 0.005597 Li+
0.774626 0.225374 0.051051 Li+
0.774626 0.774626 0.051051 Li+
0.225374 0.774626 0.051051 Li+
0.725374 0.725374 0.087551 Li+
0.237083 0.975164 0.022957 Li+
0.475164 0.262917 0.070153 Li+
0.524836 0.737083 0.026866 Li+
0.262917 0.753336 0.029821 Li+
0.262917 0.246664 0.070153 Li+
0.246664 0.524836 0.026866 Li+
0.753336 0.524836 0.029821 Li+
0.253336 0.237083 0.022957 Li+
0.975164 0.253336 0.022957 Li+
0.024836 0.253336 0.075275 Li+
0.746664 0.762917 0.024699 Li+
0.975164 0.746664 0.024699 Li+
0.746664 0.237083 0.072320 Li+
0.253336 0.762917 0.075275 Li+
0.024836 0.746664 0.072320 Li+
0.762917 0.024836 0.075275 Li+
0.237083 0.024836 0.072320 Li+
0.762917 0.975164 0.024699 Li+
0.246664 0.475164 0.070153 Li+
0.753336 0.475164 0.068411 Li+
0.737083 0.246664 0.026866 Li+
0.737083 0.753336 0.068411 Li+
0.524836 0.262917 0.029821 Li+
0.475164 0.737083 0.068411 Li+
0.000000 0.000000 0.004666 Li+
0.500000 0.500000 0.002050 Li+
0.500000 0.764387 0.050121 Li+
0.500000 0.235613 0.002050 Li+
0.235613 0.500000 0.002050 Li+
0.764387 0.500000 0.050121 Li+
0.264387 0.000000 0.004666 Li+
0.000000 0.264387 0.004666 Li+
0.735613 0.000000 0.047505 Li+
0.000000 0.735613 0.047505 Li+
0.000000 0.000000 0.047505 Li+
0.500000 0.500000 0.050121 Li+
0.500000 0.500000 0.162449 Li+
0.000000 0.000000 0.116994 Li+
0.000000 0.500000 0.116994 Li+
0.500000 0.000000 0.116994 Li+
0.000000 0.500000 0.162449 Li+
0.500000 0.000000 0.162449 Li+
0.000000 0.500000 0.139722 Li+
0.500000 0.750000 0.094267 Li+
0.500000 0.250000 0.139722 Li+
0.250000 0.000000 0.139722 Li+
0.750000 0.000000 0.094267 Li+
0.000000 0.500000 0.094267 Li+
0.225374 0.225374 0.133006 Li+
0.725374 0.274626 0.096506 Li+
0.274626 0.725374 0.096506 Li+
0.274626 0.274626 0.096506 Li+
0.774626 0.225374 0.141960 Li+
0.774626 0.774626 0.141960 Li+
0.225374 0.774626 0.141960 Li+
0.725374 0.725374 0.178460 Li+
0.237083 0.975164 0.113866 Li+
0.475164 0.262917 0.161062 Li+
0.524836 0.737083 0.117775 Li+
0.262917 0.753336 0.120730 Li+
0.262917 0.246664 0.161062 Li+
0.246664 0.524836 0.117775 Li+
0.753336 0.524836 0.120730 Li+
0.253336 0.237083 0.113866 Li+
0.975164 0.253336 0.113866 Li+
0.024836 0.253336 0.166184 Li+
0.746664 0.762917 0.115608 Li+
0.975164 0.746664 0.115608 Li+
0.746664 0.237083 0.163229 Li+
0.253336 0.762917 0.166184 Li+
0.024836 0.746664 0.163229 Li+
0.762917 0.024836 0.166184 Li+
0.237083 0.024836 0.163229 Li+
0.762917 0.975164 0.115608 Li+
0.246664 0.475164 0.161062 Li+
0.753336 0.475164 0.159320 Li+
0.737083 0.246664 0.117775 Li+
0.737083 0.753336 0.159320 Li+
0.524836 0.262917 0.120730 Li+
0.475164 0.737083 0.159320 Li+
0.000000 0.000000 0.095575 Li+
0.500000 0.500000 0.092959 Li+
0.500000 0.764387 0.141030 Li+
0.500000 0.235613 0.092959 Li+
0.235613 0.500000 0.092959 Li+
0.764387 0.500000 0.141030 Li+
0.264387 0.000000 0.095575 Li+
0.000000 0.264387 0.095575 Li+
0.735613 0.000000 0.138414 Li+
0.000000 0.735613 0.138414 Li+
0.000000 0.000000 0.138414 Li+
0.500000 0.500000 0.141030 Li+
0.500000 0.500000 0.253358 Li+
0.000000 0.000000 0.207904 Li+
0.000000 0.500000 0.207904 Li+
0.500000 0.000000 0.207904 Li+
0.000000 0.500000 0.253358 Li+
0.500000 0.000000 0.253358 Li+
0.000000 0.500000 0.230631 Li+
0.500000 0.750000 0.185176 Li+
0.500000 0.250000 0.230631 Li+
0.250000 0.000000 0.230631 Li+
0.750000 0.000000 0.185176 Li+
0.000000 0.500000 0.185176 Li+
0.225374 0.225374 0.223915 Li+
0.725374 0.274626 0.187415 Li+
0.274626 0.725374 0.187415 Li+
0.274626 0.274626 0.187415 Li+
0.774626 0.225374 0.232870 Li+
0.774626 0.774626 0.232870 Li+
0.225374 0.774626 0.232870 Li+
0.725374 0.725374 0.269369 Li+
0.237083 0.975164 0.204775 Li+
0.475164 0.262917 0.251971 Li+
0.524836 0.737083 0.208684 Li+
0.262917 0.753336 0.211639 Li+
0.262917 0.246664 0.251971 Li+
0.246664 0.524836 0.208684 Li+
0.753336 0.524836 0.211639 Li+
0.253336 0.237083 0.204775 Li+
0.975164 0.253336 0.204775 Li+
0.024836 0.253336 0.257093 Li+
0.746664 0.762917 0.206517 Li+
0.975164 0.746664 0.206517 Li+
0.746664 0.237083 0.254138 Li+
0.253336 0.762917 0.257093 Li+
0.024836 0.746664 0.254138 Li+
0.762917 0.024836 0.257093 Li+
0.237083 0.024836 0.254138 Li+
0.762917 0.975164 0.206517 Li+
0.246664 0.475164 0.251971 Li+
0.753336 0.475164 0.250229 Li+
0.737083 0.246664 0.208684 Li+
0.737083 0.753336 0.250229 Li+
0.524836 0.262917 0.211639 Li+
0.475164 0.737083 0.250229 Li+
0.000000 0.000000 0.186484 Li+
0.500000 0.500000 0.183868 Li+
0.500000 0.764387 0.231939 Li+
0.500000 0.235613 0.183868 Li+
0.235613 0.500000 0.183868 Li+
0.764387 0.500000 0.231939 Li+
0.264387 0.000000 0.186484 Li+
0.000000 0.264387 0.186484 Li+
0.735613 0.000000 0.229323 Li+
0.000000 0.735613 0.229323 Li+
0.000000 0.000000 0.229323 Li+
0.500000 0.500000 0.231939 Li+
0.500000 0.500000 0.344267 Li+
0.000000 0.000000 0.298813 Li+
0.000000 0.500000 0.298813 Li+
0.500000 0.000000 0.298813 Li+
0.000000 0.500000 0.344267 Li+
0.500000 0.000000 0.344267 Li+
0.000000 0.500000 0.321540 Li+
0.500000 0.750000 0.276085 Li+
0.500000 0.250000 0.321540 Li+
0.250000 0.000000 0.321540 Li+
0.750000 0.000000 0.276085 Li+
0.000000 0.500000 0.276085 Li+
0.225374 0.225374 0.314824 Li+
0.725374 0.274626 0.278324 Li+
0.274626 0.725374 0.278324 Li+
0.274626 0.274626 0.278324 Li+
0.774626 0.225374 0.323779 Li+
0.774626 0.774626 0.323779 Li+
0.225374 0.774626 0.323779 Li+
0.725374 0.725374 0.360278 Li+
0.237083 0.975164 0.295684 Li+
0.475164 0.262917 0.342880 Li+
0.524836 0.737083 0.299593 Li+
0.262917 0.753336 0.302548 Li+
0.262917 0.246664 0.342880 Li+
0.246664 0.524836 0.299593 Li+
0.753336 0.524836 0.302548 Li+
0.253336 0.237083 0.295684 Li+
0.975164 0.253336 0.295684 Li+
0.024836 0.253336 0.348003 Li+
0.746664 0.762917 0.297426 Li+
0.975164 0.746664 0.297426 Li+
0.746664 0.237083 0.345047 Li+
0.253336 0.762917 0.348003 Li+
0.024836 0.746664 0.345047 Li+
0.762917 0.024836 0.348003 Li+
0.237083 0.024836 0.345047 Li+
0.762917 0.975164 0.297426 Li+
0.246664 0.475164 0.342880 Li+
0.753336 0.475164 0.341138 Li+
0.737083 0.246664 0.299593 Li+
0.737083 0.753336 0.341138 Li+
0.524836 0.262917 0.302548 Li+
0.475164 0.737083 0.341138 Li+
0.000000 0.000000 0.277393 Li+
0.500000 0.500000 0.274777 Li+
0.500000 0.764387 0.322848 Li+
0.500000 0.235613 0.274777 Li+
0.235613 0.500000 0.274777 Li+
0.764387 0.500000 0.322848 Li+
0.264387 0.000000 0.277393 Li+
0.000000 0.264387 0.277393 Li+
0.735613 0.000000 0.320232 Li+
0.000000 0.735613 0.320232 Li+
0.000000 0.000000 0.320232 Li+
0.500000 0.500000 0.322848 Li+
0.500000 0.500000 0.435176 Li+
0.000000 0.000000 0.389722 Li+
0.000000 0.500000 0.389722 Li+
0.500000 0.000000 0.389722 Li+
0.000000 0.500000 0.435176 Li+
0.500000 0.000000 0.435176 Li+
0.000000 0.500000 0.412449 Li+
0.500000 0.750000 0.366994 Li+
0.500000 0.250000 0.412449 Li+
0.250000 0.000000 0.412449 Li+
0.750000 0.000000 0.366994 Li+
0.000000 0.500000 0.366994 Li+
0.225374 0.225374 0.405733 Li+
0.725374 0.274626 0.369233 Li+
0.274626 0.725374 0.369233 Li+
0.274626 0.274626 0.369233 Li+
0.774626 0.225374 0.414688 Li+
0.774626 0.774626 0.414688 Li+
0.225374 0.774626 0.414688 Li+
0.725374 0.725374 0.451187 Li+
0.237083 0.975164 0.386593 Li+
0.475164 0.262917 0.433789 Li+
0.524836 0.737083 0.390502 Li+
0.262917 0.753336 0.393457 Li+
0.262917 0.246664 0.433789 Li+
0.246664 0.524836 0.390502 Li+
0.753336 0.524836 0.393457 Li+
0.253336 0.237083 0.386593 Li+
0.975164 0.253336 0.386593 Li+
0.024836 0.253336 0.438912 Li+
0.746664 0.762917 0.388335 Li+
0.975164 0.746664 0.388335 Li+
0.746664 0.237083 0.435957 Li+
0.253336 0.762917 0.438912 Li+
0.024836 0.746664 0.435957 Li+
0.762917 0.024836 0.438912 Li+
0.237083 0.024836 0.435957 Li+
0.762917 0.975164 0.388335 Li+
0.246664 0.475164 0.433789 Li+
0.753336 0.475164 0.432047 Li+
0.737083 0.246664 0.390502 Li+
0.737083 0.753336 0.432047 Li+
0.524836 0.262917 0.393457 Li+
0.475164 0.737083 0.432047 Li+
0.000000 0.000000 0.368302 Li+
0.500000 0.500000 0.365687 Li+
0.500000 0.764387 0.413757 Li+
0.500000 0.235613 0.365687 Li+
0.235613 0.500000 0.365687 Li+
0.764387 0.500000 0.413757 Li+
0.264387 0.000000 0.368302 Li+
0.000000 0.264387 0.368302 Li+
0.735613 0.000000 0.411141 Li+
0.000000 0.735613 0.411141 Li+
0.000000 0.000000 0.411141 Li+
0.500000 0.500000 0.413757 Li+
0.500000 0.500000 0.526085 Li+
0.000000 0.000000 0.480631 Li+
0.000000 0.500000 0.480631 Li+
0.500000 0.000000 0.480631 Li+
0.000000 0.500000 0.526085 Li+
0.500000 0.000000 0.526085 Li+
0.000000 0.500000 0.503358 Li+
0.500000 0.750000 0.457904 Li+
0.500000 0.250000 0.503358 Li+
0.250000 0.000000 0.503358 Li+
0.750000 0.000000 0.457904 Li+
0.000000 0.500000 0.457904 Li+
0.225374 0.225374 0.496642 Li+
0.725374 0.274626 0.460142 Li+
0.274626 0.725374 0.460142 Li+
0.274626 0.274626 0.460142 Li+
0.774626 0.225374 0.505597 Li+
0.774626 0.774626 0.505597 Li+
0.225374 0.774626 0.505597 Li+
0.725374 0.725374 0.542096 Li+
0.237083 0.975164 0.477502 Li+
0.475164 0.262917 0.524699 Li+
0.524836 0.737083 0.481411 Li+
0.262917 0.753336 0.484366 Li+
0.262917 0.246664 0.524699 Li+
0.246664 0.524836 0.481411 Li+
0.753336 0.524836 0.484366 Li+
0.253336 0.237083 0.477502 Li+
0.975164 0.253336 0.477502 Li+
0.024836 0.253336 0.529821 Li+
0.746664 0.762917 0.479244 Li+
0.975164 0.746664 0.479244 Li+
0.746664 0.237083 0.526866 Li+
0.253336 0.762917 0.529821 Li+
0.024836 0.746664 0.526866 Li+
0.762917 0.024836 0.529821 Li+
0.237083 0.024836 0.526866 Li+
0.762917 0.975164 0.479244 Li+
0.246664 0.475164 0.524699 Li+
0.753336 0.475164 0.522957 Li+
0.737083 0.246664 0.481411 Li+
0.737083 0.753336 0.522957 Li+
0.524836 0.262917 0.484366 Li+
0.475164 0.737083 0.522957 Li+
0.000000 0.000000 0.459211 Li+
0.500000 0.500000 0.456596 Li+
0.500000 0.764387 0.504666 Li+
0.500000 0.235613 0.456596 Li+
0.235613 0.500000 0.456596 Li+
0.764387 0.500000 0.504666 Li+
0.264387 0.000000 0.459211 Li+
0.000000 0.264387 0.459211 Li+
0.735613 0.000000 0.502050 Li+
0.000000 0.735613 0.502050 Li+
0.000000 0.000000 0.502050 Li+
0.500000 0.500000 0.504666 Li+
0.500000 0.500000 0.616994 Li+
0.000000 0.000000 0.571540 Li+
0.000000 0.500000 0.571540 Li+
0.500000 0.000000 0.571540 Li+
0.000000 0.500000 0.616994 Li+
0.500000 0.000000 0.616994 Li+
0.000000 0.500000 0.594267 Li+
0.500000 0.750000 0.548813 Li+
0.500000 0.250000 0.594267 Li+
0.250000 0.000000 0.594267 Li+
0.750000 0.000000 0.548813 Li+
0.000000 0.500000 0.548813 Li+
0.225374 0.225374 0.587551 Li+
0.725374 0.274626 0.551051 Li+
0.274626 0.725374 0.551051 Li+
0.274626 0.274626 0.551051 Li+
0.774626 0.225374 0.596506 Li+
0.774626 0.774626 0.596506 Li+
0.225374 0.774626 0.596506 Li+
0.725374 0.725374 0.633006 Li+
0.237083 0.975164 0.568411 Li+
0.475164 0.262917 0.615608 Li+
0.524836 0.737083 0.572320 Li+
0.262917 0.753336 0.575275 Li+
0.262917 0.246664 0.615608 Li+
0.246664 0.524836 0.572320 Li+
0.753336 0.524836 0.575275 Li+
0.253336 0.237083 0.568411 Li+
0.975164 0.253336 0.568411 Li+
0.024836 0.253336 0.620730 Li+
0.746664 0.762917 0.570153 Li+
0.975164 0.746664 0.570153 Li+
0.746664 0.237083 0.617775 Li+
0.253336 0.762917 0.620730 Li+
0.024836 0.746664 0.617775 Li+
0.762917 0.024836 0.620730 Li+
0.237083 0.024836 0.617775 Li+
0.762917 0.975164 0.570153 Li+
0.246664 0.475164 0.615608 Li+
0.753336 0.475164 0.613866 Li+
0.737083 0.246664 0.572320 Li+
0.737083 0.753336 0.613866 Li+
0.524836 0.262917 0.575275 Li+
0.475164 0.737083 0.613866 Li+
0.000000 0.000000 0.550121 Li+
0.500000 0.500000 0.547505 Li+
0.500000 0.764387 0.595575 Li+
0.500000 0.235613 0.547505 Li+
0.235613 0.500000 0.547505 Li+
0.764387 0.500000 0.595575 Li+
0.264387 0.000000 0.550121 Li+
0.000000 0.264387 0.550121 Li+
0.735613 0.000000 0.592959 Li+
0.000000 0.735613 0.592959 Li+
0.000000 0.000000 0.592959 Li+
0.500000 0.500000 0.595575 Li+
0.500000 0.500000 0.026085 P4+
0.000000 0.000000 0.071540 P4+
0.000000 0.750000 0.003358 P4+
0.500000 0.000000 0.003358 P4+
0.500000 0.000000 0.048813 P4+
0.250000 0.500000 0.048813 P4+
0.750000 0.500000 0.003358 P4+
0.000000 0.250000 0.048813 P4+
0.500000 0.500000 0.116994 P4+
0.000000 0.000000 0.162449 P4+
0.000000 0.750000 0.094267 P4+
0.500000 0.000000 0.094267 P4+
0.500000 0.000000 0.139722 P4+
0.250000 0.500000 0.139722 P4+
0.750000 0.500000 0.094267 P4+
0.000000 0.250000 0.139722 P4+
0.500000 0.500000 0.207904 P4+
0.000000 0.000000 0.253358 P4+
0.000000 0.750000 0.185176 P4+
0.500000 0.000000 0.185176 P4+
0.500000 0.000000 0.230631 P4+
0.250000 0.500000 0.230631 P4+
0.750000 0.500000 0.185176 P4+
0.000000 0.250000 0.230631 P4+
0.500000 0.500000 0.298813 P4+
0.000000 0.000000 0.344267 P4+
0.000000 0.750000 0.276085 P4+
0.500000 0.000000 0.276085 P4+
0.500000 0.000000 0.321540 P4+
0.250000 0.500000 0.321540 P4+
0.750000 0.500000 0.276085 P4+
0.000000 0.250000 0.321540 P4+
0.500000 0.500000 0.389722 P4+
0.000000 0.000000 0.435176 P4+
0.000000 0.750000 0.366994 P4+
0.500000 0.000000 0.366994 P4+
0.500000 0.000000 0.412449 P4+
0.250000 0.500000 0.412449 P4+
0.750000 0.500000 0.366994 P4+
0.000000 0.250000 0.412449 P4+
0.500000 0.500000 0.480631 P4+
0.000000 0.000000 0.526085 P4+
0.000000 0.750000 0.457904 P4+
0.500000 0.000000 0.457904 P4+
0.500000 0.000000 0.503358 P4+
0.250000 0.500000 0.503358 P4+
0.750000 0.500000 0.457904 P4+
0.000000 0.250000 0.503358 P4+
0.500000 0.500000 0.571540 P4+
0.000000 0.000000 0.616994 P4+
0.000000 0.750000 0.548813 P4+
0.500000 0.000000 0.548813 P4+
0.500000 0.000000 0.594267 P4+
0.250000 0.500000 0.594267 P4+
0.750000 0.500000 0.548813 P4+
0.000000 0.250000 0.594267 P4+
0.603461 0.603461 0.054302 N2-
0.103461 0.896539 0.062134 N2-
0.896539 0.896539 0.062134 N2-
0.896539 0.103461 0.062134 N2-
0.396539 0.396539 0.016680 N2-
0.396539 0.603461 0.016680 N2-
0.603461 0.396539 0.016680 N2-
0.103461 0.103461 0.008847 N2-
0.603461 0.603461 0.145211 N2-
0.103461 0.896539 0.153043 N2-
0.896539 0.896539 0.153043 N2-
0.896539 0.103461 0.153043 N2-
0.396539 0.396539 0.107589 N2-
0.396539 0.603461 0.107589 N2-
0.603461 0.396539 0.107589 N2-
0.103461 0.103461 0.099757 N2-
0.603461 0.603461 0.236120 N2-
0.103461 0.896539 0.243953 N2-
0.896539 0.896539 0.243953 N2-
0.896539 0.103461 0.243953 N2-
0.396539 0.396539 0.198498 N2-
0.396539 0.603461 0.198498 N2-
0.603461 0.396539 0.198498 N2-
0.103461 0.103461 0.190666 N2-
0.603461 0.603461 0.327029 N2-
0.103461 0.896539 0.334862 N2-
0.896539 0.896539 0.334862 N2-
0.896539 0.103461 0.334862 N2-
0.396539 0.396539 0.289407 N2-
0.396539 0.603461 0.289407 N2-
0.603461 0.396539 0.289407 N2-
0.103461 0.103461 0.281575 N2-
0.603461 0.603461 0.417938 N2-
0.103461 0.896539 0.425771 N2-
0.896539 0.896539 0.425771 N2-
0.896539 0.103461 0.425771 N2-
0.396539 0.396539 0.380316 N2-
0.396539 0.603461 0.380316 N2-
0.603461 0.396539 0.380316 N2-
0.103461 0.103461 0.372484 N2-
0.603461 0.603461 0.508847 N2-
0.103461 0.896539 0.516680 N2-
0.896539 0.896539 0.516680 N2-
0.896539 0.103461 0.516680 N2-
0.396539 0.396539 0.471225 N2-
0.396539 0.603461 0.471225 N2-
0.603461 0.396539 0.471225 N2-
0.103461 0.103461 0.463393 N2-
0.603461 0.603461 0.599757 N2-
0.103461 0.896539 0.607589 N2-
0.896539 0.896539 0.607589 N2-
0.896539 0.103461 0.607589 N2-
0.396539 0.396539 0.562134 N2-
0.396539 0.603461 0.562134 N2-
0.603461 0.396539 0.562134 N2-
0.103461 0.103461 0.554302 N2-
0.387385 0.099421 0.056771 N3-
0.599421 0.112615 0.058931 N3-
0.400579 0.887385 0.020379 N3-
0.112615 0.850731 0.013715 N3-
0.112615 0.149269 0.058931 N3-
0.149269 0.400579 0.020379 N3-
0.850731 0.400579 0.013715 N3-
0.350731 0.387385 0.056771 N3-
0.099421 0.350731 0.056771 N3-
0.900579 0.350731 0.059169 N3-
0.649269 0.612615 0.013477 N3-
0.099421 0.649269 0.013477 N3-
0.649269 0.387385 0.065834 N3-
0.350731 0.612615 0.059169 N3-
0.900579 0.649269 0.065834 N3-
0.612615 0.900579 0.059169 N3-
0.387385 0.900579 0.065834 N3-
0.612615 0.099421 0.013477 N3-
0.149269 0.599421 0.058931 N3-
0.850731 0.599421 0.011316 N3-
0.887385 0.149269 0.020379 N3-
0.887385 0.850731 0.011316 N3-
0.400579 0.112615 0.013715 N3-
0.599421 0.887385 0.011316 N3-
0.387385 0.099421 0.147680 N3-
0.599421 0.112615 0.149840 N3-
0.400579 0.887385 0.111288 N3-
0.112615 0.850731 0.104624 N3-
0.112615 0.149269 0.149840 N3-
0.149269 0.400579 0.111288 N3-
0.850731 0.400579 0.104624 N3-
0.350731 0.387385 0.147680 N3-
0.099421 0.350731 0.147680 N3-
0.900579 0.350731 0.150079 N3-
0.649269 0.612615 0.104386 N3-
0.099421 0.649269 0.104386 N3-
0.649269 0.387385 0.156743 N3-
0.350731 0.612615 0.150079 N3-
0.900579 0.649269 0.156743 N3-
0.612615 0.900579 0.150079 N3-
0.387385 0.900579 0.156743 N3-
0.612615 0.099421 0.104386 N3-
0.149269 0.599421 0.149840 N3-
0.850731 0.599421 0.102225 N3-
0.887385 0.149269 0.111288 N3-
0.887385 0.850731 0.102225 N3-
0.400579 0.112615 0.104624 N3-
0.599421 0.887385 0.102225 N3-
0.387385 0.099421 0.238589 N3-
0.599421 0.112615 0.240749 N3-
0.400579 0.887385 0.202197 N3-
0.112615 0.850731 0.195533 N3-
0.112615 0.149269 0.240749 N3-
0.149269 0.400579 0.202197 N3-
0.850731 0.400579 0.195533 N3-
0.350731 0.387385 0.238589 N3-
0.099421 0.350731 0.238589 N3-
0.900579 0.350731 0.240988 N3-
0.649269 0.612615 0.195295 N3-
0.099421 0.649269 0.195295 N3-
0.649269 0.387385 0.247652 N3-
0.350731 0.612615 0.240988 N3-
0.900579 0.649269 0.247652 N3-
0.612615 0.900579 0.240988 N3-
0.387385 0.900579 0.247652 N3-
0.612615 0.099421 0.195295 N3-
0.149269 0.599421 0.240749 N3-
0.850731 0.599421 0.193134 N3-
0.887385 0.149269 0.202197 N3-
0.887385 0.850731 0.193134 N3-
0.400579 0.112615 0.195533 N3-
0.599421 0.887385 0.193134 N3-
0.387385 0.099421 0.329498 N3-
0.599421 0.112615 0.331659 N3-
0.400579 0.887385 0.293107 N3-
0.112615 0.850731 0.286442 N3-
0.112615 0.149269 0.331659 N3-
0.149269 0.400579 0.293107 N3-
0.850731 0.400579 0.286442 N3-
0.350731 0.387385 0.329498 N3-
0.099421 0.350731 0.329498 N3-
0.900579 0.350731 0.331897 N3-
0.649269 0.612615 0.286204 N3-
0.099421 0.649269 0.286204 N3-
0.649269 0.387385 0.338561 N3-
0.350731 0.612615 0.331897 N3-
0.900579 0.649269 0.338561 N3-
0.612615 0.900579 0.331897 N3-
0.387385 0.900579 0.338561 N3-
0.612615 0.099421 0.286204 N3-
0.149269 0.599421 0.331659 N3-
0.850731 0.599421 0.284043 N3-
0.887385 0.149269 0.293107 N3-
0.887385 0.850731 0.284043 N3-
0.400579 0.112615 0.286442 N3-
0.599421 0.887385 0.284043 N3-
0.387385 0.099421 0.420407 N3-
0.599421 0.112615 0.422568 N3-
0.400579 0.887385 0.384016 N3-
0.112615 0.850731 0.377351 N3-
0.112615 0.149269 0.422568 N3-
0.149269 0.400579 0.384016 N3-
0.850731 0.400579 0.377351 N3-
0.350731 0.387385 0.420407 N3-
0.099421 0.350731 0.420407 N3-
0.900579 0.350731 0.422806 N3-
0.649269 0.612615 0.377113 N3-
0.099421 0.649269 0.377113 N3-
0.649269 0.387385 0.429470 N3-
0.350731 0.612615 0.422806 N3-
0.900579 0.649269 0.429470 N3-
0.612615 0.900579 0.422806 N3-
0.387385 0.900579 0.429470 N3-
0.612615 0.099421 0.377113 N3-
0.149269 0.599421 0.422568 N3-
0.850731 0.599421 0.374952 N3-
0.887385 0.149269 0.384016 N3-
0.887385 0.850731 0.374952 N3-
0.400579 0.112615 0.377351 N3-
0.599421 0.887385 0.374952 N3-
0.387385 0.099421 0.511316 N3-
0.599421 0.112615 0.513477 N3-
0.400579 0.887385 0.474925 N3-
0.112615 0.850731 0.468260 N3-
0.112615 0.149269 0.513477 N3-
0.149269 0.400579 0.474925 N3-
0.850731 0.400579 0.468260 N3-
0.350731 0.387385 0.511316 N3-
0.099421 0.350731 0.511316 N3-
0.900579 0.350731 0.513715 N3-
0.649269 0.612615 0.468022 N3-
0.099421 0.649269 0.468022 N3-
0.649269 0.387385 0.520379 N3-
0.350731 0.612615 0.513715 N3-
0.900579 0.649269 0.520379 N3-
0.612615 0.900579 0.513715 N3-
0.387385 0.900579 0.520379 N3-
0.612615 0.099421 0.468022 N3-
0.149269 0.599421 0.513477 N3-
0.850731 0.599421 0.465861 N3-
0.887385 0.149269 0.474925 N3-
0.887385 0.850731 0.465861 N3-
0.400579 0.112615 0.468260 N3-
0.599421 0.887385 0.465861 N3-
0.387385 0.099421 0.602225 N3-
0.599421 0.112615 0.604386 N3-
0.400579 0.887385 0.565834 N3-
0.112615 0.850731 0.559169 N3-
0.112615 0.149269 0.604386 N3-
0.149269 0.400579 0.565834 N3-
0.850731 0.400579 0.559169 N3-
0.350731 0.387385 0.602225 N3-
0.099421 0.350731 0.602225 N3-
0.900579 0.350731 0.604624 N3-
0.649269 0.612615 0.558931 N3-
0.099421 0.649269 0.558931 N3-
0.649269 0.387385 0.611288 N3-
0.350731 0.612615 0.604624 N3-
0.900579 0.649269 0.611288 N3-
0.612615 0.900579 0.604624 N3-
0.387385 0.900579 0.611288 N3-
0.612615 0.099421 0.558931 N3-
0.149269 0.599421 0.604386 N3-
0.850731 0.599421 0.556771 N3-
0.887385 0.149269 0.565834 N3-
0.887385 0.850731 0.556771 N3-
0.400579 0.112615 0.559169 N3-
0.599421 0.887385 0.556771 N3-
