Li2 P2 N4
1.0
-2.148581 2.148581 3.426229
2.285724 -2.285724 3.644924
2.285724 2.285724 -3.644924
Li P N
2 2 4
direct
0.500000 0.500000 0.000000 Li
0.250000 0.750000 0.500000 Li
0.000000 0.000000 0.000000 P
0.750000 0.250000 0.500000 P
0.375000 0.292003 0.417003 N
0.875000 0.957997 0.582997 N
0.707997 0.125000 0.082997 N
0.042003 0.625000 0.917003 N
