Li56 P56
1.0
5.593872 0.000000 0.000000
-4.836985 9.037780 0.000000
0.000000 0.000000 59.644620
Li P
56 56
direct
0.782992 0.670700 0.030146 Li+
0.217008 0.829300 0.071813 Li+
0.217008 0.329300 0.011521 Li+
0.782992 0.170700 0.053187 Li+
0.774232 0.970214 0.007640 Li+
0.225768 0.529786 0.049307 Li+
0.225768 0.029786 0.034026 Li+
0.774232 0.470214 0.075693 Li+
0.782992 0.670700 0.113479 Li+
0.217008 0.829300 0.155146 Li+
0.217008 0.329300 0.094854 Li+
0.782992 0.170700 0.136521 Li+
0.774232 0.970214 0.090974 Li+
0.225768 0.529786 0.132640 Li+
0.225768 0.029786 0.117360 Li+
0.774232 0.470214 0.159026 Li+
0.782992 0.670700 0.196813 Li+
0.217008 0.829300 0.238479 Li+
0.217008 0.329300 0.178187 Li+
0.782992 0.170700 0.219854 Li+
0.774232 0.970214 0.174307 Li+
0.225768 0.529786 0.215974 Li+
0.225768 0.029786 0.200693 Li+
0.774232 0.470214 0.242360 Li+
0.782992 0.670700 0.280146 Li+
0.217008 0.829300 0.321813 Li+
0.217008 0.329300 0.261521 Li+
0.782992 0.170700 0.303187 Li+
0.774232 0.970214 0.257640 Li+
0.225768 0.529786 0.299307 Li+
0.225768 0.029786 0.284026 Li+
0.774232 0.470214 0.325693 Li+
0.782992 0.670700 0.363479 Li+
0.217008 0.829300 0.405146 Li+
0.217008 0.329300 0.344854 Li+
0.782992 0.170700 0.386521 Li+
0.774232 0.970214 0.340974 Li+
0.225768 0.529786 0.382640 Li+
0.225768 0.029786 0.367360 Li+
0.774232 0.470214 0.409026 Li+
0.782992 0.670700 0.446813 Li+
0.217008 0.829300 0.488479 Li+
0.217008 0.329300 0.428187 Li+
0.782992 0.170700 0.469854 Li+
0.774232 0.970214 0.424307 Li+
0.225768 0.529786 0.465974 Li+
0.225768 0.029786 0.450693 Li+
0.774232 0.470214 0.492360 Li+
0.782992 0.670700 0.530146 Li+
0.217008 0.829300 0.571813 Li+
0.217008 0.329300 0.511521 Li+
0.782992 0.170700 0.553187 Li+
0.774232 0.970214 0.507640 Li+
0.225768 0.529786 0.549307 Li+
0.225768 0.029786 0.534026 Li+
0.774232 0.470214 0.575693 Li+
0.683355 0.707084 0.071258 P-
0.316645 0.792916 0.029591 P-
0.316645 0.292916 0.053742 P-
0.683355 0.207084 0.012075 P-
0.696818 0.888258 0.049498 P-
0.303182 0.611742 0.007831 P-
0.303182 0.111742 0.075502 P-
0.696818 0.388258 0.033836 P-
0.683355 0.707084 0.154591 P-
0.316645 0.792916 0.112925 P-
0.316645 0.292916 0.137075 P-
0.683355 0.207084 0.095409 P-
0.696818 0.888258 0.132831 P-
0.303182 0.611742 0.091164 P-
0.303182 0.111742 0.158836 P-
0.696818 0.388258 0.117169 P-
0.683355 0.707084 0.237925 P-
0.316645 0.792916 0.196258 P-
0.316645 0.292916 0.220409 P-
0.683355 0.207084 0.178742 P-
0.696818 0.888258 0.216164 P-
0.303182 0.611742 0.174498 P-
0.303182 0.111742 0.242169 P-
0.696818 0.388258 0.200502 P-
0.683355 0.707084 0.321258 P-
0.316645 0.792916 0.279591 P-
0.316645 0.292916 0.303742 P-
0.683355 0.207084 0.262075 P-
0.696818 0.888258 0.299498 P-
0.303182 0.611742 0.257831 P-
0.303182 0.111742 0.325502 P-
0.696818 0.388258 0.283836 P-
0.683355 0.707084 0.404591 P-
0.316645 0.792916 0.362925 P-
0.316645 0.292916 0.387075 P-
0.683355 0.207084 0.345409 P-
0.696818 0.888258 0.382831 P-
0.303182 0.611742 0.341164 P-
0.303182 0.111742 0.408836 P-
0.696818 0.388258 0.367169 P-
0.683355 0.707084 0.487925 P-
0.316645 0.792916 0.446258 P-
0.316645 0.292916 0.470409 P-
0.683355 0.207084 0.428742 P-
0.696818 0.888258 0.466164 P-
0.303182 0.611742 0.424498 P-
0.303182 0.111742 0.492169 P-
0.696818 0.388258 0.450502 P-
0.683355 0.707084 0.571258 P-
0.316645 0.792916 0.529591 P-
0.316645 0.292916 0.553742 P-
0.683355 0.207084 0.512075 P-
0.696818 0.888258 0.549498 P-
0.303182 0.611742 0.507831 P-
0.303182 0.111742 0.575502 P-
0.696818 0.388258 0.533836 P-
