Li42 P14 O56
1.0
5.296402 0.000000 0.000000
-0.000000 6.176136 -4.922448
0.000000 0.000000 63.991824
Li P O
42 14 56
direct
0.844520 0.000000 0.070163 Li+
0.155480 0.500000 0.070163 Li+
0.326434 0.747127 0.050630 Li+
0.673566 0.752873 0.012610 Li+
0.673566 0.247127 0.050630 Li+
0.326434 0.252873 0.012610 Li+
0.844520 0.000000 0.147086 Li+
0.155480 0.500000 0.147086 Li+
0.326434 0.747127 0.127553 Li+
0.673566 0.752873 0.089533 Li+
0.673566 0.247127 0.127553 Li+
0.326434 0.252873 0.089533 Li+
0.844520 0.000000 0.224009 Li+
0.155480 0.500000 0.224009 Li+
0.326434 0.747127 0.204476 Li+
0.673566 0.752873 0.166456 Li+
0.673566 0.247127 0.204476 Li+
0.326434 0.252873 0.166456 Li+
0.844520 0.000000 0.300932 Li+
0.155480 0.500000 0.300932 Li+
0.326434 0.747127 0.281399 Li+
0.673566 0.752873 0.243379 Li+
0.673566 0.247127 0.281399 Li+
0.326434 0.252873 0.243379 Li+
0.844520 0.000000 0.377855 Li+
0.155480 0.500000 0.377855 Li+
0.326434 0.747127 0.358322 Li+
0.673566 0.752873 0.320302 Li+
0.673566 0.247127 0.358322 Li+
0.326434 0.252873 0.320302 Li+
0.844520 0.000000 0.454778 Li+
0.155480 0.500000 0.454778 Li+
0.326434 0.747127 0.435245 Li+
0.673566 0.752873 0.397226 Li+
0.673566 0.247127 0.435245 Li+
0.326434 0.252873 0.397226 Li+
0.844520 0.000000 0.531701 Li+
0.155480 0.500000 0.531701 Li+
0.326434 0.747127 0.512168 Li+
0.673566 0.752873 0.474149 Li+
0.673566 0.247127 0.512168 Li+
0.326434 0.252873 0.474149 Li+
0.824261 0.500000 0.031086 P5+
0.175739 0.000000 0.031086 P5+
0.824261 0.500000 0.108009 P5+
0.175739 0.000000 0.108009 P5+
0.824261 0.500000 0.184932 P5+
0.175739 0.000000 0.184932 P5+
0.824261 0.500000 0.261855 P5+
0.175739 0.000000 0.261855 P5+
0.824261 0.500000 0.338778 P5+
0.175739 0.000000 0.338778 P5+
0.824261 0.500000 0.415701 P5+
0.175739 0.000000 0.415701 P5+
0.824261 0.500000 0.492624 P5+
0.175739 0.000000 0.492624 P5+
0.313509 0.207138 0.055142 O2-
0.103508 0.500000 0.038832 O2-
0.818396 0.500000 0.006761 O2-
0.181604 0.000000 0.006761 O2-
0.686491 0.707138 0.055142 O2-
0.313509 0.792862 0.023274 O2-
0.896492 0.000000 0.038832 O2-
0.686491 0.292862 0.023274 O2-
0.313509 0.207138 0.132065 O2-
0.103508 0.500000 0.115756 O2-
0.818396 0.500000 0.083684 O2-
0.181604 0.000000 0.083684 O2-
0.686491 0.707138 0.132065 O2-
0.313509 0.792862 0.100198 O2-
0.896492 0.000000 0.115756 O2-
0.686491 0.292862 0.100198 O2-
0.313509 0.207138 0.208988 O2-
0.103508 0.500000 0.192679 O2-
0.818396 0.500000 0.160607 O2-
0.181604 0.000000 0.160607 O2-
0.686491 0.707138 0.208988 O2-
0.313509 0.792862 0.177121 O2-
0.896492 0.000000 0.192679 O2-
0.686491 0.292862 0.177121 O2-
0.313509 0.207138 0.285911 O2-
0.103508 0.500000 0.269602 O2-
0.818396 0.500000 0.237530 O2-
0.181604 0.000000 0.237530 O2-
0.686491 0.707138 0.285911 O2-
0.313509 0.792862 0.254044 O2-
0.896492 0.000000 0.269602 O2-
0.686491 0.292862 0.254044 O2-
0.313509 0.207138 0.362834 O2-
0.103508 0.500000 0.346525 O2-
0.818396 0.500000 0.314453 O2-
0.181604 0.000000 0.314453 O2-
0.686491 0.707138 0.362834 O2-
0.313509 0.792862 0.330967 O2-
0.896492 0.000000 0.346525 O2-
0.686491 0.292862 0.330967 O2-
0.313509 0.207138 0.439757 O2-
0.103508 0.500000 0.423448 O2-
0.818396 0.500000 0.391376 O2-
0.181604 0.000000 0.391376 O2-
0.686491 0.707138 0.439757 O2-
0.313509 0.792862 0.407890 O2-
0.896492 0.000000 0.423448 O2-
0.686491 0.292862 0.407890 O2-
0.313509 0.207138 0.516680 O2-
0.103508 0.500000 0.500371 O2-
0.818396 0.500000 0.468299 O2-
0.181604 0.000000 0.468299 O2-
0.686491 0.707138 0.516680 O2-
0.313509 0.792862 0.484813 O2-
0.896492 0.000000 0.500371 O2-
0.686491 0.292862 0.484813 O2-
