Li61 P7 N32                             
   1.00000000000000     
    -0.0031512804994701    9.4842009923740935   -0.0003337912182241
    -0.0011335283269554   -0.0003358474630522    9.5459601491867119
     9.5361439554962679   -0.0032161201298412   -0.0011590836315101
   Li   P    N 
    61     7    32
Direct
  0.4941629836680050 -0.0012307446727040  0.4978398759307602
  0.0058532650392024  0.5007944533223682 -0.0079632193909186
  0.4939957935304635 -0.0093741930037080 -0.0024063826766271
 -0.0014885540133809 -0.0026559742525043  0.4999582824837314
  0.4880554154682139  0.4892037101956153 -0.0038217551044277
  0.0044964836003061  0.4975797979799700  0.4960537289465071
  0.7468778702322554 -0.0042285890154289  0.4959089748868844
  0.2446740312360144 -0.0124392321475122  0.5009435915506919
  0.7662817698058387  0.4954411129650300  0.4974097651976914
  0.2339167354561348  0.5008960785642357  0.5096629336632028
  0.2601128702101821  0.0013685870574321 -0.0024365848715332
  0.7328986298310916 -0.0036673774126233 -0.0039633768258930
  0.8266880910468553  0.5886580023940833  0.0747582245639601
  0.5109555058960173  0.2308025128241996 -0.0226078873992500
  0.4978637927536190  0.7483446353731600  0.0111667460644552
 -0.0127142911154139  0.4850445581183006  0.2537613724686667
 -0.0106337396525596  0.5107985802787719  0.7378131386210868
  0.2262863576722774  0.2214739851474938  0.2185540084644026
  0.2341127854550326  0.7872165184687377  0.7774718535529855
  0.2624361644268934  0.2859671373041922  0.7279294426061306
  0.2686851710832442  0.7327601764420976  0.2788260249075001
  0.7623458273781186  0.2990420319637102  0.3025638922547221
  0.7574973525215533  0.7002361039920355  0.6993168399790827
  0.7353818030166780  0.1956098680655702  0.8017597157879305
  0.7427460223991493  0.7991981216878626  0.1994258128566898
  0.9857864855977330  0.2422913489010860  0.2430189134202831
  0.9839213875589802  0.7519466053902655  0.7535071168513531
  0.2579405128360379  0.2246159043405114  0.4919706978022311
  0.2618321254782848  0.7483454045866251  0.5253102449420678
  0.7512250300663079  0.2266653640717693  0.5496485688588918
  0.7430219045978258  0.7601080378470955  0.4552601687844442
  0.7358328592507282  0.5500206225017545  0.2783806142675634
  0.7359430018185326  0.4509400396194176  0.7191137184423501
  0.2188471641850011  0.4902376168755114  0.2551194418642689
  0.2278406285607066  0.5400972188705696  0.7484223502882529
  0.5162570724333285  0.7479506234571273  0.2504144303206762
  0.5111614548032475  0.2526368960070827  0.7401468877468754
  0.2354418450133176  0.9809459249314816  0.2505769179462932
  0.2337597826825290  0.0293267087555312  0.7448855018525780
  0.2626915752688492  0.2413651494801409  0.9742059048143522
  0.2540367941162677  0.7629014193103612  0.0276385070936342
  0.7541553225293929  0.9528688636121064  0.7321707101461454
  0.7576102358615360  0.0401488477400874  0.2595177640572495
  0.7555893153962773  0.7763891188864555  0.9511557971581556
  0.7663679431734089  0.2139582406166961  0.0515754726680653
  0.0086898835168977  0.2511137820914278  0.7638550737688622
  0.0149580017625204  0.7422049270030152  0.2333031634535300
  0.5019860662781113  0.2553931880083669  0.2252557993585629
  0.4839252228489944  0.7335473723167630  0.7533047349393119
  0.0120466508147876  0.2608508380176559  0.0137344633557565
  0.0065286026721912  0.7409518795416690 -0.0172455996000526
  0.5144344823675342  0.2316700495490908  0.4943394968480891
  0.5009350562862178  0.7610917891830387  0.5036137933483109
  0.4891142775007310  0.5239767602572867  0.2319829245459103
  0.4832173958879795  0.4819763467089017  0.7570413814686678
 -0.0027573514072104 -0.0095875345540673  0.2609192840954622
 -0.0052864332010238  0.0042231154085290  0.7389759487403952
  0.3629881490677602  0.3602656715859640  0.3580342797112193
  0.8223669766485279  0.4054076181656518  0.9217903269292245
  0.6723600110940264  0.4213253541652995  0.0903268878762688
  0.6679674493633282  0.5760017837068191  0.9077909674039197
  0.4990214840809106  0.5005421666441228  0.4989045566102336
  0.0007248803515940  0.0000055448247892 -0.0006782332499643
  0.2470904324293554  0.5020721292796089  0.0025995784727999
  0.0010815071774177  0.7469998611624690  0.4954539856201672
  0.0037776120348689  0.2479898069254338  0.5022618572930074
  0.4973020973016897  0.0021235576540007  0.2467283137850812
  0.4958642315045872 -0.0058095171979777  0.7482419691444284
  0.6014809436681885  0.5967546193295992  0.6025062862742447
  0.5961311824501178  0.4017550469724942  0.3871280608423500
  0.8966064324456524  0.8951117877624427  0.0972491062921208
  0.8962797036585821  0.1051860592742084  0.9013485820858614
  0.1044959465964961  0.9035005564202312  0.8924766296475737
  0.1048588985450699  0.0966205272789492  0.1062126022179188
  0.3889944552822716  0.6016935632627625  0.4018258263000948
  0.3949907974786969  0.3865692266093324  0.5885421997368678
  0.1112548933425135  0.3434707070225764  0.3930477407586817
  0.1008750185653003  0.6493273688034038  0.6065476114585431
  0.1079101308404590  0.1458291432356690  0.6053459658992589
  0.1114749780988021  0.8477158738245625  0.3969882668141215
  0.8905571150804741  0.1478433990506498  0.4062703107593923
  0.8871111310221541  0.8477889812305227  0.5898222389270364
  0.8660967826730821  0.3791257644873100  0.1300020606997588
  0.8642041870454885  0.6140974018012330  0.8661615990429697
  0.1440027117172245  0.6042068099598331  0.1067859353365980
  0.1536687439076027  0.3989893960600399  0.8899225960007598
  0.3935204506190591  0.8918654925598389  0.1534813742803890
  0.3969344725619238  0.1043705423477643  0.8468911299426958
  0.3907560930719848  0.1107811547963965  0.3454198519486094
  0.3852239865816814  0.8955099262395673  0.6472220589924225
  0.3425864622951147  0.3924117966353460  0.1120320655967220
  0.3482430829711128  0.6112067869906663  0.9029975992352646
  0.6094441544983651  0.0895050309097686  0.6464791944645328
  0.6083200678154363  0.9075355596661397  0.3501056258015953
  0.6321865461811063  0.6310960375775562  0.1155397881259242
  0.6267286916424806  0.3676765285779290  0.8794065690229290
  0.9046448161756507  0.3531647975271023  0.6054782900105677
  0.9030036281497938  0.6433099928409541  0.3884820037456291
  0.5983164138235210  0.1014829155579181  0.1395358225235611
  0.5946808166387166  0.8868398974973097  0.8497103054516517
 
  0.00000000E+00  0.00000000E+00  0.00000000E+00
  0.00000000E+00  0.00000000E+00  0.00000000E+00
  0.00000000E+00  0.00000000E+00  0.00000000E+00
  0.00000000E+00  0.00000000E+00  0.00000000E+00
  0.00000000E+00  0.00000000E+00  0.00000000E+00
  0.00000000E+00  0.00000000E+00  0.00000000E+00
  0.00000000E+00  0.00000000E+00  0.00000000E+00
  0.00000000E+00  0.00000000E+00  0.00000000E+00
  0.00000000E+00  0.00000000E+00  0.00000000E+00
  0.00000000E+00  0.00000000E+00  0.00000000E+00
  0.00000000E+00  0.00000000E+00  0.00000000E+00
  0.00000000E+00  0.00000000E+00  0.00000000E+00
  0.00000000E+00  0.00000000E+00  0.00000000E+00
  0.00000000E+00  0.00000000E+00  0.00000000E+00
  0.00000000E+00  0.00000000E+00  0.00000000E+00
  0.00000000E+00  0.00000000E+00  0.00000000E+00
  0.00000000E+00  0.00000000E+00  0.00000000E+00
  0.00000000E+00  0.00000000E+00  0.00000000E+00
  0.00000000E+00  0.00000000E+00  0.00000000E+00
  0.00000000E+00  0.00000000E+00  0.00000000E+00
  0.00000000E+00  0.00000000E+00  0.00000000E+00
  0.00000000E+00  0.00000000E+00  0.00000000E+00
  0.00000000E+00  0.00000000E+00  0.00000000E+00
  0.00000000E+00  0.00000000E+00  0.00000000E+00
  0.00000000E+00  0.00000000E+00  0.00000000E+00
  0.00000000E+00  0.00000000E+00  0.00000000E+00
  0.00000000E+00  0.00000000E+00  0.00000000E+00
  0.00000000E+00  0.00000000E+00  0.00000000E+00
  0.00000000E+00  0.00000000E+00  0.00000000E+00
  0.00000000E+00  0.00000000E+00  0.00000000E+00
  0.00000000E+00  0.00000000E+00  0.00000000E+00
  0.00000000E+00  0.00000000E+00  0.00000000E+00
  0.00000000E+00  0.00000000E+00  0.00000000E+00
  0.00000000E+00  0.00000000E+00  0.00000000E+00
  0.00000000E+00  0.00000000E+00  0.00000000E+00
  0.00000000E+00  0.00000000E+00  0.00000000E+00
  0.00000000E+00  0.00000000E+00  0.00000000E+00
  0.00000000E+00  0.00000000E+00  0.00000000E+00
  0.00000000E+00  0.00000000E+00  0.00000000E+00
  0.00000000E+00  0.00000000E+00  0.00000000E+00
  0.00000000E+00  0.00000000E+00  0.00000000E+00
  0.00000000E+00  0.00000000E+00  0.00000000E+00
  0.00000000E+00  0.00000000E+00  0.00000000E+00
  0.00000000E+00  0.00000000E+00  0.00000000E+00
  0.00000000E+00  0.00000000E+00  0.00000000E+00
  0.00000000E+00  0.00000000E+00  0.00000000E+00
  0.00000000E+00  0.00000000E+00  0.00000000E+00
  0.00000000E+00  0.00000000E+00  0.00000000E+00
  0.00000000E+00  0.00000000E+00  0.00000000E+00
  0.00000000E+00  0.00000000E+00  0.00000000E+00
  0.00000000E+00  0.00000000E+00  0.00000000E+00
  0.00000000E+00  0.00000000E+00  0.00000000E+00
  0.00000000E+00  0.00000000E+00  0.00000000E+00
  0.00000000E+00  0.00000000E+00  0.00000000E+00
  0.00000000E+00  0.00000000E+00  0.00000000E+00
  0.00000000E+00  0.00000000E+00  0.00000000E+00
  0.00000000E+00  0.00000000E+00  0.00000000E+00
  0.00000000E+00  0.00000000E+00  0.00000000E+00
  0.00000000E+00  0.00000000E+00  0.00000000E+00
  0.00000000E+00  0.00000000E+00  0.00000000E+00
  0.00000000E+00  0.00000000E+00  0.00000000E+00
  0.00000000E+00  0.00000000E+00  0.00000000E+00
  0.00000000E+00  0.00000000E+00  0.00000000E+00
  0.00000000E+00  0.00000000E+00  0.00000000E+00
  0.00000000E+00  0.00000000E+00  0.00000000E+00
  0.00000000E+00  0.00000000E+00  0.00000000E+00
  0.00000000E+00  0.00000000E+00  0.00000000E+00
  0.00000000E+00  0.00000000E+00  0.00000000E+00
  0.00000000E+00  0.00000000E+00  0.00000000E+00
  0.00000000E+00  0.00000000E+00  0.00000000E+00
  0.00000000E+00  0.00000000E+00  0.00000000E+00
  0.00000000E+00  0.00000000E+00  0.00000000E+00
  0.00000000E+00  0.00000000E+00  0.00000000E+00
  0.00000000E+00  0.00000000E+00  0.00000000E+00
  0.00000000E+00  0.00000000E+00  0.00000000E+00
  0.00000000E+00  0.00000000E+00  0.00000000E+00
  0.00000000E+00  0.00000000E+00  0.00000000E+00
  0.00000000E+00  0.00000000E+00  0.00000000E+00
  0.00000000E+00  0.00000000E+00  0.00000000E+00
  0.00000000E+00  0.00000000E+00  0.00000000E+00
  0.00000000E+00  0.00000000E+00  0.00000000E+00
  0.00000000E+00  0.00000000E+00  0.00000000E+00
  0.00000000E+00  0.00000000E+00  0.00000000E+00
  0.00000000E+00  0.00000000E+00  0.00000000E+00
  0.00000000E+00  0.00000000E+00  0.00000000E+00
  0.00000000E+00  0.00000000E+00  0.00000000E+00
  0.00000000E+00  0.00000000E+00  0.00000000E+00
  0.00000000E+00  0.00000000E+00  0.00000000E+00
  0.00000000E+00  0.00000000E+00  0.00000000E+00
  0.00000000E+00  0.00000000E+00  0.00000000E+00
  0.00000000E+00  0.00000000E+00  0.00000000E+00
  0.00000000E+00  0.00000000E+00  0.00000000E+00
  0.00000000E+00  0.00000000E+00  0.00000000E+00
  0.00000000E+00  0.00000000E+00  0.00000000E+00
  0.00000000E+00  0.00000000E+00  0.00000000E+00
  0.00000000E+00  0.00000000E+00  0.00000000E+00
  0.00000000E+00  0.00000000E+00  0.00000000E+00
  0.00000000E+00  0.00000000E+00  0.00000000E+00
  0.00000000E+00  0.00000000E+00  0.00000000E+00
  0.00000000E+00  0.00000000E+00  0.00000000E+00
