Li61 P7 N32                             
   1.00000000000000     
     0.0013370314734667    9.5223814217353375    0.0045381304531763
    -0.0043176157002823    0.0045671913274997    9.5326673142533132
     9.5105550330688367    0.0013037856543121   -0.0042575969175175
   Li   P    N 
    61     7    32
Direct
  0.4994315877729948 -0.0032572421719833  0.4969118586287529
  0.0029855163328164  0.5042153379906739  0.0067405846859969
  0.5023506381300513 -0.0016080670242656 -0.0030120241124713
  0.0013929640058040 -0.0018752479631934  0.4989336142356218
  0.5007909021785190  0.4994838794405490 -0.0013519367201255
  0.0002521943793896  0.4976598876725454  0.5008373420338448
  0.7503764661975543  0.0034618444957521  0.4930320211509958
  0.2503923180965942 -0.0016914597417181  0.4969060966511435
  0.7784848862873163  0.5063079916731785  0.5064575032204027
  0.2235218913091349  0.4995977777508050  0.4970388587098455
  0.2650590802664545 -0.0018506259138472 -0.0026633985762092
  0.7393217212869402 -0.0006252100623380 -0.0085018362228777
  0.4201241759368227  0.5793187396605851  0.5783771673432292
  0.5006727114253366  0.2476355628669940 -0.0033661148159959
  0.5029326956651478  0.7506143004628382  0.0006401961602272
  0.0052068020572738  0.4983744927744794  0.2535585329101646
  0.0115096020196813  0.5130015871360351  0.7431217061963257
  0.2386328218719649  0.2321368806132584  0.2315146815081409
  0.2351744055425126  0.7623948694743183  0.7647163677862746
  0.2724398593654461  0.2545947783848818  0.7313411332089420
  0.2611270003511938  0.7352437573895734  0.2643848442854568
  0.7395578045461361  0.2582486700446903  0.2672347105469465
  0.7356991089891050  0.7418205644300434  0.7281594276011025
  0.7591618565750501  0.2037734814601083  0.7518623019046787
  0.7640616138425718  0.7627476718885762  0.2312433967973379
  0.9875311987342494  0.2469961687577155  0.2466187904308773
  0.9857605906798627  0.7556042060231191  0.7577599425759113
  0.2588482199986912  0.2473301019293257  0.4951446337637472
  0.2549262698096054  0.7501536531411187  0.5013968909887000
  0.7513593684849648  0.2559666247714215  0.5007704017687615
  0.7443180477449080  0.7546243252629137  0.4908885145696256
  0.7558492479481981  0.4986693807458296  0.2593359848747555
  0.7317292333366310  0.5160047999691543  0.7492114029004530
  0.2553646124301119  0.4988661433529629  0.2520642079561422
  0.2522974458439333  0.4936829992136501  0.7447663870752903
  0.4982609017296628  0.7453851892798765  0.2509236147674488
  0.5044437569568216  0.2492384694932858  0.7449163361876068
  0.2411794706934976  0.9830763745855668  0.2461644923957216
  0.2413161786144871  0.0113974317658626  0.7473511039599945
  0.2546432809675196  0.2378859043401649  0.9795131843537869
  0.2545235618288183  0.7591944175623672  0.0169598715369247
  0.7617845607668949  0.9705258709483158  0.7378410328973979
  0.7604387161261233  0.0098984786640203  0.2409165125265290
  0.7526936239062613  0.7597688553918444  0.9794530637066191
  0.7451877164102660  0.2346922320718103  0.0245727016753846
  0.0365192587399065  0.2402901269566977  0.7604830661108565
  0.0158108128350745  0.7477872227745678  0.2376284649749620
  0.5015842566540187  0.2535060841319188  0.2470346780486904
  0.4977798659621762  0.7409042009314089  0.7512923895035635
  0.0109545964641092  0.2588320652340637  0.0120612721732564
  0.0040458054636790  0.7390136999083293 -0.0022281764199272
  0.5060797220776723  0.2195579455478450  0.4952610824371773
  0.5011956481032754  0.7752076143691125  0.5009069093798200
  0.5030836515482132  0.4984248921119803  0.2217773204485624
  0.4921405971986910  0.4921605516679967  0.7763053750528013
  0.0008135141253036 -0.0029466706247831  0.2621358428182154
  0.0013074083528638  0.0001310920744136  0.7350322017257106
  0.4222891639627794  0.4179809685255277  0.4196026511265846
  0.5807328260810370  0.4202777031463010  0.5779764608194963
  0.5809430107104401  0.5792585698554713  0.4177512167183827
  0.8747627538055258  0.3653288008921127  0.8496579105856983
  0.0021827011732879  0.0004681825987163 -0.0016025917742169
  0.7522461633542677  0.5013982668806025  0.0054370870021540
  0.2475553083582419  0.4987724089930054 -0.0007012233933649
 -0.0002218593744196  0.7516975384017552  0.4979149518161997
  0.0044569291639137  0.2445291778077623  0.5038737385453385
  0.5014194782195620 -0.0011061173427911  0.2440846438840940
  0.5010883271114004 -0.0043656147771817  0.7500515439647084
  0.6188227683715244  0.6208365734530253  0.6165864041835567
  0.6226076781905463  0.3793309371049389  0.3805115043909469
  0.8968962483037786  0.8971683293682586  0.0984458915910623
  0.9012521238426269  0.1094819708324237  0.8954562106679387
  0.1035536197749290  0.8974444237079440  0.8936721682610532
  0.1061359444690680  0.0999018722478319  0.1040313020211359
  0.3810617536140293  0.6172765437835290  0.3792228512462006
  0.3838498123574968  0.3784649831105280  0.6191537476381590
  0.1002862211705510  0.3478762278361815  0.3938854950339127
  0.0990787896151073  0.6519155031900595  0.6084572191509632
  0.1133981694428407  0.1413122572714848  0.6002465977027076
  0.1062096174525121  0.8521663218908795  0.3960344550960908
  0.8951098686761427  0.1466339843304625  0.4020370779338595
  0.8921316603302440  0.8535998540096278  0.5997599177152070
  0.8565416952064184  0.3964550434176167  0.1051340842043217
  0.8561472295218679  0.5952981926508966  0.8925583904310591
  0.1485684453493127  0.6017181996958786  0.1072384724606961
  0.1423399132497857  0.3967882962389332  0.8936617093611182
  0.3998319343339825  0.8921080574363299  0.1426937454349544
  0.4004107437328290  0.1044880086945656  0.8508036192069608
  0.3923637331713728  0.0984963114101420  0.3455670159790715
  0.3912682876567045  0.8968110727680226  0.6497945133240400
  0.3499733354802834  0.3886302715867791  0.0963580965069013
  0.3485899028446444  0.6063189556284719  0.8983368791815749
  0.6109355916928305  0.0933646181798413  0.6477150825557516
  0.6111594378659732  0.8993332622630518  0.3452265561477106
  0.6526204656567648  0.6097817724502477  0.1012712259625727
  0.6565501258872326  0.3892523698483522  0.9009192133662468
  0.9066862339152179  0.3442699081431619  0.6206931509020090
  0.9007330525167029  0.6491485809553414  0.3895400682084410
  0.6038532867155617  0.1058283713817478  0.1426875451954638
  0.6044747420567732  0.8899833650457448  0.8513418673601213
 
  0.00000000E+00  0.00000000E+00  0.00000000E+00
  0.00000000E+00  0.00000000E+00  0.00000000E+00
  0.00000000E+00  0.00000000E+00  0.00000000E+00
  0.00000000E+00  0.00000000E+00  0.00000000E+00
  0.00000000E+00  0.00000000E+00  0.00000000E+00
  0.00000000E+00  0.00000000E+00  0.00000000E+00
  0.00000000E+00  0.00000000E+00  0.00000000E+00
  0.00000000E+00  0.00000000E+00  0.00000000E+00
  0.00000000E+00  0.00000000E+00  0.00000000E+00
  0.00000000E+00  0.00000000E+00  0.00000000E+00
  0.00000000E+00  0.00000000E+00  0.00000000E+00
  0.00000000E+00  0.00000000E+00  0.00000000E+00
  0.00000000E+00  0.00000000E+00  0.00000000E+00
  0.00000000E+00  0.00000000E+00  0.00000000E+00
  0.00000000E+00  0.00000000E+00  0.00000000E+00
  0.00000000E+00  0.00000000E+00  0.00000000E+00
  0.00000000E+00  0.00000000E+00  0.00000000E+00
  0.00000000E+00  0.00000000E+00  0.00000000E+00
  0.00000000E+00  0.00000000E+00  0.00000000E+00
  0.00000000E+00  0.00000000E+00  0.00000000E+00
  0.00000000E+00  0.00000000E+00  0.00000000E+00
  0.00000000E+00  0.00000000E+00  0.00000000E+00
  0.00000000E+00  0.00000000E+00  0.00000000E+00
  0.00000000E+00  0.00000000E+00  0.00000000E+00
  0.00000000E+00  0.00000000E+00  0.00000000E+00
  0.00000000E+00  0.00000000E+00  0.00000000E+00
  0.00000000E+00  0.00000000E+00  0.00000000E+00
  0.00000000E+00  0.00000000E+00  0.00000000E+00
  0.00000000E+00  0.00000000E+00  0.00000000E+00
  0.00000000E+00  0.00000000E+00  0.00000000E+00
  0.00000000E+00  0.00000000E+00  0.00000000E+00
  0.00000000E+00  0.00000000E+00  0.00000000E+00
  0.00000000E+00  0.00000000E+00  0.00000000E+00
  0.00000000E+00  0.00000000E+00  0.00000000E+00
  0.00000000E+00  0.00000000E+00  0.00000000E+00
  0.00000000E+00  0.00000000E+00  0.00000000E+00
  0.00000000E+00  0.00000000E+00  0.00000000E+00
  0.00000000E+00  0.00000000E+00  0.00000000E+00
  0.00000000E+00  0.00000000E+00  0.00000000E+00
  0.00000000E+00  0.00000000E+00  0.00000000E+00
  0.00000000E+00  0.00000000E+00  0.00000000E+00
  0.00000000E+00  0.00000000E+00  0.00000000E+00
  0.00000000E+00  0.00000000E+00  0.00000000E+00
  0.00000000E+00  0.00000000E+00  0.00000000E+00
  0.00000000E+00  0.00000000E+00  0.00000000E+00
  0.00000000E+00  0.00000000E+00  0.00000000E+00
  0.00000000E+00  0.00000000E+00  0.00000000E+00
  0.00000000E+00  0.00000000E+00  0.00000000E+00
  0.00000000E+00  0.00000000E+00  0.00000000E+00
  0.00000000E+00  0.00000000E+00  0.00000000E+00
  0.00000000E+00  0.00000000E+00  0.00000000E+00
  0.00000000E+00  0.00000000E+00  0.00000000E+00
  0.00000000E+00  0.00000000E+00  0.00000000E+00
  0.00000000E+00  0.00000000E+00  0.00000000E+00
  0.00000000E+00  0.00000000E+00  0.00000000E+00
  0.00000000E+00  0.00000000E+00  0.00000000E+00
  0.00000000E+00  0.00000000E+00  0.00000000E+00
  0.00000000E+00  0.00000000E+00  0.00000000E+00
  0.00000000E+00  0.00000000E+00  0.00000000E+00
  0.00000000E+00  0.00000000E+00  0.00000000E+00
  0.00000000E+00  0.00000000E+00  0.00000000E+00
  0.00000000E+00  0.00000000E+00  0.00000000E+00
  0.00000000E+00  0.00000000E+00  0.00000000E+00
  0.00000000E+00  0.00000000E+00  0.00000000E+00
  0.00000000E+00  0.00000000E+00  0.00000000E+00
  0.00000000E+00  0.00000000E+00  0.00000000E+00
  0.00000000E+00  0.00000000E+00  0.00000000E+00
  0.00000000E+00  0.00000000E+00  0.00000000E+00
  0.00000000E+00  0.00000000E+00  0.00000000E+00
  0.00000000E+00  0.00000000E+00  0.00000000E+00
  0.00000000E+00  0.00000000E+00  0.00000000E+00
  0.00000000E+00  0.00000000E+00  0.00000000E+00
  0.00000000E+00  0.00000000E+00  0.00000000E+00
  0.00000000E+00  0.00000000E+00  0.00000000E+00
  0.00000000E+00  0.00000000E+00  0.00000000E+00
  0.00000000E+00  0.00000000E+00  0.00000000E+00
  0.00000000E+00  0.00000000E+00  0.00000000E+00
  0.00000000E+00  0.00000000E+00  0.00000000E+00
  0.00000000E+00  0.00000000E+00  0.00000000E+00
  0.00000000E+00  0.00000000E+00  0.00000000E+00
  0.00000000E+00  0.00000000E+00  0.00000000E+00
  0.00000000E+00  0.00000000E+00  0.00000000E+00
  0.00000000E+00  0.00000000E+00  0.00000000E+00
  0.00000000E+00  0.00000000E+00  0.00000000E+00
  0.00000000E+00  0.00000000E+00  0.00000000E+00
  0.00000000E+00  0.00000000E+00  0.00000000E+00
  0.00000000E+00  0.00000000E+00  0.00000000E+00
  0.00000000E+00  0.00000000E+00  0.00000000E+00
  0.00000000E+00  0.00000000E+00  0.00000000E+00
  0.00000000E+00  0.00000000E+00  0.00000000E+00
  0.00000000E+00  0.00000000E+00  0.00000000E+00
  0.00000000E+00  0.00000000E+00  0.00000000E+00
  0.00000000E+00  0.00000000E+00  0.00000000E+00
  0.00000000E+00  0.00000000E+00  0.00000000E+00
  0.00000000E+00  0.00000000E+00  0.00000000E+00
  0.00000000E+00  0.00000000E+00  0.00000000E+00
  0.00000000E+00  0.00000000E+00  0.00000000E+00
  0.00000000E+00  0.00000000E+00  0.00000000E+00
  0.00000000E+00  0.00000000E+00  0.00000000E+00
  0.00000000E+00  0.00000000E+00  0.00000000E+00
