Li5 P2 N1 O6                            
   1.00000000000000     
     0.0000000000000000   -0.0341417792585812    4.9649968092991710
     6.3464846554845487    0.0000000000000000    0.0000000000000000
     0.0000000000000000    5.4230959578635920   -0.0365294864004447
   Li   P    N    O 
     5     2     1     6
Direct
  0.5274065139375460 -0.0000000000000000  0.8632655957504400
  0.4909814564745317  0.7765517730238993  0.3440324806261150
  0.0042699590660059  0.7512006065278951  0.6615969186318184
  0.0042699590660059  0.2487993934721051  0.6615969186318185
  0.4909814564745317  0.2234482269761011  0.3440324806261150
  0.4902664721217425  0.5000000000000000  0.7931205035022054
  0.0065477917301936 -0.0000000000000000  0.1885657388473710
  0.1145257000784978 -0.0000000000000000  0.9052319587916429
  0.1110217709581579  0.2008885277867060  0.3219157864181954
  0.6124428954129804  0.7052396769711957  0.6806727001174646
  0.1110217709581579  0.7991114722132938  0.3219157864181954
  0.6124428954129804  0.2947603230288044  0.6806727001174646
  0.1823137014686119  0.5000000000000000  0.7757027533333732
  0.6877646568400885 -0.0000000000000000  0.1986896781877851
 
  0.00000000E+00  0.00000000E+00  0.00000000E+00
  0.00000000E+00  0.00000000E+00  0.00000000E+00
  0.00000000E+00  0.00000000E+00  0.00000000E+00
  0.00000000E+00  0.00000000E+00  0.00000000E+00
  0.00000000E+00  0.00000000E+00  0.00000000E+00
  0.00000000E+00  0.00000000E+00  0.00000000E+00
  0.00000000E+00  0.00000000E+00  0.00000000E+00
  0.00000000E+00  0.00000000E+00  0.00000000E+00
  0.00000000E+00  0.00000000E+00  0.00000000E+00
  0.00000000E+00  0.00000000E+00  0.00000000E+00
  0.00000000E+00  0.00000000E+00  0.00000000E+00
  0.00000000E+00  0.00000000E+00  0.00000000E+00
  0.00000000E+00  0.00000000E+00  0.00000000E+00
  0.00000000E+00  0.00000000E+00  0.00000000E+00
