Li61 P7 N32                             
   1.00000000000000     
     0.0937614407331782    9.6499392663278574   -0.0221871698905133
    -0.0119022810419764   -0.0225116148776290    9.6298731698069400
     9.6042331691023044    0.0938702239472346   -0.0116640286233863
   Li   P    N 
    61     7    32
Direct
  0.4985647531096042  0.0225668382089800  0.5032334389986770
  0.0001657204303832  0.4908582815068140 -0.0094734816607924
  0.5055299252012895 -0.0065290685890283  0.0006518451705819
 -0.0000869771696397 -0.0084675599532099  0.5024190259707803
  0.4988806363088054  0.4953831089809927  0.0243252459780654
  0.0109095644730822  0.4924301285695802  0.4965076059771146
  0.7534911415582707 -0.0131744511039008  0.5125023979485045
  0.2492278349347968 -0.0195732658643627  0.5034368493868568
  0.7737225346931673  0.4850978683425061  0.5085458550338501
  0.2617969351046697  0.4671080726262917  0.4659820716382834
  0.2662011489715801 -0.0007747674419960 -0.0025817935754605
  0.7527846542715790  0.0175709836518306  0.0547765038366614
  0.4496684154114184  0.5700634827958825  0.5468038320092983
  0.5310218338456854  0.2311592888104922 -0.0334578772439691
  0.4945699272738075  0.7515704931035888  0.0083168877633917
  0.0241000902526715  0.4740751509927720  0.2417447843279107
  0.0119677772827328  0.4846037429799633  0.7437725967722901
  0.2138599406595012  0.2645246928088592  0.2209199527057678
  0.1930995063369407  0.7768751521508086  0.7552704589440281
  0.2248308384403873  0.2883274293128959  0.7075470337429729
  0.2956531482065483  0.7896899478663737  0.2925862355348879
  0.8431263603209592  0.3288490279629147  0.3265988191627897
  0.6886200253801810  0.8014191319196410  0.6768681705650067
  0.7352857587653481  0.2405456270683156  0.7620235622441497
  0.7701969268757332  0.8426106109115347  0.2620595120678715
  0.0024692099512024  0.1888570263234580  0.2583380881749042
  0.9211928041224395  0.7092825884742857  0.7373700293633163
  0.2534018336638306  0.2242607921228304  0.4781208501913241
  0.2421798915910232  0.7195038479550956  0.5037577835573473
  0.7335769368364847  0.2303480329917317  0.5220650824670799
  0.7442273944177200  0.7065729783425900  0.4894279529305245
  0.7453327993557068  0.5277219865845501  0.2732081324347677
  0.7660554534785607  0.4816316793291151  0.7445274508260686
  0.2914304096218295  0.5439735083165397  0.2262890455875509
  0.2548661357921012  0.5167671389983641  0.7288961293228784
  0.5228965199992796  0.7402719003103532  0.2471734133627565
  0.4634910855378624  0.2234464487195061  0.7017487103171741
  0.2386685510822084  0.0088354095011728  0.2384439073594702
  0.2408829085262726  0.0261027751013070  0.7502677105839307
  0.2847735020314338  0.2429412874676078  0.9493532109857045
  0.2528587000207709  0.7554805156937708  0.0167255928476206
  0.7507573802525502  0.9998446584221091  0.7978233844856696
  0.7133008615063045  0.1098669501078451  0.3101045489130000
  0.7558884876112894  0.7793290137659341  0.9834872118670080
  0.7937850805714033  0.2518766485352092 -0.0005071912158158
 -0.0069077824367772  0.2259941476682642  0.7655999314360384
  0.0744047960079199  0.7140506389013087  0.2513484792782096
  0.4410311923362571  0.2509622604608278  0.2002151390638991
  0.4519777668339861  0.7325810609192145  0.7546607392249682
  0.0338709497874394  0.2506232005053000  0.0042889157749785
  0.0151821465032788  0.7345376668547852 -0.0256700121881600
  0.4820875029538457  0.2673132342941057  0.4409629852559114
  0.4907729996878197  0.7860649498369884  0.4856974637702153
  0.5134369574202887  0.4999117354614814  0.3165980308434525
  0.4889396462093425  0.4722418318021789  0.7738605296798681
 -0.0026590026533884 -0.0416960246949244  0.2627895266588734
 -0.0053348244285407 -0.0214889848270717  0.7397507631815420
  0.5747323558765963  0.4219821639913410  0.5600227672923191
  0.8790160756788084  0.6659299843714191  0.1520984766187269
  0.6623085787585109  0.3131303480518348  0.1860463005025900
  0.6486455637667415  0.6482608569903379  0.8360786971372903
  0.0044491404742252 -0.0095146703427019  0.0034918719284743
  0.7555580718568602  0.5015133583215167  0.0083751744446700
  0.2452095466446774  0.4943604423032361 -0.0101525470667631
 -0.0040843068824794  0.7456501483961042  0.4956216287569670
 -0.0046705318397083  0.2355788473501420  0.5106304309165726
  0.4939058280786630  0.0075393959729709  0.2457257800351602
  0.4988633053598784 -0.0123307077335567  0.7557056181997450
  0.6284683936104027  0.6076002211839603  0.6387942483949438
  0.6514460277810539  0.3650622900406774  0.3794380146546665
  0.9033427383388096  0.8788228535066483  0.0985045663070071
  0.8998602257087891  0.0967840363186584  0.9112984030038516
  0.1090686972853905  0.9007288574894412  0.8956795041827231
  0.1007484298807919  0.0887926324150586  0.1111995844682129
  0.3804477436177407  0.6370624915471252  0.3773254493783056
  0.3785319914498328  0.3757498972964405  0.6066043828277803
  0.0860905926880682  0.3297928136473253  0.3895544720876923
  0.0821522518760413  0.6470120911408356  0.6121176001159681
  0.1018447183836408  0.1385916371091549  0.6077211863731432
  0.1102439706098492  0.8460096766367150  0.4041438129412055
  0.8882025729283514  0.1345869060127416  0.4158279864727297
  0.8800555455298184  0.8420113819348690  0.5855878452253843
  0.8548756621594809  0.4097435876415836  0.1186745631426886
  0.8544186490511538  0.5992228489234338  0.9003865718389187
  0.1416270580047984  0.5943171559990105  0.0943372583018636
  0.1494178172811317  0.3951882152530423  0.8813503749194856
  0.3999870298143096  0.8968280469025555  0.1480269882646064
  0.4045076142681748  0.0972466184358672  0.8562772666473127
  0.3820278486844720  0.1064624149525735  0.3433874467736362
  0.3903961221122209  0.9024517189850627  0.6492113541139137
  0.3362246115324056  0.3861929308729138  0.0919819739440498
  0.3533251919852987  0.6026216056176545  0.9001942423456905
  0.6181574736260300  0.0843465270310680  0.6649379351679273
  0.6034892606628687  0.9228920372171895  0.3492511119987200
  0.6578399601403856  0.6164043644016575  0.1004735299473052
  0.6603761664180372  0.3897692205706504  0.9156786099982432
  0.8982324950472877  0.3401032886178541  0.6173838887050982
  0.9100771561759908  0.6423782297146173  0.3774125181556127
  0.5898997343626168  0.1168830913934539  0.1408964573875126
  0.5914809060807367  0.8719862916531493  0.8531285835064526
 
  0.00000000E+00  0.00000000E+00  0.00000000E+00
  0.00000000E+00  0.00000000E+00  0.00000000E+00
  0.00000000E+00  0.00000000E+00  0.00000000E+00
  0.00000000E+00  0.00000000E+00  0.00000000E+00
  0.00000000E+00  0.00000000E+00  0.00000000E+00
  0.00000000E+00  0.00000000E+00  0.00000000E+00
  0.00000000E+00  0.00000000E+00  0.00000000E+00
  0.00000000E+00  0.00000000E+00  0.00000000E+00
  0.00000000E+00  0.00000000E+00  0.00000000E+00
  0.00000000E+00  0.00000000E+00  0.00000000E+00
  0.00000000E+00  0.00000000E+00  0.00000000E+00
  0.00000000E+00  0.00000000E+00  0.00000000E+00
  0.00000000E+00  0.00000000E+00  0.00000000E+00
  0.00000000E+00  0.00000000E+00  0.00000000E+00
  0.00000000E+00  0.00000000E+00  0.00000000E+00
  0.00000000E+00  0.00000000E+00  0.00000000E+00
  0.00000000E+00  0.00000000E+00  0.00000000E+00
  0.00000000E+00  0.00000000E+00  0.00000000E+00
  0.00000000E+00  0.00000000E+00  0.00000000E+00
  0.00000000E+00  0.00000000E+00  0.00000000E+00
  0.00000000E+00  0.00000000E+00  0.00000000E+00
  0.00000000E+00  0.00000000E+00  0.00000000E+00
  0.00000000E+00  0.00000000E+00  0.00000000E+00
  0.00000000E+00  0.00000000E+00  0.00000000E+00
  0.00000000E+00  0.00000000E+00  0.00000000E+00
  0.00000000E+00  0.00000000E+00  0.00000000E+00
  0.00000000E+00  0.00000000E+00  0.00000000E+00
  0.00000000E+00  0.00000000E+00  0.00000000E+00
  0.00000000E+00  0.00000000E+00  0.00000000E+00
  0.00000000E+00  0.00000000E+00  0.00000000E+00
  0.00000000E+00  0.00000000E+00  0.00000000E+00
  0.00000000E+00  0.00000000E+00  0.00000000E+00
  0.00000000E+00  0.00000000E+00  0.00000000E+00
  0.00000000E+00  0.00000000E+00  0.00000000E+00
  0.00000000E+00  0.00000000E+00  0.00000000E+00
  0.00000000E+00  0.00000000E+00  0.00000000E+00
  0.00000000E+00  0.00000000E+00  0.00000000E+00
  0.00000000E+00  0.00000000E+00  0.00000000E+00
  0.00000000E+00  0.00000000E+00  0.00000000E+00
  0.00000000E+00  0.00000000E+00  0.00000000E+00
  0.00000000E+00  0.00000000E+00  0.00000000E+00
  0.00000000E+00  0.00000000E+00  0.00000000E+00
  0.00000000E+00  0.00000000E+00  0.00000000E+00
  0.00000000E+00  0.00000000E+00  0.00000000E+00
  0.00000000E+00  0.00000000E+00  0.00000000E+00
  0.00000000E+00  0.00000000E+00  0.00000000E+00
  0.00000000E+00  0.00000000E+00  0.00000000E+00
  0.00000000E+00  0.00000000E+00  0.00000000E+00
  0.00000000E+00  0.00000000E+00  0.00000000E+00
  0.00000000E+00  0.00000000E+00  0.00000000E+00
  0.00000000E+00  0.00000000E+00  0.00000000E+00
  0.00000000E+00  0.00000000E+00  0.00000000E+00
  0.00000000E+00  0.00000000E+00  0.00000000E+00
  0.00000000E+00  0.00000000E+00  0.00000000E+00
  0.00000000E+00  0.00000000E+00  0.00000000E+00
  0.00000000E+00  0.00000000E+00  0.00000000E+00
  0.00000000E+00  0.00000000E+00  0.00000000E+00
  0.00000000E+00  0.00000000E+00  0.00000000E+00
  0.00000000E+00  0.00000000E+00  0.00000000E+00
  0.00000000E+00  0.00000000E+00  0.00000000E+00
  0.00000000E+00  0.00000000E+00  0.00000000E+00
  0.00000000E+00  0.00000000E+00  0.00000000E+00
  0.00000000E+00  0.00000000E+00  0.00000000E+00
  0.00000000E+00  0.00000000E+00  0.00000000E+00
  0.00000000E+00  0.00000000E+00  0.00000000E+00
  0.00000000E+00  0.00000000E+00  0.00000000E+00
  0.00000000E+00  0.00000000E+00  0.00000000E+00
  0.00000000E+00  0.00000000E+00  0.00000000E+00
  0.00000000E+00  0.00000000E+00  0.00000000E+00
  0.00000000E+00  0.00000000E+00  0.00000000E+00
  0.00000000E+00  0.00000000E+00  0.00000000E+00
  0.00000000E+00  0.00000000E+00  0.00000000E+00
  0.00000000E+00  0.00000000E+00  0.00000000E+00
  0.00000000E+00  0.00000000E+00  0.00000000E+00
  0.00000000E+00  0.00000000E+00  0.00000000E+00
  0.00000000E+00  0.00000000E+00  0.00000000E+00
  0.00000000E+00  0.00000000E+00  0.00000000E+00
  0.00000000E+00  0.00000000E+00  0.00000000E+00
  0.00000000E+00  0.00000000E+00  0.00000000E+00
  0.00000000E+00  0.00000000E+00  0.00000000E+00
  0.00000000E+00  0.00000000E+00  0.00000000E+00
  0.00000000E+00  0.00000000E+00  0.00000000E+00
  0.00000000E+00  0.00000000E+00  0.00000000E+00
  0.00000000E+00  0.00000000E+00  0.00000000E+00
  0.00000000E+00  0.00000000E+00  0.00000000E+00
  0.00000000E+00  0.00000000E+00  0.00000000E+00
  0.00000000E+00  0.00000000E+00  0.00000000E+00
  0.00000000E+00  0.00000000E+00  0.00000000E+00
  0.00000000E+00  0.00000000E+00  0.00000000E+00
  0.00000000E+00  0.00000000E+00  0.00000000E+00
  0.00000000E+00  0.00000000E+00  0.00000000E+00
  0.00000000E+00  0.00000000E+00  0.00000000E+00
  0.00000000E+00  0.00000000E+00  0.00000000E+00
  0.00000000E+00  0.00000000E+00  0.00000000E+00
  0.00000000E+00  0.00000000E+00  0.00000000E+00
  0.00000000E+00  0.00000000E+00  0.00000000E+00
  0.00000000E+00  0.00000000E+00  0.00000000E+00
  0.00000000E+00  0.00000000E+00  0.00000000E+00
  0.00000000E+00  0.00000000E+00  0.00000000E+00
  0.00000000E+00  0.00000000E+00  0.00000000E+00
