P56 O140
1.0
4.937041 0.000000 0.000000
-1.817865 4.590178 0.000000
0.000000 0.000000 149.288130
P O
56 140
direct
0.679111 0.525416 0.994791 P5+
0.025416 0.179111 0.956139 P5+
0.025416 0.679111 0.967013 P5+
0.179111 0.525416 0.983917 P5+
0.179111 0.025416 0.939235 P5+
0.525416 0.679111 0.900584 P5+
0.525416 0.179111 0.911458 P5+
0.679111 0.025416 0.928362 P5+
0.679111 0.525416 0.883680 P5+
0.025416 0.179111 0.845028 P5+
0.025416 0.679111 0.855902 P5+
0.179111 0.525416 0.872806 P5+
0.179111 0.025416 0.828124 P5+
0.525416 0.679111 0.789473 P5+
0.525416 0.179111 0.800347 P5+
0.679111 0.025416 0.817250 P5+
0.679111 0.525416 0.772569 P5+
0.025416 0.179111 0.733917 P5+
0.025416 0.679111 0.744791 P5+
0.179111 0.525416 0.761695 P5+
0.179111 0.025416 0.717013 P5+
0.525416 0.679111 0.678362 P5+
0.525416 0.179111 0.689235 P5+
0.679111 0.025416 0.706139 P5+
0.679111 0.525416 0.661458 P5+
0.025416 0.179111 0.622806 P5+
0.025416 0.679111 0.633680 P5+
0.179111 0.525416 0.650584 P5+
0.179111 0.025416 0.605902 P5+
0.525416 0.679111 0.567250 P5+
0.525416 0.179111 0.578124 P5+
0.679111 0.025416 0.595028 P5+
0.679111 0.525416 0.550347 P5+
0.025416 0.179111 0.511695 P5+
0.025416 0.679111 0.522569 P5+
0.179111 0.525416 0.539473 P5+
0.179111 0.025416 0.494791 P5+
0.525416 0.679111 0.456139 P5+
0.525416 0.179111 0.467013 P5+
0.679111 0.025416 0.483917 P5+
0.679111 0.525416 0.439235 P5+
0.025416 0.179111 0.400584 P5+
0.025416 0.679111 0.411458 P5+
0.179111 0.525416 0.428362 P5+
0.179111 0.025416 0.383680 P5+
0.525416 0.679111 0.345028 P5+
0.525416 0.179111 0.355902 P5+
0.679111 0.025416 0.372806 P5+
0.679111 0.525416 0.328124 P5+
0.025416 0.179111 0.289473 P5+
0.025416 0.679111 0.300347 P5+
0.179111 0.525416 0.317250 P5+
0.179111 0.025416 0.272569 P5+
0.525416 0.679111 0.233917 P5+
0.525416 0.179111 0.244791 P5+
0.679111 0.025416 0.261695 P5+
0.547936 0.214773 0.996757 O2-
0.714773 0.047936 0.954173 O2-
0.714773 0.547936 0.968979 O2-
0.047936 0.214773 0.981951 O2-
0.240745 0.740745 0.975465 O2-
0.740745 0.740745 0.892132 O2-
0.494801 0.653218 0.988297 O2-
0.153218 0.994801 0.962633 O2-
0.153218 0.494801 0.960519 O2-
0.994801 0.653218 0.990411 O2-
0.047936 0.714773 0.941202 O2-
0.214773 0.547936 0.898618 O2-
0.214773 0.047936 0.913424 O2-
0.547936 0.714773 0.926395 O2-
0.740745 0.240745 0.919910 O2-
0.240745 0.240745 0.947687 O2-
0.994801 0.153218 0.932742 O2-
0.653218 0.494801 0.907078 O2-
0.653218 0.994801 0.904964 O2-
0.494801 0.153218 0.934855 O2-
0.547936 0.214773 0.885646 O2-
0.714773 0.047936 0.843062 O2-
0.714773 0.547936 0.857868 O2-
0.047936 0.214773 0.870840 O2-
0.240745 0.740745 0.864354 O2-
0.740745 0.740745 0.781021 O2-
0.494801 0.653218 0.877186 O2-
0.153218 0.994801 0.851522 O2-
0.153218 0.494801 0.849408 O2-
0.994801 0.653218 0.879300 O2-
0.047936 0.714773 0.830090 O2-
0.214773 0.547936 0.787507 O2-
0.214773 0.047936 0.802313 O2-
0.547936 0.714773 0.815284 O2-
0.740745 0.240745 0.808798 O2-
0.240745 0.240745 0.836576 O2-
0.994801 0.153218 0.821630 O2-
0.653218 0.494801 0.795967 O2-
0.653218 0.994801 0.793853 O2-
0.494801 0.153218 0.823744 O2-
0.547936 0.214773 0.774535 O2-
0.714773 0.047936 0.731951 O2-
0.714773 0.547936 0.746757 O2-
0.047936 0.214773 0.759729 O2-
0.240745 0.740745 0.753243 O2-
0.740745 0.740745 0.669910 O2-
0.494801 0.653218 0.766075 O2-
0.153218 0.994801 0.740411 O2-
0.153218 0.494801 0.738297 O2-
0.994801 0.653218 0.768189 O2-
0.047936 0.714773 0.718979 O2-
0.214773 0.547936 0.676395 O2-
0.214773 0.047936 0.691202 O2-
0.547936 0.714773 0.704173 O2-
0.740745 0.240745 0.697687 O2-
0.240745 0.240745 0.725465 O2-
0.994801 0.153218 0.710519 O2-
0.653218 0.494801 0.684855 O2-
0.653218 0.994801 0.682742 O2-
0.494801 0.153218 0.712633 O2-
0.547936 0.214773 0.663424 O2-
0.714773 0.047936 0.620840 O2-
0.714773 0.547936 0.635646 O2-
0.047936 0.214773 0.648618 O2-
0.240745 0.740745 0.642132 O2-
0.740745 0.740745 0.558798 O2-
0.494801 0.653218 0.654964 O2-
0.153218 0.994801 0.629300 O2-
0.153218 0.494801 0.627186 O2-
0.994801 0.653218 0.657078 O2-
0.047936 0.714773 0.607868 O2-
0.214773 0.547936 0.565284 O2-
0.214773 0.047936 0.580090 O2-
0.547936 0.714773 0.593062 O2-
0.740745 0.240745 0.586576 O2-
0.240745 0.240745 0.614354 O2-
0.994801 0.153218 0.599408 O2-
0.653218 0.494801 0.573744 O2-
0.653218 0.994801 0.571630 O2-
0.494801 0.153218 0.601522 O2-
0.547936 0.214773 0.552313 O2-
0.714773 0.047936 0.509729 O2-
0.714773 0.547936 0.524535 O2-
0.047936 0.214773 0.537507 O2-
0.240745 0.740745 0.531021 O2-
0.740745 0.740745 0.447687 O2-
0.494801 0.653218 0.543853 O2-
0.153218 0.994801 0.518189 O2-
0.153218 0.494801 0.516075 O2-
0.994801 0.653218 0.545967 O2-
0.047936 0.714773 0.496757 O2-
0.214773 0.547936 0.454173 O2-
0.214773 0.047936 0.468979 O2-
0.547936 0.714773 0.481951 O2-
0.740745 0.240745 0.475465 O2-
0.240745 0.240745 0.503243 O2-
0.994801 0.153218 0.488297 O2-
0.653218 0.494801 0.462633 O2-
0.653218 0.994801 0.460519 O2-
0.494801 0.153218 0.490411 O2-
0.547936 0.214773 0.441202 O2-
0.714773 0.047936 0.398618 O2-
0.714773 0.547936 0.413424 O2-
0.047936 0.214773 0.426395 O2-
0.240745 0.740745 0.419910 O2-
0.740745 0.740745 0.336576 O2-
0.494801 0.653218 0.432742 O2-
0.153218 0.994801 0.407078 O2-
0.153218 0.494801 0.404964 O2-
0.994801 0.653218 0.434855 O2-
0.047936 0.714773 0.385646 O2-
0.214773 0.547936 0.343062 O2-
0.214773 0.047936 0.357868 O2-
0.547936 0.714773 0.370840 O2-
0.740745 0.240745 0.364354 O2-
0.240745 0.240745 0.392132 O2-
0.994801 0.153218 0.377186 O2-
0.653218 0.494801 0.351522 O2-
0.653218 0.994801 0.349408 O2-
0.494801 0.153218 0.379300 O2-
0.547936 0.214773 0.330090 O2-
0.714773 0.047936 0.287507 O2-
0.714773 0.547936 0.302313 O2-
0.047936 0.214773 0.315284 O2-
0.240745 0.740745 0.308798 O2-
0.740745 0.740745 0.225465 O2-
0.494801 0.653218 0.321630 O2-
0.153218 0.994801 0.295967 O2-
0.153218 0.494801 0.293853 O2-
0.994801 0.653218 0.323744 O2-
0.047936 0.714773 0.274535 O2-
0.214773 0.547936 0.231951 O2-
0.214773 0.047936 0.246757 O2-
0.547936 0.714773 0.259729 O2-
0.740745 0.240745 0.253243 O2-
0.240745 0.240745 0.281021 O2-
0.994801 0.153218 0.266075 O2-
0.653218 0.494801 0.240411 O2-
0.653218 0.994801 0.238297 O2-
0.494801 0.153218 0.268189 O2-
