Li73 P24 N1 O95                         
   1.00000000000000     
    14.7174037761973455    0.0127937356598141   -0.0065793786849342
     0.0090812998689533   10.5792492421047850   -0.0154822102387051
    -0.0054143079897414   -0.0180422373488788   12.3072470868450168
   Li   P    N    O 
    73    24     1    95
Direct
  0.1880738814876999  0.4424156161254371 -0.0111820516205663
  0.1704211864742030  0.4216552201367576  0.4996920829629544
  0.1669085326904761  0.9240838320742674 -0.0000804027479793
  0.1700698773284990  0.9224198633513668  0.4999361835073063
  0.5023141197622846  0.4237000110755920  0.0000262987905786
  0.5021442022870867  0.4228300362543181  0.5001808690038918
  0.5042260925863048  0.9227710385433907  0.0000668888442517
  0.5033257565668023  0.9238975290976420  0.5003632499703379
  0.8374561025610515  0.4192694901746451  0.0002306547772936
  0.8350961103970997  0.4223157148500715  0.5006273322412903
  0.8383419799427211  0.9235500435426341 -0.0009768180468670
  0.8364419091050926  0.9227589843318700  0.4998312392897819
  0.0042589778107251  0.0678655451690603  0.2503595666135945
  0.0030682345424451  0.0791664032208916  0.7550442608468422
  0.0007421148067871  0.5788340529553455  0.2476767164360676
  0.0029645742933047  0.5792193568862075  0.7494322572410542
  0.3379570014000260  0.0761459336998085  0.2520296904164525
  0.3370655359079081  0.0780262411083152  0.7499583215075707
  0.3364713050647441  0.5794421398155483  0.2493728992827171
  0.3370979144134831  0.5788199878791634  0.7499555790406056
  0.6703873084257557  0.0767965601469798  0.2501442334759074
  0.6701244389368525  0.0776841770298679  0.7501655346543379
  0.6683379038184942  0.5801011271258696  0.2512997211502826
  0.6703577847673118  0.5775551134124728  0.7504807131930037
  0.1706031063569036  0.1472895154310288  0.1346349015234487
  0.1691294046106539  0.1636322212890034  0.6262040509737775
  0.1689989086760119  0.6667369901695157  0.1258989391899068
  0.1697473176544294  0.6637759941884774  0.6256926919828886
  0.5031338038257350  0.1636891183895392  0.1268038166794321
  0.5029973842622880  0.1637350722511317  0.6268035675074255
  0.5051756015160963  0.6645031075245224  0.1269722411971737
  0.5024712159593757  0.6636928935423743  0.6267719802804669
  0.8366759370441328  0.1580500510970465  0.1233028587855608
  0.8363056387406599  0.1625717495189832  0.6269603755742005
  0.8373284992324473  0.6625626763458945  0.1247473117620432
  0.8359664896296656  0.6630633770786021  0.6267851323916447
 -0.0205528555482427  0.3002518319291826  0.1806224057264217
  0.0022105079149317  0.3364448659475631  0.6241674297488513
  0.0039091534495182  0.8397992212379940  0.1212379296143710
  0.0025054672251693  0.8383899325392624  0.6238704300036578
  0.3348331994183589  0.3374649721719794  0.1227645286506742
  0.3367429752650431  0.3370716071444590  0.6233998305507648
  0.3374579285251207  0.8387064358648239  0.1237065714901236
  0.3364731506203816  0.8374620841438394  0.6236232217477802
  0.6700643248317657  0.3365366776862306  0.1244174563670104
  0.6691438170886034  0.3366259298366019  0.6242324857594964
  0.6704994357991552  0.8366194933679698  0.1232696991256852
  0.6695169364294199  0.8369876502294233  0.6232465622260770
  0.0037210030256144  0.3385222715789959  0.3837344291899106
 -0.0002670633413857  0.3367157946093455  0.8707568745751578
  0.0024698766362020  0.8347695140490353  0.3774661805787359
  0.0018791320343537  0.8411801203981112  0.8760130185971647
  0.3364591061941134  0.3365441870855248  0.3746726039583592
  0.3374954021074682  0.3362931314542804  0.8744944566748343
  0.3371975563874117  0.8362328978774134  0.3771331472741948
  0.3370439114959407  0.8392918954400785  0.8762248189190882
  0.6663321683255128  0.3366182534708905  0.3784564568770642
  0.6696279954373596  0.3363111466390277  0.8770997347379753
  0.6695479440302865  0.8369665789797978  0.3769792747873147
  0.6711690822768114  0.8367385915951012  0.8760856931521207
  0.1686817951461670  0.1615554508371383  0.3731506248541640
  0.1691915271692015  0.1609196321539927  0.8731492525138222
  0.1684567553002175  0.6608667931705755  0.3735638994966839
  0.1683029956048074  0.6699843290887371  0.8709693470988406
  0.5027255177716039  0.1635328355777322  0.3739745034363551
  0.5036123914618647  0.1633673419963932  0.8740656263197089
  0.5024715321488047  0.6638316486660377  0.3744438956622698
  0.5062332126217628  0.6649264353948809  0.8731434076802266
  0.8357437958931422  0.1626643428518843  0.3736454217561348
  0.8372486721521005  0.1614409184677447  0.8744583290901750
  0.8352733247574470  0.6634629225475321  0.3746516082474641
  0.8376216631668486  0.6620879163217508  0.8739940136692392
  0.0858194417151895  0.3019616112624345  0.0456178911532691
  0.1648914234028981  0.4125370462355052  0.2462092716862578
  0.1673005607316090  0.4131394183169348  0.7492168361124343
  0.1690015114102223  0.9074872038276560  0.2528290390059026
  0.1675192736685142  0.9138390227167932  0.7489496548003118
  0.4991440198053836  0.4130607069673635  0.2495273494572421
  0.5005105092866046  0.4129468501242338  0.7501283447461741
  0.5011382672840708  0.9123781298146429  0.2505074638376007
  0.5010689503471405  0.9128999059236995  0.7498333974075252
  0.8286659944470312  0.4141742315629609  0.2515741213374523
  0.8330532253260682  0.4118737306478234  0.7495456773471341
  0.8331878469086752  0.9105947942033988  0.2506356913485309
  0.8334490021511420  0.9117908519282837  0.7491914952566280
  0.0005241153110953  0.0905082991400305  0.0080564254411802
  0.0001813348485527  0.0883977538032467  0.5006678831000989
  0.0033280358827271  0.5887723422971211 -0.0028859934547935
  0.0002766766891759  0.5877882676474540  0.5005422961043345
  0.3342571464178396  0.0886597604475223  0.0008187974671426
  0.3337169019076520  0.0886218538114485  0.5004527768711349
  0.3363061445621141  0.5947527932854215 -0.0009735813653324
  0.3332442489729843  0.5871364970773617  0.4996742256726106
  0.6668203443092034  0.0874751248554589  0.0003462328814851
  0.6670009198648483  0.0884112790072235  0.5002519957056164
  0.6677433863615886  0.5870749431388108  0.0004080067331377
  0.6662968371284541  0.5878674202990760  0.5009877899196901
  0.0352494998734282  0.1585391176563822  0.1146341048566128
  0.0353462424659575  0.1583598767424907  0.3972084884244014
  0.0367550565864360  0.1621405355979250  0.9010028538338561
  0.0349892214610310  0.6553047740584670  0.3959782766911558
  0.0351284835768038  0.6620457005872119  0.8939419765226712
  0.3691815205447199  0.1575749831177668  0.3967541912580346
  0.3694884498853811  0.1579541139352940  0.8970685248638982
  0.3687372603043255  0.6560751381908997  0.3961141667056446
  0.3737905259948534  0.6601761893421152  0.8952468475192854
  0.7019347347730590  0.1576124418608434  0.3963823022620684
  0.7019002931960071  0.1567987911217986  0.8966680190044808
  0.7016419934241256  0.6570882843123652  0.3974669414143285
  0.7030913499003760  0.6559766439784792  0.8966162140451397
  0.2040364995237997  0.0463966770389665  0.2560986322072391
  0.2015673459955415  0.0535063561084249  0.7486800189940614
  0.1998208881244311  0.5513621715054914  0.2470466637260370
  0.2011319670434593  0.5529307724156237  0.7504345705222776
  0.5342616978777694  0.0524006215357482  0.2506510920258770
  0.5344739235343399  0.0527448710585941  0.7498104967066130
  0.5330036273872116  0.5526886443342023  0.2505135865580981
  0.5346961329493249  0.5523851564827165  0.7500060531928484
  0.8657462020196593  0.0505759911600994  0.2517926102280384
  0.8676292168052208  0.0512155083720079  0.7494799833361330
  0.8644096755433085  0.5526341293464261  0.2502431610357065
  0.8673007870139217  0.5513834144498213  0.7496663572543258
  0.0591391025486667  0.4113908646138198  0.2512709077489927
  0.0616587103739220  0.4105260353297841  0.7485717178321730
  0.0633766179956036  0.9029190117737208  0.2525786319887133
  0.0618313265043518  0.9113874405887299  0.7491550447214523
  0.3931411122186270  0.4108764685706111  0.2483403014637315
  0.3945838688559788  0.4109940988144072  0.7497475857955216
  0.3953532702367444  0.9091915520102577  0.2504939025082344
  0.3952105934703889  0.9102822743189424  0.7501529157833803
  0.7233158395090282  0.4123179154493348  0.2553705897937608
  0.7272541352497645  0.4095430883390792  0.7501407842343560
  0.7273163716749934  0.9072902915449901  0.2504302158043238
  0.7275467333930615  0.9099797408956314  0.7490919185119552
  0.2284800031272427  0.0908686178568352  0.0006364966717135
  0.2278759051026069  0.0916299248428569  0.5002680696643945
  0.2307172587550127  0.6066777676173801 -0.0021274085638836
  0.2273578733240088  0.5888932384257970  0.4993197423384614
  0.5608851749496587  0.0904367782786563  0.0002026122761674
  0.5611535176976798  0.0915675017623870  0.5003348241938035
  0.5618425255104653  0.5901988761559555  0.0001610585610756
  0.5604208162966368  0.5905583347588182  0.5005979669094177
  0.8934291469822699  0.0880032201659173 -0.0031529735167431
  0.8943094827729531  0.0910742945260374  0.5001860781327636
  0.8975192118262288  0.5848871811364192 -0.0010641890818326
  0.8944453174297115  0.5891107697517171  0.5003339708901923
  0.1965077854317735  0.3457176112125622  0.1377849468036480
  0.2030501532466845  0.3437213614907529  0.6456393781048717
  0.2046768734998448  0.8419520382324861  0.1473307511030653
  0.2027620697331588  0.8436905615197902  0.6452051500170748
  0.5348063850829791  0.3440444120516234  0.1455652009757731
  0.5355107829439977  0.3432311087121053  0.6462781263717846
  0.5368798532452994  0.8434708827213294  0.1465858574525420
  0.5357450745962072  0.8434404361693830  0.6455479881220532
  0.8596428766662774  0.3429897935915535  0.1468092004591144
  0.8682351486731749  0.3428145797556597  0.6453564168660941
  0.8692162826625345  0.8418115188269644  0.1467260256250551
  0.8685737628523518  0.8425762654081161  0.6449162541956972
  0.0352793618172269  0.1573194939584264  0.6049385990146133
  0.0369410414474516  0.6568662584451607  0.1023830684797678
  0.0355103219875110  0.6581362206732589  0.6039174332844187
  0.3687010866707331  0.1582971679927364  0.1052292653723915
  0.3691205572369327  0.1576972427835140  0.6045228110500050
  0.3727683312183515  0.6596109139647116  0.1039309273684580
  0.3681824695715116  0.6565618182354770  0.6037680931666676
  0.7015512206030554  0.1562827165875287  0.1048093371527705
  0.7024384924739310  0.1574508821720206  0.6042421462825829
  0.7028140184323712  0.6564167376358937  0.1044503540241639
  0.7017571457259342  0.6568182886640117  0.6050025083512699
  0.0433730827391557  0.4524554846219075 -0.0089020290412935
  0.0351845186290143  0.4482376794676718  0.5019115324138068
  0.0334251174690791  0.9475951542683868 -0.0028554886259301
  0.0342466299174427  0.9486669237634916  0.4996739149640234
  0.3627392442975727  0.4514588698818041 -0.0011273788251281
  0.3669812208219125  0.4471964762112993  0.4994830951896765
  0.3688905750342167  0.9492477333367497  0.0006741448231118
  0.3675837393351944  0.9487906820369610  0.5002446619226489
  0.7013948070330545  0.4472557336047199  0.0005955658793524
  0.6999385364098399  0.4478941316957993  0.5008963822244503
  0.7006940311238660  0.9476356063359540  0.0000427106313061
  0.7007226893358770  0.9485512359058784  0.4999258616027993
  0.2026869463481284  0.3405242076646177  0.3469593496660456
  0.2030965177838824  0.3442472011715275  0.8534902258748376
  0.2041994010906650  0.8373131076396706  0.3560735672743175
  0.2035849444190307  0.8458027671470346  0.8527877117926126
  0.5332696750404352  0.3435103108631189  0.3536632839688397
  0.5350622297025335  0.3439126115858271  0.8543899362469568
  0.5360634379966904  0.8434310165417729  0.3546463442812057
  0.5371154209757759  0.8441423118468596  0.8533998627325393
  0.8692417160688682  0.3438796233927763  0.3524868643580498
  0.8684456933110898  0.3423949530700083  0.8529931884316426
  0.8686041619119698  0.8416379067978135  0.3546823747124615
  0.8681324453262079  0.8416114929781875  0.8525704325974329
 
  0.00000000E+00  0.00000000E+00  0.00000000E+00
  0.00000000E+00  0.00000000E+00  0.00000000E+00
  0.00000000E+00  0.00000000E+00  0.00000000E+00
  0.00000000E+00  0.00000000E+00  0.00000000E+00
  0.00000000E+00  0.00000000E+00  0.00000000E+00
  0.00000000E+00  0.00000000E+00  0.00000000E+00
  0.00000000E+00  0.00000000E+00  0.00000000E+00
  0.00000000E+00  0.00000000E+00  0.00000000E+00
  0.00000000E+00  0.00000000E+00  0.00000000E+00
  0.00000000E+00  0.00000000E+00  0.00000000E+00
  0.00000000E+00  0.00000000E+00  0.00000000E+00
  0.00000000E+00  0.00000000E+00  0.00000000E+00
  0.00000000E+00  0.00000000E+00  0.00000000E+00
  0.00000000E+00  0.00000000E+00  0.00000000E+00
  0.00000000E+00  0.00000000E+00  0.00000000E+00
  0.00000000E+00  0.00000000E+00  0.00000000E+00
  0.00000000E+00  0.00000000E+00  0.00000000E+00
  0.00000000E+00  0.00000000E+00  0.00000000E+00
  0.00000000E+00  0.00000000E+00  0.00000000E+00
  0.00000000E+00  0.00000000E+00  0.00000000E+00
  0.00000000E+00  0.00000000E+00  0.00000000E+00
  0.00000000E+00  0.00000000E+00  0.00000000E+00
  0.00000000E+00  0.00000000E+00  0.00000000E+00
  0.00000000E+00  0.00000000E+00  0.00000000E+00
  0.00000000E+00  0.00000000E+00  0.00000000E+00
  0.00000000E+00  0.00000000E+00  0.00000000E+00
  0.00000000E+00  0.00000000E+00  0.00000000E+00
  0.00000000E+00  0.00000000E+00  0.00000000E+00
  0.00000000E+00  0.00000000E+00  0.00000000E+00
  0.00000000E+00  0.00000000E+00  0.00000000E+00
  0.00000000E+00  0.00000000E+00  0.00000000E+00
  0.00000000E+00  0.00000000E+00  0.00000000E+00
  0.00000000E+00  0.00000000E+00  0.00000000E+00
  0.00000000E+00  0.00000000E+00  0.00000000E+00
  0.00000000E+00  0.00000000E+00  0.00000000E+00
  0.00000000E+00  0.00000000E+00  0.00000000E+00
  0.00000000E+00  0.00000000E+00  0.00000000E+00
  0.00000000E+00  0.00000000E+00  0.00000000E+00
  0.00000000E+00  0.00000000E+00  0.00000000E+00
  0.00000000E+00  0.00000000E+00  0.00000000E+00
  0.00000000E+00  0.00000000E+00  0.00000000E+00
  0.00000000E+00  0.00000000E+00  0.00000000E+00
  0.00000000E+00  0.00000000E+00  0.00000000E+00
  0.00000000E+00  0.00000000E+00  0.00000000E+00
  0.00000000E+00  0.00000000E+00  0.00000000E+00
  0.00000000E+00  0.00000000E+00  0.00000000E+00
  0.00000000E+00  0.00000000E+00  0.00000000E+00
  0.00000000E+00  0.00000000E+00  0.00000000E+00
  0.00000000E+00  0.00000000E+00  0.00000000E+00
  0.00000000E+00  0.00000000E+00  0.00000000E+00
  0.00000000E+00  0.00000000E+00  0.00000000E+00
  0.00000000E+00  0.00000000E+00  0.00000000E+00
  0.00000000E+00  0.00000000E+00  0.00000000E+00
  0.00000000E+00  0.00000000E+00  0.00000000E+00
  0.00000000E+00  0.00000000E+00  0.00000000E+00
  0.00000000E+00  0.00000000E+00  0.00000000E+00
  0.00000000E+00  0.00000000E+00  0.00000000E+00
  0.00000000E+00  0.00000000E+00  0.00000000E+00
  0.00000000E+00  0.00000000E+00  0.00000000E+00
  0.00000000E+00  0.00000000E+00  0.00000000E+00
  0.00000000E+00  0.00000000E+00  0.00000000E+00
  0.00000000E+00  0.00000000E+00  0.00000000E+00
  0.00000000E+00  0.00000000E+00  0.00000000E+00
  0.00000000E+00  0.00000000E+00  0.00000000E+00
  0.00000000E+00  0.00000000E+00  0.00000000E+00
  0.00000000E+00  0.00000000E+00  0.00000000E+00
  0.00000000E+00  0.00000000E+00  0.00000000E+00
  0.00000000E+00  0.00000000E+00  0.00000000E+00
  0.00000000E+00  0.00000000E+00  0.00000000E+00
  0.00000000E+00  0.00000000E+00  0.00000000E+00
  0.00000000E+00  0.00000000E+00  0.00000000E+00
  0.00000000E+00  0.00000000E+00  0.00000000E+00
  0.00000000E+00  0.00000000E+00  0.00000000E+00
  0.00000000E+00  0.00000000E+00  0.00000000E+00
  0.00000000E+00  0.00000000E+00  0.00000000E+00
  0.00000000E+00  0.00000000E+00  0.00000000E+00
  0.00000000E+00  0.00000000E+00  0.00000000E+00
  0.00000000E+00  0.00000000E+00  0.00000000E+00
  0.00000000E+00  0.00000000E+00  0.00000000E+00
  0.00000000E+00  0.00000000E+00  0.00000000E+00
  0.00000000E+00  0.00000000E+00  0.00000000E+00
  0.00000000E+00  0.00000000E+00  0.00000000E+00
  0.00000000E+00  0.00000000E+00  0.00000000E+00
  0.00000000E+00  0.00000000E+00  0.00000000E+00
  0.00000000E+00  0.00000000E+00  0.00000000E+00
  0.00000000E+00  0.00000000E+00  0.00000000E+00
  0.00000000E+00  0.00000000E+00  0.00000000E+00
  0.00000000E+00  0.00000000E+00  0.00000000E+00
  0.00000000E+00  0.00000000E+00  0.00000000E+00
  0.00000000E+00  0.00000000E+00  0.00000000E+00
  0.00000000E+00  0.00000000E+00  0.00000000E+00
  0.00000000E+00  0.00000000E+00  0.00000000E+00
  0.00000000E+00  0.00000000E+00  0.00000000E+00
  0.00000000E+00  0.00000000E+00  0.00000000E+00
  0.00000000E+00  0.00000000E+00  0.00000000E+00
  0.00000000E+00  0.00000000E+00  0.00000000E+00
  0.00000000E+00  0.00000000E+00  0.00000000E+00
  0.00000000E+00  0.00000000E+00  0.00000000E+00
  0.00000000E+00  0.00000000E+00  0.00000000E+00
  0.00000000E+00  0.00000000E+00  0.00000000E+00
  0.00000000E+00  0.00000000E+00  0.00000000E+00
  0.00000000E+00  0.00000000E+00  0.00000000E+00
  0.00000000E+00  0.00000000E+00  0.00000000E+00
  0.00000000E+00  0.00000000E+00  0.00000000E+00
  0.00000000E+00  0.00000000E+00  0.00000000E+00
  0.00000000E+00  0.00000000E+00  0.00000000E+00
  0.00000000E+00  0.00000000E+00  0.00000000E+00
  0.00000000E+00  0.00000000E+00  0.00000000E+00
  0.00000000E+00  0.00000000E+00  0.00000000E+00
  0.00000000E+00  0.00000000E+00  0.00000000E+00
  0.00000000E+00  0.00000000E+00  0.00000000E+00
  0.00000000E+00  0.00000000E+00  0.00000000E+00
  0.00000000E+00  0.00000000E+00  0.00000000E+00
  0.00000000E+00  0.00000000E+00  0.00000000E+00
  0.00000000E+00  0.00000000E+00  0.00000000E+00
  0.00000000E+00  0.00000000E+00  0.00000000E+00
  0.00000000E+00  0.00000000E+00  0.00000000E+00
  0.00000000E+00  0.00000000E+00  0.00000000E+00
  0.00000000E+00  0.00000000E+00  0.00000000E+00
  0.00000000E+00  0.00000000E+00  0.00000000E+00
  0.00000000E+00  0.00000000E+00  0.00000000E+00
  0.00000000E+00  0.00000000E+00  0.00000000E+00
  0.00000000E+00  0.00000000E+00  0.00000000E+00
  0.00000000E+00  0.00000000E+00  0.00000000E+00
  0.00000000E+00  0.00000000E+00  0.00000000E+00
  0.00000000E+00  0.00000000E+00  0.00000000E+00
  0.00000000E+00  0.00000000E+00  0.00000000E+00
  0.00000000E+00  0.00000000E+00  0.00000000E+00
  0.00000000E+00  0.00000000E+00  0.00000000E+00
  0.00000000E+00  0.00000000E+00  0.00000000E+00
  0.00000000E+00  0.00000000E+00  0.00000000E+00
  0.00000000E+00  0.00000000E+00  0.00000000E+00
  0.00000000E+00  0.00000000E+00  0.00000000E+00
  0.00000000E+00  0.00000000E+00  0.00000000E+00
  0.00000000E+00  0.00000000E+00  0.00000000E+00
  0.00000000E+00  0.00000000E+00  0.00000000E+00
  0.00000000E+00  0.00000000E+00  0.00000000E+00
  0.00000000E+00  0.00000000E+00  0.00000000E+00
  0.00000000E+00  0.00000000E+00  0.00000000E+00
  0.00000000E+00  0.00000000E+00  0.00000000E+00
  0.00000000E+00  0.00000000E+00  0.00000000E+00
  0.00000000E+00  0.00000000E+00  0.00000000E+00
  0.00000000E+00  0.00000000E+00  0.00000000E+00
  0.00000000E+00  0.00000000E+00  0.00000000E+00
  0.00000000E+00  0.00000000E+00  0.00000000E+00
  0.00000000E+00  0.00000000E+00  0.00000000E+00
  0.00000000E+00  0.00000000E+00  0.00000000E+00
  0.00000000E+00  0.00000000E+00  0.00000000E+00
  0.00000000E+00  0.00000000E+00  0.00000000E+00
  0.00000000E+00  0.00000000E+00  0.00000000E+00
  0.00000000E+00  0.00000000E+00  0.00000000E+00
  0.00000000E+00  0.00000000E+00  0.00000000E+00
  0.00000000E+00  0.00000000E+00  0.00000000E+00
  0.00000000E+00  0.00000000E+00  0.00000000E+00
  0.00000000E+00  0.00000000E+00  0.00000000E+00
  0.00000000E+00  0.00000000E+00  0.00000000E+00
  0.00000000E+00  0.00000000E+00  0.00000000E+00
  0.00000000E+00  0.00000000E+00  0.00000000E+00
  0.00000000E+00  0.00000000E+00  0.00000000E+00
  0.00000000E+00  0.00000000E+00  0.00000000E+00
  0.00000000E+00  0.00000000E+00  0.00000000E+00
  0.00000000E+00  0.00000000E+00  0.00000000E+00
  0.00000000E+00  0.00000000E+00  0.00000000E+00
  0.00000000E+00  0.00000000E+00  0.00000000E+00
  0.00000000E+00  0.00000000E+00  0.00000000E+00
  0.00000000E+00  0.00000000E+00  0.00000000E+00
  0.00000000E+00  0.00000000E+00  0.00000000E+00
  0.00000000E+00  0.00000000E+00  0.00000000E+00
  0.00000000E+00  0.00000000E+00  0.00000000E+00
  0.00000000E+00  0.00000000E+00  0.00000000E+00
  0.00000000E+00  0.00000000E+00  0.00000000E+00
  0.00000000E+00  0.00000000E+00  0.00000000E+00
  0.00000000E+00  0.00000000E+00  0.00000000E+00
  0.00000000E+00  0.00000000E+00  0.00000000E+00
  0.00000000E+00  0.00000000E+00  0.00000000E+00
  0.00000000E+00  0.00000000E+00  0.00000000E+00
  0.00000000E+00  0.00000000E+00  0.00000000E+00
  0.00000000E+00  0.00000000E+00  0.00000000E+00
  0.00000000E+00  0.00000000E+00  0.00000000E+00
  0.00000000E+00  0.00000000E+00  0.00000000E+00
  0.00000000E+00  0.00000000E+00  0.00000000E+00
  0.00000000E+00  0.00000000E+00  0.00000000E+00
  0.00000000E+00  0.00000000E+00  0.00000000E+00
  0.00000000E+00  0.00000000E+00  0.00000000E+00
  0.00000000E+00  0.00000000E+00  0.00000000E+00
  0.00000000E+00  0.00000000E+00  0.00000000E+00
  0.00000000E+00  0.00000000E+00  0.00000000E+00
  0.00000000E+00  0.00000000E+00  0.00000000E+00
  0.00000000E+00  0.00000000E+00  0.00000000E+00
  0.00000000E+00  0.00000000E+00  0.00000000E+00
  0.00000000E+00  0.00000000E+00  0.00000000E+00
  0.00000000E+00  0.00000000E+00  0.00000000E+00
  0.00000000E+00  0.00000000E+00  0.00000000E+00
