Li61 P7 N32                             
   1.00000000000000     
     0.0000273317227514    9.5156279902560232   -0.0000049829045418
     0.0270603436035472   -0.0000048695876855    9.5874927342662239
     9.5205087291869255    0.0000271297389183    0.0272809089330778
   Li   P    N 
    61     7    32
Direct
  0.4999359060420423 -0.0000026305665662  0.4999943069718856
 -0.0049314582141223  0.5000106826785686  0.0000071124474794
  0.4992923244619867 -0.0000015140596882 -0.0000015057350889
  0.0113694338344515 -0.0000040462095161  0.4999996689159878
  0.5146799214020179  0.4999957558246149 -0.0000044474918058
  0.0131989850644141  0.4999988330641615  0.5000065571240971
  0.7497247508426194 -0.0000016243545736  0.4999907080147032
  0.2564483484161559 -0.0000037195139690  0.4999889160421721
  0.7832967589982945  0.4999992977649331  0.4999935884051945
  0.2431142976025635  0.4999980315005512  0.5000051280197702
  0.2646212512710399 -0.0000054883348187 -0.0000057299283693
  0.7424152745759853  0.0000080119692987 -0.0000022036985559
  0.7573485981482785  0.5000120355688139  0.0000161779601602
  0.5021808805497728  0.2486563291119276 -0.0146183045266466
  0.5021788066352831  0.7513307729858103  0.0146285148889095
  0.0086444876836203  0.4807291313799500  0.2580770537512649
  0.0086327324542512  0.5192765671192238  0.7419292093703386
  0.2410820511809152  0.2089705876029687  0.2161490647804086
  0.2410724544147329  0.7910318192573049  0.7838412270085954
  0.2558963692953700  0.2902474440850930  0.7138769418028919
  0.2558994976018063  0.7097547428802263  0.2861175073550306
  0.7856582017329089  0.3071585962610272  0.3306872113320464
  0.7856502241444554  0.6928452338089489  0.6693101132440777
  0.7227544486561557  0.1793722296329368  0.8173529274692771
  0.7227635472939906  0.8206212478293571  0.1826424801643849
  0.9926153408240866  0.2424449730920503  0.2435758999937196
  0.9926144912106195  0.7575564819099769  0.7564265468817178
  0.2736067898786388  0.2432221656216042  0.4712995854991351
  0.2736083884378583  0.7567723016214238  0.5286956945306498
  0.7740484251237334  0.2043977363233401  0.5714013587176419
  0.7740432805289381  0.7955877473427037  0.4286086243846418
  0.6739074866235931  0.4348411944573966  0.1942788062700450
  0.6739238346803086  0.5651492845076818  0.8057129082735608
  0.2341279569826881  0.4520899958743512  0.2558317383583752
  0.2341226012692622  0.5479083811959707  0.7441855557697823
  0.5006183677479148  0.7574495539142371  0.2567183258705763
  0.5006115286657424  0.2425568686876791  0.7432897904994891
  0.2386874277881464  0.9685546609133585  0.2559591209695160
  0.2387026126109770  0.0314523414798178  0.7440191223600170
  0.2551001821208348  0.2406511780121723  0.9675979026792468
  0.2551010567275790  0.7593468782644882  0.0324051777387656
  0.7588141747803021  0.9406070664131229  0.7396329494001190
  0.7588143568047968  0.0593971252068935  0.2603539243766437
  0.7486070104860517  0.7499169692404777  0.9543668887512775
  0.7486133022912301  0.2501063198975366  0.0456111562293002
  0.0198886629759532  0.2454805137595874  0.7672607358497046
  0.0198932037290774  0.7545219524712176  0.2327353254846189
  0.4849471384295904  0.2655153995481016  0.2393716094511967
  0.4849450757596623  0.7344809599038530  0.7606409912435483
 -0.0024436599576762  0.2620583122699489  0.0160111970427656
 -0.0024562561929233  0.7379561441331642 -0.0160156680665869
  0.5151629492428290  0.2356588381501878  0.4846051964656239
  0.5151622556450646  0.7643396043674420  0.5154123692064204
  0.4609393472638015  0.5251204780086446  0.2257829567926270
  0.4609528381892832  0.4748820610841782  0.7742093005501310
 -0.0014006107323146 -0.0038284098246641  0.2614906819990929
 -0.0013910355956867  0.0038362044405043  0.7385118944058547
  0.6538875175096414  0.3898969962204412  0.6580501184140076
  0.6538657537605802  0.6100924855032255  0.3419438115808321
  0.8341128805601957  0.4023734759909384  0.8092947989919693
  0.8341006778698073  0.5976169331771956  0.1907277444643972
  0.4964240016037578  0.4999786395330517  0.5000161630301386
  0.0038620176944060  0.0000062284917601 -0.0000013626748086
  0.2525750605816494  0.4999955392517296  0.0000013664723008
  0.0129241973758235  0.7507181845638183  0.4958167292823809
  0.0129271460889421  0.2492765295312778  0.5041845546434740
  0.4988923971300757  0.0075254245093625  0.2470438474917054
  0.4988936605917983 -0.0075186116235093  0.7529535610903912
  0.6040194850509654  0.5927944910003720  0.6059183430711497
  0.6040191678229978  0.4072001931163848  0.3940824830672901
  0.8999676755828060  0.8962300689619986  0.1006084538532179
  0.8999690569156295  0.1037819163377194  0.8993907559973663
  0.1067636153476759  0.9018018211824630  0.8949484285484776
  0.1067658598192666  0.0982030269218854  0.1050512780481744
  0.3993955116726561  0.6113139265043764  0.4053172584056012
  0.3994022104283000  0.3886976727505050  0.5946721832814108
  0.1104864139394216  0.3472129220265002  0.3940350569740106
  0.1104869241031863  0.6527923168176671  0.6059668436459160
  0.1204943403227867  0.1498683992165452  0.6042273278350008
  0.1204969189309123  0.8501276958227825  0.3957681143005430
  0.8990827466817123  0.1471627217244760  0.4119947816091661
  0.8990778257809127  0.8528353003215975  0.5879960640206437
  0.8675518707005798  0.3846921100211114  0.1444255006818730
  0.8675508627084457  0.6153194665272467  0.8555779786408375
  0.1543587118163994  0.5944645002014844  0.1156170585361602
  0.1543515151618914  0.4055358830230322  0.8843973602699794
  0.3989497475705449  0.8971382020797558  0.1510896857432552
  0.3989516981844277  0.1028568021481467  0.8489085823661040
  0.3914703571310519  0.1045190247523687  0.3497702489535949
  0.3914742538241781  0.8954746353940607  0.6502253363773119
  0.3524962356110883  0.3863992805406077  0.0963424091648330
  0.3524978757289225  0.6135940384932033  0.9036656393232527
  0.6143962733873193  0.0882370323165662  0.6504769981632552
  0.6143967098718348  0.9117602052116708  0.3495175538870183
  0.6327620041768026  0.6321220489375472  0.1359975945223769
  0.6327678936285727  0.3678761617999413  0.8640079759323728
  0.9122636644453719  0.3516422736702571  0.6102635067437366
  0.9122665726307894  0.6483534820241299  0.3897370791514207
  0.5959180864402922  0.1120648360969521  0.1432960707124182
  0.5959239853866186  0.8879361093323154  0.8567048237180179
 
  0.00000000E+00  0.00000000E+00  0.00000000E+00
  0.00000000E+00  0.00000000E+00  0.00000000E+00
  0.00000000E+00  0.00000000E+00  0.00000000E+00
  0.00000000E+00  0.00000000E+00  0.00000000E+00
  0.00000000E+00  0.00000000E+00  0.00000000E+00
  0.00000000E+00  0.00000000E+00  0.00000000E+00
  0.00000000E+00  0.00000000E+00  0.00000000E+00
  0.00000000E+00  0.00000000E+00  0.00000000E+00
  0.00000000E+00  0.00000000E+00  0.00000000E+00
  0.00000000E+00  0.00000000E+00  0.00000000E+00
  0.00000000E+00  0.00000000E+00  0.00000000E+00
  0.00000000E+00  0.00000000E+00  0.00000000E+00
  0.00000000E+00  0.00000000E+00  0.00000000E+00
  0.00000000E+00  0.00000000E+00  0.00000000E+00
  0.00000000E+00  0.00000000E+00  0.00000000E+00
  0.00000000E+00  0.00000000E+00  0.00000000E+00
  0.00000000E+00  0.00000000E+00  0.00000000E+00
  0.00000000E+00  0.00000000E+00  0.00000000E+00
  0.00000000E+00  0.00000000E+00  0.00000000E+00
  0.00000000E+00  0.00000000E+00  0.00000000E+00
  0.00000000E+00  0.00000000E+00  0.00000000E+00
  0.00000000E+00  0.00000000E+00  0.00000000E+00
  0.00000000E+00  0.00000000E+00  0.00000000E+00
  0.00000000E+00  0.00000000E+00  0.00000000E+00
  0.00000000E+00  0.00000000E+00  0.00000000E+00
  0.00000000E+00  0.00000000E+00  0.00000000E+00
  0.00000000E+00  0.00000000E+00  0.00000000E+00
  0.00000000E+00  0.00000000E+00  0.00000000E+00
  0.00000000E+00  0.00000000E+00  0.00000000E+00
  0.00000000E+00  0.00000000E+00  0.00000000E+00
  0.00000000E+00  0.00000000E+00  0.00000000E+00
  0.00000000E+00  0.00000000E+00  0.00000000E+00
  0.00000000E+00  0.00000000E+00  0.00000000E+00
  0.00000000E+00  0.00000000E+00  0.00000000E+00
  0.00000000E+00  0.00000000E+00  0.00000000E+00
  0.00000000E+00  0.00000000E+00  0.00000000E+00
  0.00000000E+00  0.00000000E+00  0.00000000E+00
  0.00000000E+00  0.00000000E+00  0.00000000E+00
  0.00000000E+00  0.00000000E+00  0.00000000E+00
  0.00000000E+00  0.00000000E+00  0.00000000E+00
  0.00000000E+00  0.00000000E+00  0.00000000E+00
  0.00000000E+00  0.00000000E+00  0.00000000E+00
  0.00000000E+00  0.00000000E+00  0.00000000E+00
  0.00000000E+00  0.00000000E+00  0.00000000E+00
  0.00000000E+00  0.00000000E+00  0.00000000E+00
  0.00000000E+00  0.00000000E+00  0.00000000E+00
  0.00000000E+00  0.00000000E+00  0.00000000E+00
  0.00000000E+00  0.00000000E+00  0.00000000E+00
  0.00000000E+00  0.00000000E+00  0.00000000E+00
  0.00000000E+00  0.00000000E+00  0.00000000E+00
  0.00000000E+00  0.00000000E+00  0.00000000E+00
  0.00000000E+00  0.00000000E+00  0.00000000E+00
  0.00000000E+00  0.00000000E+00  0.00000000E+00
  0.00000000E+00  0.00000000E+00  0.00000000E+00
  0.00000000E+00  0.00000000E+00  0.00000000E+00
  0.00000000E+00  0.00000000E+00  0.00000000E+00
  0.00000000E+00  0.00000000E+00  0.00000000E+00
  0.00000000E+00  0.00000000E+00  0.00000000E+00
  0.00000000E+00  0.00000000E+00  0.00000000E+00
  0.00000000E+00  0.00000000E+00  0.00000000E+00
  0.00000000E+00  0.00000000E+00  0.00000000E+00
  0.00000000E+00  0.00000000E+00  0.00000000E+00
  0.00000000E+00  0.00000000E+00  0.00000000E+00
  0.00000000E+00  0.00000000E+00  0.00000000E+00
  0.00000000E+00  0.00000000E+00  0.00000000E+00
  0.00000000E+00  0.00000000E+00  0.00000000E+00
  0.00000000E+00  0.00000000E+00  0.00000000E+00
  0.00000000E+00  0.00000000E+00  0.00000000E+00
  0.00000000E+00  0.00000000E+00  0.00000000E+00
  0.00000000E+00  0.00000000E+00  0.00000000E+00
  0.00000000E+00  0.00000000E+00  0.00000000E+00
  0.00000000E+00  0.00000000E+00  0.00000000E+00
  0.00000000E+00  0.00000000E+00  0.00000000E+00
  0.00000000E+00  0.00000000E+00  0.00000000E+00
  0.00000000E+00  0.00000000E+00  0.00000000E+00
  0.00000000E+00  0.00000000E+00  0.00000000E+00
  0.00000000E+00  0.00000000E+00  0.00000000E+00
  0.00000000E+00  0.00000000E+00  0.00000000E+00
  0.00000000E+00  0.00000000E+00  0.00000000E+00
  0.00000000E+00  0.00000000E+00  0.00000000E+00
  0.00000000E+00  0.00000000E+00  0.00000000E+00
  0.00000000E+00  0.00000000E+00  0.00000000E+00
  0.00000000E+00  0.00000000E+00  0.00000000E+00
  0.00000000E+00  0.00000000E+00  0.00000000E+00
  0.00000000E+00  0.00000000E+00  0.00000000E+00
  0.00000000E+00  0.00000000E+00  0.00000000E+00
  0.00000000E+00  0.00000000E+00  0.00000000E+00
  0.00000000E+00  0.00000000E+00  0.00000000E+00
  0.00000000E+00  0.00000000E+00  0.00000000E+00
  0.00000000E+00  0.00000000E+00  0.00000000E+00
  0.00000000E+00  0.00000000E+00  0.00000000E+00
  0.00000000E+00  0.00000000E+00  0.00000000E+00
  0.00000000E+00  0.00000000E+00  0.00000000E+00
  0.00000000E+00  0.00000000E+00  0.00000000E+00
  0.00000000E+00  0.00000000E+00  0.00000000E+00
  0.00000000E+00  0.00000000E+00  0.00000000E+00
  0.00000000E+00  0.00000000E+00  0.00000000E+00
  0.00000000E+00  0.00000000E+00  0.00000000E+00
  0.00000000E+00  0.00000000E+00  0.00000000E+00
  0.00000000E+00  0.00000000E+00  0.00000000E+00
