Li84 P196
1.0
9.847875 0.000000 -7.628682
-0.000000 10.597250 -7.628682
0.000000 0.000000 76.286820
Li P
84 196
Selective dynamics
direct
0.307848 0.816050 0.079267 F F F Li
0.192152 0.183950 0.054487 T T T Li
0.807848 0.683950 0.045951 T T T Li
0.692152 0.316050 0.047591 F F F Li
0.025950 0.014795 0.042793 T T T Li
0.474050 0.985205 0.034644 T T T Li
0.525950 0.485205 0.026045 T T T Li
0.974050 0.514795 0.023814 T T T Li
0.301371 0.692124 0.021397 T T T Li
0.198629 0.307876 0.022698 T T T Li
0.801371 0.807876 0.002525 T T T Li
0.698629 0.192124 0.080675 F F F Li
0.307848 0.816050 0.179267 F F F Li
0.192152 0.183950 0.154487 F F F Li
0.807848 0.683950 0.145951 F F F Li
0.692152 0.316050 0.147591 F F F Li
0.025950 0.014795 0.142793 F F F Li
0.474050 0.985205 0.134644 F F F Li
0.525950 0.485205 0.126045 F F F Li
0.974050 0.514795 0.123814 F F F Li
0.301371 0.692124 0.121397 F F F Li
0.198629 0.307876 0.122698 F F F Li
0.801371 0.807876 0.102525 F F F Li
0.698629 0.192124 0.180675 F F F Li
0.307848 0.816050 0.279267 F F F Li
0.192152 0.183950 0.254487 F F F Li
0.807848 0.683950 0.245951 F F F Li
0.692152 0.316050 0.247591 F F F Li
0.025950 0.014795 0.242793 F F F Li
0.474050 0.985205 0.234644 F F F Li
0.525950 0.485205 0.226045 F F F Li
0.974050 0.514795 0.223814 F F F Li
0.301371 0.692124 0.221397 F F F Li
0.198629 0.307876 0.222698 F F F Li
0.801371 0.807876 0.202525 F F F Li
0.698629 0.192124 0.280675 F F F Li
0.307848 0.816050 0.379267 F F F Li
0.192152 0.183950 0.354487 F F F Li
0.807848 0.683950 0.345951 F F F Li
0.692152 0.316050 0.347591 F F F Li
0.025950 0.014795 0.342793 F F F Li
0.474050 0.985205 0.334644 F F F Li
0.525950 0.485205 0.326045 F F F Li
0.974050 0.514795 0.323814 F F F Li
0.301371 0.692124 0.321397 F F F Li
0.198629 0.307876 0.322698 F F F Li
0.801371 0.807876 0.302525 F F F Li
0.698629 0.192124 0.380675 F F F Li
0.307848 0.816050 0.479267 F F F Li
0.192152 0.183950 0.454487 F F F Li
0.807848 0.683950 0.445951 F F F Li
0.692152 0.316050 0.447591 F F F Li
0.025950 0.014795 0.442793 F F F Li
0.474050 0.985205 0.434644 F F F Li
0.525950 0.485205 0.426045 F F F Li
0.974050 0.514795 0.423814 F F F Li
0.301371 0.692124 0.421397 F F F Li
0.198629 0.307876 0.422698 F F F Li
0.801371 0.807876 0.402525 F F F Li
0.698629 0.192124 0.480675 F F F Li
0.307848 0.816050 0.579267 F F F Li
0.192152 0.183950 0.554487 F F F Li
0.807848 0.683950 0.545951 F F F Li
0.692152 0.316050 0.547591 F F F Li
0.025950 0.014795 0.542793 F F F Li
0.474050 0.985205 0.534644 F F F Li
0.525950 0.485205 0.526045 F F F Li
0.974050 0.514795 0.523814 F F F Li
0.301371 0.692124 0.521397 F F F Li
0.198629 0.307876 0.522698 F F F Li
0.801371 0.807876 0.502525 F F F Li
0.698629 0.192124 0.580675 F F F Li
0.307848 0.816050 0.679267 T T T Li
0.192152 0.183950 0.654487 F F F Li
0.807848 0.683950 0.645951 F F F Li
0.692152 0.316050 0.647591 F F F Li
0.025950 0.014795 0.642793 F F F Li
0.474050 0.985205 0.634644 F F F Li
0.525950 0.485205 0.626045 F F F Li
0.974050 0.514795 0.623814 F F F Li
0.301371 0.692124 0.621397 F F F Li
0.198629 0.307876 0.622698 F F F Li
0.801371 0.807876 0.602525 F F F Li
0.698629 0.192124 0.680675 T T T Li
0.875491 0.318848 0.029335 F F F P
0.624509 0.681152 0.090467 F F F P
0.375491 0.181152 0.009411 T T T P
0.124509 0.818848 0.098083 F F F P
0.048522 0.387402 0.089181 F F F P
0.451478 0.612598 0.001996 T T T P
0.548522 0.112598 0.084171 F F F P
0.951478 0.887402 0.051947 F F F P
0.943528 0.565132 0.086070 F F F P
0.556472 0.434868 0.084338 F F F P
0.443528 0.934868 0.066284 F F F P
0.056472 0.065132 0.090605 F F F P
0.134841 0.494288 0.085342 F F F P
0.365159 0.505712 0.059516 T T T P
0.634841 0.005712 0.005274 T T T P
0.865159 0.994288 0.077163 F F F P
0.927027 0.881290 0.094282 F F F P
0.572973 0.118710 0.032619 T T T P
0.427027 0.618710 0.054771 T T T P
0.072973 0.381290 0.045624 F F F P
0.218031 0.994617 0.015961 F F F P
0.281969 0.005383 0.073432 F F F P
0.718031 0.505383 0.091293 F F F P
0.781969 0.494617 0.046610 F F F P
0.070503 0.734192 0.058943 F F F P
0.429497 0.265808 0.098004 F F F P
0.570503 0.765808 0.018806 T T T P
0.929497 0.234192 0.051544 F F F P
0.875491 0.318848 0.129335 F F F P
0.624509 0.681152 0.190467 F F F P
0.375491 0.181152 0.109411 F F F P
0.124509 0.818848 0.198083 F F F P
0.048522 0.387402 0.189181 F F F P
0.451478 0.612598 0.101996 F F F P
0.548522 0.112598 0.184171 F F F P
0.951478 0.887402 0.151947 F F F P
0.943528 0.565132 0.186070 F F F P
0.556472 0.434868 0.184338 F F F P
0.443528 0.934868 0.166284 F F F P
0.056472 0.065132 0.190605 F F F P
0.134841 0.494288 0.185342 F F F P
0.365159 0.505712 0.159516 F F F P
0.634841 0.005712 0.105274 F F F P
0.865159 0.994288 0.177163 F F F P
0.927027 0.881290 0.194282 F F F P
0.572973 0.118710 0.132619 F F F P
0.427027 0.618710 0.154771 F F F P
0.072973 0.381290 0.145624 F F F P
0.218031 0.994617 0.115961 F F F P
0.281969 0.005383 0.173432 F F F P
0.718031 0.505383 0.191293 F F F P
0.781969 0.494617 0.146610 F F F P
0.070503 0.734192 0.158943 F F F P
0.429497 0.265808 0.198004 F F F P
0.570503 0.765808 0.118806 F F F P
0.929497 0.234192 0.151544 F F F P
0.875491 0.318848 0.229335 F F F P
0.624509 0.681152 0.290467 F F F P
0.375491 0.181152 0.209412 F F F P
0.124509 0.818848 0.298083 F F F P
0.048522 0.387402 0.289181 F F F P
0.451478 0.612598 0.201996 F F F P
0.548522 0.112598 0.284171 F F F P
0.951478 0.887402 0.251947 F F F P
0.943528 0.565132 0.286070 F F F P
0.556472 0.434868 0.284338 F F F P
0.443528 0.934868 0.266284 F F F P
0.056472 0.065132 0.290605 F F F P
0.134841 0.494288 0.285342 F F F P
0.365159 0.505712 0.259516 F F F P
0.634841 0.005712 0.205274 F F F P
0.865159 0.994288 0.277163 F F F P
0.927027 0.881290 0.294282 F F F P
0.572973 0.118710 0.232619 F F F P
0.427027 0.618710 0.254771 F F F P
0.072973 0.381290 0.245624 F F F P
0.218031 0.994617 0.215961 F F F P
0.281969 0.005383 0.273432 F F F P
0.718031 0.505383 0.291293 F F F P
0.781969 0.494617 0.246610 F F F P
0.070503 0.734192 0.258943 F F F P
0.429497 0.265808 0.298004 F F F P
0.570503 0.765808 0.218806 F F F P
0.929497 0.234192 0.251544 F F F P
0.875491 0.318848 0.329335 F F F P
0.624509 0.681152 0.390467 F F F P
0.375491 0.181152 0.309411 F F F P
0.124509 0.818848 0.398083 F F F P
0.048522 0.387402 0.389181 F F F P
0.451478 0.612598 0.301996 F F F P
0.548522 0.112598 0.384171 F F F P
0.951478 0.887402 0.351947 F F F P
0.943528 0.565132 0.386070 F F F P
0.556472 0.434868 0.384338 F F F P
0.443528 0.934868 0.366284 F F F P
0.056472 0.065132 0.390605 F F F P
0.134841 0.494288 0.385342 F F F P
0.365159 0.505712 0.359516 F F F P
0.634841 0.005712 0.305274 F F F P
0.865159 0.994288 0.377163 F F F P
0.927027 0.881290 0.394282 F F F P
0.572973 0.118710 0.332619 F F F P
0.427027 0.618710 0.354771 F F F P
0.072973 0.381290 0.345624 F F F P
0.218031 0.994617 0.315961 F F F P
0.281969 0.005383 0.373432 F F F P
0.718031 0.505383 0.391293 F F F P
0.781969 0.494617 0.346610 F F F P
0.070503 0.734192 0.358943 F F F P
0.429497 0.265808 0.398004 F F F P
0.570503 0.765808 0.318806 F F F P
0.929497 0.234192 0.351544 F F F P
0.875491 0.318848 0.429335 F F F P
0.624509 0.681152 0.490467 F F F P
0.375491 0.181152 0.409411 F F F P
0.124509 0.818848 0.498083 F F F P
0.048522 0.387402 0.489181 F F F P
0.451478 0.612598 0.401996 F F F P
0.548522 0.112598 0.484171 F F F P
0.951478 0.887402 0.451947 F F F P
0.943528 0.565132 0.486070 F F F P
0.556472 0.434868 0.484338 F F F P
0.443528 0.934868 0.466284 F F F P
0.056472 0.065132 0.490605 F F F P
0.134841 0.494288 0.485342 F F F P
0.365159 0.505712 0.459516 F F F P
0.634841 0.005712 0.405274 F F F P
0.865159 0.994288 0.477163 F F F P
0.927027 0.881290 0.494282 F F F P
0.572973 0.118710 0.432619 F F F P
0.427027 0.618710 0.454771 F F F P
0.072973 0.381290 0.445624 F F F P
0.218031 0.994617 0.415961 F F F P
0.281969 0.005383 0.473432 F F F P
0.718031 0.505383 0.491293 F F F P
0.781969 0.494617 0.446610 F F F P
0.070503 0.734192 0.458943 F F F P
0.429497 0.265808 0.498004 F F F P
0.570503 0.765808 0.418806 F F F P
0.929497 0.234192 0.451544 F F F P
0.875491 0.318848 0.529335 F F F P
0.624509 0.681152 0.590467 F F F P
0.375491 0.181152 0.509412 F F F P
0.124509 0.818848 0.598083 F F F P
0.048522 0.387402 0.589181 F F F P
0.451478 0.612598 0.501996 F F F P
0.548522 0.112598 0.584171 F F F P
0.951478 0.887402 0.551947 F F F P
0.943528 0.565132 0.586070 F F F P
0.556472 0.434868 0.584338 F F F P
0.443528 0.934868 0.566284 F F F P
0.056472 0.065132 0.590605 F F F P
0.134841 0.494288 0.585342 F F F P
0.365159 0.505712 0.559516 F F F P
0.634841 0.005712 0.505274 F F F P
0.865159 0.994288 0.577163 F F F P
0.927027 0.881290 0.594282 F F F P
0.572973 0.118710 0.532619 F F F P
0.427027 0.618710 0.554771 F F F P
0.072973 0.381290 0.545624 F F F P
0.218031 0.994617 0.515961 F F F P
0.281969 0.005383 0.573432 F F F P
0.718031 0.505383 0.591293 F F F P
0.781969 0.494617 0.546610 F F F P
0.070503 0.734192 0.558943 F F F P
0.429497 0.265808 0.598004 F F F P
0.570503 0.765808 0.518806 F F F P
0.929497 0.234192 0.551544 F F F P
0.875491 0.318848 0.629335 F F F P
0.624509 0.681152 0.690467 T T T P
0.375491 0.181152 0.609411 F F F P
0.124509 0.818848 0.698083 T T T P
0.048522 0.387402 0.689181 F F F P
0.451478 0.612598 0.601996 F F F P
0.548522 0.112598 0.684171 T T T P
0.951478 0.887402 0.651947 F F F P
0.943528 0.565132 0.686070 F F F P
0.556472 0.434868 0.684338 T T T P
0.443528 0.934868 0.666284 T T T P
0.056472 0.065132 0.690605 F F F P
0.134841 0.494288 0.685342 T T T P
0.365159 0.505712 0.659516 T T T P
0.634841 0.005712 0.605274 F F F P
0.865159 0.994288 0.677163 T T T P
0.927027 0.881290 0.694282 T T T P
0.572973 0.118710 0.632619 F F F P
0.427027 0.618710 0.654771 T T T P
0.072973 0.381290 0.645624 T T T P
0.218031 0.994617 0.615961 F F F P
0.281969 0.005383 0.673432 T T T P
0.718031 0.505383 0.691293 T T T P
0.781969 0.494617 0.646610 F F F P
0.070503 0.734192 0.658943 F F F P
0.429497 0.265808 0.698004 T T T P
0.570503 0.765808 0.618806 F F F P
0.929497 0.234192 0.651544 F F F P
