Li28 O28
1.0
2.754274 0.000000 -4.770543
-0.000000 7.703522 -3.180362
0.000000 0.000000 63.607238
Li O
28 28
direct
0.000000 0.500000 0.015017 Li+
0.000000 0.000000 0.040017 Li+
0.333333 0.750000 0.027517 Li+
0.666667 0.250000 0.002517 Li+
0.000000 0.500000 0.065017 Li+
0.000000 0.000000 0.090017 Li+
0.333333 0.750000 0.077517 Li+
0.666667 0.250000 0.052517 Li+
0.000000 0.500000 0.115017 Li+
0.000000 0.000000 0.140017 Li+
0.333333 0.750000 0.127517 Li+
0.666667 0.250000 0.102517 Li+
0.000000 0.500000 0.165017 Li+
0.000000 0.000000 0.190017 Li+
0.333333 0.750000 0.177517 Li+
0.666667 0.250000 0.152517 Li+
0.000000 0.500000 0.215017 Li+
0.000000 0.000000 0.240017 Li+
0.333333 0.750000 0.227517 Li+
0.666667 0.250000 0.202517 Li+
0.000000 0.500000 0.265017 Li+
0.000000 0.000000 0.290017 Li+
0.333333 0.750000 0.277517 Li+
0.666667 0.250000 0.252517 Li+
0.000000 0.500000 0.315017 Li+
0.000000 0.000000 0.340017 Li+
0.333333 0.750000 0.327517 Li+
0.666667 0.250000 0.302517 Li+
0.333333 0.149310 0.047483 O-
0.666667 0.649310 0.022483 O-
0.666667 0.850690 0.032552 O-
0.333333 0.350690 0.007552 O-
0.333333 0.149310 0.097483 O-
0.666667 0.649310 0.072483 O-
0.666667 0.850690 0.082552 O-
0.333333 0.350690 0.057552 O-
0.333333 0.149310 0.147483 O-
0.666667 0.649310 0.122483 O-
0.666667 0.850690 0.132552 O-
0.333333 0.350690 0.107552 O-
0.333333 0.149310 0.197483 O-
0.666667 0.649310 0.172483 O-
0.666667 0.850690 0.182552 O-
0.333333 0.350690 0.157552 O-
0.333333 0.149310 0.247483 O-
0.666667 0.649310 0.222483 O-
0.666667 0.850690 0.232552 O-
0.333333 0.350690 0.207552 O-
0.333333 0.149310 0.297483 O-
0.666667 0.649310 0.272483 O-
0.666667 0.850690 0.282552 O-
0.333333 0.350690 0.257552 O-
0.333333 0.149310 0.347483 O-
0.666667 0.649310 0.322483 O-
0.666667 0.850690 0.332552 O-
0.333333 0.350690 0.307552 O-
