Li56 P28 N28 O56
1.0
9.155868 0.000000 0.000000
0.000000 4.748969 0.000000
0.000000 0.000000 60.071286
Li P N O
56 28 28 56
Selective dynamics
direct
0.665671 0.501556 0.037224 T T T Li+
0.334329 0.501556 0.037224 T T T Li+
0.334329 0.001556 0.008230 T T T Li+
0.665671 0.001556 0.008230 T T T Li+
0.165671 0.501556 0.082679 F F F Li+
0.834329 0.501556 0.082679 F F F Li+
0.834329 0.001556 0.053685 F F F Li+
0.165671 0.001556 0.053685 F F F Li+
0.665671 0.501556 0.128133 F F F Li+
0.334329 0.501556 0.128133 F F F Li+
0.334329 0.001556 0.099140 F F F Li+
0.665671 0.001556 0.099140 F F F Li+
0.165671 0.501556 0.173588 F F F Li+
0.834329 0.501556 0.173588 F F F Li+
0.834329 0.001556 0.144594 F F F Li+
0.165671 0.001556 0.144594 F F F Li+
0.665671 0.501556 0.219042 F F F Li+
0.334329 0.501556 0.219042 F F F Li+
0.334329 0.001556 0.190049 F F F Li+
0.665671 0.001556 0.190049 F F F Li+
0.165671 0.501556 0.264497 F F F Li+
0.834329 0.501556 0.264497 F F F Li+
0.834329 0.001556 0.235503 F F F Li+
0.165671 0.001556 0.235503 F F F Li+
0.665671 0.501556 0.309951 F F F Li+
0.334329 0.501556 0.309951 F F F Li+
0.334329 0.001556 0.280958 F F F Li+
0.665671 0.001556 0.280958 F F F Li+
0.165671 0.501556 0.355406 F F F Li+
0.834329 0.501556 0.355406 F F F Li+
0.834329 0.001556 0.326412 F F F Li+
0.165671 0.001556 0.326412 F F F Li+
0.665671 0.501556 0.400860 F F F Li+
0.334329 0.501556 0.400860 F F F Li+
0.334329 0.001556 0.371867 F F F Li+
0.665671 0.001556 0.371867 F F F Li+
0.165671 0.501556 0.446315 F F F Li+
0.834329 0.501556 0.446315 F F F Li+
0.834329 0.001556 0.417321 F F F Li+
0.165671 0.001556 0.417321 F F F Li+
0.665671 0.501556 0.491769 F F F Li+
0.334329 0.501556 0.491769 F F F Li+
0.334329 0.001556 0.462776 F F F Li+
0.665671 0.001556 0.462776 F F F Li+
0.165671 0.501556 0.537224 F F F Li+
0.834329 0.501556 0.537224 F F F Li+
0.834329 0.001556 0.508231 F F F Li+
0.165671 0.001556 0.508231 F F F Li+
0.665671 0.501556 0.582679 F F F Li+
0.334329 0.501556 0.582679 F F F Li+
0.334329 0.001556 0.553685 F F F Li+
0.665671 0.001556 0.553685 F F F Li+
0.165671 0.501556 0.628133 T T T Li+
0.834329 0.501556 0.628133 T T T Li+
0.834329 0.001556 0.599140 T T T Li+
0.165671 0.001556 0.599140 T T T Li+
0.000000 0.498511 0.036705 T T T P5+
0.000000 0.998511 0.008750 T T T P5+
0.500000 0.498511 0.082159 F F F P5+
0.500000 0.998511 0.054205 F F F P5+
0.000000 0.498511 0.127614 F F F P5+
0.000000 0.998511 0.099659 F F F P5+
0.500000 0.498511 0.173068 F F F P5+
0.500000 0.998511 0.145114 F F F P5+
0.000000 0.498511 0.218523 F F F P5+
0.000000 0.998511 0.190568 F F F P5+
0.500000 0.498511 0.263977 F F F P5+
0.500000 0.998511 0.236023 F F F P5+
0.000000 0.498511 0.309432 F F F P5+
0.000000 0.998511 0.281477 F F F P5+
0.500000 0.498511 0.354886 F F F P5+
0.500000 0.998511 0.326932 F F F P5+
0.000000 0.498511 0.400341 F F F P5+
0.000000 0.998511 0.372386 F F F P5+
0.500000 0.498511 0.445795 F F F P5+
0.500000 0.998511 0.417841 F F F P5+
0.000000 0.498511 0.491250 F F F P5+
0.000000 0.998511 0.463295 F F F P5+
0.500000 0.498511 0.536705 F F F P5+
0.500000 0.998511 0.508750 F F F P5+
0.000000 0.498511 0.582159 F F F P5+
0.000000 0.998511 0.554205 F F F P5+
0.500000 0.498511 0.627614 T T T P5+
0.500000 0.998511 0.599659 T T T P5+
0.000000 0.341176 0.012455 T T T N3-
0.000000 0.841176 0.033000 T T T N3-
0.500000 0.341176 0.057909 F F F N3-
0.500000 0.841176 0.078455 F F F N3-
0.000000 0.341176 0.103364 F F F N3-
0.000000 0.841176 0.123909 F F F N3-
0.500000 0.341176 0.148818 F F F N3-
0.500000 0.841176 0.169364 F F F N3-
0.000000 0.341176 0.194273 F F F N3-
0.000000 0.841176 0.214818 F F F N3-
0.500000 0.341176 0.239727 F F F N3-
0.500000 0.841176 0.260273 F F F N3-
0.000000 0.341176 0.285182 F F F N3-
0.000000 0.841176 0.305727 F F F N3-
0.500000 0.341176 0.330636 F F F N3-
0.500000 0.841176 0.351182 F F F N3-
0.000000 0.341176 0.376091 F F F N3-
0.000000 0.841176 0.396636 F F F N3-
0.500000 0.341176 0.421545 F F F N3-
0.500000 0.841176 0.442091 F F F N3-
0.000000 0.341176 0.467000 F F F N3-
0.000000 0.841176 0.487545 F F F N3-
0.500000 0.341176 0.512455 F F F N3-
0.500000 0.841176 0.533000 F F F N3-
0.000000 0.341176 0.557909 F F F N3-
0.000000 0.841176 0.578455 F F F N3-
0.500000 0.341176 0.603364 T T T N3-
0.500000 0.841176 0.623909 T T T N3-
0.139047 0.419101 0.050495 F F F O2-
0.860953 0.419101 0.050495 F F F O2-
0.860953 0.919101 0.085868 F F F O2-
0.139047 0.919101 0.085868 F F F O2-
0.639047 0.419101 0.005041 T T T O2-
0.360953 0.419101 0.005041 T T T O2-
0.360953 0.919101 0.040414 T T T O2-
0.639047 0.919101 0.040414 T T T O2-
0.139047 0.419101 0.141405 F F F O2-
0.860953 0.419101 0.141405 F F F O2-
0.860953 0.919101 0.176777 F F F O2-
0.139047 0.919101 0.176777 F F F O2-
0.639047 0.419101 0.095950 F F F O2-
0.360953 0.419101 0.095950 F F F O2-
0.360953 0.919101 0.131323 F F F O2-
0.639047 0.919101 0.131323 F F F O2-
0.139047 0.419101 0.232314 F F F O2-
0.860953 0.419101 0.232314 F F F O2-
0.860953 0.919101 0.267686 F F F O2-
0.139047 0.919101 0.267686 F F F O2-
0.639047 0.419101 0.186859 F F F O2-
0.360953 0.419101 0.186859 F F F O2-
0.360953 0.919101 0.222232 F F F O2-
0.639047 0.919101 0.222232 F F F O2-
0.139047 0.419101 0.323223 F F F O2-
0.860953 0.419101 0.323223 F F F O2-
0.860953 0.919101 0.358595 F F F O2-
0.139047 0.919101 0.358595 F F F O2-
0.639047 0.419101 0.277768 F F F O2-
0.360953 0.419101 0.277768 F F F O2-
0.360953 0.919101 0.313141 F F F O2-
0.639047 0.919101 0.313141 F F F O2-
0.139047 0.419101 0.414132 F F F O2-
0.860953 0.419101 0.414132 F F F O2-
0.860953 0.919101 0.449505 F F F O2-
0.139047 0.919101 0.449505 F F F O2-
0.639047 0.419101 0.368677 F F F O2-
0.360953 0.419101 0.368677 F F F O2-
0.360953 0.919101 0.404050 F F F O2-
0.639047 0.919101 0.404050 F F F O2-
0.139047 0.419101 0.505041 F F F O2-
0.860953 0.419101 0.505041 F F F O2-
0.860953 0.919101 0.540414 F F F O2-
0.139047 0.919101 0.540414 F F F O2-
0.639047 0.419101 0.459586 F F F O2-
0.360953 0.419101 0.459586 F F F O2-
0.360953 0.919101 0.494959 F F F O2-
0.639047 0.919101 0.494959 F F F O2-
0.139047 0.419101 0.595950 T T T O2-
0.860953 0.419101 0.595950 T T T O2-
0.860953 0.919101 0.631323 T T T O2-
0.139047 0.919101 0.631323 T T T O2-
0.639047 0.419101 0.550495 F F F O2-
0.360953 0.419101 0.550495 F F F O2-
0.360953 0.919101 0.585868 F F F O2-
0.639047 0.919101 0.585868 F F F O2-
