Li5 P2 N1 O6                            
   1.00000000000000     
    -0.3274440363505610    0.7877606023155824    4.9298535269499313
     6.4473477398373396    0.3818565610919602   -0.2778613282684806
     0.5183337563630541    4.8246690926228570    0.9147110340218262
   Li   P    N    O 
     5     2     1     6
Direct
  0.7078813319287124  0.1030367856857588  0.8230769476123191
 -0.1963959056833548  0.3699739211957493  0.1890196634255568
  0.4399990121353181  0.7567172967352146  0.2352126019204297
  0.1628401043399853  0.8098567142127766  0.7851264413120971
  0.1607164749003225  0.3375425008765993  0.4891774702402304
  0.4921992710137765  0.5123525770911095  0.7933153457314768
 -0.1270154259603845 -0.0912174135793518  0.3767425213321285
  0.5879396352498714  0.7632309488016207  0.6303879271045048
  0.0374132667022660  0.0368729830550612  0.5329015342196166
  0.0824475363178072  0.7820713167150589  0.1903953637096319
  0.6818099572116547  0.3648150853714898  0.6238655597920072
  0.4937886619789850  0.4858973414087362  0.1129907964167544
  0.1758891489488817  0.4626741780895100  0.8112308260820585
  0.7477979309161873  0.0533027643406656  0.1836310011011892
 
  0.00000000E+00  0.00000000E+00  0.00000000E+00
  0.00000000E+00  0.00000000E+00  0.00000000E+00
  0.00000000E+00  0.00000000E+00  0.00000000E+00
  0.00000000E+00  0.00000000E+00  0.00000000E+00
  0.00000000E+00  0.00000000E+00  0.00000000E+00
  0.00000000E+00  0.00000000E+00  0.00000000E+00
  0.00000000E+00  0.00000000E+00  0.00000000E+00
  0.00000000E+00  0.00000000E+00  0.00000000E+00
  0.00000000E+00  0.00000000E+00  0.00000000E+00
  0.00000000E+00  0.00000000E+00  0.00000000E+00
  0.00000000E+00  0.00000000E+00  0.00000000E+00
  0.00000000E+00  0.00000000E+00  0.00000000E+00
  0.00000000E+00  0.00000000E+00  0.00000000E+00
  0.00000000E+00  0.00000000E+00  0.00000000E+00
