(1, 0, 0)                               
   1.00000000000000     
     3.3920066549218895    0.0000091829891442   -0.0000018856351329
     0.0000091837900809    3.3919904439322348    0.0000180315188213
    -0.0000240597748648    0.0002314193192540   44.7058663178724984
   Li
    14
Selective dynamics
Direct
  0.0000032828653204  0.0000024547382628  0.0587578005293932   T   T   T
  0.5000005700976469  0.5000014947713076  0.0182525317158129   T   T   T
  0.0000000000000000  0.0000000000000000  0.1346149999999966   F   F   F
  0.5000000000000000  0.5000000000000000  0.0961539999999985   F   F   F
  0.0000000000000000  0.0000000000000000  0.2115379999999973   F   F   F
  0.5000000000000000  0.5000000000000000  0.1730769999999993   F   F   F
  0.0000000000000000  0.0000000000000000  0.2884620000000027   F   F   F
  0.5000000000000000  0.5000000000000000  0.2500000000000000   F   F   F
  0.0000000000000000  0.0000000000000000  0.3653850000000034   F   F   F
  0.5000000000000000  0.5000000000000000  0.3269230000000007   F   F   F
  0.0000000000000000  0.0000000000000000  0.4423079999999970   F   F   F
  0.5000000000000000  0.5000000000000000  0.4038460000000015   F   F   F
 -0.0000055502886093 -0.0000029049940710  0.5202761943916855   T   T   T
  0.4999978742593967  0.4999986144008918  0.4797105017845334   T   T   T
 
  0.00000000E+00  0.00000000E+00  0.00000000E+00
  0.00000000E+00  0.00000000E+00  0.00000000E+00
  0.00000000E+00  0.00000000E+00  0.00000000E+00
  0.00000000E+00  0.00000000E+00  0.00000000E+00
  0.00000000E+00  0.00000000E+00  0.00000000E+00
  0.00000000E+00  0.00000000E+00  0.00000000E+00
  0.00000000E+00  0.00000000E+00  0.00000000E+00
  0.00000000E+00  0.00000000E+00  0.00000000E+00
  0.00000000E+00  0.00000000E+00  0.00000000E+00
  0.00000000E+00  0.00000000E+00  0.00000000E+00
  0.00000000E+00  0.00000000E+00  0.00000000E+00
  0.00000000E+00  0.00000000E+00  0.00000000E+00
  0.00000000E+00  0.00000000E+00  0.00000000E+00
  0.00000000E+00  0.00000000E+00  0.00000000E+00
