(1, 0, 0)
1.0
3.426818 0.000000 0.000000
0.000000 3.426818 0.000000
0.000000 0.000000 44.548634
Li
14
Selective dynamics
direct
0.000000 0.000000 0.057692 T T T Li+
0.500000 0.500000 0.019231 T T T Li+
0.000000 0.000000 0.134615 F F F Li+
0.500000 0.500000 0.096154 F F F Li+
0.000000 0.000000 0.211538 F F F Li+
0.500000 0.500000 0.173077 F F F Li+
0.000000 0.000000 0.288462 F F F Li+
0.500000 0.500000 0.250000 F F F Li+
0.000000 0.000000 0.365385 F F F Li+
0.500000 0.500000 0.326923 F F F Li+
0.000000 0.000000 0.442308 F F F Li+
0.500000 0.500000 0.403846 F F F Li+
0.000000 0.000000 0.519231 T T T Li+
0.500000 0.500000 0.480769 T T T Li+
