Li7 P2 N1 O7                            
   1.00000000000000     
     5.0328719441708207    0.0180119687928812   -0.0111306808636733
     0.0215658606797169    6.3217693200743250    0.0614199432235158
    -0.0115869991150493    0.0565459218595465    5.2477251071322977
   Li   P    N    O 
     7     2     1     7
Direct
  0.0191685444504301  0.4906111816856709  0.1559460619527375
  0.4943584174635227  0.7397316816130372  0.3077669539923574
  0.5157176318266009  0.2714620429926142  0.3543791756874354
  0.0517488153164738  0.7326608788885103  0.6651243004266230
  0.0398696531344367  0.2562544598186116  0.6558602115968543
  0.3959030186657089  0.1117407046894015 -0.0054880874032887
  0.7087005515499606 -0.0189914090483602  0.6595287700340005
  0.5209815174120589  0.4950347226722290  0.8258473493765311
 -0.0077976980064759 -0.0003762113318984  0.1855368355823786
  0.1349067617491005  0.1996591408281168  0.2953745787898358
  0.0985661755132658  0.7791423373577376  0.3005342894332415
  0.6166802674598564  0.5030119034620036  0.1060597382990646
  0.2122895642492050  0.4934124579506230  0.8137480455399346
  0.6778650674326447 -0.0006309903175078  0.2287811703650877
  0.6303159950745998  0.6831387399965501  0.6648016276918366
  0.6168844018983138  0.2787207120363326  0.7128020613762384
  0.0419913148103240 -0.0145823532936715  0.8809069172591325
 
  0.00000000E+00  0.00000000E+00  0.00000000E+00
  0.00000000E+00  0.00000000E+00  0.00000000E+00
  0.00000000E+00  0.00000000E+00  0.00000000E+00
  0.00000000E+00  0.00000000E+00  0.00000000E+00
  0.00000000E+00  0.00000000E+00  0.00000000E+00
  0.00000000E+00  0.00000000E+00  0.00000000E+00
  0.00000000E+00  0.00000000E+00  0.00000000E+00
  0.00000000E+00  0.00000000E+00  0.00000000E+00
  0.00000000E+00  0.00000000E+00  0.00000000E+00
  0.00000000E+00  0.00000000E+00  0.00000000E+00
  0.00000000E+00  0.00000000E+00  0.00000000E+00
  0.00000000E+00  0.00000000E+00  0.00000000E+00
  0.00000000E+00  0.00000000E+00  0.00000000E+00
  0.00000000E+00  0.00000000E+00  0.00000000E+00
  0.00000000E+00  0.00000000E+00  0.00000000E+00
  0.00000000E+00  0.00000000E+00  0.00000000E+00
  0.00000000E+00  0.00000000E+00  0.00000000E+00
