Li73 P24 N1 O95                         
   1.00000000000000     
    14.7309501035005219   -0.0092199229593146    0.0018881003033923
    -0.0066182786716265   10.5713497612724492   -0.0012060462459504
     0.0015493308691856   -0.0014229687594107   12.3068058787138330
   Li   P    N    O 
    73    24     1    95
Direct
  0.1590091333414239  0.4219895357800411  0.0004060941248479
  0.1676381686363137  0.4223632076231200  0.4999272355737185
  0.1649970311188682  0.9195696985808888  0.9984578148406907
  0.1660665373751866  0.9213864961296332  0.5015619805820860
  0.5041257655505568  0.4201458691971561  0.9980117486936955
  0.5026612365659153  0.4205901633931667  0.5019213894044103
  0.5030186777117395  0.9224714650276488  0.9973650321802278
  0.5026100728009039  0.9228536664637735  0.5024401309784685
  0.8666059403098398  0.4229934984835544  0.9991686597818313
  0.8369178110336235  0.4215902377624978  0.5010011390834771
  0.8371004956449858  0.9193079882497999  0.9988600109473600
  0.8359703766218642  0.9215668043106967  0.5008014958628163
  0.0006917302759150  0.0771026115234522  0.2493104921134639
  0.0023427496801944  0.0756279519344844  0.7507347656975094
  0.0013817919608893  0.5723421303777547  0.2420811714105957
  0.0037539562748749  0.5743717351266132  0.7580613430801024
  0.3348017679554429  0.0751149274099221  0.2496630509587023
  0.3356803451650049  0.0769059124585934  0.7506782797543216
  0.4142071619204846  0.7063628739397684  0.2498860375426516
  0.3354427362056319  0.5772378503121816  0.7513758504302382
  0.6708236446992824  0.0781710637283237  0.2499134875996082
  0.6698375801217524  0.0766055481895425  0.7503047229002554
  0.6726942871590228  0.5754568382624333  0.2489406489150128
  0.6717836570236423  0.5756426299506593  0.7506439833518878
  0.1665761984668756  0.1608833596766439  0.1254216812248205
  0.1688800485078878  0.1632902005900040  0.6268889465908875
  0.1615051696484013  0.6612918029794062  0.1248129006290392
  0.1684311902722238  0.6620533266973693  0.6260634123049403
  0.5025437815637244  0.1650127175084318  0.1249097550105402
  0.5026184615335810  0.1626024988591017  0.6268878131114174
  0.5174894401678335  0.6589118789778819  0.1154328773714205
  0.5029902453722244  0.6624603828794828  0.6282219728423235
  0.8355910927986235  0.1617038462157379  0.1253667447246699
  0.8355387561504639  0.1633182298115251  0.6264036484322523
  0.8361453204323803  0.6622719521973530  0.1251301940215992
  0.8380788210626808  0.6618817829077364  0.6281568432335907
  0.0016558116637607  0.3324363269491597  0.1219934087434539
  0.0017116731769602  0.3358634974846973  0.6237652705536731
 -0.0003841108300607  0.8337261337483197  0.1224627820818321
  0.0018209216320366  0.8345517843794931  0.6247574019260467
  0.3328044699608375  0.3303134778164283  0.1220672358862966
  0.3360275539161897  0.3374100886852531  0.6237157058675354
  0.3287750469691906  0.8400737152447592  0.1161116069065952
  0.3350255315900568  0.8364891856990544  0.6245580381926140
  0.6735584638160180  0.3367359151471168  0.1214262430356155
  0.6693408204791432  0.3350438990014010  0.6244833995933515
  0.6726769394207456  0.8356063743264125  0.1224502853095261
  0.6699304741865879  0.8355101473941502  0.6241190446187315
  0.9986372483843697  0.3338212449246500  0.3788373580108321
  0.0045501692146679  0.3346034374845710  0.8764546963274606
  0.0002490320965599  0.8348860973480577  0.3755604411380525
  0.0014164341186877  0.8331542486218280  0.8768055013579887
  0.3341278315998421  0.3308254972822895  0.3775591764082030
  0.3351010502766721  0.3374671713231601  0.8770330240075982
  0.3286208851629490  0.8411626868285490  0.3833394060634707
  0.3352662306497637  0.8354734019364903  0.8759685926016255
  0.6697669875059417  0.3360605700164428  0.3772093377467108
  0.6731249314066683  0.3359119604898766  0.8767941112882527
  0.6717515485029452  0.8358488303309987  0.3777247823063882
  0.6707528473935156  0.8350472235171496  0.8755153138451378
  0.1672378447358027  0.1619027719620591  0.3743061360604329
  0.1682499497116043  0.1630035481491895  0.8737995661151307
  0.1638674912928297  0.6623889239840122  0.3718820053396502
  0.1656858897608054  0.6605497646842123  0.8766156850975148
  0.5021370154556791  0.1647834653519712  0.3746562829412483
  0.5031923171744822  0.1628578941967442  0.8732064293688125
  0.5167348793027047  0.6591396173593590  0.3840811552247477
  0.5042106588229857  0.6620936465154151  0.8722277687689135
  0.8352047239477134  0.1628530602365100  0.3746979993014301
  0.8361601683544103  0.1621095578180581  0.8737542369822826
  0.8363748533534144  0.6611558820745839  0.3735047765113932
  0.8378715286966196  0.6629526437866642  0.8732920941771461
  0.3179690932531353  0.5461585428431219  0.2480077763248858
  0.1619446933071532  0.4060467447579937  0.2514969052686314
  0.1681069176162426  0.4111540200887856  0.7487000056815135
  0.1649250641305317  0.9113330564174410  0.2500303418917705
  0.1671568487490666  0.9107551482309316  0.7499742814516226
  0.4979339385148970  0.4129719213842738  0.2498683989273403
  0.5003976586526729  0.4117109525219612  0.7499591523462420
  0.5013284177849885  0.9103589441879392  0.2499723784443836
  0.5003396916024762  0.9112423673089589  0.7498842901996633
  0.8315166781328730  0.4096767142393524  0.2515142674719051
  0.8335276017910995  0.4099048669354036  0.7485477327189093
  0.8311766005961307  0.9121195586780376  0.2507746247982820
  0.8327418720393907  0.9123558396547581  0.7490193182195432
 -0.0005689183812271  0.0846751122125506  0.9995399621666349
  0.9991276954856092  0.0860272186597797  0.5005264496433288
 -0.0007301103411347  0.5841994850370418  0.0002197816318004
  0.9991843174627048  0.5870148077808339  0.4997996850570792
  0.3333049140452321  0.0862600250193348 -0.0004176351873245
  0.3331322630028125  0.0867400825898728  0.5005434105705582
  0.3346774454393729  0.5867227662762479  0.0047682501507705
  0.3339940151674050  0.5877996424450853  0.4954153094192936
  0.6660354798871034  0.0861350843857752 -0.0000199310353915
  0.6656127632273549  0.0868550532927130  0.5000716600342729
  0.6689832292023157  0.5840464718817003  0.9971359054623291
  0.6682928955737151  0.5849858711986314  0.5026704848041071
  0.0258432466495339  0.4409275820501122  0.0005610612731035
  0.0343205663337639  0.1547389092106454  0.3963902194493723
  0.0357033501039583  0.1519560996929391  0.8953919708853565
  0.0331131002421701  0.6556719796732274  0.3949852252990936
  0.0356219978882603  0.6613317613158719  0.8967252803871372
  0.3688277334697284  0.1535463389230151  0.3954204814698062
  0.3691861582748538  0.1568175098743411  0.8968095829277385
  0.3691244570056376  0.6552127379641939  0.3882545447242941
  0.3720048845494357  0.6583638533655145  0.9034092305610313
  0.7003457128072138  0.1558532889350843  0.3958673540012965
  0.7011605682439919  0.1550749147170667  0.8962109544322492
  0.6988143352595875  0.6545392737398336  0.3965088607629667
  0.7036718813163390  0.6561623457186001  0.8947858968969439
  0.2007511633385761  0.0504495528933483  0.2505179652075248
  0.2015624972692928  0.0506471769805442  0.7497558916456060
  0.1919979336632728  0.5481776445449572  0.2501781213507529
  0.2022149626046344  0.5514743112639767  0.7496449877191989
  0.5300096671198390  0.0508640924707349  0.2501566250585097
  0.5335774269310503  0.0513244800496120  0.7497144929260170
  0.5255055067510822  0.5575115939151062  0.2502527566496723
  0.5344808846359466  0.5514745095738489  0.7495102238070757
  0.8648637311465843  0.0519424834892723  0.2513758547758245
  0.8662734918281222  0.0522949532689588  0.7485548010813265
  0.8644822341302831  0.5499046499741617  0.2504372430871021
  0.8675852484235046  0.5495478022079219  0.7495977203101151
  0.0572336483056909  0.3991537155236397  0.2533904156781251
  0.0628831033798759  0.4072420030090994  0.7467869937030270
  0.0596046043852755  0.9095558724986235  0.2502516321439951
  0.0616616011217466  0.9082724087411707  0.7497383257355396
  0.3924113582607730  0.4018416989682452  0.2496660264671767
  0.3944743670068871  0.4106085645071019  0.7504094652504281
  0.3946961268190130  0.8951672355395144  0.2499583418465041
  0.3945321472166962  0.9078106153938068  0.7501116437331395
  0.7253687304367992  0.4077711951821358  0.2513517841861231
  0.7274499432420988  0.4081065977684830  0.7485474851274082
  0.7250866750779762  0.9095687212906945  0.2510519919544743
  0.7268165954316401  0.9094889002604575  0.7489652582953309
  0.2278350643512108  0.0879633761363348 -0.0000670316732335
  0.2276196280471409  0.0887403764258842  0.5000840876653602
  0.2298041810808836  0.5908247056889268  0.0042578163702933
  0.2287236480291723  0.5919591002048746  0.4956360806564754
  0.5600001059108993  0.0892549994977150  0.0002468710406214
  0.5596581934355228  0.0898198015505721  0.4996560053420057
  0.5626221373658615  0.5850361313780322  0.9933895752561400
  0.5623439744136186  0.5856880798475534  0.5064410742014502
  0.8935930635180022  0.0885579714732778  0.9994639572854841
  0.8934041222872284  0.0894431029964567  0.5006247085086618
  0.8919962837416544  0.6041489922133150 -0.0005700907365004
  0.8934308178968862  0.5900486681395581  0.5006032154683386
  0.2011169343598064  0.3388745665220047  0.1488749253530232
  0.2042163974127625  0.3435338580336955  0.6438561026009317
  0.2006483780548016  0.8419432041788582  0.1463890768794431
  0.2025344653631827  0.8416985533060876  0.6456249591091957
  0.5361869644257927  0.3469331394340022  0.1465948427592207
  0.5344794354894958  0.3419984867490583  0.6456880975708941
  0.5361116361014023  0.8398990344963493  0.1465809808780243
  0.5355285919567379  0.8421593845854648  0.6458035781251686
  0.8663794357837956  0.3378608037124214  0.1498615526034848
  0.8678604811538989  0.3422147227268036  0.6431874303563233
  0.8653297295722180  0.8435315252657746  0.1467754416651963
  0.8678309849522066  0.8428116443492949  0.6451348899306496
  0.0347297968338555  0.1513924521019713  0.1044346525082782
  0.0352128592297677  0.1551562605370081  0.6040425205478701
  0.0332562645755291  0.6614537457561595  0.1048415723370572
  0.0355001718119225  0.6561456899602021  0.6031740450384939
  0.3688971387535714  0.1532448892433620  0.1047402016041138
  0.3688859234179321  0.1570065189396527  0.6034534156307573
  0.3697166411942696  0.6542079471648663  0.1123127026383371
  0.3707290579582411  0.6590269563184337  0.5971226236270248
  0.7004946716121440  0.1547802737325306  0.1044671975879833
  0.7006975346727060  0.1558346026094090  0.6038580663401375
  0.6982700612534519  0.6548641072514697  0.1034903296552480
  0.7043163844937648  0.6560811127963567  0.6046205143512433
  0.0328899895651278  0.4470639112149202  0.4996860722648478
  0.0319785395689289  0.9443414369842810  0.9995928080449307
  0.0322545019681153  0.9458320143315300  0.5002929001109658
  0.3689947260517172  0.4475112023948709  0.0040103964040376
  0.3679946617973602  0.4484779497364911  0.4962485946081240
  0.3678920981430578  0.9465424734740102 -0.0011082387858557
  0.3674439830909222  0.9469117716937393  0.5011794661861223
  0.7025642617775025  0.4456129914054441  0.9988359511624183
  0.7018530428691349  0.4457583868770065  0.5011373327611166
  0.6993189078225462  0.9461623407435115 -0.0001999494603708
  0.6990066361105558  0.9469467608432740  0.5001168488039737
  0.2013512641853949  0.3414716277602001  0.3559332458179338
  0.2039818723669360  0.3414360362182808  0.8518272514942269
  0.2000207673140192  0.8417915386759978  0.3542622251746002
  0.2030875707908256  0.8414705572097761  0.8534896056459376
  0.5350413942857908  0.3470531796866418  0.3540299913635811
  0.5357242438769682  0.3417989607426107  0.8532010872294621
  0.5358677790953412  0.8398257049590584  0.3535862427364235
  0.5359480316924090  0.8421945602291995  0.8535473463156867
  0.8656406824112033  0.3423949851506868  0.3570359520400664
  0.8684661714160185  0.3377415203312074  0.8500048609846849
  0.8658189045521343  0.8423338794771572  0.3546962551784963
  0.8675858080903873  0.8438433763965268  0.8526925925516653
 
  0.00000000E+00  0.00000000E+00  0.00000000E+00
  0.00000000E+00  0.00000000E+00  0.00000000E+00
  0.00000000E+00  0.00000000E+00  0.00000000E+00
  0.00000000E+00  0.00000000E+00  0.00000000E+00
  0.00000000E+00  0.00000000E+00  0.00000000E+00
  0.00000000E+00  0.00000000E+00  0.00000000E+00
  0.00000000E+00  0.00000000E+00  0.00000000E+00
  0.00000000E+00  0.00000000E+00  0.00000000E+00
  0.00000000E+00  0.00000000E+00  0.00000000E+00
  0.00000000E+00  0.00000000E+00  0.00000000E+00
  0.00000000E+00  0.00000000E+00  0.00000000E+00
  0.00000000E+00  0.00000000E+00  0.00000000E+00
  0.00000000E+00  0.00000000E+00  0.00000000E+00
  0.00000000E+00  0.00000000E+00  0.00000000E+00
  0.00000000E+00  0.00000000E+00  0.00000000E+00
  0.00000000E+00  0.00000000E+00  0.00000000E+00
  0.00000000E+00  0.00000000E+00  0.00000000E+00
  0.00000000E+00  0.00000000E+00  0.00000000E+00
  0.00000000E+00  0.00000000E+00  0.00000000E+00
  0.00000000E+00  0.00000000E+00  0.00000000E+00
  0.00000000E+00  0.00000000E+00  0.00000000E+00
  0.00000000E+00  0.00000000E+00  0.00000000E+00
  0.00000000E+00  0.00000000E+00  0.00000000E+00
  0.00000000E+00  0.00000000E+00  0.00000000E+00
  0.00000000E+00  0.00000000E+00  0.00000000E+00
  0.00000000E+00  0.00000000E+00  0.00000000E+00
  0.00000000E+00  0.00000000E+00  0.00000000E+00
  0.00000000E+00  0.00000000E+00  0.00000000E+00
  0.00000000E+00  0.00000000E+00  0.00000000E+00
  0.00000000E+00  0.00000000E+00  0.00000000E+00
  0.00000000E+00  0.00000000E+00  0.00000000E+00
  0.00000000E+00  0.00000000E+00  0.00000000E+00
  0.00000000E+00  0.00000000E+00  0.00000000E+00
  0.00000000E+00  0.00000000E+00  0.00000000E+00
  0.00000000E+00  0.00000000E+00  0.00000000E+00
  0.00000000E+00  0.00000000E+00  0.00000000E+00
  0.00000000E+00  0.00000000E+00  0.00000000E+00
  0.00000000E+00  0.00000000E+00  0.00000000E+00
  0.00000000E+00  0.00000000E+00  0.00000000E+00
  0.00000000E+00  0.00000000E+00  0.00000000E+00
  0.00000000E+00  0.00000000E+00  0.00000000E+00
  0.00000000E+00  0.00000000E+00  0.00000000E+00
  0.00000000E+00  0.00000000E+00  0.00000000E+00
  0.00000000E+00  0.00000000E+00  0.00000000E+00
  0.00000000E+00  0.00000000E+00  0.00000000E+00
  0.00000000E+00  0.00000000E+00  0.00000000E+00
  0.00000000E+00  0.00000000E+00  0.00000000E+00
  0.00000000E+00  0.00000000E+00  0.00000000E+00
  0.00000000E+00  0.00000000E+00  0.00000000E+00
  0.00000000E+00  0.00000000E+00  0.00000000E+00
  0.00000000E+00  0.00000000E+00  0.00000000E+00
  0.00000000E+00  0.00000000E+00  0.00000000E+00
  0.00000000E+00  0.00000000E+00  0.00000000E+00
  0.00000000E+00  0.00000000E+00  0.00000000E+00
  0.00000000E+00  0.00000000E+00  0.00000000E+00
  0.00000000E+00  0.00000000E+00  0.00000000E+00
  0.00000000E+00  0.00000000E+00  0.00000000E+00
  0.00000000E+00  0.00000000E+00  0.00000000E+00
  0.00000000E+00  0.00000000E+00  0.00000000E+00
  0.00000000E+00  0.00000000E+00  0.00000000E+00
  0.00000000E+00  0.00000000E+00  0.00000000E+00
  0.00000000E+00  0.00000000E+00  0.00000000E+00
  0.00000000E+00  0.00000000E+00  0.00000000E+00
  0.00000000E+00  0.00000000E+00  0.00000000E+00
  0.00000000E+00  0.00000000E+00  0.00000000E+00
  0.00000000E+00  0.00000000E+00  0.00000000E+00
  0.00000000E+00  0.00000000E+00  0.00000000E+00
  0.00000000E+00  0.00000000E+00  0.00000000E+00
  0.00000000E+00  0.00000000E+00  0.00000000E+00
  0.00000000E+00  0.00000000E+00  0.00000000E+00
  0.00000000E+00  0.00000000E+00  0.00000000E+00
  0.00000000E+00  0.00000000E+00  0.00000000E+00
  0.00000000E+00  0.00000000E+00  0.00000000E+00
  0.00000000E+00  0.00000000E+00  0.00000000E+00
  0.00000000E+00  0.00000000E+00  0.00000000E+00
  0.00000000E+00  0.00000000E+00  0.00000000E+00
  0.00000000E+00  0.00000000E+00  0.00000000E+00
  0.00000000E+00  0.00000000E+00  0.00000000E+00
  0.00000000E+00  0.00000000E+00  0.00000000E+00
  0.00000000E+00  0.00000000E+00  0.00000000E+00
  0.00000000E+00  0.00000000E+00  0.00000000E+00
  0.00000000E+00  0.00000000E+00  0.00000000E+00
  0.00000000E+00  0.00000000E+00  0.00000000E+00
  0.00000000E+00  0.00000000E+00  0.00000000E+00
  0.00000000E+00  0.00000000E+00  0.00000000E+00
  0.00000000E+00  0.00000000E+00  0.00000000E+00
  0.00000000E+00  0.00000000E+00  0.00000000E+00
  0.00000000E+00  0.00000000E+00  0.00000000E+00
  0.00000000E+00  0.00000000E+00  0.00000000E+00
  0.00000000E+00  0.00000000E+00  0.00000000E+00
  0.00000000E+00  0.00000000E+00  0.00000000E+00
  0.00000000E+00  0.00000000E+00  0.00000000E+00
  0.00000000E+00  0.00000000E+00  0.00000000E+00
  0.00000000E+00  0.00000000E+00  0.00000000E+00
  0.00000000E+00  0.00000000E+00  0.00000000E+00
  0.00000000E+00  0.00000000E+00  0.00000000E+00
  0.00000000E+00  0.00000000E+00  0.00000000E+00
  0.00000000E+00  0.00000000E+00  0.00000000E+00
  0.00000000E+00  0.00000000E+00  0.00000000E+00
  0.00000000E+00  0.00000000E+00  0.00000000E+00
  0.00000000E+00  0.00000000E+00  0.00000000E+00
  0.00000000E+00  0.00000000E+00  0.00000000E+00
  0.00000000E+00  0.00000000E+00  0.00000000E+00
  0.00000000E+00  0.00000000E+00  0.00000000E+00
  0.00000000E+00  0.00000000E+00  0.00000000E+00
  0.00000000E+00  0.00000000E+00  0.00000000E+00
  0.00000000E+00  0.00000000E+00  0.00000000E+00
  0.00000000E+00  0.00000000E+00  0.00000000E+00
  0.00000000E+00  0.00000000E+00  0.00000000E+00
  0.00000000E+00  0.00000000E+00  0.00000000E+00
  0.00000000E+00  0.00000000E+00  0.00000000E+00
  0.00000000E+00  0.00000000E+00  0.00000000E+00
  0.00000000E+00  0.00000000E+00  0.00000000E+00
  0.00000000E+00  0.00000000E+00  0.00000000E+00
  0.00000000E+00  0.00000000E+00  0.00000000E+00
  0.00000000E+00  0.00000000E+00  0.00000000E+00
  0.00000000E+00  0.00000000E+00  0.00000000E+00
  0.00000000E+00  0.00000000E+00  0.00000000E+00
  0.00000000E+00  0.00000000E+00  0.00000000E+00
  0.00000000E+00  0.00000000E+00  0.00000000E+00
  0.00000000E+00  0.00000000E+00  0.00000000E+00
  0.00000000E+00  0.00000000E+00  0.00000000E+00
  0.00000000E+00  0.00000000E+00  0.00000000E+00
  0.00000000E+00  0.00000000E+00  0.00000000E+00
  0.00000000E+00  0.00000000E+00  0.00000000E+00
  0.00000000E+00  0.00000000E+00  0.00000000E+00
  0.00000000E+00  0.00000000E+00  0.00000000E+00
  0.00000000E+00  0.00000000E+00  0.00000000E+00
  0.00000000E+00  0.00000000E+00  0.00000000E+00
  0.00000000E+00  0.00000000E+00  0.00000000E+00
  0.00000000E+00  0.00000000E+00  0.00000000E+00
  0.00000000E+00  0.00000000E+00  0.00000000E+00
  0.00000000E+00  0.00000000E+00  0.00000000E+00
  0.00000000E+00  0.00000000E+00  0.00000000E+00
  0.00000000E+00  0.00000000E+00  0.00000000E+00
  0.00000000E+00  0.00000000E+00  0.00000000E+00
  0.00000000E+00  0.00000000E+00  0.00000000E+00
  0.00000000E+00  0.00000000E+00  0.00000000E+00
  0.00000000E+00  0.00000000E+00  0.00000000E+00
  0.00000000E+00  0.00000000E+00  0.00000000E+00
  0.00000000E+00  0.00000000E+00  0.00000000E+00
  0.00000000E+00  0.00000000E+00  0.00000000E+00
  0.00000000E+00  0.00000000E+00  0.00000000E+00
  0.00000000E+00  0.00000000E+00  0.00000000E+00
  0.00000000E+00  0.00000000E+00  0.00000000E+00
  0.00000000E+00  0.00000000E+00  0.00000000E+00
  0.00000000E+00  0.00000000E+00  0.00000000E+00
  0.00000000E+00  0.00000000E+00  0.00000000E+00
  0.00000000E+00  0.00000000E+00  0.00000000E+00
  0.00000000E+00  0.00000000E+00  0.00000000E+00
  0.00000000E+00  0.00000000E+00  0.00000000E+00
  0.00000000E+00  0.00000000E+00  0.00000000E+00
  0.00000000E+00  0.00000000E+00  0.00000000E+00
  0.00000000E+00  0.00000000E+00  0.00000000E+00
  0.00000000E+00  0.00000000E+00  0.00000000E+00
  0.00000000E+00  0.00000000E+00  0.00000000E+00
  0.00000000E+00  0.00000000E+00  0.00000000E+00
  0.00000000E+00  0.00000000E+00  0.00000000E+00
  0.00000000E+00  0.00000000E+00  0.00000000E+00
  0.00000000E+00  0.00000000E+00  0.00000000E+00
  0.00000000E+00  0.00000000E+00  0.00000000E+00
  0.00000000E+00  0.00000000E+00  0.00000000E+00
  0.00000000E+00  0.00000000E+00  0.00000000E+00
  0.00000000E+00  0.00000000E+00  0.00000000E+00
  0.00000000E+00  0.00000000E+00  0.00000000E+00
  0.00000000E+00  0.00000000E+00  0.00000000E+00
  0.00000000E+00  0.00000000E+00  0.00000000E+00
  0.00000000E+00  0.00000000E+00  0.00000000E+00
  0.00000000E+00  0.00000000E+00  0.00000000E+00
  0.00000000E+00  0.00000000E+00  0.00000000E+00
  0.00000000E+00  0.00000000E+00  0.00000000E+00
  0.00000000E+00  0.00000000E+00  0.00000000E+00
  0.00000000E+00  0.00000000E+00  0.00000000E+00
  0.00000000E+00  0.00000000E+00  0.00000000E+00
  0.00000000E+00  0.00000000E+00  0.00000000E+00
  0.00000000E+00  0.00000000E+00  0.00000000E+00
  0.00000000E+00  0.00000000E+00  0.00000000E+00
  0.00000000E+00  0.00000000E+00  0.00000000E+00
  0.00000000E+00  0.00000000E+00  0.00000000E+00
  0.00000000E+00  0.00000000E+00  0.00000000E+00
  0.00000000E+00  0.00000000E+00  0.00000000E+00
  0.00000000E+00  0.00000000E+00  0.00000000E+00
  0.00000000E+00  0.00000000E+00  0.00000000E+00
  0.00000000E+00  0.00000000E+00  0.00000000E+00
  0.00000000E+00  0.00000000E+00  0.00000000E+00
  0.00000000E+00  0.00000000E+00  0.00000000E+00
  0.00000000E+00  0.00000000E+00  0.00000000E+00
  0.00000000E+00  0.00000000E+00  0.00000000E+00
  0.00000000E+00  0.00000000E+00  0.00000000E+00
  0.00000000E+00  0.00000000E+00  0.00000000E+00
  0.00000000E+00  0.00000000E+00  0.00000000E+00
  0.00000000E+00  0.00000000E+00  0.00000000E+00
  0.00000000E+00  0.00000000E+00  0.00000000E+00
