Li5 P2 N1 O6                            
   1.00000000000000     
    -0.0049567371975126    0.0300250960418225    5.0346027773354427
     6.0560269998330458    0.0688037696001184   -0.0065797830947166
     0.0592881680917724    5.4856819012644600    0.0318160013983422
   Li   P    N    O 
     5     2     1     6
Direct
  0.4855950143565433  0.0017239431668626  0.7963767342943630
  0.0199713994142266  0.4980534884055058  0.1431750869257624
  0.4774588342818712  0.7032200386191331  0.3567161587554469
  0.0014688692663497  0.7461059456180327  0.6804347198137545
  0.0024145844783520  0.2554880057919901  0.6675114001678447
  0.5093145867468933  0.5015379075471776  0.8261548726427695
  0.0132579517261801 -0.0016046459601797  0.1779750930541937
  0.6285396581504670  0.5455192810322076  0.0934747082649137
  0.0734181211857843  0.2128377493672156  0.3119582110649551
  0.6097543208380892  0.7142736033160471  0.6773778956690717
  0.1130001830518729  0.7914348106446449  0.3254947207238871
  0.6201974886750362  0.2848830914547943  0.7197677518306775
  0.1108855816573143 -0.0036740423654669  0.9058701318277782
  0.1989694061710427  0.4973278233620344  0.8096745149645823
 
  0.00000000E+00  0.00000000E+00  0.00000000E+00
  0.00000000E+00  0.00000000E+00  0.00000000E+00
  0.00000000E+00  0.00000000E+00  0.00000000E+00
  0.00000000E+00  0.00000000E+00  0.00000000E+00
  0.00000000E+00  0.00000000E+00  0.00000000E+00
  0.00000000E+00  0.00000000E+00  0.00000000E+00
  0.00000000E+00  0.00000000E+00  0.00000000E+00
  0.00000000E+00  0.00000000E+00  0.00000000E+00
  0.00000000E+00  0.00000000E+00  0.00000000E+00
  0.00000000E+00  0.00000000E+00  0.00000000E+00
  0.00000000E+00  0.00000000E+00  0.00000000E+00
  0.00000000E+00  0.00000000E+00  0.00000000E+00
  0.00000000E+00  0.00000000E+00  0.00000000E+00
  0.00000000E+00  0.00000000E+00  0.00000000E+00
