Li56 P56
1.0
5.593872 0.000000 4.970385
10.430857 9.037780 0.000000
0.000000 0.000000 69.585390
Li P
56 56
direct
0.453692 0.329300 0.066754 Li+
0.046308 0.170700 0.060138 Li+
0.546308 0.670700 0.004675 Li+
0.953692 0.829300 0.011290 Li+
0.744446 0.029786 0.065276 Li+
0.755554 0.470214 0.028769 Li+
0.255554 0.970214 0.006152 Li+
0.244446 0.529786 0.042660 Li+
0.453692 0.329300 0.138182 Li+
0.046308 0.170700 0.131567 Li+
0.546308 0.670700 0.076103 Li+
0.953692 0.829300 0.082719 Li+
0.744446 0.029786 0.136705 Li+
0.755554 0.470214 0.100197 Li+
0.255554 0.970214 0.077581 Li+
0.244446 0.529786 0.114088 Li+
0.453692 0.329300 0.209611 Li+
0.046308 0.170700 0.202996 Li+
0.546308 0.670700 0.147532 Li+
0.953692 0.829300 0.154147 Li+
0.744446 0.029786 0.208134 Li+
0.755554 0.470214 0.171626 Li+
0.255554 0.970214 0.149009 Li+
0.244446 0.529786 0.185517 Li+
0.453692 0.329300 0.281040 Li+
0.046308 0.170700 0.274424 Li+
0.546308 0.670700 0.218960 Li+
0.953692 0.829300 0.225576 Li+
0.744446 0.029786 0.279562 Li+
0.755554 0.470214 0.243054 Li+
0.255554 0.970214 0.220438 Li+
0.244446 0.529786 0.256946 Li+
0.453692 0.329300 0.352468 Li+
0.046308 0.170700 0.345853 Li+
0.546308 0.670700 0.290389 Li+
0.953692 0.829300 0.297004 Li+
0.744446 0.029786 0.350991 Li+
0.755554 0.470214 0.314483 Li+
0.255554 0.970214 0.291866 Li+
0.244446 0.529786 0.328374 Li+
0.453692 0.329300 0.423897 Li+
0.046308 0.170700 0.417281 Li+
0.546308 0.670700 0.361818 Li+
0.953692 0.829300 0.368433 Li+
0.744446 0.029786 0.422419 Li+
0.755554 0.470214 0.385912 Li+
0.255554 0.970214 0.363295 Li+
0.244446 0.529786 0.399803 Li+
0.453692 0.329300 0.495325 Li+
0.046308 0.170700 0.488710 Li+
0.546308 0.670700 0.433246 Li+
0.953692 0.829300 0.439861 Li+
0.744446 0.029786 0.493848 Li+
0.755554 0.470214 0.457340 Li+
0.255554 0.970214 0.434724 Li+
0.244446 0.529786 0.471231 Li+
0.390439 0.292916 0.036033 P-
0.109561 0.207084 0.020382 P-
0.609561 0.707084 0.035395 P-
0.890439 0.792916 0.051047 P-
0.585076 0.111742 0.040782 P-
0.914924 0.388258 0.052936 P-
0.414924 0.888258 0.030646 P-
0.085076 0.611742 0.018493 P-
0.390439 0.292916 0.107462 P-
0.109561 0.207084 0.091810 P-
0.609561 0.707084 0.106824 P-
0.890439 0.792916 0.122475 P-
0.585076 0.111742 0.112211 P-
0.914924 0.388258 0.124364 P-
0.414924 0.888258 0.102075 P-
0.085076 0.611742 0.089921 P-
0.390439 0.292916 0.178890 P-
0.109561 0.207084 0.163239 P-
0.609561 0.707084 0.178253 P-
0.890439 0.792916 0.193904 P-
0.585076 0.111742 0.183639 P-
0.914924 0.388258 0.195793 P-
0.414924 0.888258 0.173504 P-
0.085076 0.611742 0.161350 P-
0.390439 0.292916 0.250319 P-
0.109561 0.207084 0.234667 P-
0.609561 0.707084 0.249681 P-
0.890439 0.792916 0.265333 P-
0.585076 0.111742 0.255068 P-
0.914924 0.388258 0.267222 P-
0.414924 0.888258 0.244932 P-
0.085076 0.611742 0.232778 P-
0.390439 0.292916 0.321747 P-
0.109561 0.207084 0.306096 P-
0.609561 0.707084 0.321110 P-
0.890439 0.792916 0.336761 P-
0.585076 0.111742 0.326496 P-
0.914924 0.388258 0.338650 P-
0.414924 0.888258 0.316361 P-
0.085076 0.611742 0.304207 P-
0.390439 0.292916 0.393176 P-
0.109561 0.207084 0.377525 P-
0.609561 0.707084 0.392538 P-
0.890439 0.792916 0.408190 P-
0.585076 0.111742 0.397925 P-
0.914924 0.388258 0.410079 P-
0.414924 0.888258 0.387789 P-
0.085076 0.611742 0.375636 P-
0.390439 0.292916 0.464605 P-
0.109561 0.207084 0.448953 P-
0.609561 0.707084 0.463967 P-
0.890439 0.792916 0.479618 P-
0.585076 0.111742 0.469354 P-
0.914924 0.388258 0.481507 P-
0.414924 0.888258 0.459218 P-
0.085076 0.611742 0.447064 P-
