Li73 P24 N1 O95                         
   1.00000000000000     
    14.7285592754952077    0.0072985496030030   -0.0016079474469305
     0.0052516952089989   10.5728542104749064    0.0009431335011626
    -0.0013411738260910    0.0011033589003121   12.3016225428400201
   Li   P    N    O 
    73    24     1    95
Direct
  0.1521319790180065  0.4514382686024600  0.0034284388864324
  0.1702550397950933  0.4204048450645643  0.4987082810607189
  0.1703017066346763  0.9245192928839526  0.0076634622173705
  0.1707739791689898  0.9245426618282149  0.4916380607232185
  0.5039842091754857  0.4224418397620930  0.0006924511660653
  0.5048506786968925  0.4231699698441948  0.4995517400871477
  0.5041000211824749  0.9216661618778864  0.0010433794373607
  0.5028959973947689  0.9230694864648564  0.4989069153904646
  0.8351569780540410  0.4231899879738170  0.0001230593083476
  0.8374384148161639  0.4212708605412233  0.4999171736160645
  0.8362102230709303  0.9215093282290685  0.0005879932548938
  0.8376758856898225  0.9224020312811677  0.4994731213903381
  0.0183733602925663  0.0712763930239529  0.2519683481260852
  0.0008809451065937  0.0745523966996736  0.7486145842873329
  0.0030291500515150  0.5781620099677734  0.2498242917175741
  0.0023911865168336  0.5763079183554447  0.7501034319353245
  0.3297947781977911  0.0746920752385693  0.2534037576050305
  0.3369915571012740  0.0751422297770252  0.7472170405276644
  0.3354654841400249  0.5806939236269135  0.2519795465660906
  0.3364503183746131  0.5791501169427956  0.7480867072305341
  0.6711234928664016  0.0768623681078940  0.2506608767169822
  0.6703724627615382  0.0760322242736586  0.7492186112680360
  0.6714205361855979  0.5791031300609036  0.2511289342989211
  0.6709896160095135  0.5788306526625095  0.7488434110190348
  0.1641449659466435  0.1576954852502667  0.1333688996493842
  0.1688465725218834  0.1616063983204458  0.6264050966342717
  0.1671723357737500  0.6688437391456580  0.1285217521314428
  0.1698939775692548  0.6621478649725098  0.6253717010030310
  0.5054661377590950  0.1629764610509408  0.1278346940998696
  0.5047527149885490  0.1627019716724923  0.6257599056170987
  0.5039988318209691  0.6638060340323747  0.1271046188110108
  0.5031775256233784  0.6640754525927658  0.6250488793260267
  0.8377101346301181  0.1617433171526328  0.1274647451984011
  0.8362180929573536  0.1629871294354702  0.6264958690658817
  0.8346783754654175  0.6651625472187430  0.1274926706136479
  0.8370923309383106  0.6629914965764770  0.6259360181167367
 -0.0008069467532867  0.3348571798059934  0.1236820902931728
  0.0031146189656785  0.3348022402464724  0.6253735173242752
  0.0030627884019314  0.8360917208068706  0.1247223746754592
  0.0038784648449303  0.8356674688654189  0.6226947757212374
  0.3489280139348658  0.3390055100171988  0.1360667955464751
  0.3375418308422935  0.3356889878489021  0.6218642730106743
  0.3321170550224540  0.8362812291733488  0.1271689066417269
  0.3359915754378121  0.8370723798519178  0.6220435889388078
  0.6699101581912935  0.3370373045899691  0.1243168235442942
  0.6715408881747327  0.3364265569607777  0.6225369822561292
  0.6703356425821320  0.8374495439533767  0.1243840912730800
  0.6697558750547005  0.8365399266174797  0.6229636311742079
  0.0035605212815347  0.3357717612349925  0.3750720343686207
 -0.0010087720155621  0.3340567629050959  0.8761435107894499
  0.0047760574708403  0.8345126614933721  0.3758618788387670
  0.0022361210463540  0.8372242951493050  0.8764583844620001
  0.3369501090627803  0.3360563646708231  0.3779115398827015
  0.3503753909327653  0.3380341948029144  0.8648240321799722
  0.3323445041349223  0.8386221847906580  0.3746952708904305
  0.3359111608835187  0.8341049242291739  0.8761443425248743
  0.6720370423547061  0.3362907201274962  0.3773671293353336
  0.6695024928701818  0.3372071707991275  0.8758706136633034
  0.6710248626361797  0.8372937455337842  0.3762595886366599
  0.6692140905876967  0.8367939709428952  0.8765031256390657
  0.1708334612570876  0.1618934704903995  0.3724844284981831
  0.1632013459265651  0.1564274096659445  0.8663090160975981
  0.1692129661182418  0.6629635232638894  0.3726019189059693
  0.1678730832436915  0.6679672166302583  0.8735898430132940
  0.5040341341991496  0.1629244581087738  0.3737035995591319
  0.5063271978017738  0.1624395216917688  0.8720092809334913
  0.5033341081632320  0.6653810236736882  0.3745087906732640
  0.5039985742694851  0.6626953388753084  0.8732893128955611
  0.8392504773942787  0.1620847709967833  0.3729228977258616
  0.8347791080497649  0.1626954677290089  0.8732141692520172
  0.8379280551785603  0.6632470874122869  0.3744431832681427
  0.8336919426159506  0.6649100268673113  0.8720149221301523
  0.2482050506299985  0.2920816626128962  0.0009058921188833
  0.1681364585912049  0.4122432588183881  0.2458802198165327
  0.1680145871002348  0.4111760243815992  0.7547750641023296
  0.1675502599952790  0.9146903694401920  0.2503483995313319
  0.1673247824503889  0.9106421706029303  0.7496008631116032
  0.5030926239057667  0.4148669458120586  0.2529271311775707
  0.5028128077921714  0.4143335940548263  0.7471564876368066
  0.5013529627387806  0.9122430876227193  0.2499001144066604
  0.5005010731212298  0.9112120877929650  0.7500174588050974
  0.8334108257487745  0.4126032255235758  0.2498665741045051
  0.8330661711643174  0.4121448686964342  0.7501690135423495
  0.8350075577326952  0.9123050900587069  0.2503051295315233
  0.8333651768751476  0.9114616886909099  0.7497350892853998
 -0.0012302685006593  0.0873852383265184 -0.0016057252554828
  0.0003439914604925  0.0880510115988096  0.5015516329997558
 -0.0050224009908481  0.5894130783669753 -0.0008777083685242
  0.0010264039805001  0.5848071459408577  0.5007682123641524
  0.3366090828627378  0.0895871962078290 -0.0020293028819718
  0.3352988116388135  0.0893428549103158  0.5011931125310312
  0.3318879892568197  0.5848538367210243  0.0000448413132726
  0.3342536381801292  0.5872415068107312  0.4999972569591018
  0.6668994618096831  0.0879644814877003 -0.0000431876411687
  0.6683836188536689  0.0873726568701074  0.4999476621353687
  0.6661857590219629  0.5876310736040281  0.0000498449821553
  0.6685219687635073  0.5883816763262550  0.4999678677653543
  0.1977252587584582  0.0561021118585680  0.2512028705825712
  0.0352774453930805  0.1597260112158795  0.3994877507870195
  0.0332620015804567  0.1552996991908893  0.8929337899191503
  0.0357121318430321  0.6526586541843105  0.3965004317994790
  0.0332233844342893  0.6560777519909977  0.8954818512654221
  0.3719781163412159  0.1592675582119829  0.3985742252838243
  0.3718392876961621  0.1578603166962781  0.8930883392533404
  0.3694749909996476  0.6572061246444552  0.3966828307766823
  0.3694747571495044  0.6509711556936899  0.8960176264875539
  0.7040466264763026  0.1566567022505478  0.3963341748182470
  0.7009782401769993  0.1572435544222144  0.8954058170053208
  0.7039720609133202  0.6575320430545233  0.3962720241642577
  0.7007741658224439  0.6567897514093701  0.8958347012881431
  0.2011826855746893  0.0506015540101132  0.7488403135213331
  0.2010157068685522  0.5519250199782813  0.2459793106423976
  0.2013468503504462  0.5508124453283272  0.7539010101348564
  0.5356218785902749  0.0519668534425281  0.2498287358194619
  0.5345887921710060  0.0508885260630665  0.7498807991906851
  0.5374592037061947  0.5539181676404736  0.2513794954869474
  0.5370184797750186  0.5534578857190715  0.7486606173804380
  0.8693788936565350  0.0514545447123180  0.2501879257511093
  0.8662265200066293  0.0516400636676644  0.7498564507669645
  0.8674102948021928  0.5522934592298810  0.2495718563022260
  0.8672142620851203  0.5517595124954623  0.7504203617979451
  0.0626062189677500  0.4075434593872872  0.2459647759542397
  0.0625565881563232  0.4071672802872112  0.7540377451678144
  0.0599868421257892  0.8966601252818925  0.2498036769324342
  0.0615972596310275  0.9078620495341169  0.7500500387840380
  0.3973110766412664  0.4148753130132339  0.2565980422889859
  0.3970146237101458  0.4141815273693559  0.7434567388532227
  0.3959762916909558  0.9090736597790030  0.2496448445845732
  0.3947005177363749  0.9080049043370367  0.7502660580691930
  0.7276609358900793  0.4103353436662420  0.2503982879259415
  0.7273656711395645  0.4100377371176731  0.7495757875295745
  0.7289136646675630  0.9102122603390808  0.2502219737375037
  0.7275839303227357  0.9080016712027394  0.7497693504100883
  0.2303808174551070  0.1053105664052936 -0.0035504497166101
  0.2298643952457329  0.0941989069145357  0.5029866935642872
  0.2264337530166628  0.5947960632010822 -0.0001987899645626
  0.2284616224677832  0.5870437950724494  0.5001615180492984
  0.5609760097344832  0.0904620654274516  0.0001888833802373
  0.5626277738917286  0.0900157276250317  0.4996341739261927
  0.5602604743738353  0.5897071257898133  0.0001900442112268
  0.5626810061274005  0.5911956208930301  0.4998699915393236
  0.8930694621206244  0.0893752546855324 -0.0014406272707976
  0.8944712609947995  0.0902952888126472  0.5015942426005650
  0.8897690530911054  0.5951376851927929 -0.0010332574490565
  0.8952737687998745  0.5877845501955438  0.5011122077833955
  0.2032088232764103  0.3465780210380324  0.1378905063261117
  0.2047628204172258  0.3399005694915798  0.6531806813260997
  0.2018355990036560  0.8380275355855401  0.1451144199003299
  0.2027709283855228  0.8408224577157943  0.6464079218874910
  0.5341110579693144  0.3450722887064100  0.1470033042686096
  0.5389651664978957  0.3432861958452670  0.6451722153159988
  0.5366379369750642  0.8431712121543441  0.1455569298250229
  0.5358818405088130  0.8423092775109050  0.6461439391699915
  0.8674782538873927  0.3434201688223289  0.1454212443339569
  0.8690392180445993  0.3427186666460533  0.6467893205565381
  0.8686092352083749  0.8425960530712105  0.1457068906661061
  0.8694002328693639  0.8424401335559020  0.6461680899976020
  0.0337841185789106  0.1593734529477071  0.1003494154228454
  0.0351266166770899  0.1557766615726414  0.6069005758140108
  0.0330116522977696  0.6545851907177377  0.1028667836215186
  0.0362390174250843  0.6542166154404091  0.6047824866874402
  0.3721161774574211  0.1622705130462304  0.0996312077387189
  0.3716827167762944  0.1568351280181925  0.6059719139892153
  0.3700114977873220  0.6508638867588650  0.1034082986489802
  0.3688302703511147  0.6570410448555665  0.6041155378759047
  0.7021116400343629  0.1573836915658040  0.1036881701391416
  0.7028976578170151  0.1565595404194372  0.6043558370623413
  0.7013045140662433  0.6568961517415898  0.1038003995774146
  0.7035612574485373  0.6574431882835358  0.6040385009396464
  0.0253516575465101  0.4476071523788337 -0.0013227505656926
  0.0351052759981809  0.4447619995515839  0.5014119436494783
  0.0339658631974064  0.9483522581942000 -0.0007274171679752
  0.0343283011361533  0.9483199878326070  0.5006342287562923
  0.3601450298484827  0.4404835253590270 -0.0002929190555699
  0.3690540295971938  0.4476962694821345  0.5003511254830294
  0.3653816280321573  0.9489164462475113 -0.0003273991215353
  0.3680385926520566  0.9488397932524347  0.5001462911936050
  0.6996618288680172  0.4475658358219663 -0.0001032168518578
  0.7023836029399155  0.4484973811885287  0.5001373242657087
  0.7006383697623224  0.9481714526762521 -0.0003277836747881
  0.7021241403944388  0.9475568693537828  0.5003450241835802
  0.2049356892280179  0.3436509922488468  0.3485617755796832
  0.2028164957793940  0.3437554843335534  0.8620248191713685
  0.2017500948625720  0.8351137756788487  0.3535347957663972
  0.2027738550586222  0.8440175846077184  0.8549328051583502
  0.5392311544969794  0.3436777494724138  0.3549526192360239
  0.5336324732994197  0.3447225781909724  0.8532724653854153
  0.5372826083390080  0.8432924500653102  0.3537361781711300
  0.5352583054386895  0.8424482170947933  0.8545945754400119
  0.8693158275729777  0.3434265356758165  0.3534187397502204
  0.8671977331888384  0.3427493220585447  0.8545199658012638
  0.8693664420585586  0.8421041350613300  0.3542830196859244
  0.8686113071307565  0.8428900874074374  0.8539868608115321
 
  0.00000000E+00  0.00000000E+00  0.00000000E+00
  0.00000000E+00  0.00000000E+00  0.00000000E+00
  0.00000000E+00  0.00000000E+00  0.00000000E+00
  0.00000000E+00  0.00000000E+00  0.00000000E+00
  0.00000000E+00  0.00000000E+00  0.00000000E+00
  0.00000000E+00  0.00000000E+00  0.00000000E+00
  0.00000000E+00  0.00000000E+00  0.00000000E+00
  0.00000000E+00  0.00000000E+00  0.00000000E+00
  0.00000000E+00  0.00000000E+00  0.00000000E+00
  0.00000000E+00  0.00000000E+00  0.00000000E+00
  0.00000000E+00  0.00000000E+00  0.00000000E+00
  0.00000000E+00  0.00000000E+00  0.00000000E+00
  0.00000000E+00  0.00000000E+00  0.00000000E+00
  0.00000000E+00  0.00000000E+00  0.00000000E+00
  0.00000000E+00  0.00000000E+00  0.00000000E+00
  0.00000000E+00  0.00000000E+00  0.00000000E+00
  0.00000000E+00  0.00000000E+00  0.00000000E+00
  0.00000000E+00  0.00000000E+00  0.00000000E+00
  0.00000000E+00  0.00000000E+00  0.00000000E+00
  0.00000000E+00  0.00000000E+00  0.00000000E+00
  0.00000000E+00  0.00000000E+00  0.00000000E+00
  0.00000000E+00  0.00000000E+00  0.00000000E+00
  0.00000000E+00  0.00000000E+00  0.00000000E+00
  0.00000000E+00  0.00000000E+00  0.00000000E+00
  0.00000000E+00  0.00000000E+00  0.00000000E+00
  0.00000000E+00  0.00000000E+00  0.00000000E+00
  0.00000000E+00  0.00000000E+00  0.00000000E+00
  0.00000000E+00  0.00000000E+00  0.00000000E+00
  0.00000000E+00  0.00000000E+00  0.00000000E+00
  0.00000000E+00  0.00000000E+00  0.00000000E+00
  0.00000000E+00  0.00000000E+00  0.00000000E+00
  0.00000000E+00  0.00000000E+00  0.00000000E+00
  0.00000000E+00  0.00000000E+00  0.00000000E+00
  0.00000000E+00  0.00000000E+00  0.00000000E+00
  0.00000000E+00  0.00000000E+00  0.00000000E+00
  0.00000000E+00  0.00000000E+00  0.00000000E+00
  0.00000000E+00  0.00000000E+00  0.00000000E+00
  0.00000000E+00  0.00000000E+00  0.00000000E+00
  0.00000000E+00  0.00000000E+00  0.00000000E+00
  0.00000000E+00  0.00000000E+00  0.00000000E+00
  0.00000000E+00  0.00000000E+00  0.00000000E+00
  0.00000000E+00  0.00000000E+00  0.00000000E+00
  0.00000000E+00  0.00000000E+00  0.00000000E+00
  0.00000000E+00  0.00000000E+00  0.00000000E+00
  0.00000000E+00  0.00000000E+00  0.00000000E+00
  0.00000000E+00  0.00000000E+00  0.00000000E+00
  0.00000000E+00  0.00000000E+00  0.00000000E+00
  0.00000000E+00  0.00000000E+00  0.00000000E+00
  0.00000000E+00  0.00000000E+00  0.00000000E+00
  0.00000000E+00  0.00000000E+00  0.00000000E+00
  0.00000000E+00  0.00000000E+00  0.00000000E+00
  0.00000000E+00  0.00000000E+00  0.00000000E+00
  0.00000000E+00  0.00000000E+00  0.00000000E+00
  0.00000000E+00  0.00000000E+00  0.00000000E+00
  0.00000000E+00  0.00000000E+00  0.00000000E+00
  0.00000000E+00  0.00000000E+00  0.00000000E+00
  0.00000000E+00  0.00000000E+00  0.00000000E+00
  0.00000000E+00  0.00000000E+00  0.00000000E+00
  0.00000000E+00  0.00000000E+00  0.00000000E+00
  0.00000000E+00  0.00000000E+00  0.00000000E+00
  0.00000000E+00  0.00000000E+00  0.00000000E+00
  0.00000000E+00  0.00000000E+00  0.00000000E+00
  0.00000000E+00  0.00000000E+00  0.00000000E+00
  0.00000000E+00  0.00000000E+00  0.00000000E+00
  0.00000000E+00  0.00000000E+00  0.00000000E+00
  0.00000000E+00  0.00000000E+00  0.00000000E+00
  0.00000000E+00  0.00000000E+00  0.00000000E+00
  0.00000000E+00  0.00000000E+00  0.00000000E+00
  0.00000000E+00  0.00000000E+00  0.00000000E+00
  0.00000000E+00  0.00000000E+00  0.00000000E+00
  0.00000000E+00  0.00000000E+00  0.00000000E+00
  0.00000000E+00  0.00000000E+00  0.00000000E+00
  0.00000000E+00  0.00000000E+00  0.00000000E+00
  0.00000000E+00  0.00000000E+00  0.00000000E+00
  0.00000000E+00  0.00000000E+00  0.00000000E+00
  0.00000000E+00  0.00000000E+00  0.00000000E+00
  0.00000000E+00  0.00000000E+00  0.00000000E+00
  0.00000000E+00  0.00000000E+00  0.00000000E+00
  0.00000000E+00  0.00000000E+00  0.00000000E+00
  0.00000000E+00  0.00000000E+00  0.00000000E+00
  0.00000000E+00  0.00000000E+00  0.00000000E+00
  0.00000000E+00  0.00000000E+00  0.00000000E+00
  0.00000000E+00  0.00000000E+00  0.00000000E+00
  0.00000000E+00  0.00000000E+00  0.00000000E+00
  0.00000000E+00  0.00000000E+00  0.00000000E+00
  0.00000000E+00  0.00000000E+00  0.00000000E+00
  0.00000000E+00  0.00000000E+00  0.00000000E+00
  0.00000000E+00  0.00000000E+00  0.00000000E+00
  0.00000000E+00  0.00000000E+00  0.00000000E+00
  0.00000000E+00  0.00000000E+00  0.00000000E+00
  0.00000000E+00  0.00000000E+00  0.00000000E+00
  0.00000000E+00  0.00000000E+00  0.00000000E+00
  0.00000000E+00  0.00000000E+00  0.00000000E+00
  0.00000000E+00  0.00000000E+00  0.00000000E+00
  0.00000000E+00  0.00000000E+00  0.00000000E+00
  0.00000000E+00  0.00000000E+00  0.00000000E+00
  0.00000000E+00  0.00000000E+00  0.00000000E+00
  0.00000000E+00  0.00000000E+00  0.00000000E+00
  0.00000000E+00  0.00000000E+00  0.00000000E+00
  0.00000000E+00  0.00000000E+00  0.00000000E+00
  0.00000000E+00  0.00000000E+00  0.00000000E+00
  0.00000000E+00  0.00000000E+00  0.00000000E+00
  0.00000000E+00  0.00000000E+00  0.00000000E+00
  0.00000000E+00  0.00000000E+00  0.00000000E+00
  0.00000000E+00  0.00000000E+00  0.00000000E+00
  0.00000000E+00  0.00000000E+00  0.00000000E+00
  0.00000000E+00  0.00000000E+00  0.00000000E+00
  0.00000000E+00  0.00000000E+00  0.00000000E+00
  0.00000000E+00  0.00000000E+00  0.00000000E+00
  0.00000000E+00  0.00000000E+00  0.00000000E+00
  0.00000000E+00  0.00000000E+00  0.00000000E+00
  0.00000000E+00  0.00000000E+00  0.00000000E+00
  0.00000000E+00  0.00000000E+00  0.00000000E+00
  0.00000000E+00  0.00000000E+00  0.00000000E+00
  0.00000000E+00  0.00000000E+00  0.00000000E+00
  0.00000000E+00  0.00000000E+00  0.00000000E+00
  0.00000000E+00  0.00000000E+00  0.00000000E+00
  0.00000000E+00  0.00000000E+00  0.00000000E+00
  0.00000000E+00  0.00000000E+00  0.00000000E+00
  0.00000000E+00  0.00000000E+00  0.00000000E+00
  0.00000000E+00  0.00000000E+00  0.00000000E+00
  0.00000000E+00  0.00000000E+00  0.00000000E+00
  0.00000000E+00  0.00000000E+00  0.00000000E+00
  0.00000000E+00  0.00000000E+00  0.00000000E+00
  0.00000000E+00  0.00000000E+00  0.00000000E+00
  0.00000000E+00  0.00000000E+00  0.00000000E+00
  0.00000000E+00  0.00000000E+00  0.00000000E+00
  0.00000000E+00  0.00000000E+00  0.00000000E+00
  0.00000000E+00  0.00000000E+00  0.00000000E+00
  0.00000000E+00  0.00000000E+00  0.00000000E+00
  0.00000000E+00  0.00000000E+00  0.00000000E+00
  0.00000000E+00  0.00000000E+00  0.00000000E+00
  0.00000000E+00  0.00000000E+00  0.00000000E+00
  0.00000000E+00  0.00000000E+00  0.00000000E+00
  0.00000000E+00  0.00000000E+00  0.00000000E+00
  0.00000000E+00  0.00000000E+00  0.00000000E+00
  0.00000000E+00  0.00000000E+00  0.00000000E+00
  0.00000000E+00  0.00000000E+00  0.00000000E+00
  0.00000000E+00  0.00000000E+00  0.00000000E+00
  0.00000000E+00  0.00000000E+00  0.00000000E+00
  0.00000000E+00  0.00000000E+00  0.00000000E+00
  0.00000000E+00  0.00000000E+00  0.00000000E+00
  0.00000000E+00  0.00000000E+00  0.00000000E+00
  0.00000000E+00  0.00000000E+00  0.00000000E+00
  0.00000000E+00  0.00000000E+00  0.00000000E+00
  0.00000000E+00  0.00000000E+00  0.00000000E+00
  0.00000000E+00  0.00000000E+00  0.00000000E+00
  0.00000000E+00  0.00000000E+00  0.00000000E+00
  0.00000000E+00  0.00000000E+00  0.00000000E+00
  0.00000000E+00  0.00000000E+00  0.00000000E+00
  0.00000000E+00  0.00000000E+00  0.00000000E+00
  0.00000000E+00  0.00000000E+00  0.00000000E+00
  0.00000000E+00  0.00000000E+00  0.00000000E+00
  0.00000000E+00  0.00000000E+00  0.00000000E+00
  0.00000000E+00  0.00000000E+00  0.00000000E+00
  0.00000000E+00  0.00000000E+00  0.00000000E+00
  0.00000000E+00  0.00000000E+00  0.00000000E+00
  0.00000000E+00  0.00000000E+00  0.00000000E+00
  0.00000000E+00  0.00000000E+00  0.00000000E+00
  0.00000000E+00  0.00000000E+00  0.00000000E+00
  0.00000000E+00  0.00000000E+00  0.00000000E+00
  0.00000000E+00  0.00000000E+00  0.00000000E+00
  0.00000000E+00  0.00000000E+00  0.00000000E+00
  0.00000000E+00  0.00000000E+00  0.00000000E+00
  0.00000000E+00  0.00000000E+00  0.00000000E+00
  0.00000000E+00  0.00000000E+00  0.00000000E+00
  0.00000000E+00  0.00000000E+00  0.00000000E+00
  0.00000000E+00  0.00000000E+00  0.00000000E+00
  0.00000000E+00  0.00000000E+00  0.00000000E+00
  0.00000000E+00  0.00000000E+00  0.00000000E+00
  0.00000000E+00  0.00000000E+00  0.00000000E+00
  0.00000000E+00  0.00000000E+00  0.00000000E+00
  0.00000000E+00  0.00000000E+00  0.00000000E+00
  0.00000000E+00  0.00000000E+00  0.00000000E+00
  0.00000000E+00  0.00000000E+00  0.00000000E+00
  0.00000000E+00  0.00000000E+00  0.00000000E+00
  0.00000000E+00  0.00000000E+00  0.00000000E+00
  0.00000000E+00  0.00000000E+00  0.00000000E+00
  0.00000000E+00  0.00000000E+00  0.00000000E+00
  0.00000000E+00  0.00000000E+00  0.00000000E+00
  0.00000000E+00  0.00000000E+00  0.00000000E+00
  0.00000000E+00  0.00000000E+00  0.00000000E+00
  0.00000000E+00  0.00000000E+00  0.00000000E+00
  0.00000000E+00  0.00000000E+00  0.00000000E+00
  0.00000000E+00  0.00000000E+00  0.00000000E+00
  0.00000000E+00  0.00000000E+00  0.00000000E+00
  0.00000000E+00  0.00000000E+00  0.00000000E+00
  0.00000000E+00  0.00000000E+00  0.00000000E+00
  0.00000000E+00  0.00000000E+00  0.00000000E+00
  0.00000000E+00  0.00000000E+00  0.00000000E+00
  0.00000000E+00  0.00000000E+00  0.00000000E+00
  0.00000000E+00  0.00000000E+00  0.00000000E+00
  0.00000000E+00  0.00000000E+00  0.00000000E+00
