Li71 P24 N1 O94                         
   1.00000000000000     
    14.7210346016701408   -0.0082189200868913   -0.0032783273251799
    -0.0058887705711870   10.5694320178526482    0.0094462352358771
    -0.0027495870353842    0.0109918817505253   12.3491102627293809
   Li   P    N    O 
    71    24     1    94
Direct
  0.1730884091458507  0.4217707429395136 -0.0033857657822262
  0.1620869977733998  0.4336837151926342  0.5218686329467241
  0.1700883104100289  0.9214469165241567  0.0004598041939119
  0.1712852388251460  0.9189221175025786  0.5008782343306448
  0.5042683751175455  0.4216360867467943 -0.0011973130240735
  0.5066909781641783  0.4244389062338904  0.5043707290548027
  0.5039741604781384  0.9225131001764751 -0.0005651451666313
  0.5034583625714660  0.9227055691822228  0.5003354221122107
  0.8395594052836218  0.4252788813261817 -0.0001288372294817
  0.8351703064633685  0.4232547759031795  0.5000340442920307
  0.8367139466419043  0.9239412419813117  0.0009426147364776
  0.8364426322787062  0.9258944444323635  0.4987758015629328
  0.0006273617389168  0.0721551109825207  0.7502247135396196
 -0.0014247242223495  0.5869717844382725  0.2504940324228204
  0.0015167191440390  0.5782761637267373  0.7507577922527202
  0.3360161014949087  0.0751993347239423  0.2479144117493507
  0.3367859845150108  0.0770299376532370  0.7501895242064071
  0.3386121393198597  0.5809582066402192  0.2481129477646239
  0.3368445367399169  0.5774787163453151  0.7507876238208814
  0.6779159972142971  0.0743002198379503  0.2495870032459938
  0.6701837981173118  0.0764265577121955  0.7497511206508134
  0.6712247303440255  0.5799218270930284  0.2495571417859763
  0.6693762960686854  0.5779481987273080  0.7500167205337911
  0.1663257155945017  0.1550616727803001  0.1263200628806263
  0.1675730606686291  0.1611493641506379  0.6278961261231684
  0.1677367193371507  0.6678742133194289  0.1209079824188598
  0.1697086690464393  0.6652848080632934  0.6280168358987358
  0.5052507380823138  0.1615744185050485  0.1263137211861869
  0.5029214203730825  0.1632546088943520  0.6264988463280240
  0.5051410245394004  0.6631316342903716  0.1250892894999601
  0.5026090159351463  0.6639569255254214  0.6266851992070905
  0.8389133350670273  0.1614471085182438  0.1271256694838812
  0.8358803659708978  0.1640742604613771  0.6265746135855468
  0.8344162687702091  0.6679063107230618  0.1263172512520342
  0.8353766068941572  0.6644291588226916  0.6265783107459675
 -0.0014263444445109  0.3239604037761699  0.1244798672110965
  0.0008508842777438  0.3352488252256989  0.6272721884632008
 -0.0006847912959067  0.8484198705242976  0.1269821749367460
  0.0026107007591227  0.8388536427748438  0.6220096066084443
  0.3399005687210817  0.3350649419656544  0.1218258176071992
  0.3352137562585537  0.3359945532346758  0.6253814543123546
  0.3394168326780757  0.8365156876336073  0.1225408103437004
  0.3371184145222723  0.8370384904249700  0.6235993779767230
  0.6717958882189656  0.3364582270073937  0.1228822027529223
  0.6696862417013258  0.3360299162452561  0.6247595683649961
  0.6683715021325765  0.8352004261646110  0.1219274689061733
  0.6690802610091533  0.8363426806814767  0.6230282039850481
 -0.0006013905005293  0.3371294886291638  0.3767198863267550
  0.0001681959226396  0.3273223208207657  0.8757510177001596
  0.0004806667285530  0.8477247444973548  0.3738321787282789
  0.0017903556714846  0.8391156155892547  0.8755981546978970
  0.3691736958501529  0.3346494368439823  0.3816533100350093
  0.3375637427705209  0.3354487545082420  0.8761718316627942
  0.3389673792611901  0.8369952953806630  0.3758672337660594
  0.3371187479157816  0.8365315338839445  0.8763760035137674
  0.6690618756565021  0.3366481854193581  0.3761864579422056
  0.6703062313308596  0.3362947934489187  0.8761713242534565
  0.6677160359139098  0.8351706256717057  0.3783184829757750
  0.6695170139444031  0.8367424904756047  0.8761633397015823
  0.1577093671941432  0.1294213848376359  0.3720011400003047
  0.1682396972067728  0.1605962590979557  0.8734251908246112
  0.1676822341235816  0.6666022995147487  0.3748446038181349
  0.1694767415397573  0.6627957974593578  0.8748333320919063
  0.5067974038044694  0.1585104326518662  0.3720989801337007
  0.5037474560694035  0.1627947324494384  0.8730578348490474
  0.5036148792828252  0.6633651267092162  0.3737647810250154
  0.5040281916732579  0.6632150896892975  0.8731611625601341
  0.8391719326731963  0.1633173938275000  0.3723503767407187
  0.8358516021624983  0.1625400833099798  0.8736523648767034
  0.8351530986066305  0.6667413444803016  0.3742577522770613
  0.8346841699336536  0.6653379921175880  0.8729735332452335
  0.1654966954316295  0.4170318740858933  0.2431088490747834
  0.1666674508302236  0.4117875215925580  0.7530348384287581
  0.1697908786073797  0.9052463968145850  0.2487069856786388
  0.1680228534773208  0.9104231122466631  0.7499158058365979
  0.5007797683073305  0.4136969996397395  0.2486518991981889
  0.5003688308785894  0.4123064201724860  0.7501351169707041
  0.5015580269239428  0.9117978156586953  0.2496922340627971
  0.5005203780100043  0.9122086387130934  0.7497278068607741
  0.8324176498156164  0.4142266614517226  0.2503091908440791
  0.8326440267615323  0.4132300868448357  0.7500073537021097
  0.8281787281595967  0.9129203221736387  0.2507144937032806
  0.8323471022634245  0.9119852572521593  0.7490892950815303
  0.0017499604466184  0.0875936575577253 -0.0046404948287736
  0.0016472801117432  0.0935283314498835  0.5058063279828970
 -0.0013720456720124  0.5932631825434797  0.0002664574555108
 -0.0008088447380776  0.5900271075046355  0.5003514649890736
  0.3349998680342844  0.0871311849603381 -0.0008220855947363
  0.3336718782202130  0.0883103134313792  0.4991900449443217
  0.3357240835875880  0.5875443230660560 -0.0004806396889778
  0.3335410749769865  0.5866157978220971  0.4996081086208886
  0.6669888214290937  0.0877651644214761 -0.0011531250735343
  0.6665806071113541  0.0884197572321527  0.5007937882273459
  0.6671492124872870  0.5869810877774444 -0.0010655901937843
  0.6663777964715472  0.5875386690394458  0.5006408316272297
  0.0376720814608963  0.4490991626230411 -0.0002773430985741
  0.0409761153175065  0.1734686406244801  0.4120807205494903
  0.0338938139396634  0.1501018651008239  0.8866050229513174
  0.0344021803051435  0.6589341476407494  0.3967521112291055
  0.0344648756129662  0.6597322142084054  0.8951855425460273
  0.3694053513723008  0.1567752000571344  0.3949401697328942
  0.3700342468574239  0.1566713770864014  0.8954154441515703
  0.3690578736912969  0.6547748755987804  0.3959603111376459
  0.3704130024639133  0.6562911892908316  0.8954643339564841
  0.7011007027108689  0.1586774909692435  0.3976595126510638
  0.7016971265281901  0.1561904985542441  0.8944674252678995
  0.7017112500415844  0.6561200541170356  0.3971001712820003
  0.7014554815499958  0.6568313732436895  0.8951544496565942
  0.2025916889949093  0.0464244131005125  0.2480345437525310
  0.2020957167322342  0.0501900595906768  0.7496522770782743
  0.2018700755178880  0.5547195252515118  0.2488161550884796
  0.2008109429963631  0.5516394433311286  0.7509836305518373
  0.5367673571360657  0.0510102336731291  0.2495652936813864
  0.5341533258030438  0.0521783702427227  0.7493865772955521
  0.5354877789510679  0.5526730173938716  0.2501489073577942
  0.5337434376932895  0.5523881756895335  0.7494838166672751
  0.8491713183361806  0.0554114556462316  0.2507340822522353
  0.8646131026477170  0.0523310815147199  0.7493210104522544
  0.8654610649429478  0.5547607095600413  0.2499244154031977
  0.8666887121212214  0.5531298480587933  0.7502796226135066
  0.0604220845457064  0.4117251145971114  0.2480906187922942
  0.0609044334140735  0.4101409929689300  0.7535528362897722
  0.0661024459121606  0.8941545303467611  0.2498976734171062
  0.0624173276721336  0.9058880624420353  0.7489547205356113
  0.3945447777854203  0.4125145576012094  0.2470743233899810
  0.3944759853793680  0.4092551542386429  0.7498592022754219
  0.3957323823826935  0.9102832332853181  0.2494080295960732
  0.3946865222475088  0.9093415829485471  0.7496975154617808
  0.7265367937328815  0.4106373400319475  0.2503666462021820
  0.7268419484687321  0.4106185600626465  0.7498199150071913
  0.7225311741227671  0.8967319008657831  0.2505829636295457
  0.7265455624819540  0.9071522120088872  0.7489847733021845
  0.2293409588415141  0.0892715622150925 -0.0006580000495806
  0.2278062976436903  0.0914098674599011  0.4984852380413325
  0.2299197376486137  0.5905426661238533  0.0003983252471648
  0.2273469064879579  0.5875801314407649  0.4992624745530506
  0.5610453197887815  0.0903406115890329 -0.0009443557566286
  0.5605349285814195  0.0905396305385793  0.5010035529902782
  0.5611973581981212  0.5888151757086877 -0.0010020314934932
  0.5604207902632252  0.5915800656033219  0.5007082348099217
  0.8956649415600674  0.0908135674834498 -0.0013337012873624
  0.8958219675970823  0.0934060016005862  0.5012904135571367
  0.8925786543928476  0.5989651542979911  0.0000102730498792
  0.8935541159459814  0.5920227042525944  0.5006496594195832
  0.2053147145071228  0.3404156015829048  0.1474027071823230
  0.2008374190098558  0.3426826077902225  0.6485585126251382
  0.2080221070556198  0.8394125789750979  0.1447583534259196
  0.2039470720945896  0.8418398345053443  0.6461291664105238
  0.5366855239770731  0.3431728807739186  0.1468615042757954
  0.5355213076923079  0.3431889018598897  0.6465687191468197
  0.5356171514024466  0.8420397906764838  0.1460358234307957
  0.5351848655370914  0.8429782193021239  0.6459375466695766
  0.8676691096463239  0.3452545449708224  0.1469371405151804
  0.8676860643592970  0.3448963515664618  0.6460257451147263
  0.8666617890792950  0.8465508027003302  0.1472652046470843
  0.8684699663161465  0.8439997685365426  0.6453611983161142
  0.0412625018973203  0.1623216269815977  0.0909814041833917
  0.0329345705729829  0.1548360039959380  0.6150690221912866
  0.0335479333650057  0.6611530454838895  0.1048643438113255
  0.0356056684242653  0.6578776407903196  0.6040496054688632
  0.3706234916904310  0.1563329697818543  0.1027808222490379
  0.3685114525008195  0.1582011056655267  0.6024756726421345
  0.3719501558709201  0.6560091223296728  0.1027618131584733
  0.3680433529095650  0.6558285784995928  0.6031609847797863
  0.7022890685377724  0.1575385450563671  0.1016247990714982
  0.7016014760286710  0.1567876577808338  0.6048272436619005
  0.7015025763118611  0.6563399739601977  0.1025435580488436
  0.7018034992298904  0.6561513035493686  0.6041940007825345
  0.0332929462538963  0.4496957890087435  0.5009821704540817
  0.0345338141214692  0.9468028564278684 -0.0018941588765136
  0.0367939500318383  0.9538111956251509  0.5001830388422094
  0.3685482195967022  0.4470398367541120 -0.0007124444005330
  0.3672888171252179  0.4463669234537739  0.5007363779848936
  0.3693424737110756  0.9475655102993553 -0.0009793410869948
  0.3677122244038493  0.9487176574347193  0.4999345221289174
  0.7016018630817441  0.4475578568231848 -0.0009770031125312
  0.6986154855091613  0.4469613813060590  0.5005381648748163
  0.7003442662472155  0.9476717098590046 -0.0007740492991204
  0.7001136713303967  0.9484884638141697  0.5003497753208960
  0.2036659408164181  0.3418081555295988  0.8548468057149748
  0.2080151246856531  0.8405817892971428  0.3539497903772136
  0.2034881786262931  0.8413489597732240  0.8535771427411568
  0.5304924099400123  0.3434547918772678  0.3549672012532666
  0.5357329677623739  0.3432647957779405  0.8536492590135472
  0.5347818978599361  0.8422706301188826  0.3542881893442670
  0.5358539612854124  0.8430152236156933  0.8532699586124832
  0.8678640132922629  0.3464027057259903  0.3544335004300224
  0.8676302760518081  0.3433540470670879  0.8532713400528504
  0.8670667109395639  0.8461972641779602  0.3542804723218506
  0.8681855853775040  0.8435275867374531  0.8527187545758518
 
  0.00000000E+00  0.00000000E+00  0.00000000E+00
  0.00000000E+00  0.00000000E+00  0.00000000E+00
  0.00000000E+00  0.00000000E+00  0.00000000E+00
  0.00000000E+00  0.00000000E+00  0.00000000E+00
  0.00000000E+00  0.00000000E+00  0.00000000E+00
  0.00000000E+00  0.00000000E+00  0.00000000E+00
  0.00000000E+00  0.00000000E+00  0.00000000E+00
  0.00000000E+00  0.00000000E+00  0.00000000E+00
  0.00000000E+00  0.00000000E+00  0.00000000E+00
  0.00000000E+00  0.00000000E+00  0.00000000E+00
  0.00000000E+00  0.00000000E+00  0.00000000E+00
  0.00000000E+00  0.00000000E+00  0.00000000E+00
  0.00000000E+00  0.00000000E+00  0.00000000E+00
  0.00000000E+00  0.00000000E+00  0.00000000E+00
  0.00000000E+00  0.00000000E+00  0.00000000E+00
  0.00000000E+00  0.00000000E+00  0.00000000E+00
  0.00000000E+00  0.00000000E+00  0.00000000E+00
  0.00000000E+00  0.00000000E+00  0.00000000E+00
  0.00000000E+00  0.00000000E+00  0.00000000E+00
  0.00000000E+00  0.00000000E+00  0.00000000E+00
  0.00000000E+00  0.00000000E+00  0.00000000E+00
  0.00000000E+00  0.00000000E+00  0.00000000E+00
  0.00000000E+00  0.00000000E+00  0.00000000E+00
  0.00000000E+00  0.00000000E+00  0.00000000E+00
  0.00000000E+00  0.00000000E+00  0.00000000E+00
  0.00000000E+00  0.00000000E+00  0.00000000E+00
  0.00000000E+00  0.00000000E+00  0.00000000E+00
  0.00000000E+00  0.00000000E+00  0.00000000E+00
  0.00000000E+00  0.00000000E+00  0.00000000E+00
  0.00000000E+00  0.00000000E+00  0.00000000E+00
  0.00000000E+00  0.00000000E+00  0.00000000E+00
  0.00000000E+00  0.00000000E+00  0.00000000E+00
  0.00000000E+00  0.00000000E+00  0.00000000E+00
  0.00000000E+00  0.00000000E+00  0.00000000E+00
  0.00000000E+00  0.00000000E+00  0.00000000E+00
  0.00000000E+00  0.00000000E+00  0.00000000E+00
  0.00000000E+00  0.00000000E+00  0.00000000E+00
  0.00000000E+00  0.00000000E+00  0.00000000E+00
  0.00000000E+00  0.00000000E+00  0.00000000E+00
  0.00000000E+00  0.00000000E+00  0.00000000E+00
  0.00000000E+00  0.00000000E+00  0.00000000E+00
  0.00000000E+00  0.00000000E+00  0.00000000E+00
  0.00000000E+00  0.00000000E+00  0.00000000E+00
  0.00000000E+00  0.00000000E+00  0.00000000E+00
  0.00000000E+00  0.00000000E+00  0.00000000E+00
  0.00000000E+00  0.00000000E+00  0.00000000E+00
  0.00000000E+00  0.00000000E+00  0.00000000E+00
  0.00000000E+00  0.00000000E+00  0.00000000E+00
  0.00000000E+00  0.00000000E+00  0.00000000E+00
  0.00000000E+00  0.00000000E+00  0.00000000E+00
  0.00000000E+00  0.00000000E+00  0.00000000E+00
  0.00000000E+00  0.00000000E+00  0.00000000E+00
  0.00000000E+00  0.00000000E+00  0.00000000E+00
  0.00000000E+00  0.00000000E+00  0.00000000E+00
  0.00000000E+00  0.00000000E+00  0.00000000E+00
  0.00000000E+00  0.00000000E+00  0.00000000E+00
  0.00000000E+00  0.00000000E+00  0.00000000E+00
  0.00000000E+00  0.00000000E+00  0.00000000E+00
  0.00000000E+00  0.00000000E+00  0.00000000E+00
  0.00000000E+00  0.00000000E+00  0.00000000E+00
  0.00000000E+00  0.00000000E+00  0.00000000E+00
  0.00000000E+00  0.00000000E+00  0.00000000E+00
  0.00000000E+00  0.00000000E+00  0.00000000E+00
  0.00000000E+00  0.00000000E+00  0.00000000E+00
  0.00000000E+00  0.00000000E+00  0.00000000E+00
  0.00000000E+00  0.00000000E+00  0.00000000E+00
  0.00000000E+00  0.00000000E+00  0.00000000E+00
  0.00000000E+00  0.00000000E+00  0.00000000E+00
  0.00000000E+00  0.00000000E+00  0.00000000E+00
  0.00000000E+00  0.00000000E+00  0.00000000E+00
  0.00000000E+00  0.00000000E+00  0.00000000E+00
  0.00000000E+00  0.00000000E+00  0.00000000E+00
  0.00000000E+00  0.00000000E+00  0.00000000E+00
  0.00000000E+00  0.00000000E+00  0.00000000E+00
  0.00000000E+00  0.00000000E+00  0.00000000E+00
  0.00000000E+00  0.00000000E+00  0.00000000E+00
  0.00000000E+00  0.00000000E+00  0.00000000E+00
  0.00000000E+00  0.00000000E+00  0.00000000E+00
  0.00000000E+00  0.00000000E+00  0.00000000E+00
  0.00000000E+00  0.00000000E+00  0.00000000E+00
  0.00000000E+00  0.00000000E+00  0.00000000E+00
  0.00000000E+00  0.00000000E+00  0.00000000E+00
  0.00000000E+00  0.00000000E+00  0.00000000E+00
  0.00000000E+00  0.00000000E+00  0.00000000E+00
  0.00000000E+00  0.00000000E+00  0.00000000E+00
  0.00000000E+00  0.00000000E+00  0.00000000E+00
  0.00000000E+00  0.00000000E+00  0.00000000E+00
  0.00000000E+00  0.00000000E+00  0.00000000E+00
  0.00000000E+00  0.00000000E+00  0.00000000E+00
  0.00000000E+00  0.00000000E+00  0.00000000E+00
  0.00000000E+00  0.00000000E+00  0.00000000E+00
  0.00000000E+00  0.00000000E+00  0.00000000E+00
  0.00000000E+00  0.00000000E+00  0.00000000E+00
  0.00000000E+00  0.00000000E+00  0.00000000E+00
  0.00000000E+00  0.00000000E+00  0.00000000E+00
  0.00000000E+00  0.00000000E+00  0.00000000E+00
  0.00000000E+00  0.00000000E+00  0.00000000E+00
  0.00000000E+00  0.00000000E+00  0.00000000E+00
  0.00000000E+00  0.00000000E+00  0.00000000E+00
  0.00000000E+00  0.00000000E+00  0.00000000E+00
  0.00000000E+00  0.00000000E+00  0.00000000E+00
  0.00000000E+00  0.00000000E+00  0.00000000E+00
  0.00000000E+00  0.00000000E+00  0.00000000E+00
  0.00000000E+00  0.00000000E+00  0.00000000E+00
  0.00000000E+00  0.00000000E+00  0.00000000E+00
  0.00000000E+00  0.00000000E+00  0.00000000E+00
  0.00000000E+00  0.00000000E+00  0.00000000E+00
  0.00000000E+00  0.00000000E+00  0.00000000E+00
  0.00000000E+00  0.00000000E+00  0.00000000E+00
  0.00000000E+00  0.00000000E+00  0.00000000E+00
  0.00000000E+00  0.00000000E+00  0.00000000E+00
  0.00000000E+00  0.00000000E+00  0.00000000E+00
  0.00000000E+00  0.00000000E+00  0.00000000E+00
  0.00000000E+00  0.00000000E+00  0.00000000E+00
  0.00000000E+00  0.00000000E+00  0.00000000E+00
  0.00000000E+00  0.00000000E+00  0.00000000E+00
  0.00000000E+00  0.00000000E+00  0.00000000E+00
  0.00000000E+00  0.00000000E+00  0.00000000E+00
  0.00000000E+00  0.00000000E+00  0.00000000E+00
  0.00000000E+00  0.00000000E+00  0.00000000E+00
  0.00000000E+00  0.00000000E+00  0.00000000E+00
  0.00000000E+00  0.00000000E+00  0.00000000E+00
  0.00000000E+00  0.00000000E+00  0.00000000E+00
  0.00000000E+00  0.00000000E+00  0.00000000E+00
  0.00000000E+00  0.00000000E+00  0.00000000E+00
  0.00000000E+00  0.00000000E+00  0.00000000E+00
  0.00000000E+00  0.00000000E+00  0.00000000E+00
  0.00000000E+00  0.00000000E+00  0.00000000E+00
  0.00000000E+00  0.00000000E+00  0.00000000E+00
  0.00000000E+00  0.00000000E+00  0.00000000E+00
  0.00000000E+00  0.00000000E+00  0.00000000E+00
  0.00000000E+00  0.00000000E+00  0.00000000E+00
  0.00000000E+00  0.00000000E+00  0.00000000E+00
  0.00000000E+00  0.00000000E+00  0.00000000E+00
  0.00000000E+00  0.00000000E+00  0.00000000E+00
  0.00000000E+00  0.00000000E+00  0.00000000E+00
  0.00000000E+00  0.00000000E+00  0.00000000E+00
  0.00000000E+00  0.00000000E+00  0.00000000E+00
  0.00000000E+00  0.00000000E+00  0.00000000E+00
  0.00000000E+00  0.00000000E+00  0.00000000E+00
  0.00000000E+00  0.00000000E+00  0.00000000E+00
  0.00000000E+00  0.00000000E+00  0.00000000E+00
  0.00000000E+00  0.00000000E+00  0.00000000E+00
  0.00000000E+00  0.00000000E+00  0.00000000E+00
  0.00000000E+00  0.00000000E+00  0.00000000E+00
  0.00000000E+00  0.00000000E+00  0.00000000E+00
  0.00000000E+00  0.00000000E+00  0.00000000E+00
  0.00000000E+00  0.00000000E+00  0.00000000E+00
  0.00000000E+00  0.00000000E+00  0.00000000E+00
  0.00000000E+00  0.00000000E+00  0.00000000E+00
  0.00000000E+00  0.00000000E+00  0.00000000E+00
  0.00000000E+00  0.00000000E+00  0.00000000E+00
  0.00000000E+00  0.00000000E+00  0.00000000E+00
  0.00000000E+00  0.00000000E+00  0.00000000E+00
  0.00000000E+00  0.00000000E+00  0.00000000E+00
  0.00000000E+00  0.00000000E+00  0.00000000E+00
  0.00000000E+00  0.00000000E+00  0.00000000E+00
  0.00000000E+00  0.00000000E+00  0.00000000E+00
  0.00000000E+00  0.00000000E+00  0.00000000E+00
  0.00000000E+00  0.00000000E+00  0.00000000E+00
  0.00000000E+00  0.00000000E+00  0.00000000E+00
  0.00000000E+00  0.00000000E+00  0.00000000E+00
  0.00000000E+00  0.00000000E+00  0.00000000E+00
  0.00000000E+00  0.00000000E+00  0.00000000E+00
  0.00000000E+00  0.00000000E+00  0.00000000E+00
  0.00000000E+00  0.00000000E+00  0.00000000E+00
  0.00000000E+00  0.00000000E+00  0.00000000E+00
  0.00000000E+00  0.00000000E+00  0.00000000E+00
  0.00000000E+00  0.00000000E+00  0.00000000E+00
  0.00000000E+00  0.00000000E+00  0.00000000E+00
  0.00000000E+00  0.00000000E+00  0.00000000E+00
  0.00000000E+00  0.00000000E+00  0.00000000E+00
  0.00000000E+00  0.00000000E+00  0.00000000E+00
  0.00000000E+00  0.00000000E+00  0.00000000E+00
  0.00000000E+00  0.00000000E+00  0.00000000E+00
  0.00000000E+00  0.00000000E+00  0.00000000E+00
  0.00000000E+00  0.00000000E+00  0.00000000E+00
  0.00000000E+00  0.00000000E+00  0.00000000E+00
  0.00000000E+00  0.00000000E+00  0.00000000E+00
  0.00000000E+00  0.00000000E+00  0.00000000E+00
  0.00000000E+00  0.00000000E+00  0.00000000E+00
  0.00000000E+00  0.00000000E+00  0.00000000E+00
  0.00000000E+00  0.00000000E+00  0.00000000E+00
  0.00000000E+00  0.00000000E+00  0.00000000E+00
  0.00000000E+00  0.00000000E+00  0.00000000E+00
  0.00000000E+00  0.00000000E+00  0.00000000E+00
  0.00000000E+00  0.00000000E+00  0.00000000E+00
  0.00000000E+00  0.00000000E+00  0.00000000E+00
  0.00000000E+00  0.00000000E+00  0.00000000E+00
  0.00000000E+00  0.00000000E+00  0.00000000E+00
