(1, 0, 2)                               
   1.0000000000000000     
     3.5682906611667189    0.0006331792072972   -0.0001995194769531
     3.5691891819847426    6.2507935842599265    3.7985048927611107
    -0.0023629706629348   -0.3403494876422216   42.3349482419853871
   Li   N 
    24     8
Selective dynamics
Direct
 -0.0136458080579526  0.5130006194028647  0.0659771440770083   T   T   T
  0.0207997306031392 -0.0207383178955090  0.0258668209215196   T   T   T
  0.3333330000000032  0.1666669999999968  0.0530299999999997   F   F   F
  0.3537273298296290  0.6450570975896953 -0.0013063782350035   T   T   T
  0.6666669999999968  0.3333330000000032  0.0378789999999967   F   F   F
  0.6666669999999968  0.8333330000000032  0.0833330000000032   F   F   F
  0.0000000000000000  0.5000000000000000  0.1590909999999965   F   F   F
  0.0000000000000000  0.0000000000000000  0.1136359999999996   F   F   F
  0.3333330000000032  0.1666669999999968  0.1439390000000031   F   F   F
  0.3333330000000032  0.6666669999999968  0.0984849999999966   F   F   F
  0.6666669999999968  0.3333330000000032  0.1287880000000001   F   F   F
  0.6666669999999968  0.8333330000000032  0.1742419999999996   F   F   F
  0.0000000000000000  0.5000000000000000  0.2500000000000000   F   F   F
  0.0000000000000000  0.0000000000000000  0.2045450000000031   F   F   F
  0.3333330000000032  0.1666669999999968  0.2348479999999995   F   F   F
  0.3333330000000032  0.6666669999999968  0.1893940000000001   F   F   F
  0.6666669999999968  0.3333330000000032  0.2196969999999965   F   F   F
  0.6666669999999968  0.8333330000000032  0.2651520000000005   F   F   F
 -0.0210679767660077  0.5212053131536358  0.3377260830795910   T   T   T
  0.0130321808080669 -0.0127237413637535  0.2976382930680513   T   T   T
  0.3333330000000032  0.1666669999999968  0.3257580000000004   F   F   F
  0.3333330000000032  0.6666669999999968  0.2803030000000035   F   F   F
  0.6666669999999968  0.3333330000000032  0.3106059999999999   F   F   F
  0.6457327498050186  0.8549092559749257  0.3649818479574779   T   T   T
  0.0059176830303612  0.4934926633674773  0.0226647506937746   T   T   T
  0.0000000000000000  0.0000000000000000  0.0681820000000002   F   F   F
  0.0000000000000000  0.5000000000000000  0.1136359999999996   F   F   F
  0.0000000000000000  0.0000000000000000  0.1590909999999965   F   F   F
  0.0000000000000000  0.5000000000000000  0.2045450000000031   F   F   F
  0.0000000000000000  0.0000000000000000  0.2500000000000000   F   F   F
  0.0000000000000000  0.5000000000000000  0.2954549999999969   F   F   F
 -0.0062389631204725  0.0064925924289951  0.3409544736474324   T   T   T

  0.00000000E+00  0.00000000E+00  0.00000000E+00
  0.00000000E+00  0.00000000E+00  0.00000000E+00
  0.00000000E+00  0.00000000E+00  0.00000000E+00
  0.00000000E+00  0.00000000E+00  0.00000000E+00
  0.00000000E+00  0.00000000E+00  0.00000000E+00
  0.00000000E+00  0.00000000E+00  0.00000000E+00
  0.00000000E+00  0.00000000E+00  0.00000000E+00
  0.00000000E+00  0.00000000E+00  0.00000000E+00
  0.00000000E+00  0.00000000E+00  0.00000000E+00
  0.00000000E+00  0.00000000E+00  0.00000000E+00
  0.00000000E+00  0.00000000E+00  0.00000000E+00
  0.00000000E+00  0.00000000E+00  0.00000000E+00
  0.00000000E+00  0.00000000E+00  0.00000000E+00
  0.00000000E+00  0.00000000E+00  0.00000000E+00
  0.00000000E+00  0.00000000E+00  0.00000000E+00
  0.00000000E+00  0.00000000E+00  0.00000000E+00
  0.00000000E+00  0.00000000E+00  0.00000000E+00
  0.00000000E+00  0.00000000E+00  0.00000000E+00
  0.00000000E+00  0.00000000E+00  0.00000000E+00
  0.00000000E+00  0.00000000E+00  0.00000000E+00
  0.00000000E+00  0.00000000E+00  0.00000000E+00
  0.00000000E+00  0.00000000E+00  0.00000000E+00
  0.00000000E+00  0.00000000E+00  0.00000000E+00
  0.00000000E+00  0.00000000E+00  0.00000000E+00
  0.00000000E+00  0.00000000E+00  0.00000000E+00
  0.00000000E+00  0.00000000E+00  0.00000000E+00
  0.00000000E+00  0.00000000E+00  0.00000000E+00
  0.00000000E+00  0.00000000E+00  0.00000000E+00
  0.00000000E+00  0.00000000E+00  0.00000000E+00
  0.00000000E+00  0.00000000E+00  0.00000000E+00
  0.00000000E+00  0.00000000E+00  0.00000000E+00
  0.00000000E+00  0.00000000E+00  0.00000000E+00
