(1, 0, 2)
1.0
3.650690 0.000000 0.000000
3.650690 6.323180 3.888635
0.000000 0.000000 42.774985
Li N
24 8
Selective dynamics
direct
0.000000 0.500000 0.068182 T T T Li+
0.000000 0.000000 0.022727 T T T Li+
0.333333 0.166667 0.053030 F F F Li+
0.333333 0.666667 0.007576 T T T Li+
0.666667 0.333333 0.037879 F F F Li+
0.666667 0.833333 0.083333 F F F Li+
0.000000 0.500000 0.159091 F F F Li+
0.000000 0.000000 0.113636 F F F Li+
0.333333 0.166667 0.143939 F F F Li+
0.333333 0.666667 0.098485 F F F Li+
0.666667 0.333333 0.128788 F F F Li+
0.666667 0.833333 0.174242 F F F Li+
0.000000 0.500000 0.250000 F F F Li+
0.000000 0.000000 0.204545 F F F Li+
0.333333 0.166667 0.234848 F F F Li+
0.333333 0.666667 0.189394 F F F Li+
0.666667 0.333333 0.219697 F F F Li+
0.666667 0.833333 0.265152 F F F Li+
0.000000 0.500000 0.340909 T T T Li+
0.000000 0.000000 0.295455 T T T Li+
0.333333 0.166667 0.325758 F F F Li+
0.333333 0.666667 0.280303 F F F Li+
0.666667 0.333333 0.310606 F F F Li+
0.666667 0.833333 0.356061 T T T Li+
0.000000 0.500000 0.022727 T T T N3-
0.000000 0.000000 0.068182 F F F N3-
0.000000 0.500000 0.113636 F F F N3-
0.000000 0.000000 0.159091 F F F N3-
0.000000 0.500000 0.204545 F F F N3-
0.000000 0.000000 0.250000 F F F N3-
0.000000 0.500000 0.295455 F F F N3-
0.000000 0.000000 0.340909 T T T N3-
