Li73 P24 N1 O95                         
   1.00000000000000     
    14.7364909561026085   -0.0053043971950292   -0.0128725217366218
    -0.0037681571238816   10.5580752644405891    0.0010199382784464
    -0.0107332328350797    0.0012179865038843   12.3016859487383918
   Li   P    N    O 
    73    24     1    95
Direct
  0.2184862389162205  0.4342799042965453  0.0006147885862404
  0.1691019040624440  0.4212643882274136  0.4938099472975779
  0.1705499875194292  0.9186613842538804  0.0011922658233061
  0.1695146622937429  0.9213988857700812  0.4994361834368490
  0.5019237608405120  0.4233088850980877  0.0010199545498537
  0.5019359133056227  0.4231118506652223  0.4991772821200868
  0.5030158006589360  0.9212826529748241  0.0006397064212038
  0.5026631075674928  0.9227897979634108  0.4999117903979098
  0.8352546574207338  0.4224502870340672  0.0016962143957002
  0.8354782343922125  0.4235439180136638  0.5010910062609284
  0.8364203461353625  0.9230772893987478  0.0006941346156282
  0.8365055919616537  0.9232206476765583  0.5004204694023144
  0.0046214621443994  0.0781479418570683  0.2520997329679275
  0.0034129683728423  0.0777540181833913  0.7494776994500754
  0.0039816152057881  0.5770731749469320  0.2534855703737620
  0.0016825922879917  0.5767064008612905  0.7506829069835135
  0.3377028872825392  0.0765435251544275  0.2522556212810727
  0.3377168972847358  0.0763994272657555  0.7482527963883641
  0.3323966199824611  0.5751340789217494  0.2496156525107622
  0.3373159114795428  0.5786922232743592  0.7498613775293066
  0.6690125916928693  0.0785086114822988  0.2508490216951245
  0.6687572490311098  0.0783397362866367  0.7497409272192854
  0.6693314621548581  0.5787407637913731  0.2515918861744595
  0.6688470274254286  0.5789440453799344  0.7492348088132630
  0.1797061999425011  0.1561712891838596  0.1357530327622740
  0.1694052538473301  0.1626283975256442  0.6252590927576591
  0.1682336706850052  0.6585196165730025  0.1277182430910528
  0.1686079120363715  0.6601578717648593  0.6270236979291184
  0.5023523102069447  0.1634443332841968  0.1270725117227940
  0.5023008303824454  0.1637944519356793  0.6255902876160633
  0.5064037863918998  0.6643899548126768  0.1281837971494042
  0.5022655243248551  0.6640178475344456  0.6255473323314575
  0.8347372924876524  0.1637817768175651  0.1271158926546008
  0.8357769872237029  0.1637330712216354  0.6265470514746667
  0.8351525262977617  0.6640690817018324  0.1276585501849965
  0.8353504759503991  0.6643895459818481  0.6274665352136921
  0.9940869293447179  0.3422202542732222  0.1386493151047006
  0.0022675213095624  0.3369453185351645  0.6240314491442831
  0.0031628732394893  0.8337293809914783  0.1245572936730710
  0.0026994217618395  0.8368398815885456  0.6242340723658302
  0.3320620069949101  0.3336269640048215  0.1282934258132613
  0.3355779945934998  0.3366900940856041  0.6232936722319522
  0.3362930279442296  0.8367082454947479  0.1249806825248001
  0.3356271961239656  0.8359891750434514  0.6232677927638264
  0.6689075581378177  0.3377822804125259  0.1249134337976656
  0.6681388704365077  0.3370685168890049  0.6226817121690758
  0.6699035808395308  0.8380354536196108  0.1243919977102124
  0.6694402248927034  0.8377416151866228  0.6240138577561680
  0.0039135897646645  0.3389673538011237  0.3782954341408242
  0.9936725577014158  0.3388022448328556  0.8699905927941955
  0.0031389020929495  0.8369834188107745  0.3775486636246015
  0.0023046932874777  0.8341403746196079  0.8768736644326864
  0.3323093363234406  0.3376449911340913  0.3737710728943924
  0.3399841964049344  0.3347917736293269  0.8744193066931345
  0.3352655219472283  0.8351402688523635  0.3766951902370579
  0.3365759466363158  0.8376721337071302  0.8752109969599644
  0.6683612127963912  0.3371818816476093  0.3779058959361166
  0.6686443799044639  0.3379151329873906  0.8765004407248895
  0.6697629492225801  0.8376577489071195  0.3766457561213343
  0.6698711230851373  0.8381193153623201  0.8766704302884776
  0.1701910645002087  0.1663860430792710  0.3723024184851056
  0.1758486740327214  0.1566219268982394  0.8686296557821080
  0.1684781223623517  0.6574206174007529  0.3728541596244526
  0.1670852786716566  0.6640861843357513  0.8740416212786641
  0.5021756220636959  0.1643384106885506  0.3744966286230564
  0.5030515057239029  0.1628673275470121  0.8737565623229813
  0.5016259123476345  0.6633340708202908  0.3736693869472987
  0.5069083336094735  0.6648978306812552  0.8721713551160164
  0.8364182800269475  0.1642292629709772  0.3744335639524294
  0.8330751284194875  0.1631208125392121  0.8737684182101404
  0.8363392137953696  0.6645683847167518  0.3753078461135857
  0.8344404070002298  0.6638186067072311  0.8744102308042869
  0.1062752557659650  0.2965690833315477  0.0163914169326418
  0.1655855655676817  0.4085116800304860  0.2413044204515060
  0.1664795110232689  0.4106741072563054  0.7533610543160449
  0.1673742276956460  0.9083527117637686  0.2519708014291950
  0.1668899586075199  0.9105377152988510  0.7493706083476184
  0.5004485363523443  0.4127265620770970  0.2503141131325464
  0.5002582801220115  0.4127057762872823  0.7494983397498203
  0.5008255298146480  0.9125883780803079  0.2509455818077626
  0.5007537237107940  0.9129893715691111  0.7496351848645801
  0.8311656698482039  0.4135495677757532  0.2529498677288515
  0.8308813109856317  0.4127047087882616  0.7496877351413076
  0.8343653518689393  0.9135216535963906  0.2503607313291099
  0.8339664098848800  0.9132057887398304  0.7508296536146375
  0.0005444107791988  0.0887104912305645  0.0012136671657146
  0.0003013351660925  0.0881168139102115  0.5007523975783101
  0.9970839880080575  0.5830200131666743  0.0006564650427876
  0.9994841364072897  0.5884422108255549  0.5027326997611041
  0.3339502518316522  0.0859391324315908  0.0001438752590772
  0.3334034987864882  0.0877930642398113  0.4999898316583966
  0.3385556472443412  0.5976735673570701  0.9986964349753862
  0.3330268015071525  0.5869721030248130  0.5003957169578683
  0.6663109567899639  0.0883315333272634  0.0004255018739556
  0.6671350509990290  0.0881750917440201  0.5003246210346646
  0.6667185037304009  0.5882839779252365  0.0003974774989928
  0.6667140264295170  0.5890978054436502  0.5004418697496646
  0.1962808784612093  0.3400117796973774  0.1330926891002449
  0.0354237475043249  0.1572676224165050  0.3970079323892222
  0.0395319236257237  0.1631156074263416  0.9005563656904059
  0.0344933060469899  0.6584337467723529  0.3994069862090655
  0.0340865594711701  0.6510334414470762  0.8967497867347944
  0.3690302991664822  0.1572229609654485  0.3964936440184985
  0.3683399579865849  0.1559829566869126  0.8958806032485782
  0.3681332656824523  0.6563359399979660  0.3965511988050139
  0.3759947956022529  0.6616888815158291  0.8941834786976912
  0.7024073501873360  0.1574710076811527  0.3964956799768089
  0.7007578668670789  0.1576744369011607  0.8961201943413499
  0.7024519007064924  0.6585149919934494  0.3969097079413118
  0.7012097941802580  0.6577411373485802  0.8961019790086695
  0.2031852370152052  0.0471643618526727  0.2542300761719360
  0.2019018670848070  0.0500802966900054  0.7478190633208612
  0.1989478549796715  0.5522108043585447  0.2497127147829161
  0.2009065502947252  0.5502618832138282  0.7535724061866347
  0.5338323520912311  0.0530715995996047  0.2512345422428126
  0.5337091207043301  0.0534916405104653  0.7494392914078674
  0.5351371868728592  0.5523975228028490  0.2508578986073715
  0.5344724104427527  0.5524481952231000  0.7490730161108061
  0.8685320432449828  0.0535154470557302  0.2499350899479396
  0.8681878183290195  0.0532155285230900  0.7513100172360581
  0.8655883946242042  0.5531349219050838  0.2516584828902140
  0.8657471544012907  0.5521747602800176  0.7512148629618025
  0.0579672661910209  0.4129671667817334  0.2547937024827718
  0.0608066756353267  0.4080811467025995  0.7517977493442558
  0.0615077529150909  0.9087315438413697  0.2504222422772884
  0.0610870661597573  0.9099322893020130  0.7510859267032188
  0.3950400177143649  0.4104023683135978  0.2499987073213319
  0.3945021012002243  0.4103225780147213  0.7493577990573002
  0.3951674418435971  0.9086324298509396  0.2507968231106332
  0.3950605561117868  0.9093145603562931  0.7495083987270803
  0.7256238975072975  0.4109660724731938  0.2526084720380339
  0.7253665560176117  0.4107488482036246  0.7486991928780071
  0.7286596058019299  0.9111826516728669  0.2503296557439896
  0.7283133836409377  0.9109873254031342  0.7505520608660063
  0.2280159867311227  0.0868135899519373  0.9995798668577862
  0.2277654906095705  0.0904101574266889  0.4999059303009616
  0.2332922676513363  0.6099112159629598  0.9982134892157006
  0.2274252388356715  0.5889134828061842  0.5014697024347967
  0.5606828311540539  0.0901180565584951  0.0006570137371753
  0.5614566072882141  0.0907749024227940  0.5002003188711726
  0.5610817810562878  0.5903318183571216  0.0002375277307394
  0.5610375077839436  0.5914913604782228  0.4999296780608375
  0.8952655888912560  0.0926053278007828  0.9991814940745911
  0.8945742649457600  0.0909007655321901  0.5008719534066870
  0.8915014631452749  0.5921271009860689  0.0006553855461746
  0.8937218928402046  0.5911653410230713  0.5023221447145971
  0.2025828481848535  0.3403701033110522  0.6508922985053758
  0.2020435576053430  0.8403857808859385  0.1473269443062861
  0.2010572074986783  0.8404348410490456  0.6457214618938991
  0.5353709723858202  0.3436099350663611  0.1459683734622175
  0.5351131072071809  0.3429578129724575  0.6458425354969179
  0.5369536286791785  0.8444946745036503  0.1470251875690280
  0.5359387623891578  0.8438281017295850  0.6457788477122790
  0.8647815292368719  0.3429743184249503  0.1488719796649818
  0.8675170105057788  0.3435915597035617  0.6465817454929237
  0.8693379964540711  0.8441350930096831  0.1463103592729098
  0.8690770930937575  0.8440863057556456  0.6469708062735862
  0.0362737764520560  0.1605338065821016  0.1041703470467681
  0.0354358534017507  0.1572991543522875  0.6050878850875634
  0.0344072200220182  0.6515046082026288  0.1037061210509194
  0.0345208333083491  0.6570727369533031  0.6073476302897305
  0.3693789725687466  0.1544480014224021  0.1040707972959893
  0.3687980758107017  0.1567658909366614  0.6042425128344746
  0.3758022984528537  0.6605747983331511  0.1036166215696639
  0.3686684098477997  0.6566239250182946  0.6043261309415655
  0.7017428202235649  0.1578537079312596  0.1041931620116259
  0.7022712631463719  0.1575135823858318  0.6044588467118146
  0.7016415328321486  0.6580461144299434  0.1043246596253056
  0.7018267814988022  0.6583510709955220  0.6046243945330616
  0.0234007772633902  0.4396008850745403  0.0000068146317744
  0.0333125598475092  0.4486003017666107  0.5031731850564327
  0.0340496519708537  0.9491656663744550  0.0003200508031469
  0.0339837646369077  0.9480707018029690  0.5011416168741576
  0.3623717373041586  0.4526739463684279  0.9977194372859657
  0.3670212374226054  0.4470698334417875  0.5002310512196644
  0.3679965611935572  0.9461589955362015  0.9995489927179690
  0.3670072577945618  0.9475905151431263  0.5000961790414209
  0.7005890500468723  0.4483958357388929  0.0005128305392788
  0.7003679193622858  0.4490725132445732  0.5006847252426283
  0.7011216110507164  0.9487799243847093  0.0003674706818657
  0.7011470457874793  0.9482984222299038  0.5005041933150380
  0.2008244470525256  0.3429986133176186  0.3510709367270763
  0.2007889440458683  0.3420808652252347  0.8596116611767073
  0.2011823995543267  0.8379878298751464  0.3557614779290503
  0.2020884763346729  0.8421288723599289  0.8536040670940537
  0.5356589308517030  0.3429907684894644  0.3541862099785433
  0.5345142729842252  0.3436528056837389  0.8542483464335007
  0.5361880130804977  0.8433144969951698  0.3548661031076037
  0.5369819813989452  0.8449089911453385  0.8536161580813868
  0.8673063583172436  0.3444432894912666  0.3563733789111367
  0.8643831198645202  0.3420671512189344  0.8539125363114266
  0.8694625687758872  0.8443475803198268  0.3544180124758114
  0.8689675305459303  0.8436544145908371  0.8549301380389167
 
  0.00000000E+00  0.00000000E+00  0.00000000E+00
  0.00000000E+00  0.00000000E+00  0.00000000E+00
  0.00000000E+00  0.00000000E+00  0.00000000E+00
  0.00000000E+00  0.00000000E+00  0.00000000E+00
  0.00000000E+00  0.00000000E+00  0.00000000E+00
  0.00000000E+00  0.00000000E+00  0.00000000E+00
  0.00000000E+00  0.00000000E+00  0.00000000E+00
  0.00000000E+00  0.00000000E+00  0.00000000E+00
  0.00000000E+00  0.00000000E+00  0.00000000E+00
  0.00000000E+00  0.00000000E+00  0.00000000E+00
  0.00000000E+00  0.00000000E+00  0.00000000E+00
  0.00000000E+00  0.00000000E+00  0.00000000E+00
  0.00000000E+00  0.00000000E+00  0.00000000E+00
  0.00000000E+00  0.00000000E+00  0.00000000E+00
  0.00000000E+00  0.00000000E+00  0.00000000E+00
  0.00000000E+00  0.00000000E+00  0.00000000E+00
  0.00000000E+00  0.00000000E+00  0.00000000E+00
  0.00000000E+00  0.00000000E+00  0.00000000E+00
  0.00000000E+00  0.00000000E+00  0.00000000E+00
  0.00000000E+00  0.00000000E+00  0.00000000E+00
  0.00000000E+00  0.00000000E+00  0.00000000E+00
  0.00000000E+00  0.00000000E+00  0.00000000E+00
  0.00000000E+00  0.00000000E+00  0.00000000E+00
  0.00000000E+00  0.00000000E+00  0.00000000E+00
  0.00000000E+00  0.00000000E+00  0.00000000E+00
  0.00000000E+00  0.00000000E+00  0.00000000E+00
  0.00000000E+00  0.00000000E+00  0.00000000E+00
  0.00000000E+00  0.00000000E+00  0.00000000E+00
  0.00000000E+00  0.00000000E+00  0.00000000E+00
  0.00000000E+00  0.00000000E+00  0.00000000E+00
  0.00000000E+00  0.00000000E+00  0.00000000E+00
  0.00000000E+00  0.00000000E+00  0.00000000E+00
  0.00000000E+00  0.00000000E+00  0.00000000E+00
  0.00000000E+00  0.00000000E+00  0.00000000E+00
  0.00000000E+00  0.00000000E+00  0.00000000E+00
  0.00000000E+00  0.00000000E+00  0.00000000E+00
  0.00000000E+00  0.00000000E+00  0.00000000E+00
  0.00000000E+00  0.00000000E+00  0.00000000E+00
  0.00000000E+00  0.00000000E+00  0.00000000E+00
  0.00000000E+00  0.00000000E+00  0.00000000E+00
  0.00000000E+00  0.00000000E+00  0.00000000E+00
  0.00000000E+00  0.00000000E+00  0.00000000E+00
  0.00000000E+00  0.00000000E+00  0.00000000E+00
  0.00000000E+00  0.00000000E+00  0.00000000E+00
  0.00000000E+00  0.00000000E+00  0.00000000E+00
  0.00000000E+00  0.00000000E+00  0.00000000E+00
  0.00000000E+00  0.00000000E+00  0.00000000E+00
  0.00000000E+00  0.00000000E+00  0.00000000E+00
  0.00000000E+00  0.00000000E+00  0.00000000E+00
  0.00000000E+00  0.00000000E+00  0.00000000E+00
  0.00000000E+00  0.00000000E+00  0.00000000E+00
  0.00000000E+00  0.00000000E+00  0.00000000E+00
  0.00000000E+00  0.00000000E+00  0.00000000E+00
  0.00000000E+00  0.00000000E+00  0.00000000E+00
  0.00000000E+00  0.00000000E+00  0.00000000E+00
  0.00000000E+00  0.00000000E+00  0.00000000E+00
  0.00000000E+00  0.00000000E+00  0.00000000E+00
  0.00000000E+00  0.00000000E+00  0.00000000E+00
  0.00000000E+00  0.00000000E+00  0.00000000E+00
  0.00000000E+00  0.00000000E+00  0.00000000E+00
  0.00000000E+00  0.00000000E+00  0.00000000E+00
  0.00000000E+00  0.00000000E+00  0.00000000E+00
  0.00000000E+00  0.00000000E+00  0.00000000E+00
  0.00000000E+00  0.00000000E+00  0.00000000E+00
  0.00000000E+00  0.00000000E+00  0.00000000E+00
  0.00000000E+00  0.00000000E+00  0.00000000E+00
  0.00000000E+00  0.00000000E+00  0.00000000E+00
  0.00000000E+00  0.00000000E+00  0.00000000E+00
  0.00000000E+00  0.00000000E+00  0.00000000E+00
  0.00000000E+00  0.00000000E+00  0.00000000E+00
  0.00000000E+00  0.00000000E+00  0.00000000E+00
  0.00000000E+00  0.00000000E+00  0.00000000E+00
  0.00000000E+00  0.00000000E+00  0.00000000E+00
  0.00000000E+00  0.00000000E+00  0.00000000E+00
  0.00000000E+00  0.00000000E+00  0.00000000E+00
  0.00000000E+00  0.00000000E+00  0.00000000E+00
  0.00000000E+00  0.00000000E+00  0.00000000E+00
  0.00000000E+00  0.00000000E+00  0.00000000E+00
  0.00000000E+00  0.00000000E+00  0.00000000E+00
  0.00000000E+00  0.00000000E+00  0.00000000E+00
  0.00000000E+00  0.00000000E+00  0.00000000E+00
  0.00000000E+00  0.00000000E+00  0.00000000E+00
  0.00000000E+00  0.00000000E+00  0.00000000E+00
  0.00000000E+00  0.00000000E+00  0.00000000E+00
  0.00000000E+00  0.00000000E+00  0.00000000E+00
  0.00000000E+00  0.00000000E+00  0.00000000E+00
  0.00000000E+00  0.00000000E+00  0.00000000E+00
  0.00000000E+00  0.00000000E+00  0.00000000E+00
  0.00000000E+00  0.00000000E+00  0.00000000E+00
  0.00000000E+00  0.00000000E+00  0.00000000E+00
  0.00000000E+00  0.00000000E+00  0.00000000E+00
  0.00000000E+00  0.00000000E+00  0.00000000E+00
  0.00000000E+00  0.00000000E+00  0.00000000E+00
  0.00000000E+00  0.00000000E+00  0.00000000E+00
  0.00000000E+00  0.00000000E+00  0.00000000E+00
  0.00000000E+00  0.00000000E+00  0.00000000E+00
  0.00000000E+00  0.00000000E+00  0.00000000E+00
  0.00000000E+00  0.00000000E+00  0.00000000E+00
  0.00000000E+00  0.00000000E+00  0.00000000E+00
  0.00000000E+00  0.00000000E+00  0.00000000E+00
  0.00000000E+00  0.00000000E+00  0.00000000E+00
  0.00000000E+00  0.00000000E+00  0.00000000E+00
  0.00000000E+00  0.00000000E+00  0.00000000E+00
  0.00000000E+00  0.00000000E+00  0.00000000E+00
  0.00000000E+00  0.00000000E+00  0.00000000E+00
  0.00000000E+00  0.00000000E+00  0.00000000E+00
  0.00000000E+00  0.00000000E+00  0.00000000E+00
  0.00000000E+00  0.00000000E+00  0.00000000E+00
  0.00000000E+00  0.00000000E+00  0.00000000E+00
  0.00000000E+00  0.00000000E+00  0.00000000E+00
  0.00000000E+00  0.00000000E+00  0.00000000E+00
  0.00000000E+00  0.00000000E+00  0.00000000E+00
  0.00000000E+00  0.00000000E+00  0.00000000E+00
  0.00000000E+00  0.00000000E+00  0.00000000E+00
  0.00000000E+00  0.00000000E+00  0.00000000E+00
  0.00000000E+00  0.00000000E+00  0.00000000E+00
  0.00000000E+00  0.00000000E+00  0.00000000E+00
  0.00000000E+00  0.00000000E+00  0.00000000E+00
  0.00000000E+00  0.00000000E+00  0.00000000E+00
  0.00000000E+00  0.00000000E+00  0.00000000E+00
  0.00000000E+00  0.00000000E+00  0.00000000E+00
  0.00000000E+00  0.00000000E+00  0.00000000E+00
  0.00000000E+00  0.00000000E+00  0.00000000E+00
  0.00000000E+00  0.00000000E+00  0.00000000E+00
  0.00000000E+00  0.00000000E+00  0.00000000E+00
  0.00000000E+00  0.00000000E+00  0.00000000E+00
  0.00000000E+00  0.00000000E+00  0.00000000E+00
  0.00000000E+00  0.00000000E+00  0.00000000E+00
  0.00000000E+00  0.00000000E+00  0.00000000E+00
  0.00000000E+00  0.00000000E+00  0.00000000E+00
  0.00000000E+00  0.00000000E+00  0.00000000E+00
  0.00000000E+00  0.00000000E+00  0.00000000E+00
  0.00000000E+00  0.00000000E+00  0.00000000E+00
  0.00000000E+00  0.00000000E+00  0.00000000E+00
  0.00000000E+00  0.00000000E+00  0.00000000E+00
  0.00000000E+00  0.00000000E+00  0.00000000E+00
  0.00000000E+00  0.00000000E+00  0.00000000E+00
  0.00000000E+00  0.00000000E+00  0.00000000E+00
  0.00000000E+00  0.00000000E+00  0.00000000E+00
  0.00000000E+00  0.00000000E+00  0.00000000E+00
  0.00000000E+00  0.00000000E+00  0.00000000E+00
  0.00000000E+00  0.00000000E+00  0.00000000E+00
  0.00000000E+00  0.00000000E+00  0.00000000E+00
  0.00000000E+00  0.00000000E+00  0.00000000E+00
  0.00000000E+00  0.00000000E+00  0.00000000E+00
  0.00000000E+00  0.00000000E+00  0.00000000E+00
  0.00000000E+00  0.00000000E+00  0.00000000E+00
  0.00000000E+00  0.00000000E+00  0.00000000E+00
  0.00000000E+00  0.00000000E+00  0.00000000E+00
  0.00000000E+00  0.00000000E+00  0.00000000E+00
  0.00000000E+00  0.00000000E+00  0.00000000E+00
  0.00000000E+00  0.00000000E+00  0.00000000E+00
  0.00000000E+00  0.00000000E+00  0.00000000E+00
  0.00000000E+00  0.00000000E+00  0.00000000E+00
  0.00000000E+00  0.00000000E+00  0.00000000E+00
  0.00000000E+00  0.00000000E+00  0.00000000E+00
  0.00000000E+00  0.00000000E+00  0.00000000E+00
  0.00000000E+00  0.00000000E+00  0.00000000E+00
  0.00000000E+00  0.00000000E+00  0.00000000E+00
  0.00000000E+00  0.00000000E+00  0.00000000E+00
  0.00000000E+00  0.00000000E+00  0.00000000E+00
  0.00000000E+00  0.00000000E+00  0.00000000E+00
  0.00000000E+00  0.00000000E+00  0.00000000E+00
  0.00000000E+00  0.00000000E+00  0.00000000E+00
  0.00000000E+00  0.00000000E+00  0.00000000E+00
  0.00000000E+00  0.00000000E+00  0.00000000E+00
  0.00000000E+00  0.00000000E+00  0.00000000E+00
  0.00000000E+00  0.00000000E+00  0.00000000E+00
  0.00000000E+00  0.00000000E+00  0.00000000E+00
  0.00000000E+00  0.00000000E+00  0.00000000E+00
  0.00000000E+00  0.00000000E+00  0.00000000E+00
  0.00000000E+00  0.00000000E+00  0.00000000E+00
  0.00000000E+00  0.00000000E+00  0.00000000E+00
  0.00000000E+00  0.00000000E+00  0.00000000E+00
  0.00000000E+00  0.00000000E+00  0.00000000E+00
  0.00000000E+00  0.00000000E+00  0.00000000E+00
  0.00000000E+00  0.00000000E+00  0.00000000E+00
  0.00000000E+00  0.00000000E+00  0.00000000E+00
  0.00000000E+00  0.00000000E+00  0.00000000E+00
  0.00000000E+00  0.00000000E+00  0.00000000E+00
  0.00000000E+00  0.00000000E+00  0.00000000E+00
  0.00000000E+00  0.00000000E+00  0.00000000E+00
  0.00000000E+00  0.00000000E+00  0.00000000E+00
  0.00000000E+00  0.00000000E+00  0.00000000E+00
  0.00000000E+00  0.00000000E+00  0.00000000E+00
  0.00000000E+00  0.00000000E+00  0.00000000E+00
  0.00000000E+00  0.00000000E+00  0.00000000E+00
  0.00000000E+00  0.00000000E+00  0.00000000E+00
  0.00000000E+00  0.00000000E+00  0.00000000E+00
  0.00000000E+00  0.00000000E+00  0.00000000E+00
  0.00000000E+00  0.00000000E+00  0.00000000E+00
  0.00000000E+00  0.00000000E+00  0.00000000E+00
  0.00000000E+00  0.00000000E+00  0.00000000E+00
