Li5 P2 N1 O6                            
   1.00000000000000     
    -0.4288481879912461   -0.4118014222303841    5.1493486602798226
     5.9464776286771137   -0.5223668734588225   -0.4479205097964596
    -0.4498121530067837    5.2133508689343211   -0.4017252744487137
   Li   P    N    O 
     5     2     1     6
Direct
  0.4957211602546458  0.1138069748112868 -0.0215475254424590
 -0.1315808920772854  0.4717716062726643  0.2952651290483923
  0.4404181955215553  0.7140268313418088  0.2748288979639951
  0.0607480296156157  0.7916534865731049  0.6743853083103145
  0.0050965578932703  0.2995299450819375  0.7714161454369566
  0.5760260761843357  0.5747791785820267  0.8047611068138709
 -0.0190084666269872 -0.0205216144301475  0.1889448529224414
  0.6965948364323943  0.3899526553944139 -0.0703832084593661
 -0.0573917711699844  0.1832958891388984  0.3865271916171122
  0.6781119151844891  0.6475438935255594  0.5600227877129533
  0.1159663690831161  0.8050703311313927  0.3220590491187846
  0.1235873155773204  0.0499740233705093  0.9675419077287145
  0.2774246706825464  0.5809598711508966  0.7874986737495615
  0.6807130034449912 -0.1475780719443535  0.0457546834787307
 
  0.00000000E+00  0.00000000E+00  0.00000000E+00
  0.00000000E+00  0.00000000E+00  0.00000000E+00
  0.00000000E+00  0.00000000E+00  0.00000000E+00
  0.00000000E+00  0.00000000E+00  0.00000000E+00
  0.00000000E+00  0.00000000E+00  0.00000000E+00
  0.00000000E+00  0.00000000E+00  0.00000000E+00
  0.00000000E+00  0.00000000E+00  0.00000000E+00
  0.00000000E+00  0.00000000E+00  0.00000000E+00
  0.00000000E+00  0.00000000E+00  0.00000000E+00
  0.00000000E+00  0.00000000E+00  0.00000000E+00
  0.00000000E+00  0.00000000E+00  0.00000000E+00
  0.00000000E+00  0.00000000E+00  0.00000000E+00
  0.00000000E+00  0.00000000E+00  0.00000000E+00
  0.00000000E+00  0.00000000E+00  0.00000000E+00
