Li61 P7 N32                             
   1.00000000000000     
    -0.0065868968679069    9.4722945091648629   -0.0055307611202834
     0.0148542373575109   -0.0055134573197479    9.5575831002454770
     9.5469175521220162   -0.0065951316232363    0.0149985047350852
   Li   P    N 
    61     7    32
Direct
  0.5001969056548438  0.0033584677656886  0.5067297170786603
  0.0086245413149627  0.5152955010648271 -0.0162563697415167
  0.4970090620897322  0.0000279164368461  0.0064814273326736
  0.0044322103721757  0.0052288723056356  0.5033213408201612
  0.4944076014719751  0.4956250960122346  0.0070534141861988
  0.0071546101048569  0.5054183286014913  0.5060567025976295
  0.7518246494085973  0.0052116535689400  0.5099615701687559
  0.2526994610348576  0.0068764065628282  0.5056991259093137
  0.7677208563207564  0.5048495053335991  0.5089193430563845
  0.2396108324859767  0.5079333245143165  0.5086074721982993
  0.2635789635405015  0.0036523122064287  0.0057130630057958
  0.7351912361777070  0.0016610643508306  0.0076933812991012
  0.8277544462227847  0.4134779526226756 -0.0722876742436319
  0.5047022863382257  0.2435937736082436 -0.0044778850430710
  0.5053214766960858  0.7564435900202902  0.0183616637038631
 -0.0229733079777326  0.4979673828854981  0.2784940702310774
 -0.0062879306149333  0.5167972968510994  0.7416320448045693
  0.2531091698937328  0.2109717387398672  0.2223768920172406
  0.2427648280554133  0.7888329328759142  0.7898486952488103
  0.2626478197826871  0.2877986205051227  0.7195402681667523
  0.2707293253120254  0.7336727130739285  0.2921830017667781
  0.7681593029177111  0.3106004335799566  0.3107082227117039
  0.7609611744404682  0.7066044898854653  0.7044110329063524
  0.7382113357929483  0.2017229631819256  0.8063076591439154
  0.7420722511886645  0.8081993625784893  0.2049028191181088
  0.9816967519999071  0.2300325916386226  0.2488869731132336
  0.9900181766611109  0.7571048892808622  0.7596797530245594
  0.2637467606334133  0.2531303459674992  0.4743686476065285
  0.2659612665417439  0.7615987077413733  0.5360710843980988
  0.7440782496385169  0.2400608761420570  0.5504884735454278
  0.7476574432212474  0.7745525678175041  0.4621778903026056
  0.6839768660957954  0.4288664482794187  0.1019202994154990
  0.7363193660898728  0.4562926480244013  0.7271285530178057
  0.1017126119179718  0.3847629571602911  0.1506696430925847
  0.2384813708121665  0.5402840352979231  0.7459575003293837
  0.5160892021779732  0.7485339091616848  0.2595358850155816
  0.5128854906007008  0.2580509763537422  0.7544781684350502
  0.2353867424818354  0.9759136296496824  0.2619459906361072
  0.2385678551696701  0.0316090538022181  0.7507801380874644
  0.2617986452236263  0.2425244595661616  0.9671724777520480
  0.2623422713096512  0.7627721546037567  0.0413396006503860
  0.7596064641824590  0.9625535352124173  0.7466264305940989
  0.7526958205929364  0.0530533870616632  0.2762203082136838
  0.7639907896367527  0.7837769578846119  0.9542481602869157
  0.7562323363326219  0.2231497030244588  0.0542668636867626
  0.0113579176361476  0.2567625859045349  0.7612597206144198
  0.0176581826834782  0.7466627085191246  0.2405271278252784
  0.4969268180802554  0.2660071379038074  0.2564409228650432
  0.4913821985670775  0.7394640319852173  0.7580443295856985
 -0.0008607371703737  0.2505362843831686  0.0045715385443801
  0.0125642649842558  0.7463907736440061 -0.0109440847747599
  0.5033345145330678  0.2418369283616963  0.5032189141413218
  0.5057187268755148  0.7648920308437669  0.5105219764797286
  0.4946577521900662  0.5184245570887669  0.2449801509906539
  0.4888995443068502  0.4884560488254504  0.7660596542113697
 -0.0039434227379286 -0.0109226261262250  0.2645781121404129
 -0.0003803300398257  0.0071461388648665  0.7408643715829658
  0.2589414208427923  0.4887943880433504  0.2754478390342688
  0.7279930559224373  0.5687293332061225  0.2964312353693550
  0.8340906260100327  0.5966415359292657  0.0864818451737480
  0.6734552456070690  0.5820926895666472  0.9177382633054094
  0.4993154929533686  0.5038448295629305  0.5055841184073241
  0.0034851450251743  0.0008878736885667  0.0028784380280318
  0.2532852802597763  0.5055974866784662  0.0021460784970863
  0.0047698023734426  0.7545709033074597  0.5028102790517240
  0.0027738757682528  0.2556771416308574  0.5038795916715126
  0.4980403917165440  0.0049834167890124  0.2560065080038663
  0.4989867081291640  0.0001352092367095  0.7572134936635915
  0.6030053040824518  0.6012005522258648  0.6109587679548714
  0.6045545301067321  0.4063271905455542  0.4008275545280186
  0.9013590487450972  0.8947117036597734  0.1010224427717161
  0.8966746640615980  0.1025409827464145  0.9027927155187072
  0.1094388066171344  0.9067817155851114  0.8979934471225686
  0.1050308846703320  0.1019114312405844  0.1101406237731228
  0.3961094636421006  0.6102304902828757  0.4071037275487190
  0.3944342853163033  0.3976315588963443  0.6011033549058057
  0.1007229277857176  0.3535670215131195  0.3889969159803801
  0.1049464693738782  0.6552167851038120  0.6112673815401548
  0.1139529931162568  0.1572627245148639  0.6033998016869700
  0.1141447397863106  0.8537195113549095  0.4018566364471854
  0.8880625295348518  0.1524839705958119  0.4134620245426203
  0.8934895226080778  0.8562543135997569  0.5978789359159538
  0.8820466364244718  0.3810471482546151  0.1315032159335272
  0.8683482376835042  0.6212954452798312  0.8718004839702945
  0.1500213627817916  0.5989527578305953  0.1157614728048667
  0.1530602204579808  0.4052775184009811  0.8918508184063771
  0.3966342788806093  0.8946528263333169  0.1599377762309715
  0.3986190818426111  0.1090306728111246  0.8553306708296109
  0.3899387013946274  0.1057064411859877  0.3557357567148816
  0.3894810989380677  0.9011162041805106  0.6562875507405158
  0.3425170708525552  0.3897241130674029  0.1070161736226855
  0.3528557556115643  0.6161593511034416  0.9070400998863032
  0.6116121112026983  0.0965600413788458  0.6561378622720601
  0.6119958960194921  0.9109605120551804  0.3576607368403397
  0.6356252377128249  0.6332934577427625  0.1250509947296744
  0.6330034219745749  0.3717163938642014  0.8922042463216971
  0.9051967005976942  0.3593319238467152  0.6098529402403193
  0.9030649667686053  0.6526167047188046  0.3974426146139626
  0.5966666494527449  0.1104788915091652  0.1518362709960495
  0.5980663380951001  0.8932847039316623  0.8597217205488868
 
  0.00000000E+00  0.00000000E+00  0.00000000E+00
  0.00000000E+00  0.00000000E+00  0.00000000E+00
  0.00000000E+00  0.00000000E+00  0.00000000E+00
  0.00000000E+00  0.00000000E+00  0.00000000E+00
  0.00000000E+00  0.00000000E+00  0.00000000E+00
  0.00000000E+00  0.00000000E+00  0.00000000E+00
  0.00000000E+00  0.00000000E+00  0.00000000E+00
  0.00000000E+00  0.00000000E+00  0.00000000E+00
  0.00000000E+00  0.00000000E+00  0.00000000E+00
  0.00000000E+00  0.00000000E+00  0.00000000E+00
  0.00000000E+00  0.00000000E+00  0.00000000E+00
  0.00000000E+00  0.00000000E+00  0.00000000E+00
  0.00000000E+00  0.00000000E+00  0.00000000E+00
  0.00000000E+00  0.00000000E+00  0.00000000E+00
  0.00000000E+00  0.00000000E+00  0.00000000E+00
  0.00000000E+00  0.00000000E+00  0.00000000E+00
  0.00000000E+00  0.00000000E+00  0.00000000E+00
  0.00000000E+00  0.00000000E+00  0.00000000E+00
  0.00000000E+00  0.00000000E+00  0.00000000E+00
  0.00000000E+00  0.00000000E+00  0.00000000E+00
  0.00000000E+00  0.00000000E+00  0.00000000E+00
  0.00000000E+00  0.00000000E+00  0.00000000E+00
  0.00000000E+00  0.00000000E+00  0.00000000E+00
  0.00000000E+00  0.00000000E+00  0.00000000E+00
  0.00000000E+00  0.00000000E+00  0.00000000E+00
  0.00000000E+00  0.00000000E+00  0.00000000E+00
  0.00000000E+00  0.00000000E+00  0.00000000E+00
  0.00000000E+00  0.00000000E+00  0.00000000E+00
  0.00000000E+00  0.00000000E+00  0.00000000E+00
  0.00000000E+00  0.00000000E+00  0.00000000E+00
  0.00000000E+00  0.00000000E+00  0.00000000E+00
  0.00000000E+00  0.00000000E+00  0.00000000E+00
  0.00000000E+00  0.00000000E+00  0.00000000E+00
  0.00000000E+00  0.00000000E+00  0.00000000E+00
  0.00000000E+00  0.00000000E+00  0.00000000E+00
  0.00000000E+00  0.00000000E+00  0.00000000E+00
  0.00000000E+00  0.00000000E+00  0.00000000E+00
  0.00000000E+00  0.00000000E+00  0.00000000E+00
  0.00000000E+00  0.00000000E+00  0.00000000E+00
  0.00000000E+00  0.00000000E+00  0.00000000E+00
  0.00000000E+00  0.00000000E+00  0.00000000E+00
  0.00000000E+00  0.00000000E+00  0.00000000E+00
  0.00000000E+00  0.00000000E+00  0.00000000E+00
  0.00000000E+00  0.00000000E+00  0.00000000E+00
  0.00000000E+00  0.00000000E+00  0.00000000E+00
  0.00000000E+00  0.00000000E+00  0.00000000E+00
  0.00000000E+00  0.00000000E+00  0.00000000E+00
  0.00000000E+00  0.00000000E+00  0.00000000E+00
  0.00000000E+00  0.00000000E+00  0.00000000E+00
  0.00000000E+00  0.00000000E+00  0.00000000E+00
  0.00000000E+00  0.00000000E+00  0.00000000E+00
  0.00000000E+00  0.00000000E+00  0.00000000E+00
  0.00000000E+00  0.00000000E+00  0.00000000E+00
  0.00000000E+00  0.00000000E+00  0.00000000E+00
  0.00000000E+00  0.00000000E+00  0.00000000E+00
  0.00000000E+00  0.00000000E+00  0.00000000E+00
  0.00000000E+00  0.00000000E+00  0.00000000E+00
  0.00000000E+00  0.00000000E+00  0.00000000E+00
  0.00000000E+00  0.00000000E+00  0.00000000E+00
  0.00000000E+00  0.00000000E+00  0.00000000E+00
  0.00000000E+00  0.00000000E+00  0.00000000E+00
  0.00000000E+00  0.00000000E+00  0.00000000E+00
  0.00000000E+00  0.00000000E+00  0.00000000E+00
  0.00000000E+00  0.00000000E+00  0.00000000E+00
  0.00000000E+00  0.00000000E+00  0.00000000E+00
  0.00000000E+00  0.00000000E+00  0.00000000E+00
  0.00000000E+00  0.00000000E+00  0.00000000E+00
  0.00000000E+00  0.00000000E+00  0.00000000E+00
  0.00000000E+00  0.00000000E+00  0.00000000E+00
  0.00000000E+00  0.00000000E+00  0.00000000E+00
  0.00000000E+00  0.00000000E+00  0.00000000E+00
  0.00000000E+00  0.00000000E+00  0.00000000E+00
  0.00000000E+00  0.00000000E+00  0.00000000E+00
  0.00000000E+00  0.00000000E+00  0.00000000E+00
  0.00000000E+00  0.00000000E+00  0.00000000E+00
  0.00000000E+00  0.00000000E+00  0.00000000E+00
  0.00000000E+00  0.00000000E+00  0.00000000E+00
  0.00000000E+00  0.00000000E+00  0.00000000E+00
  0.00000000E+00  0.00000000E+00  0.00000000E+00
  0.00000000E+00  0.00000000E+00  0.00000000E+00
  0.00000000E+00  0.00000000E+00  0.00000000E+00
  0.00000000E+00  0.00000000E+00  0.00000000E+00
  0.00000000E+00  0.00000000E+00  0.00000000E+00
  0.00000000E+00  0.00000000E+00  0.00000000E+00
  0.00000000E+00  0.00000000E+00  0.00000000E+00
  0.00000000E+00  0.00000000E+00  0.00000000E+00
  0.00000000E+00  0.00000000E+00  0.00000000E+00
  0.00000000E+00  0.00000000E+00  0.00000000E+00
  0.00000000E+00  0.00000000E+00  0.00000000E+00
  0.00000000E+00  0.00000000E+00  0.00000000E+00
  0.00000000E+00  0.00000000E+00  0.00000000E+00
  0.00000000E+00  0.00000000E+00  0.00000000E+00
  0.00000000E+00  0.00000000E+00  0.00000000E+00
  0.00000000E+00  0.00000000E+00  0.00000000E+00
  0.00000000E+00  0.00000000E+00  0.00000000E+00
  0.00000000E+00  0.00000000E+00  0.00000000E+00
  0.00000000E+00  0.00000000E+00  0.00000000E+00
  0.00000000E+00  0.00000000E+00  0.00000000E+00
  0.00000000E+00  0.00000000E+00  0.00000000E+00
  0.00000000E+00  0.00000000E+00  0.00000000E+00
