Li392 P56 N224
1.0
9.402378 0.000000 0.000000
0.000000 9.402378 -9.402378
0.000000 0.000000 94.023780
Li P N
392 56 224
Selective dynamics
direct
0.500000 0.500000 0.014398 T T T Li
0.000000 0.000000 0.014398 T T T Li
0.500000 0.000000 0.064398 F F F Li
0.000000 0.500000 0.014398 T T T Li
0.500000 0.000000 0.014398 T T T Li
0.000000 0.500000 0.064398 F F F Li
0.500000 0.000000 0.039398 F F F Li
0.250000 0.500000 0.014398 T T T Li
0.750000 0.500000 0.014398 T T T Li
0.000000 0.750000 0.089398 F F F Li
0.000000 0.250000 0.039398 F F F Li
0.500000 0.000000 0.089398 F F F Li
0.774626 0.774626 0.019323 T T T Li
0.725374 0.274626 0.064398 F F F Li
0.274626 0.725374 0.009473 T T T Li
0.725374 0.725374 0.064398 F F F Li
0.774626 0.225374 0.009473 T T T Li
0.225374 0.225374 0.064398 F F F Li
0.225374 0.774626 0.064398 F F F Li
0.274626 0.274626 0.019323 T T T Li
0.024836 0.762917 0.015356 T T T Li
0.737083 0.524836 0.092215 F F F Li
0.262917 0.475164 0.087248 F F F Li
0.246664 0.737083 0.085623 F F F Li
0.753336 0.737083 0.090590 F F F Li
0.475164 0.753336 0.066024 F F F Li
0.475164 0.246664 0.062773 F F F Li
0.762917 0.746664 0.041548 F F F Li
0.746664 0.024836 0.043174 F F F Li
0.746664 0.975164 0.085623 F F F Li
0.237083 0.253336 0.092215 F F F Li
0.253336 0.024836 0.090590 F F F Li
0.762917 0.253336 0.087248 F F F Li
0.237083 0.746664 0.036581 F F F Li
0.253336 0.975164 0.038206 F F F Li
0.975164 0.237083 0.062773 F F F Li
0.975164 0.762917 0.066023 F F F Li
0.024836 0.237083 0.013440 T T T Li
0.524836 0.753336 0.013440 T T T Li
0.524836 0.246664 0.015356 T T T Li
0.753336 0.262917 0.038206 F F F Li
0.246664 0.262917 0.043174 F F F Li
0.737083 0.475164 0.036581 F F F Li
0.262917 0.524836 0.041548 F F F Li
0.000000 0.000000 0.037960 F F F Li
0.500000 0.500000 0.090837 F F F Li
0.235613 0.500000 0.064398 F F F Li
0.764387 0.500000 0.064398 F F F Li
0.500000 0.764387 0.090837 F F F Li
0.500000 0.235613 0.037960 F F F Li
0.000000 0.735613 0.037960 F F F Li
0.735613 0.000000 0.064398 F F F Li
0.000000 0.264387 0.090837 F F F Li
0.264387 0.000000 0.064398 F F F Li
0.000000 0.000000 0.090837 F F F Li
0.500000 0.500000 0.037960 F F F Li
0.500000 0.500000 0.114398 F F F Li
0.000000 0.000000 0.114398 F F F Li
0.500000 0.000000 0.164398 F F F Li
0.000000 0.500000 0.114398 F F F Li
0.500000 0.000000 0.114398 F F F Li
0.000000 0.500000 0.164398 F F F Li
0.500000 0.000000 0.139398 F F F Li
0.250000 0.500000 0.114398 F F F Li
0.750000 0.500000 0.114398 F F F Li
0.000000 0.750000 0.189398 F F F Li
0.000000 0.250000 0.139398 F F F Li
0.500000 0.000000 0.189398 F F F Li
0.774626 0.774626 0.119323 F F F Li
0.725374 0.274626 0.164398 F F F Li
0.274626 0.725374 0.109473 F F F Li
0.725374 0.725374 0.164398 F F F Li
0.774626 0.225374 0.109473 F F F Li
0.225374 0.225374 0.164398 F F F Li
0.225374 0.774626 0.164398 F F F Li
0.274626 0.274626 0.119323 F F F Li
0.024836 0.762917 0.115356 F F F Li
0.737083 0.524836 0.192215 F F F Li
0.262917 0.475164 0.187248 F F F Li
0.246664 0.737083 0.185623 F F F Li
0.753336 0.737083 0.190590 F F F Li
0.475164 0.753336 0.166024 F F F Li
0.475164 0.246664 0.162773 F F F Li
0.762917 0.746664 0.141548 F F F Li
0.746664 0.024836 0.143174 F F F Li
0.746664 0.975164 0.185623 F F F Li
0.237083 0.253336 0.192215 F F F Li
0.253336 0.024836 0.190590 F F F Li
0.762917 0.253336 0.187248 F F F Li
0.237083 0.746664 0.136581 F F F Li
0.253336 0.975164 0.138206 F F F Li
0.975164 0.237083 0.162773 F F F Li
0.975164 0.762917 0.166023 F F F Li
0.024836 0.237083 0.113440 F F F Li
0.524836 0.753336 0.113440 F F F Li
0.524836 0.246664 0.115356 F F F Li
0.753336 0.262917 0.138206 F F F Li
0.246664 0.262917 0.143174 F F F Li
0.737083 0.475164 0.136581 F F F Li
0.262917 0.524836 0.141548 F F F Li
0.000000 0.000000 0.137960 F F F Li
0.500000 0.500000 0.190837 F F F Li
0.235613 0.500000 0.164398 F F F Li
0.764387 0.500000 0.164398 F F F Li
0.500000 0.764387 0.190837 F F F Li
0.500000 0.235613 0.137960 F F F Li
0.000000 0.735613 0.137960 F F F Li
0.735613 0.000000 0.164398 F F F Li
0.000000 0.264387 0.190837 F F F Li
0.264387 0.000000 0.164398 F F F Li
0.000000 0.000000 0.190837 F F F Li
0.500000 0.500000 0.137960 F F F Li
0.500000 0.500000 0.214398 F F F Li
0.000000 0.000000 0.214398 F F F Li
0.500000 0.000000 0.264398 F F F Li
0.000000 0.500000 0.214398 F F F Li
0.500000 0.000000 0.214398 F F F Li
0.000000 0.500000 0.264398 F F F Li
0.500000 0.000000 0.239398 F F F Li
0.250000 0.500000 0.214398 F F F Li
0.750000 0.500000 0.214398 F F F Li
0.000000 0.750000 0.289398 F F F Li
0.000000 0.250000 0.239398 F F F Li
0.500000 0.000000 0.289398 F F F Li
0.774626 0.774626 0.219323 F F F Li
0.725374 0.274626 0.264398 F F F Li
0.274626 0.725374 0.209473 F F F Li
0.725374 0.725374 0.264398 F F F Li
0.774626 0.225374 0.209473 F F F Li
0.225374 0.225374 0.264398 F F F Li
0.225374 0.774626 0.264398 F F F Li
0.274626 0.274626 0.219323 F F F Li
0.024836 0.762917 0.215356 F F F Li
0.737083 0.524836 0.292215 F F F Li
0.262917 0.475164 0.287248 F F F Li
0.246664 0.737083 0.285623 F F F Li
0.753336 0.737083 0.290590 F F F Li
0.475164 0.753336 0.266024 F F F Li
0.475164 0.246664 0.262773 F F F Li
0.762917 0.746664 0.241548 F F F Li
0.746664 0.024836 0.243174 F F F Li
0.746664 0.975164 0.285623 F F F Li
0.237083 0.253336 0.292215 F F F Li
0.253336 0.024836 0.290590 F F F Li
0.762917 0.253336 0.287248 F F F Li
0.237083 0.746664 0.236581 F F F Li
0.253336 0.975164 0.238206 F F F Li
0.975164 0.237083 0.262773 F F F Li
0.975164 0.762917 0.266024 F F F Li
0.024836 0.237083 0.213440 F F F Li
0.524836 0.753336 0.213440 F F F Li
0.524836 0.246664 0.215356 F F F Li
0.753336 0.262917 0.238206 F F F Li
0.246664 0.262917 0.243174 F F F Li
0.737083 0.475164 0.236581 F F F Li
0.262917 0.524836 0.241548 F F F Li
0.000000 0.000000 0.237960 F F F Li
0.500000 0.500000 0.290837 F F F Li
0.235613 0.500000 0.264398 F F F Li
0.764387 0.500000 0.264398 F F F Li
0.500000 0.764387 0.290837 F F F Li
0.500000 0.235613 0.237960 F F F Li
0.000000 0.735613 0.237960 F F F Li
0.735613 0.000000 0.264398 F F F Li
0.000000 0.264387 0.290837 F F F Li
0.264387 0.000000 0.264398 F F F Li
0.000000 0.000000 0.290837 F F F Li
0.500000 0.500000 0.237960 F F F Li
0.500000 0.500000 0.314398 F F F Li
0.000000 0.000000 0.314398 F F F Li
0.500000 0.000000 0.364398 F F F Li
0.000000 0.500000 0.314398 F F F Li
0.500000 0.000000 0.314398 F F F Li
0.000000 0.500000 0.364398 F F F Li
0.500000 0.000000 0.339398 F F F Li
0.250000 0.500000 0.314398 F F F Li
0.750000 0.500000 0.314398 F F F Li
0.000000 0.750000 0.389398 F F F Li
0.000000 0.250000 0.339398 F F F Li
0.500000 0.000000 0.389398 F F F Li
0.774626 0.774626 0.319323 F F F Li
0.725374 0.274626 0.364398 F F F Li
0.274626 0.725374 0.309473 F F F Li
0.725374 0.725374 0.364398 F F F Li
0.774626 0.225374 0.309473 F F F Li
0.225374 0.225374 0.364398 F F F Li
0.225374 0.774626 0.364398 F F F Li
0.274626 0.274626 0.319323 F F F Li
0.024836 0.762917 0.315356 F F F Li
0.737083 0.524836 0.392215 F F F Li
0.262917 0.475164 0.387248 F F F Li
0.246664 0.737083 0.385623 F F F Li
0.753336 0.737083 0.390590 F F F Li
0.475164 0.753336 0.366024 F F F Li
0.475164 0.246664 0.362773 F F F Li
0.762917 0.746664 0.341548 F F F Li
0.746664 0.024836 0.343174 F F F Li
0.746664 0.975164 0.385623 F F F Li
0.237083 0.253336 0.392215 F F F Li
0.253336 0.024836 0.390590 F F F Li
0.762917 0.253336 0.387248 F F F Li
0.237083 0.746664 0.336581 F F F Li
0.253336 0.975164 0.338206 F F F Li
0.975164 0.237083 0.362773 F F F Li
0.975164 0.762917 0.366024 F F F Li
0.024836 0.237083 0.313440 F F F Li
0.524836 0.753336 0.313440 F F F Li
0.524836 0.246664 0.315356 F F F Li
0.753336 0.262917 0.338206 F F F Li
0.246664 0.262917 0.343174 F F F Li
0.737083 0.475164 0.336581 F F F Li
0.262917 0.524836 0.341548 F F F Li
0.000000 0.000000 0.337960 F F F Li
0.500000 0.500000 0.390837 F F F Li
0.235613 0.500000 0.364398 F F F Li
0.764387 0.500000 0.364398 F F F Li
0.500000 0.764387 0.390837 F F F Li
0.500000 0.235613 0.337960 F F F Li
0.000000 0.735613 0.337960 F F F Li
0.735613 0.000000 0.364398 F F F Li
0.000000 0.264387 0.390837 F F F Li
0.264387 0.000000 0.364398 F F F Li
0.000000 0.000000 0.390837 F F F Li
0.500000 0.500000 0.337960 F F F Li
0.500000 0.500000 0.414398 F F F Li
0.000000 0.000000 0.414398 F F F Li
0.500000 0.000000 0.464398 F F F Li
0.000000 0.500000 0.414398 F F F Li
0.500000 0.000000 0.414398 F F F Li
0.000000 0.500000 0.464398 F F F Li
0.500000 0.000000 0.439398 F F F Li
0.250000 0.500000 0.414398 F F F Li
0.750000 0.500000 0.414398 F F F Li
0.000000 0.750000 0.489398 F F F Li
0.000000 0.250000 0.439398 F F F Li
0.500000 0.000000 0.489398 F F F Li
0.774626 0.774626 0.419323 F F F Li
0.725374 0.274626 0.464398 F F F Li
0.274626 0.725374 0.409473 F F F Li
0.725374 0.725374 0.464398 F F F Li
0.774626 0.225374 0.409473 F F F Li
0.225374 0.225374 0.464398 F F F Li
0.225374 0.774626 0.464398 F F F Li
0.274626 0.274626 0.419323 F F F Li
0.024836 0.762917 0.415356 F F F Li
0.737083 0.524836 0.492215 F F F Li
0.262917 0.475164 0.487248 F F F Li
0.246664 0.737083 0.485623 F F F Li
0.753336 0.737083 0.490590 F F F Li
0.475164 0.753336 0.466024 F F F Li
0.475164 0.246664 0.462773 F F F Li
0.762917 0.746664 0.441548 F F F Li
0.746664 0.024836 0.443174 F F F Li
0.746664 0.975164 0.485623 F F F Li
0.237083 0.253336 0.492215 F F F Li
0.253336 0.024836 0.490590 F F F Li
0.762917 0.253336 0.487248 F F F Li
0.237083 0.746664 0.436581 F F F Li
0.253336 0.975164 0.438206 F F F Li
0.975164 0.237083 0.462773 F F F Li
0.975164 0.762917 0.466024 F F F Li
0.024836 0.237083 0.413440 F F F Li
0.524836 0.753336 0.413440 F F F Li
0.524836 0.246664 0.415356 F F F Li
0.753336 0.262917 0.438206 F F F Li
0.246664 0.262917 0.443174 F F F Li
0.737083 0.475164 0.436581 F F F Li
0.262917 0.524836 0.441548 F F F Li
0.000000 0.000000 0.437960 F F F Li
0.500000 0.500000 0.490837 F F F Li
0.235613 0.500000 0.464398 F F F Li
0.764387 0.500000 0.464398 F F F Li
0.500000 0.764387 0.490837 F F F Li
0.500000 0.235613 0.437960 F F F Li
0.000000 0.735613 0.437960 F F F Li
0.735613 0.000000 0.464398 F F F Li
0.000000 0.264387 0.490837 F F F Li
0.264387 0.000000 0.464398 F F F Li
0.000000 0.000000 0.490837 F F F Li
0.500000 0.500000 0.437960 F F F Li
0.500000 0.500000 0.514398 F F F Li
0.000000 0.000000 0.514398 F F F Li
0.500000 0.000000 0.564398 F F F Li
0.000000 0.500000 0.514398 F F F Li
0.500000 0.000000 0.514398 F F F Li
0.000000 0.500000 0.564398 F F F Li
0.500000 0.000000 0.539398 F F F Li
0.250000 0.500000 0.514398 F F F Li
0.750000 0.500000 0.514398 F F F Li
0.000000 0.750000 0.589398 F F F Li
0.000000 0.250000 0.539398 F F F Li
0.500000 0.000000 0.589398 F F F Li
0.774626 0.774626 0.519323 F F F Li
0.725374 0.274626 0.564398 F F F Li
0.274626 0.725374 0.509473 F F F Li
0.725374 0.725374 0.564398 F F F Li
0.774626 0.225374 0.509473 F F F Li
0.225374 0.225374 0.564398 F F F Li
0.225374 0.774626 0.564398 F F F Li
0.274626 0.274626 0.519323 F F F Li
0.024836 0.762917 0.515356 F F F Li
0.737083 0.524836 0.592215 F F F Li
0.262917 0.475164 0.587248 F F F Li
0.246664 0.737083 0.585623 F F F Li
0.753336 0.737083 0.590590 F F F Li
0.475164 0.753336 0.566024 F F F Li
0.475164 0.246664 0.562773 F F F Li
0.762917 0.746664 0.541548 F F F Li
0.746664 0.024836 0.543173 F F F Li
0.746664 0.975164 0.585623 F F F Li
0.237083 0.253336 0.592215 F F F Li
0.253336 0.024836 0.590590 F F F Li
0.762917 0.253336 0.587248 F F F Li
0.237083 0.746664 0.536581 F F F Li
0.253336 0.975164 0.538206 F F F Li
0.975164 0.237083 0.562773 F F F Li
0.975164 0.762917 0.566024 F F F Li
0.024836 0.237083 0.513440 F F F Li
0.524836 0.753336 0.513440 F F F Li
0.524836 0.246664 0.515356 F F F Li
0.753336 0.262917 0.538206 F F F Li
0.246664 0.262917 0.543173 F F F Li
0.737083 0.475164 0.536581 F F F Li
0.262917 0.524836 0.541548 F F F Li
0.000000 0.000000 0.537960 F F F Li
0.500000 0.500000 0.590837 F F F Li
0.235613 0.500000 0.564398 F F F Li
0.764387 0.500000 0.564398 F F F Li
0.500000 0.764387 0.590837 F F F Li
0.500000 0.235613 0.537960 F F F Li
0.000000 0.735613 0.537960 F F F Li
0.735613 0.000000 0.564398 F F F Li
0.000000 0.264387 0.590837 F F F Li
0.264387 0.000000 0.564398 F F F Li
0.000000 0.000000 0.590837 F F F Li
0.500000 0.500000 0.537960 F F F Li
0.500000 0.500000 0.614398 F F F Li
0.000000 0.000000 0.614398 F F F Li
0.500000 0.000000 0.664398 F F F Li
0.000000 0.500000 0.614398 F F F Li
0.500000 0.000000 0.614398 F F F Li
0.000000 0.500000 0.664398 F F F Li
0.500000 0.000000 0.639398 F F F Li
0.250000 0.500000 0.614398 F F F Li
0.750000 0.500000 0.614398 F F F Li
0.000000 0.750000 0.689398 T T T Li
0.000000 0.250000 0.639398 F F F Li
0.500000 0.000000 0.689398 T T T Li
0.774626 0.774626 0.619323 F F F Li
0.725374 0.274626 0.664398 F F F Li
0.274626 0.725374 0.609473 F F F Li
0.725374 0.725374 0.664398 F F F Li
0.774626 0.225374 0.609473 F F F Li
0.225374 0.225374 0.664398 F F F Li
0.225374 0.774626 0.664398 F F F Li
0.274626 0.274626 0.619323 F F F Li
0.024836 0.762917 0.615356 F F F Li
0.737083 0.524836 0.692215 T T T Li
0.262917 0.475164 0.687248 T T T Li
0.246664 0.737083 0.685623 T T T Li
0.753336 0.737083 0.690590 T T T Li
0.475164 0.753336 0.666023 F F F Li
0.475164 0.246664 0.662773 F F F Li
0.762917 0.746664 0.641548 F F F Li
0.746664 0.024836 0.643173 F F F Li
0.746664 0.975164 0.685623 T T T Li
0.237083 0.253336 0.692215 T T T Li
0.253336 0.024836 0.690590 T T T Li
0.762917 0.253336 0.687248 T T T Li
0.237083 0.746664 0.636581 F F F Li
0.253336 0.975164 0.638206 F F F Li
0.975164 0.237083 0.662773 F F F Li
0.975164 0.762917 0.666023 F F F Li
0.024836 0.237083 0.613440 F F F Li
0.524836 0.753336 0.613440 F F F Li
0.524836 0.246664 0.615356 F F F Li
0.753336 0.262917 0.638206 F F F Li
0.246664 0.262917 0.643173 F F F Li
0.737083 0.475164 0.636581 F F F Li
0.262917 0.524836 0.641548 F F F Li
0.000000 0.000000 0.637960 F F F Li
0.500000 0.500000 0.690837 T T T Li
0.235613 0.500000 0.664398 F F F Li
0.764387 0.500000 0.664398 F F F Li
0.500000 0.764387 0.690837 T T T Li
0.500000 0.235613 0.637960 F F F Li
0.000000 0.735613 0.637960 F F F Li
0.735613 0.000000 0.664398 F F F Li
0.000000 0.264387 0.690837 T T T Li
0.264387 0.000000 0.664398 F F F Li
0.000000 0.000000 0.690837 T T T Li
0.500000 0.500000 0.637960 F F F Li
0.500000 0.500000 0.064398 F F F P
0.000000 0.000000 0.064398 F F F P
0.250000 0.000000 0.014398 T T T P
0.000000 0.500000 0.039398 F F F P
0.000000 0.500000 0.089398 F F F P
0.500000 0.750000 0.039398 F F F P
0.500000 0.250000 0.089398 F F F P
0.750000 0.000000 0.014398 T T T P
0.500000 0.500000 0.164398 F F F P
0.000000 0.000000 0.164398 F F F P
0.250000 0.000000 0.114398 F F F P
0.000000 0.500000 0.139398 F F F P
0.000000 0.500000 0.189398 F F F P
0.500000 0.750000 0.139398 F F F P
0.500000 0.250000 0.189398 F F F P
0.750000 0.000000 0.114398 F F F P
0.500000 0.500000 0.264398 F F F P
0.000000 0.000000 0.264398 F F F P
0.250000 0.000000 0.214398 F F F P
0.000000 0.500000 0.239398 F F F P
0.000000 0.500000 0.289398 F F F P
0.500000 0.750000 0.239398 F F F P
0.500000 0.250000 0.289398 F F F P
0.750000 0.000000 0.214398 F F F P
0.500000 0.500000 0.364398 F F F P
0.000000 0.000000 0.364398 F F F P
0.250000 0.000000 0.314398 F F F P
0.000000 0.500000 0.339398 F F F P
0.000000 0.500000 0.389398 F F F P
0.500000 0.750000 0.339398 F F F P
0.500000 0.250000 0.389398 F F F P
0.750000 0.000000 0.314398 F F F P
0.500000 0.500000 0.464398 F F F P
0.000000 0.000000 0.464398 F F F P
0.250000 0.000000 0.414398 F F F P
0.000000 0.500000 0.439398 F F F P
0.000000 0.500000 0.489398 F F F P
0.500000 0.750000 0.439398 F F F P
0.500000 0.250000 0.489398 F F F P
0.750000 0.000000 0.414398 F F F P
0.500000 0.500000 0.564398 F F F P
0.000000 0.000000 0.564398 F F F P
0.250000 0.000000 0.514398 F F F P
0.000000 0.500000 0.539398 F F F P
0.000000 0.500000 0.589398 F F F P
0.500000 0.750000 0.539398 F F F P
0.500000 0.250000 0.589398 F F F P
0.750000 0.000000 0.514398 F F F P
0.500000 0.500000 0.664398 T T T P
0.000000 0.000000 0.664398 T T T P
0.250000 0.000000 0.614398 F F F P
0.000000 0.500000 0.639398 F F F P
0.000000 0.500000 0.689398 T T T P
0.500000 0.750000 0.639398 F F F P
0.500000 0.250000 0.689398 T T T P
0.750000 0.000000 0.614398 F F F P
0.396539 0.396539 0.043706 F F F N
0.103461 0.896539 0.064398 F F F N
0.103461 0.103461 0.064398 F F F N
0.896539 0.103461 0.085090 F F F N
0.603461 0.603461 0.064398 F F F N
0.396539 0.603461 0.085090 F F F N
0.603461 0.396539 0.064398 F F F N
0.896539 0.896539 0.043706 F F F N
0.900579 0.612615 0.090587 F F F N
0.887385 0.400579 0.089529 F F F N
0.112615 0.599421 0.009413 T T T N
0.149269 0.887385 0.013079 T T T N
0.850731 0.887385 0.093195 F F F N
0.599421 0.850731 0.060733 F F F N
0.599421 0.149269 0.068064 F F F N
0.612615 0.649269 0.019383 F F F N
0.649269 0.900579 0.015718 T T T N
0.649269 0.099421 0.013079 T T T N
0.387385 0.350731 0.089529 F F F N
0.350731 0.900579 0.093195 F F F N
0.612615 0.350731 0.009413 T T T N
0.387385 0.649269 0.039267 F F F N
0.350731 0.099421 0.035602 F F F N
0.099421 0.387385 0.068064 F F F N
0.099421 0.612615 0.060733 F F F N
0.900579 0.387385 0.038210 F F F N
0.400579 0.850731 0.038210 F F F N
0.400579 0.149269 0.090587 F F F N
0.850731 0.112615 0.035602 F F F N
0.149269 0.112615 0.015718 T T T N
0.887385 0.599421 0.039267 F F F N
0.112615 0.400579 0.019383 F F F N
0.396539 0.396539 0.143706 F F F N
0.103461 0.896539 0.164398 F F F N
0.103461 0.103461 0.164398 F F F N
0.896539 0.103461 0.185090 F F F N
0.603461 0.603461 0.164398 F F F N
0.396539 0.603461 0.185090 F F F N
0.603461 0.396539 0.164398 F F F N
0.896539 0.896539 0.143706 F F F N
0.900579 0.612615 0.190587 F F F N
0.887385 0.400579 0.189529 F F F N
0.112615 0.599421 0.109413 F F F N
0.149269 0.887385 0.113079 F F F N
0.850731 0.887385 0.193195 F F F N
0.599421 0.850731 0.160733 F F F N
0.599421 0.149269 0.168064 F F F N
0.612615 0.649269 0.119383 F F F N
0.649269 0.900579 0.115718 F F F N
0.649269 0.099421 0.113079 F F F N
0.387385 0.350731 0.189529 F F F N
0.350731 0.900579 0.193195 F F F N
0.612615 0.350731 0.109413 F F F N
0.387385 0.649269 0.139267 F F F N
0.350731 0.099421 0.135602 F F F N
0.099421 0.387385 0.168064 F F F N
0.099421 0.612615 0.160733 F F F N
0.900579 0.387385 0.138210 F F F N
0.400579 0.850731 0.138210 F F F N
0.400579 0.149269 0.190587 F F F N
0.850731 0.112615 0.135602 F F F N
0.149269 0.112615 0.115718 F F F N
0.887385 0.599421 0.139267 F F F N
0.112615 0.400579 0.119383 F F F N
0.396539 0.396539 0.243706 F F F N
0.103461 0.896539 0.264398 F F F N
0.103461 0.103461 0.264398 F F F N
0.896539 0.103461 0.285090 F F F N
0.603461 0.603461 0.264398 F F F N
0.396539 0.603461 0.285090 F F F N
0.603461 0.396539 0.264398 F F F N
0.896539 0.896539 0.243706 F F F N
0.900579 0.612615 0.290587 F F F N
0.887385 0.400579 0.289529 F F F N
0.112615 0.599421 0.209413 F F F N
0.149269 0.887385 0.213079 F F F N
0.850731 0.887385 0.293195 F F F N
0.599421 0.850731 0.260733 F F F N
0.599421 0.149269 0.268064 F F F N
0.612615 0.649269 0.219383 F F F N
0.649269 0.900579 0.215718 F F F N
0.649269 0.099421 0.213079 F F F N
0.387385 0.350731 0.289529 F F F N
0.350731 0.900579 0.293195 F F F N
0.612615 0.350731 0.209413 F F F N
0.387385 0.649269 0.239267 F F F N
0.350731 0.099421 0.235602 F F F N
0.099421 0.387385 0.268064 F F F N
0.099421 0.612615 0.260733 F F F N
0.900579 0.387385 0.238210 F F F N
0.400579 0.850731 0.238210 F F F N
0.400579 0.149269 0.290587 F F F N
0.850731 0.112615 0.235602 F F F N
0.149269 0.112615 0.215718 F F F N
0.887385 0.599421 0.239267 F F F N
0.112615 0.400579 0.219383 F F F N
0.396539 0.396539 0.343706 F F F N
0.103461 0.896539 0.364398 F F F N
0.103461 0.103461 0.364398 F F F N
0.896539 0.103461 0.385090 F F F N
0.603461 0.603461 0.364398 F F F N
0.396539 0.603461 0.385090 F F F N
0.603461 0.396539 0.364398 F F F N
0.896539 0.896539 0.343706 F F F N
0.900579 0.612615 0.390587 F F F N
0.887385 0.400579 0.389529 F F F N
0.112615 0.599421 0.309413 F F F N
0.149269 0.887385 0.313079 F F F N
0.850731 0.887385 0.393195 F F F N
0.599421 0.850731 0.360733 F F F N
0.599421 0.149269 0.368064 F F F N
0.612615 0.649269 0.319383 F F F N
0.649269 0.900579 0.315718 F F F N
0.649269 0.099421 0.313079 F F F N
0.387385 0.350731 0.389529 F F F N
0.350731 0.900579 0.393195 F F F N
0.612615 0.350731 0.309413 F F F N
0.387385 0.649269 0.339267 F F F N
0.350731 0.099421 0.335602 F F F N
0.099421 0.387385 0.368064 F F F N
0.099421 0.612615 0.360733 F F F N
0.900579 0.387385 0.338210 F F F N
0.400579 0.850731 0.338210 F F F N
0.400579 0.149269 0.390587 F F F N
0.850731 0.112615 0.335602 F F F N
0.149269 0.112615 0.315718 F F F N
0.887385 0.599421 0.339267 F F F N
0.112615 0.400579 0.319383 F F F N
0.396539 0.396539 0.443706 F F F N
0.103461 0.896539 0.464398 F F F N
0.103461 0.103461 0.464398 F F F N
0.896539 0.103461 0.485090 F F F N
0.603461 0.603461 0.464398 F F F N
0.396539 0.603461 0.485090 F F F N
0.603461 0.396539 0.464398 F F F N
0.896539 0.896539 0.443706 F F F N
0.900579 0.612615 0.490587 F F F N
0.887385 0.400579 0.489529 F F F N
0.112615 0.599421 0.409413 F F F N
0.149269 0.887385 0.413079 F F F N
0.850731 0.887385 0.493195 F F F N
0.599421 0.850731 0.460733 F F F N
0.599421 0.149269 0.468064 F F F N
0.612615 0.649269 0.419383 F F F N
0.649269 0.900579 0.415718 F F F N
0.649269 0.099421 0.413079 F F F N
0.387385 0.350731 0.489529 F F F N
0.350731 0.900579 0.493195 F F F N
0.612615 0.350731 0.409413 F F F N
0.387385 0.649269 0.439267 F F F N
0.350731 0.099421 0.435602 F F F N
0.099421 0.387385 0.468064 F F F N
0.099421 0.612615 0.460733 F F F N
0.900579 0.387385 0.438210 F F F N
0.400579 0.850731 0.438210 F F F N
0.400579 0.149269 0.490587 F F F N
0.850731 0.112615 0.435602 F F F N
0.149269 0.112615 0.415718 F F F N
0.887385 0.599421 0.439267 F F F N
0.112615 0.400579 0.419383 F F F N
0.396539 0.396539 0.543706 F F F N
0.103461 0.896539 0.564398 F F F N
0.103461 0.103461 0.564398 F F F N
0.896539 0.103461 0.585090 F F F N
0.603461 0.603461 0.564398 F F F N
0.396539 0.603461 0.585090 F F F N
0.603461 0.396539 0.564398 F F F N
0.896539 0.896539 0.543706 F F F N
0.900579 0.612615 0.590587 F F F N
0.887385 0.400579 0.589529 F F F N
0.112615 0.599421 0.509413 F F F N
0.149269 0.887385 0.513079 F F F N
0.850731 0.887385 0.593195 F F F N
0.599421 0.850731 0.560733 F F F N
0.599421 0.149269 0.568064 F F F N
0.612615 0.649269 0.519383 F F F N
0.649269 0.900579 0.515718 F F F N
0.649269 0.099421 0.513079 F F F N
0.387385 0.350731 0.589529 F F F N
0.350731 0.900579 0.593195 F F F N
0.612615 0.350731 0.509413 F F F N
0.387385 0.649269 0.539267 F F F N
0.350731 0.099421 0.535602 F F F N
0.099421 0.387385 0.568064 F F F N
0.099421 0.612615 0.560733 F F F N
0.900579 0.387385 0.538210 F F F N
0.400579 0.850731 0.538210 F F F N
0.400579 0.149269 0.590587 F F F N
0.850731 0.112615 0.535602 F F F N
0.149269 0.112615 0.515718 F F F N
0.887385 0.599421 0.539267 F F F N
0.112615 0.400579 0.519383 F F F N
0.396539 0.396539 0.643706 F F F N
0.103461 0.896539 0.664398 F F F N
0.103461 0.103461 0.664398 F F F N
0.896539 0.103461 0.685090 T T T N
0.603461 0.603461 0.664398 F F F N
0.396539 0.603461 0.685090 T T T N
0.603461 0.396539 0.664398 F F F N
0.896539 0.896539 0.643706 F F F N
0.900579 0.612615 0.690587 T T T N
0.887385 0.400579 0.689529 T T T N
0.112615 0.599421 0.609413 F F F N
0.149269 0.887385 0.613079 F F F N
0.850731 0.887385 0.693195 F F F N
0.599421 0.850731 0.660733 F F F N
0.599421 0.149269 0.668064 F F F N
0.612615 0.649269 0.619383 F F F N
0.649269 0.900579 0.615718 F F F N
0.649269 0.099421 0.613079 F F F N
0.387385 0.350731 0.689529 T T T N
0.350731 0.900579 0.693195 F F F N
0.612615 0.350731 0.609413 F F F N
0.387385 0.649269 0.639267 F F F N
0.350731 0.099421 0.635602 F F F N
0.099421 0.387385 0.668064 F F F N
0.099421 0.612615 0.660733 F F F N
0.900579 0.387385 0.638210 F F F N
0.400579 0.850731 0.638210 F F F N
0.400579 0.149269 0.690587 T T T N
0.850731 0.112615 0.635602 F F F N
0.149269 0.112615 0.615718 F F F N
0.887385 0.599421 0.639267 F F F N
0.112615 0.400579 0.619383 F F F N
