Li5 P2 N1 O6                            
   1.00000000000000     
    -0.1400259344044036   -0.0420802912681531    4.9085393340005838
     6.1920209689341403   -0.0714486718702466   -0.1747202279508479
    -0.0568626853736582    5.5766241178716385   -0.0448250126864446
   Li   P    N    O 
     5     2     1     6
Direct
  0.5042586776726402  0.0102000686889120  0.8451172667577093
  0.0019732639420228  0.5144087792998053  0.1342830142599259
  0.5163699573081854  0.7487539438798302  0.3369728853107985
  0.0111181070378586  0.7336139951253114  0.6557268359321112
 -0.0196400964058400  0.2433708788542309  0.7237931351081179
  0.5075659290165533  0.5079774299179012  0.8280604626219634
 -0.0200900361314176 -0.0678112724493146  0.1392535228737407
  0.1190649582670972  0.7930451770867069  0.3217538828532674
  0.6044294682324014  0.7103633302556073  0.6808185255309732
  0.6063653448486922  0.2956222699068221  0.7156213821960874
  0.6211910122322135  0.5413069102205079  0.0883442498047736
  0.1029172650515701 -0.0073690335904926  0.8940839143785807
  0.1858277635547981  0.4943308207217368  0.8286171213430022
  0.7010753853732486  0.0221757020824323  0.1676108010289458
 
  0.00000000E+00  0.00000000E+00  0.00000000E+00
  0.00000000E+00  0.00000000E+00  0.00000000E+00
  0.00000000E+00  0.00000000E+00  0.00000000E+00
  0.00000000E+00  0.00000000E+00  0.00000000E+00
  0.00000000E+00  0.00000000E+00  0.00000000E+00
  0.00000000E+00  0.00000000E+00  0.00000000E+00
  0.00000000E+00  0.00000000E+00  0.00000000E+00
  0.00000000E+00  0.00000000E+00  0.00000000E+00
  0.00000000E+00  0.00000000E+00  0.00000000E+00
  0.00000000E+00  0.00000000E+00  0.00000000E+00
  0.00000000E+00  0.00000000E+00  0.00000000E+00
  0.00000000E+00  0.00000000E+00  0.00000000E+00
  0.00000000E+00  0.00000000E+00  0.00000000E+00
  0.00000000E+00  0.00000000E+00  0.00000000E+00
