Li14 N42
1.0
5.685068 0.000000 0.000000
-1.480851 4.763721 0.000000
0.000000 0.000000 43.602650
Li N
14 42
direct
0.000000 0.000000 0.057692 Li+
0.500000 0.000000 0.019231 Li+
0.000000 0.000000 0.134615 Li+
0.500000 0.000000 0.096154 Li+
0.000000 0.000000 0.211538 Li+
0.500000 0.000000 0.173077 Li+
0.000000 0.000000 0.288462 Li+
0.500000 0.000000 0.250000 Li+
0.000000 0.000000 0.365385 Li+
0.500000 0.000000 0.326923 Li+
0.000000 0.000000 0.442308 Li+
0.500000 0.000000 0.403846 Li+
0.000000 0.000000 0.519231 Li+
0.500000 0.000000 0.480769 Li+
0.605811 0.743293 0.057692 N3-
0.394189 0.256707 0.057692 N3-
0.500000 0.500000 0.057692 N3-
0.105811 0.743293 0.019231 N3-
0.894189 0.256707 0.019231 N3-
0.000000 0.500000 0.019231 N3-
0.605811 0.743293 0.134615 N3-
0.394189 0.256707 0.134615 N3-
0.500000 0.500000 0.134615 N3-
0.105811 0.743293 0.096154 N3-
0.894189 0.256707 0.096154 N3-
0.000000 0.500000 0.096154 N3-
0.605811 0.743293 0.211538 N3-
0.394189 0.256707 0.211538 N3-
0.500000 0.500000 0.211538 N3-
0.105811 0.743293 0.173077 N3-
0.894189 0.256707 0.173077 N3-
0.000000 0.500000 0.173077 N3-
0.605811 0.743293 0.288462 N3-
0.394189 0.256707 0.288462 N3-
0.500000 0.500000 0.288462 N3-
0.105811 0.743293 0.250000 N3-
0.894189 0.256707 0.250000 N3-
0.000000 0.500000 0.250000 N3-
0.605811 0.743293 0.365385 N3-
0.394189 0.256707 0.365385 N3-
0.500000 0.500000 0.365385 N3-
0.105811 0.743293 0.326923 N3-
0.894189 0.256707 0.326923 N3-
0.000000 0.500000 0.326923 N3-
0.605811 0.743293 0.442308 N3-
0.394189 0.256707 0.442308 N3-
0.500000 0.500000 0.442308 N3-
0.105811 0.743293 0.403846 N3-
0.894189 0.256707 0.403846 N3-
0.000000 0.500000 0.403846 N3-
0.605811 0.743293 0.519231 N3-
0.394189 0.256707 0.519231 N3-
0.500000 0.500000 0.519231 N3-
0.105811 0.743293 0.480769 N3-
0.894189 0.256707 0.480769 N3-
0.000000 0.500000 0.480769 N3-
