Li5 P2 N1 O6                            
   1.00000000000000     
    -0.0579602662023953   -0.1043917747376606    5.1333335342336799
     6.1487024123793619   -0.1516036309624685   -0.0724960311849522
    -0.1287997062553216    5.3626974383997998   -0.1119555715056687
   Li   P    N    O 
     5     2     1     6
Direct
  0.5013439914994506 -0.0024156399112104  0.8302630532004737
  0.4918934296333070  0.7398701139908455  0.3314056817841979
 -0.0016489112189425  0.7448132922637781  0.6679192156660989
 -0.0295105619214736  0.2662074012694315  0.7693414507750153
  0.5760847011340684  0.2729318211679511  0.3156572675722498
  0.4893319088024298  0.4984691347125356  0.8051902443421689
 -0.0089478434551008 -0.0540789737880225  0.1454799629536247
  0.1202784305878152  0.0087756638733373  0.9076115909440006
  0.6159195005314179  0.7033106179749531  0.6889909560964191
  0.1285871267290204  0.8361083808350012  0.3591391825877965
  0.6074833802934684  0.2876233843015893  0.6783210934994481
  0.5526875945139238  0.5001558417065866  0.0911526481019223
  0.1935593749229421  0.4972238604193933  0.7433127153278795
  0.7043108779476999 -0.0061328988161702  0.1972259371487038
 
  0.00000000E+00  0.00000000E+00  0.00000000E+00
  0.00000000E+00  0.00000000E+00  0.00000000E+00
  0.00000000E+00  0.00000000E+00  0.00000000E+00
  0.00000000E+00  0.00000000E+00  0.00000000E+00
  0.00000000E+00  0.00000000E+00  0.00000000E+00
  0.00000000E+00  0.00000000E+00  0.00000000E+00
  0.00000000E+00  0.00000000E+00  0.00000000E+00
  0.00000000E+00  0.00000000E+00  0.00000000E+00
  0.00000000E+00  0.00000000E+00  0.00000000E+00
  0.00000000E+00  0.00000000E+00  0.00000000E+00
  0.00000000E+00  0.00000000E+00  0.00000000E+00
  0.00000000E+00  0.00000000E+00  0.00000000E+00
  0.00000000E+00  0.00000000E+00  0.00000000E+00
  0.00000000E+00  0.00000000E+00  0.00000000E+00
