Li56 P56
1.0
5.593872 0.000000 -4.970385
0.756887 9.037780 0.000000
0.000000 0.000000 64.615005
Li P
56 56
direct
0.112292 0.670700 0.024550 Li+
0.387708 0.829300 0.007274 Li+
0.887708 0.329300 0.067004 Li+
0.612292 0.170700 0.007357 Li+
0.804018 0.970214 0.056985 Li+
0.695982 0.529786 0.010213 Li+
0.195982 0.029786 0.034569 Li+
0.304018 0.470214 0.004418 Li+
0.112292 0.670700 0.101473 Li+
0.387708 0.829300 0.084197 Li+
0.887708 0.329300 0.143927 Li+
0.612292 0.170700 0.084280 Li+
0.804018 0.970214 0.133908 Li+
0.695982 0.529786 0.087136 Li+
0.195982 0.029786 0.111492 Li+
0.304018 0.470214 0.081341 Li+
0.112292 0.670700 0.178396 Li+
0.387708 0.829300 0.161120 Li+
0.887708 0.329300 0.220850 Li+
0.612292 0.170700 0.161203 Li+
0.804018 0.970214 0.210831 Li+
0.695982 0.529786 0.164059 Li+
0.195982 0.029786 0.188415 Li+
0.304018 0.470214 0.158264 Li+
0.112292 0.670700 0.255319 Li+
0.387708 0.829300 0.238043 Li+
0.887708 0.329300 0.297773 Li+
0.612292 0.170700 0.238126 Li+
0.804018 0.970214 0.287754 Li+
0.695982 0.529786 0.240982 Li+
0.195982 0.029786 0.265338 Li+
0.304018 0.470214 0.235187 Li+
0.112292 0.670700 0.332242 Li+
0.387708 0.829300 0.314966 Li+
0.887708 0.329300 0.374696 Li+
0.612292 0.170700 0.315049 Li+
0.804018 0.970214 0.364677 Li+
0.695982 0.529786 0.317905 Li+
0.195982 0.029786 0.342261 Li+
0.304018 0.470214 0.312110 Li+
0.112292 0.670700 0.409165 Li+
0.387708 0.829300 0.391889 Li+
0.887708 0.329300 0.451620 Li+
0.612292 0.170700 0.391972 Li+
0.804018 0.970214 0.441600 Li+
0.695982 0.529786 0.394828 Li+
0.195982 0.029786 0.419184 Li+
0.304018 0.470214 0.389033 Li+
0.112292 0.670700 0.486088 Li+
0.387708 0.829300 0.468812 Li+
0.887708 0.329300 0.528543 Li+
0.612292 0.170700 0.468895 Li+
0.804018 0.970214 0.518523 Li+
0.695982 0.529786 0.471751 Li+
0.195982 0.029786 0.496108 Li+
0.304018 0.470214 0.465956 Li+
0.976271 0.707084 0.052036 P-
0.523729 0.792916 0.055686 P-
0.023729 0.292916 0.039518 P-
0.476271 0.207084 0.035867 P-
0.808560 0.888258 0.019049 P-
0.691440 0.611742 0.048501 P-
0.191440 0.111742 0.072505 P-
0.308560 0.388258 0.043053 P-
0.976271 0.707084 0.128959 P-
0.523729 0.792916 0.132610 P-
0.023729 0.292916 0.116441 P-
0.476271 0.207084 0.112790 P-
0.808560 0.888258 0.095972 P-
0.691440 0.611742 0.125424 P-
0.191440 0.111742 0.149428 P-
0.308560 0.388258 0.119976 P-
0.976271 0.707084 0.205882 P-
0.523729 0.792916 0.209533 P-
0.023729 0.292916 0.193364 P-
0.476271 0.207084 0.189713 P-
0.808560 0.888258 0.172895 P-
0.691440 0.611742 0.202347 P-
0.191440 0.111742 0.226351 P-
0.308560 0.388258 0.196899 P-
0.976271 0.707084 0.282805 P-
0.523729 0.792916 0.286456 P-
0.023729 0.292916 0.270287 P-
0.476271 0.207084 0.266637 P-
0.808560 0.888258 0.249818 P-
0.691440 0.611742 0.279270 P-
0.191440 0.111742 0.303274 P-
0.308560 0.388258 0.273822 P-
0.976271 0.707084 0.359728 P-
0.523729 0.792916 0.363379 P-
0.023729 0.292916 0.347210 P-
0.476271 0.207084 0.343560 P-
0.808560 0.888258 0.326741 P-
0.691440 0.611742 0.356193 P-
0.191440 0.111742 0.380197 P-
0.308560 0.388258 0.350745 P-
0.976271 0.707084 0.436651 P-
0.523729 0.792916 0.440302 P-
0.023729 0.292916 0.424133 P-
0.476271 0.207084 0.420483 P-
0.808560 0.888258 0.403664 P-
0.691440 0.611742 0.433116 P-
0.191440 0.111742 0.457121 P-
0.308560 0.388258 0.427668 P-
0.976271 0.707084 0.513574 P-
0.523729 0.792916 0.517225 P-
0.023729 0.292916 0.501056 P-
0.476271 0.207084 0.497406 P-
0.808560 0.888258 0.480587 P-
0.691440 0.611742 0.510039 P-
0.191440 0.111742 0.534044 P-
0.308560 0.388258 0.504591 P-
