Li5 P2 N1 O6                            
   1.00000000000000     
    -0.3061933351703569    0.6480686938799073    4.9133248221228483
     6.2208833034960023    0.5862425703624115   -0.3593186113653189
     0.4903635626590576    5.0799670937381922    0.6759642943692361
   Li   P    N    O 
     5     2     1     6
Direct
  0.5424610588349645 -0.0002460733165285  0.8843877484944256
 -0.2162588079059883  0.3752335747649334  0.2674614121167835
  0.4066162485456235  0.7315920845975140  0.3251703825378309
  0.0210005318369925  0.7394786028669913  0.7642941159870466
  0.1369384285224123  0.2505045685909654  0.5985011064653832
  0.5259332156405462  0.4716977623560918  0.8321320828699486
 -0.0206632979218203  0.0046115230234376  0.1834146275527586
  0.6262781028715764  0.5981516670699571  0.0259346756347704
  0.1120957347718558  0.2281795266359892  0.2342418913964215
  0.0226763853261546  0.8071117193811146  0.3874939730924950
  0.6861152805917192  0.3056927935854851  0.6955953876624720
  0.1402992341636910 -0.0078572626951478  0.8809251197676528
  0.2994157517153868  0.5298219304604053  0.6873246039043930
  0.6595191330069083  0.0060165826787902  0.2201978725176217
 
  0.00000000E+00  0.00000000E+00  0.00000000E+00
  0.00000000E+00  0.00000000E+00  0.00000000E+00
  0.00000000E+00  0.00000000E+00  0.00000000E+00
  0.00000000E+00  0.00000000E+00  0.00000000E+00
  0.00000000E+00  0.00000000E+00  0.00000000E+00
  0.00000000E+00  0.00000000E+00  0.00000000E+00
  0.00000000E+00  0.00000000E+00  0.00000000E+00
  0.00000000E+00  0.00000000E+00  0.00000000E+00
  0.00000000E+00  0.00000000E+00  0.00000000E+00
  0.00000000E+00  0.00000000E+00  0.00000000E+00
  0.00000000E+00  0.00000000E+00  0.00000000E+00
  0.00000000E+00  0.00000000E+00  0.00000000E+00
  0.00000000E+00  0.00000000E+00  0.00000000E+00
  0.00000000E+00  0.00000000E+00  0.00000000E+00
