Li140 P140 O420
1.0
13.312980 0.000000 -5.521558
2.677750 16.540545 0.000000
0.000000 0.000000 60.737138
Li P O
140 140 420
direct
0.944698 0.181780 0.028088 Li+
0.444698 0.681780 0.072562 Li+
0.822834 0.065996 0.017935 Li+
0.322834 0.565996 0.060557 Li+
0.702414 0.950543 0.005046 Li+
0.202414 0.450543 0.051552 Li+
0.582845 0.835452 0.084954 Li+
0.082845 0.335452 0.040813 Li+
0.512460 0.758434 0.034414 Li+
0.012460 0.258434 0.078556 Li+
0.942549 0.681714 0.025476 Li+
0.442549 0.181714 0.074784 Li+
0.821455 0.566270 0.018547 Li+
0.321455 0.066270 0.059695 Li+
0.702271 0.449547 0.002536 Li+
0.202271 0.949547 0.054036 Li+
0.582496 0.332984 0.087603 Li+
0.082496 0.832984 0.038101 Li+
0.510463 0.256366 0.037132 Li+
0.010463 0.756366 0.075475 Li+
0.944698 0.181780 0.118997 Li+
0.444698 0.681780 0.163471 Li+
0.822834 0.065996 0.108845 Li+
0.322834 0.565996 0.151466 Li+
0.702414 0.950543 0.095955 Li+
0.202414 0.450543 0.142461 Li+
0.582845 0.835452 0.175863 Li+
0.082845 0.335452 0.131722 Li+
0.512460 0.758434 0.125323 Li+
0.012460 0.258434 0.169465 Li+
0.942549 0.681714 0.116385 Li+
0.442549 0.181714 0.165693 Li+
0.821455 0.566270 0.109456 Li+
0.321455 0.066270 0.150604 Li+
0.702271 0.449547 0.093445 Li+
0.202271 0.949547 0.144945 Li+
0.582496 0.332984 0.178512 Li+
0.082496 0.832984 0.129010 Li+
0.510463 0.256366 0.128041 Li+
0.010463 0.756366 0.166384 Li+
0.944698 0.181780 0.209906 Li+
0.444698 0.681780 0.254380 Li+
0.822834 0.065996 0.199754 Li+
0.322834 0.565996 0.242375 Li+
0.702414 0.950543 0.186864 Li+
0.202414 0.450543 0.233370 Li+
0.582845 0.835452 0.266772 Li+
0.082845 0.335452 0.222631 Li+
0.512460 0.758434 0.216232 Li+
0.012460 0.258434 0.260374 Li+
0.942549 0.681714 0.207294 Li+
0.442549 0.181714 0.256602 Li+
0.821455 0.566270 0.200365 Li+
0.321455 0.066270 0.241513 Li+
0.702271 0.449547 0.184354 Li+
0.202271 0.949547 0.235854 Li+
0.582496 0.332984 0.269421 Li+
0.082496 0.832984 0.219919 Li+
0.510463 0.256366 0.218950 Li+
0.010463 0.756366 0.257293 Li+
0.944698 0.181780 0.300815 Li+
0.444698 0.681780 0.345289 Li+
0.822834 0.065996 0.290663 Li+
0.322834 0.565996 0.333284 Li+
0.702414 0.950543 0.277773 Li+
0.202414 0.450543 0.324279 Li+
0.582845 0.835452 0.357681 Li+
0.082845 0.335452 0.313540 Li+
0.512460 0.758434 0.307141 Li+
0.012460 0.258434 0.351283 Li+
0.942549 0.681714 0.298203 Li+
0.442549 0.181714 0.347511 Li+
0.821455 0.566270 0.291274 Li+
0.321455 0.066270 0.332422 Li+
0.702271 0.449547 0.275263 Li+
0.202271 0.949547 0.326763 Li+
0.582496 0.332984 0.360330 Li+
0.082496 0.832984 0.310828 Li+
0.510463 0.256366 0.309859 Li+
0.010463 0.756366 0.348202 Li+
0.944698 0.181780 0.391724 Li+
0.444698 0.681780 0.436198 Li+
0.822834 0.065996 0.381572 Li+
0.322834 0.565996 0.424194 Li+
0.702414 0.950543 0.368682 Li+
0.202414 0.450543 0.415189 Li+
0.582845 0.835452 0.448591 Li+
0.082845 0.335452 0.404450 Li+
0.512460 0.758434 0.398050 Li+
0.012460 0.258434 0.442193 Li+
0.942549 0.681714 0.389112 Li+
0.442549 0.181714 0.438420 Li+
0.821455 0.566270 0.382183 Li+
0.321455 0.066270 0.423331 Li+
0.702271 0.449547 0.366172 Li+
0.202271 0.949547 0.417672 Li+
0.582496 0.332984 0.451240 Li+
0.082496 0.832984 0.401737 Li+
0.510463 0.256366 0.400768 Li+
0.010463 0.756366 0.439112 Li+
0.944698 0.181780 0.482633 Li+
0.444698 0.681780 0.527107 Li+
0.822834 0.065996 0.472481 Li+
0.322834 0.565996 0.515103 Li+
0.702414 0.950543 0.459591 Li+
0.202414 0.450543 0.506098 Li+
0.582845 0.835452 0.539500 Li+
0.082845 0.335452 0.495359 Li+
0.512460 0.758434 0.488959 Li+
0.012460 0.258434 0.533102 Li+
0.942549 0.681714 0.480021 Li+
0.442549 0.181714 0.529329 Li+
0.821455 0.566270 0.473092 Li+
0.321455 0.066270 0.514240 Li+
0.702271 0.449547 0.457081 Li+
0.202271 0.949547 0.508582 Li+
0.582496 0.332984 0.542149 Li+
0.082496 0.832984 0.492646 Li+
0.510463 0.256366 0.491677 Li+
0.010463 0.756366 0.530021 Li+
0.944698 0.181780 0.573542 Li+
0.444698 0.681780 0.618016 Li+
0.822834 0.065996 0.563390 Li+
0.322834 0.565996 0.606012 Li+
0.702414 0.950543 0.550500 Li+
0.202414 0.450543 0.597007 Li+
0.582845 0.835452 0.630409 Li+
0.082845 0.335452 0.586268 Li+
0.512460 0.758434 0.579868 Li+
0.012460 0.258434 0.624011 Li+
0.942549 0.681714 0.570930 Li+
0.442549 0.181714 0.620238 Li+
0.821455 0.566270 0.564002 Li+
0.321455 0.066270 0.605149 Li+
0.702271 0.449547 0.547991 Li+
0.202271 0.949547 0.599491 Li+
0.582496 0.332984 0.633058 Li+
0.082496 0.832984 0.583555 Li+
0.510463 0.256366 0.582586 Li+
0.010463 0.756366 0.620930 Li+
0.001192 0.999587 0.061336 P5+
0.501192 0.499587 0.049586 P5+
0.887667 0.906720 0.082111 P5+
0.387667 0.406720 0.008169 P5+
0.795924 0.802939 0.042396 P5+
0.295924 0.302939 0.031204 P5+
0.716706 0.691689 0.067873 P5+
0.216706 0.191689 0.082233 P5+
0.616650 0.591751 0.028708 P5+
0.116650 0.091751 0.012297 P5+
0.909487 0.425433 0.084039 P5+
0.409487 0.925433 0.010208 P5+
0.808986 0.325562 0.044867 P5+
0.308986 0.825562 0.031108 P5+
0.730132 0.213545 0.070612 P5+
0.230132 0.713545 0.081935 P5+
0.637722 0.110144 0.031336 P5+
0.137722 0.610144 0.013500 P5+
0.524425 0.017155 0.052130 P5+
0.024425 0.517155 0.063015 P5+
0.001192 0.999587 0.152245 P5+
0.501192 0.499587 0.140495 P5+
0.887667 0.906720 0.173021 P5+
0.387667 0.406720 0.099078 P5+
0.795924 0.802939 0.133305 P5+
0.295924 0.302939 0.122113 P5+
0.716706 0.691689 0.158782 P5+
0.216706 0.191689 0.173142 P5+
0.616650 0.591751 0.119617 P5+
0.116650 0.091751 0.103206 P5+
0.909487 0.425433 0.174948 P5+
0.409487 0.925433 0.101118 P5+
0.808986 0.325562 0.135776 P5+
0.308986 0.825562 0.122017 P5+
0.730132 0.213545 0.161521 P5+
0.230132 0.713545 0.172844 P5+
0.637722 0.110144 0.122245 P5+
0.137722 0.610144 0.104409 P5+
0.524425 0.017155 0.143039 P5+
0.024425 0.517155 0.153924 P5+
0.001192 0.999587 0.243154 P5+
0.501192 0.499587 0.231404 P5+
0.887667 0.906720 0.263930 P5+
0.387667 0.406720 0.189987 P5+
0.795924 0.802939 0.224214 P5+
0.295924 0.302939 0.213022 P5+
0.716706 0.691689 0.249691 P5+
0.216706 0.191689 0.264051 P5+
0.616650 0.591751 0.210526 P5+
0.116650 0.091751 0.194115 P5+
0.909487 0.425433 0.265858 P5+
0.409487 0.925433 0.192027 P5+
0.808986 0.325562 0.226685 P5+
0.308986 0.825562 0.212926 P5+
0.730132 0.213545 0.252430 P5+
0.230132 0.713545 0.263753 P5+
0.637722 0.110144 0.213154 P5+
0.137722 0.610144 0.195318 P5+
0.524425 0.017155 0.233949 P5+
0.024425 0.517155 0.244833 P5+
0.001192 0.999587 0.334063 P5+
0.501192 0.499587 0.322313 P5+
0.887667 0.906720 0.354839 P5+
0.387667 0.406720 0.280896 P5+
0.795924 0.802939 0.315123 P5+
0.295924 0.302939 0.303931 P5+
0.716706 0.691689 0.340600 P5+
0.216706 0.191689 0.354960 P5+
0.616650 0.591751 0.301435 P5+
0.116650 0.091751 0.285024 P5+
0.909487 0.425433 0.356767 P5+
0.409487 0.925433 0.282936 P5+
0.808986 0.325562 0.317594 P5+
0.308986 0.825562 0.303835 P5+
0.730132 0.213545 0.343339 P5+
0.230132 0.713545 0.354662 P5+
0.637722 0.110144 0.304063 P5+
0.137722 0.610144 0.286227 P5+
0.524425 0.017155 0.324858 P5+
0.024425 0.517155 0.335742 P5+
0.001192 0.999587 0.424972 P5+
0.501192 0.499587 0.413222 P5+
0.887667 0.906720 0.445748 P5+
0.387667 0.406720 0.371805 P5+
0.795924 0.802939 0.406032 P5+
0.295924 0.302939 0.394840 P5+
0.716706 0.691689 0.431509 P5+
0.216706 0.191689 0.445869 P5+
0.616650 0.591751 0.392344 P5+
0.116650 0.091751 0.375933 P5+
0.909487 0.425433 0.447676 P5+
0.409487 0.925433 0.373845 P5+
0.808986 0.325562 0.408504 P5+
0.308986 0.825562 0.394744 P5+
0.730132 0.213545 0.434248 P5+
0.230132 0.713545 0.445571 P5+
0.637722 0.110144 0.394972 P5+
0.137722 0.610144 0.377136 P5+
0.524425 0.017155 0.415767 P5+
0.024425 0.517155 0.426652 P5+
0.001192 0.999587 0.515881 P5+
0.501192 0.499587 0.504131 P5+
0.887667 0.906720 0.536657 P5+
0.387667 0.406720 0.462714 P5+
0.795924 0.802939 0.496941 P5+
0.295924 0.302939 0.485749 P5+
0.716706 0.691689 0.522419 P5+
0.216706 0.191689 0.536778 P5+
0.616650 0.591751 0.483253 P5+
0.116650 0.091751 0.466842 P5+
0.909487 0.425433 0.538585 P5+
0.409487 0.925433 0.464754 P5+
0.808986 0.325562 0.499413 P5+
0.308986 0.825562 0.485653 P5+
0.730132 0.213545 0.525157 P5+
0.230132 0.713545 0.536481 P5+
0.637722 0.110144 0.485882 P5+
0.137722 0.610144 0.468045 P5+
0.524425 0.017155 0.506676 P5+
0.024425 0.517155 0.517561 P5+
0.001192 0.999587 0.606790 P5+
0.501192 0.499587 0.595040 P5+
0.887667 0.906720 0.627566 P5+
0.387667 0.406720 0.553624 P5+
0.795924 0.802939 0.587850 P5+
0.295924 0.302939 0.576658 P5+
0.716706 0.691689 0.613328 P5+
0.216706 0.191689 0.627687 P5+
0.616650 0.591751 0.574162 P5+
0.116650 0.091751 0.557751 P5+
0.909487 0.425433 0.629494 P5+
0.409487 0.925433 0.555663 P5+
0.808986 0.325562 0.590322 P5+
0.308986 0.825562 0.576562 P5+
0.730132 0.213545 0.616066 P5+
0.230132 0.713545 0.627390 P5+
0.637722 0.110144 0.576791 P5+
0.137722 0.610144 0.558954 P5+
0.524425 0.017155 0.597585 P5+
0.024425 0.517155 0.608470 P5+
0.905428 0.964587 0.063209 O2-
0.405428 0.464587 0.030300 O2-
0.800449 0.859372 0.064385 O2-
0.300449 0.359372 0.010037 O2-
0.757206 0.724144 0.048733 O2-
0.257206 0.224144 0.017827 O2-
0.685355 0.607741 0.056141 O2-
0.185355 0.107741 0.088265 O2-
0.058300 0.021852 0.088650 O2-
0.558300 0.521852 0.032654 O2-
0.840686 0.409378 0.056616 O2-
0.340686 0.909378 0.025122 O2-
0.772630 0.290596 0.064515 O2-
0.272630 0.790596 0.004850 O2-
0.726756 0.156445 0.048761 O2-
0.226756 0.656445 0.012263 O2-
0.618048 0.056520 0.050740 O2-
0.118048 0.556520 0.081428 O2-
0.967956 0.495673 0.080195 O2-
0.467956 0.995673 0.024684 O2-
0.955284 0.073889 0.044670 O2-
0.455284 0.573889 0.057905 O2-
0.071165 0.933926 0.056011 O2-
0.571165 0.433926 0.067633 O2-
0.836724 0.958651 0.004729 O2-
0.336724 0.458651 0.076289 O2-
0.982201 0.846743 0.004161 O2-
0.482201 0.346743 0.012398 O2-
0.714989 0.845353 0.020172 O2-
0.214989 0.345353 0.038713 O2-
0.902007 0.775410 0.043555 O2-
0.402007 0.275410 0.049333 O2-
0.622035 0.747295 0.066306 O2-
0.122035 0.247295 0.066587 O2-
0.803128 0.669352 0.000519 O2-
0.303128 0.169352 0.074390 O2-
0.542257 0.667159 0.016910 O2-
0.042257 0.167159 0.010569 O2-
0.685603 0.553292 0.017155 O2-
0.185603 0.053292 0.036387 O2-
0.839056 0.463335 0.004367 O2-
0.339056 0.963335 0.077075 O2-
0.984307 0.350606 0.005199 O2-
0.484307 0.850606 0.011744 O2-
0.720379 0.348215 0.021678 O2-
0.220379 0.848215 0.038186 O2-
0.903854 0.271458 0.045880 O2-
0.403854 0.771458 0.047343 O2-
0.623095 0.241625 0.068749 O2-
0.123095 0.741625 0.064337 O2-
0.808921 0.171199 0.002259 O2-
0.308921 0.671199 0.073704 O2-
0.543593 0.170027 0.017927 O2-
0.043593 0.670027 0.009795 O2-
0.687356 0.055640 0.018085 O2-
0.187356 0.555640 0.035775 O2-
0.452378 0.080441 0.057617 O2-
0.952378 0.580441 0.044429 O2-
0.572944 0.942366 0.068446 O2-
0.072944 0.442366 0.055521 O2-
0.905428 0.964587 0.154118 O2-
0.405428 0.464587 0.121209 O2-
0.800449 0.859372 0.155294 O2-
0.300449 0.359372 0.100946 O2-
0.757206 0.724144 0.139642 O2-
0.257206 0.224144 0.108736 O2-
0.685355 0.607741 0.147050 O2-
0.185355 0.107741 0.179174 O2-
0.058300 0.021852 0.179559 O2-
0.558300 0.521852 0.123563 O2-
0.840686 0.409378 0.147526 O2-
0.340686 0.909378 0.116031 O2-
0.772630 0.290596 0.155424 O2-
0.272630 0.790596 0.095759 O2-
0.726756 0.156445 0.139670 O2-
0.226756 0.656445 0.103172 O2-
0.618048 0.056520 0.141649 O2-
0.118048 0.556520 0.172337 O2-
0.967956 0.495673 0.171104 O2-
0.467956 0.995673 0.115593 O2-
0.955284 0.073889 0.135579 O2-
0.455284 0.573889 0.148814 O2-
0.071165 0.933926 0.146920 O2-
0.571165 0.433926 0.158542 O2-
0.836724 0.958651 0.095639 O2-
0.336724 0.458651 0.167198 O2-
0.982201 0.846743 0.095070 O2-
0.482201 0.346743 0.103307 O2-
0.714989 0.845353 0.111081 O2-
0.214989 0.345353 0.129622 O2-
0.902007 0.775410 0.134464 O2-
0.402007 0.275410 0.140242 O2-
0.622035 0.747295 0.157215 O2-
0.122035 0.247295 0.157496 O2-
0.803128 0.669352 0.091428 O2-
0.303128 0.169352 0.165299 O2-
0.542257 0.667159 0.107819 O2-
0.042257 0.167159 0.101478 O2-
0.685603 0.553292 0.108064 O2-
0.185603 0.053292 0.127296 O2-
0.839056 0.463335 0.095276 O2-
0.339056 0.963335 0.167984 O2-
0.984307 0.350606 0.096108 O2-
0.484307 0.850606 0.102653 O2-
0.720379 0.348215 0.112587 O2-
0.220379 0.848215 0.129095 O2-
0.903854 0.271458 0.136790 O2-
0.403854 0.771458 0.138252 O2-
0.623095 0.241625 0.159658 O2-
0.123095 0.741625 0.155246 O2-
0.808921 0.171199 0.093168 O2-
0.308921 0.671199 0.164613 O2-
0.543593 0.170027 0.108836 O2-
0.043593 0.670027 0.100704 O2-
0.687356 0.055640 0.108994 O2-
0.187356 0.555640 0.126684 O2-
0.452378 0.080441 0.148526 O2-
0.952378 0.580441 0.135339 O2-
0.572944 0.942366 0.159355 O2-
0.072944 0.442366 0.146430 O2-
0.905428 0.964587 0.245028 O2-
0.405428 0.464587 0.212119 O2-
0.800449 0.859372 0.246203 O2-
0.300449 0.359372 0.191856 O2-
0.757206 0.724144 0.230551 O2-
0.257206 0.224144 0.199645 O2-
0.685355 0.607741 0.237959 O2-
0.185355 0.107741 0.270083 O2-
0.058300 0.021852 0.270469 O2-
0.558300 0.521852 0.214473 O2-
0.840686 0.409378 0.238435 O2-
0.340686 0.909378 0.206940 O2-
0.772630 0.290596 0.246333 O2-
0.272630 0.790596 0.186668 O2-
0.726756 0.156445 0.230579 O2-
0.226756 0.656445 0.194082 O2-
0.618048 0.056520 0.232558 O2-
0.118048 0.556520 0.263246 O2-
0.967956 0.495673 0.262013 O2-
0.467956 0.995673 0.206502 O2-
0.955284 0.073889 0.226488 O2-
0.455284 0.573889 0.239723 O2-
0.071165 0.933926 0.237829 O2-
0.571165 0.433926 0.249451 O2-
0.836724 0.958651 0.186548 O2-
0.336724 0.458651 0.258107 O2-
0.982201 0.846743 0.185979 O2-
0.482201 0.346743 0.194217 O2-
0.714989 0.845353 0.201990 O2-
0.214989 0.345353 0.220531 O2-
0.902007 0.775410 0.225373 O2-
0.402007 0.275410 0.231151 O2-
0.622035 0.747295 0.248124 O2-
0.122035 0.247295 0.248405 O2-
0.803128 0.669352 0.182338 O2-
0.303128 0.169352 0.256209 O2-
0.542257 0.667159 0.198728 O2-
0.042257 0.167159 0.192387 O2-
0.685603 0.553292 0.198973 O2-
0.185603 0.053292 0.218205 O2-
0.839056 0.463335 0.186186 O2-
0.339056 0.963335 0.258893 O2-
0.984307 0.350606 0.187017 O2-
0.484307 0.850606 0.193562 O2-
0.720379 0.348215 0.203497 O2-
0.220379 0.848215 0.220004 O2-
0.903854 0.271458 0.227699 O2-
0.403854 0.771458 0.229161 O2-
0.623095 0.241625 0.250567 O2-
0.123095 0.741625 0.246155 O2-
0.808921 0.171199 0.184077 O2-
0.308921 0.671199 0.255522 O2-
0.543593 0.170027 0.199745 O2-
0.043593 0.670027 0.191613 O2-
0.687356 0.055640 0.199903 O2-
0.187356 0.555640 0.217593 O2-
0.452378 0.080441 0.239435 O2-
0.952378 0.580441 0.226248 O2-
0.572944 0.942366 0.250264 O2-
0.072944 0.442366 0.237339 O2-
0.905428 0.964587 0.335937 O2-
0.405428 0.464587 0.303028 O2-
0.800449 0.859372 0.337112 O2-
0.300449 0.359372 0.282765 O2-
0.757206 0.724144 0.321460 O2-
0.257206 0.224144 0.290554 O2-
0.685355 0.607741 0.328868 O2-
0.185355 0.107741 0.360992 O2-
0.058300 0.021852 0.361378 O2-
0.558300 0.521852 0.305382 O2-
0.840686 0.409378 0.329344 O2-
0.340686 0.909378 0.297849 O2-
0.772630 0.290596 0.337242 O2-
0.272630 0.790596 0.277577 O2-
0.726756 0.156445 0.321488 O2-
0.226756 0.656445 0.284991 O2-
0.618048 0.056520 0.323467 O2-
0.118048 0.556520 0.354156 O2-
0.967956 0.495673 0.352922 O2-
0.467956 0.995673 0.297411 O2-
0.955284 0.073889 0.317397 O2-
0.455284 0.573889 0.330632 O2-
0.071165 0.933926 0.328738 O2-
0.571165 0.433926 0.340360 O2-
0.836724 0.958651 0.277457 O2-
0.336724 0.458651 0.349016 O2-
0.982201 0.846743 0.276888 O2-
0.482201 0.346743 0.285126 O2-
0.714989 0.845353 0.292899 O2-
0.214989 0.345353 0.311440 O2-
0.902007 0.775410 0.316282 O2-
0.402007 0.275410 0.322060 O2-
0.622035 0.747295 0.339033 O2-
0.122035 0.247295 0.339314 O2-
0.803128 0.669352 0.273247 O2-
0.303128 0.169352 0.347118 O2-
0.542257 0.667159 0.289637 O2-
0.042257 0.167159 0.283296 O2-
0.685603 0.553292 0.289882 O2-
0.185603 0.053292 0.309114 O2-
0.839056 0.463335 0.277095 O2-
0.339056 0.963335 0.349802 O2-
0.984307 0.350606 0.277926 O2-
0.484307 0.850606 0.284471 O2-
0.720379 0.348215 0.294406 O2-
0.220379 0.848215 0.310913 O2-
0.903854 0.271458 0.318608 O2-
0.403854 0.771458 0.320070 O2-
0.623095 0.241625 0.341476 O2-
0.123095 0.741625 0.337064 O2-
0.808921 0.171199 0.274986 O2-
0.308921 0.671199 0.346432 O2-
0.543593 0.170027 0.290654 O2-
0.043593 0.670027 0.282522 O2-
0.687356 0.055640 0.290812 O2-
0.187356 0.555640 0.308502 O2-
0.452378 0.080441 0.330344 O2-
0.952378 0.580441 0.317157 O2-
0.572944 0.942366 0.341173 O2-
0.072944 0.442366 0.328248 O2-
0.905428 0.964587 0.426846 O2-
0.405428 0.464587 0.393937 O2-
0.800449 0.859372 0.428022 O2-
0.300449 0.359372 0.373674 O2-
0.757206 0.724144 0.412369 O2-
0.257206 0.224144 0.381464 O2-
0.685355 0.607741 0.419777 O2-
0.185355 0.107741 0.451901 O2-
0.058300 0.021852 0.452287 O2-
0.558300 0.521852 0.396291 O2-
0.840686 0.409378 0.420253 O2-
0.340686 0.909378 0.388758 O2-
0.772630 0.290596 0.428151 O2-
0.272630 0.790596 0.368486 O2-
0.726756 0.156445 0.412397 O2-
0.226756 0.656445 0.375900 O2-
0.618048 0.056520 0.414376 O2-
0.118048 0.556520 0.445065 O2-
0.967956 0.495673 0.443831 O2-
0.467956 0.995673 0.388320 O2-
0.955284 0.073889 0.408306 O2-
0.455284 0.573889 0.421541 O2-
0.071165 0.933926 0.419648 O2-
0.571165 0.433926 0.431269 O2-
0.836724 0.958651 0.368366 O2-
0.336724 0.458651 0.439925 O2-
0.982201 0.846743 0.367797 O2-
0.482201 0.346743 0.376035 O2-
0.714989 0.845353 0.383808 O2-
0.214989 0.345353 0.402349 O2-
0.902007 0.775410 0.407191 O2-
0.402007 0.275410 0.412969 O2-
0.622035 0.747295 0.429942 O2-
0.122035 0.247295 0.430223 O2-
0.803128 0.669352 0.364156 O2-
0.303128 0.169352 0.438027 O2-
0.542257 0.667159 0.380547 O2-
0.042257 0.167159 0.374205 O2-
0.685603 0.553292 0.380791 O2-
0.185603 0.053292 0.400023 O2-
0.839056 0.463335 0.368004 O2-
0.339056 0.963335 0.440711 O2-
0.984307 0.350606 0.368835 O2-
0.484307 0.850606 0.375380 O2-
0.720379 0.348215 0.385315 O2-
0.220379 0.848215 0.401823 O2-
0.903854 0.271458 0.409517 O2-
0.403854 0.771458 0.410979 O2-
0.623095 0.241625 0.432385 O2-
0.123095 0.741625 0.427973 O2-
0.808921 0.171199 0.365895 O2-
0.308921 0.671199 0.437341 O2-
0.543593 0.170027 0.381563 O2-
0.043593 0.670027 0.373431 O2-
0.687356 0.055640 0.381722 O2-
0.187356 0.555640 0.399412 O2-
0.452378 0.080441 0.421253 O2-
0.952378 0.580441 0.408066 O2-
0.572944 0.942366 0.432082 O2-
0.072944 0.442366 0.419158 O2-
0.905428 0.964587 0.517755 O2-
0.405428 0.464587 0.484846 O2-
0.800449 0.859372 0.518931 O2-
0.300449 0.359372 0.464583 O2-
0.757206 0.724144 0.503278 O2-
0.257206 0.224144 0.472373 O2-
0.685355 0.607741 0.510686 O2-
0.185355 0.107741 0.542810 O2-
0.058300 0.021852 0.543196 O2-
0.558300 0.521852 0.487200 O2-
0.840686 0.409378 0.511162 O2-
0.340686 0.909378 0.479668 O2-
0.772630 0.290596 0.519060 O2-
0.272630 0.790596 0.459395 O2-
0.726756 0.156445 0.503306 O2-
0.226756 0.656445 0.466809 O2-
0.618048 0.056520 0.505285 O2-
0.118048 0.556520 0.535974 O2-
0.967956 0.495673 0.534740 O2-
0.467956 0.995673 0.479229 O2-
0.955284 0.073889 0.499215 O2-
0.455284 0.573889 0.512450 O2-
0.071165 0.933926 0.510557 O2-
0.571165 0.433926 0.522178 O2-
0.836724 0.958651 0.459275 O2-
0.336724 0.458651 0.530834 O2-
0.982201 0.846743 0.458707 O2-
0.482201 0.346743 0.466944 O2-
0.714989 0.845353 0.474717 O2-
0.214989 0.345353 0.493258 O2-
0.902007 0.775410 0.498100 O2-
0.402007 0.275410 0.503879 O2-
0.622035 0.747295 0.520851 O2-
0.122035 0.247295 0.521132 O2-
0.803128 0.669352 0.455065 O2-
0.303128 0.169352 0.528936 O2-
0.542257 0.667159 0.471456 O2-
0.042257 0.167159 0.465114 O2-
0.685603 0.553292 0.471700 O2-
0.185603 0.053292 0.490932 O2-
0.839056 0.463335 0.458913 O2-
0.339056 0.963335 0.531620 O2-
0.984307 0.350606 0.459744 O2-
0.484307 0.850606 0.466289 O2-
0.720379 0.348215 0.476224 O2-
0.220379 0.848215 0.492732 O2-
0.903854 0.271458 0.500426 O2-
0.403854 0.771458 0.501888 O2-
0.623095 0.241625 0.523294 O2-
0.123095 0.741625 0.518882 O2-
0.808921 0.171199 0.456804 O2-
0.308921 0.671199 0.528250 O2-
0.543593 0.170027 0.472472 O2-
0.043593 0.670027 0.464340 O2-
0.687356 0.055640 0.472631 O2-
0.187356 0.555640 0.490321 O2-
0.452378 0.080441 0.512162 O2-
0.952378 0.580441 0.498975 O2-
0.572944 0.942366 0.522991 O2-
0.072944 0.442366 0.510067 O2-
0.905428 0.964587 0.608664 O2-
0.405428 0.464587 0.575755 O2-
0.800449 0.859372 0.609840 O2-
0.300449 0.359372 0.555492 O2-
0.757206 0.724144 0.594188 O2-
0.257206 0.224144 0.563282 O2-
0.685355 0.607741 0.601595 O2-
0.185355 0.107741 0.633719 O2-
0.058300 0.021852 0.634105 O2-
0.558300 0.521852 0.578109 O2-
0.840686 0.409378 0.602071 O2-
0.340686 0.909378 0.570577 O2-
0.772630 0.290596 0.609969 O2-
0.272630 0.790596 0.550304 O2-
0.726756 0.156445 0.594215 O2-
0.226756 0.656445 0.557718 O2-
0.618048 0.056520 0.596194 O2-
0.118048 0.556520 0.626883 O2-
0.967956 0.495673 0.625649 O2-
0.467956 0.995673 0.570138 O2-
0.955284 0.073889 0.590124 O2-
0.455284 0.573889 0.603359 O2-
0.071165 0.933926 0.601466 O2-
0.571165 0.433926 0.613087 O2-
0.836724 0.958651 0.550184 O2-
0.336724 0.458651 0.621743 O2-
0.982201 0.846743 0.549616 O2-
0.482201 0.346743 0.557853 O2-
0.714989 0.845353 0.565626 O2-
0.214989 0.345353 0.584167 O2-
0.902007 0.775410 0.589009 O2-
0.402007 0.275410 0.594788 O2-
0.622035 0.747295 0.611760 O2-
0.122035 0.247295 0.612041 O2-
0.803128 0.669352 0.545974 O2-
0.303128 0.169352 0.619845 O2-
0.542257 0.667159 0.562365 O2-
0.042257 0.167159 0.556023 O2-
0.685603 0.553292 0.562609 O2-
0.185603 0.053292 0.581841 O2-
0.839056 0.463335 0.549822 O2-
0.339056 0.963335 0.622529 O2-
0.984307 0.350606 0.550653 O2-
0.484307 0.850606 0.557198 O2-
0.720379 0.348215 0.567133 O2-
0.220379 0.848215 0.583641 O2-
0.903854 0.271458 0.591335 O2-
0.403854 0.771458 0.592798 O2-
0.623095 0.241625 0.614203 O2-
0.123095 0.741625 0.609791 O2-
0.808921 0.171199 0.547713 O2-
0.308921 0.671199 0.619159 O2-
0.543593 0.170027 0.563381 O2-
0.043593 0.670027 0.555249 O2-
0.687356 0.055640 0.563540 O2-
0.187356 0.555640 0.581230 O2-
0.452378 0.080441 0.603071 O2-
0.952378 0.580441 0.589884 O2-
0.572944 0.942366 0.613900 O2-
0.072944 0.442366 0.600976 O2-
