(1, 0, 2)
1.0
2.754274 0.000000 -1.590181
-0.000000 7.703522 -6.360724
0.000000 0.000000 50.885790
Li O
28 28
Selective dynamics
direct
0.000000 0.500000 0.056207 T T T Li+
0.000000 0.000000 0.056207 T T T Li+
0.333333 0.750000 0.004124 T T T Li+
0.666667 0.250000 0.045790 T T T Li+
0.000000 0.500000 0.118707 F F F Li+
0.000000 0.000000 0.118707 F F F Li+
0.333333 0.750000 0.066624 T T T Li+
0.666667 0.250000 0.108290 F F F Li+
0.000000 0.500000 0.181207 F F F Li+
0.000000 0.000000 0.181207 F F F Li+
0.333333 0.750000 0.129124 F F F Li+
0.666667 0.250000 0.170790 F F F Li+
0.000000 0.500000 0.243707 F F F Li+
0.000000 0.000000 0.243707 F F F Li+
0.333333 0.750000 0.191624 F F F Li+
0.666667 0.250000 0.233290 F F F Li+
0.000000 0.500000 0.306207 F F F Li+
0.000000 0.000000 0.306207 F F F Li+
0.333333 0.750000 0.254124 F F F Li+
0.666667 0.250000 0.295790 F F F Li+
0.000000 0.500000 0.368707 T T T Li+
0.000000 0.000000 0.368707 F F F Li+
0.333333 0.750000 0.316624 F F F Li+
0.666667 0.250000 0.358290 F F F Li+
0.000000 0.500000 0.431207 T T T Li+
0.000000 0.000000 0.431207 T T T Li+
0.333333 0.750000 0.379124 F F F Li+
0.666667 0.250000 0.420790 T T T Li+
0.333333 0.149310 0.054037 F F F O-
0.666667 0.649310 0.033204 T T T O-
0.666667 0.850690 0.058376 F F F O-
0.333333 0.350690 0.016710 T T T O-
0.333333 0.149310 0.116537 F F F O-
0.666667 0.649310 0.095704 F F F O-
0.666667 0.850690 0.120876 F F F O-
0.333333 0.350690 0.079210 F F F O-
0.333333 0.149310 0.179037 F F F O-
0.666667 0.649310 0.158204 F F F O-
0.666667 0.850690 0.183376 F F F O-
0.333333 0.350690 0.141710 F F F O-
0.333333 0.149310 0.241537 F F F O-
0.666667 0.649310 0.220704 F F F O-
0.666667 0.850690 0.245876 F F F O-
0.333333 0.350690 0.204210 F F F O-
0.333333 0.149310 0.304037 F F F O-
0.666667 0.649310 0.283204 F F F O-
0.666667 0.850690 0.308376 F F F O-
0.333333 0.350690 0.266710 F F F O-
0.333333 0.149310 0.366537 F F F O-
0.666667 0.649310 0.345704 F F F O-
0.666667 0.850690 0.370876 F F F O-
0.333333 0.350690 0.329210 F F F O-
0.333333 0.149310 0.429037 T T T O-
0.666667 0.649310 0.408204 T T T O-
0.666667 0.850690 0.433376 T T T O-
0.333333 0.350690 0.391710 F F F O-
