Li61 P7 N32                             
   1.00000000000000     
    -0.0068145341090980    9.5688971115651693   -0.0890201118415377
    -0.0092710240551762   -0.0893977984294929    9.5895478904676015
     9.5390083716274781   -0.0057169463473249   -0.0077248774043053
   Li   P    N 
    61     7    32
Direct
  0.5056295163966240 -0.0061306638532509  0.4957064347358575
  0.0044190804371987  0.4984651918459003 -0.0016368937367355
  0.5054238342685444 -0.0056717114212744 -0.0038408266523508
  0.0038555541372599  0.0002614205151464  0.4994087565248054
  0.5035459175274747  0.4954230045347717 -0.0189871707767949
  0.0008491620969494  0.5001154459430935  0.5050346596557896
  0.7561850484273849 -0.0049070796495974  0.5021103975216118
  0.2525450758940944  0.0078636379423938  0.5044584347519022
  0.7772550321904785  0.5009420373615407  0.4943529543747772
  0.2248619557207736  0.5065099438343184  0.4973382486412869
  0.2672537631642340 -0.0040826841214991  0.0062510140906419
  0.7434749163735966 -0.0001623575043944  0.0002423959959631
  0.5837465778882136  0.4179114170233379  0.5638507363164104
  0.4950238456835819  0.2373921455813196  0.0085118480916483
  0.5131357290173597  0.7521222505279239  0.0089466858389028
  0.0037757983645166  0.5004150003437132  0.2497832669906714
  0.0115140242868431  0.5037047518313955  0.7514261514068732
  0.2827849837193006  0.2049643009521223  0.2120189644751485
  0.2237163319771127  0.7442988564276016  0.7748265375946598
  0.2815280140499770  0.2380278812786777  0.7251859267232814
  0.2106112883377833  0.6959359488182660  0.2870234909594899
  0.7964510181654917  0.3006764147328984  0.2814169658793843
  0.7347324907735728  0.7326395643691243  0.7259927055017822
  0.7823033439720626  0.2294087849595980  0.7699820779591854
  0.7273533229884127  0.7887371381576725  0.2074011232465411
  0.0266774535443164  0.2315710436394402  0.2481399048548058
 -0.0209693340415581  0.7511692570367210  0.7621093907750113
  0.2505112084760693  0.2622519893002480  0.4949080963286045
  0.2643803190029718  0.7609035527254699  0.5158635215454480
  0.7454456773737126  0.2416975284810446  0.5090648313703438
  0.7535854648678029  0.7469343686450075  0.4852882244046182
  0.7780944192737774  0.5435029273274000  0.2527492499137627
  0.5178131184851475  0.4979719400774196  0.7613329220843433
  0.2286174342328313  0.4517561072472466  0.2561665285514224
  0.2684843403423284  0.4785390683050779  0.7464123145749508
  0.4546387024830538  0.7716460437520036  0.2993725820138701
  0.5245608713207591  0.2551884519064189  0.7656393224605279
  0.2451151437514320  0.9587566277184277  0.2618087914934665
  0.2500257780073881 -0.0069914989704235  0.7629047346644784
  0.2470155289979372  0.2369776658329814  0.9737090549047046
  0.2604917168409303  0.7572752558889478  0.0286187418809264
  0.7669398691779816  0.9790886809947420  0.7506084070144049
  0.7676144127894013  0.0340579093906903  0.2570236750995205
  0.7579685403528462  0.7589751417645628  0.9684667874860964
  0.7485890433741694  0.2393202477861447  0.0255807125146615
  0.0316143729400034  0.2554039503485714  0.7622982992092443
 -0.0183217934271370  0.7702395906552013  0.2487205618116614
  0.5551380175012879  0.2228850795014757  0.2956603445475925
  0.4847674347623643  0.7385431476107188  0.7675434588479383
 -0.0006800549247663  0.2612559176619537  0.0040389524648107
  0.0076298616620384  0.7356142165294717  0.0047234852641022
  0.4829004989886873  0.2104343100364822  0.5292173529638166
  0.5243926340436909  0.7758111623339919  0.5324896782498166
  0.4087387415250812  0.5782487183929442  0.1819110512302531
  0.4258000965648804  0.5699531867524150  0.5683388835641505
  0.0063948942971662  0.0004413962710902  0.2618793416089523
  0.0079979454928191  0.0035870862921838  0.7370177581141220
  0.4294203835866576  0.4120279062193595  0.3959511123537576
  0.5769354444192327  0.5814461539283780  0.3962344627145800
  0.7647232122152653  0.4894264271677115  0.7364776197969602
  0.5936140343208607  0.4202521757332229  0.1801006269018798
  0.0053301245917457 -0.0017048497117401 -0.0001270153476331
  0.7590053135231457  0.5014015498331806 -0.0074948622718841
  0.2498753051893445  0.4939199737800690 -0.0038750875479250
  0.0038348609151844  0.7521663117343614  0.5031806833418512
  0.0026240067505713  0.2483930768742438  0.5034141868127492
  0.5061394100153901 -0.0039161609557932  0.2424707343019049
  0.5072192014711094 -0.0044268825927769  0.7519849130091865
  0.6227420931003157  0.6143355617935571  0.6103396755450499
  0.6393193567947222  0.3845229887059684  0.3742320210290128
  0.8989313392313673  0.8974176620169231  0.1028942704923019
  0.9049668964988954  0.1008673832942082  0.8980294414407307
  0.1063640480985017  0.8940622516152888  0.8992762033376787
  0.1117070723694860  0.1005922503490853  0.1031086902944147
  0.3683174545981280  0.6117046670815974  0.3795590104705726
  0.3905272639226384  0.3724196183692969  0.6151968786753550
  0.0990712657610882  0.3546261956961774  0.3949806718125208
  0.1001989117145661  0.6547648813121584  0.6127456526579931
  0.1118242927665725  0.1485281225902600  0.5996746619102931
  0.1085438219176571  0.8534828483561097  0.3991338903507631
  0.8997573942768864  0.1467229312206734  0.3976908760060811
  0.8950383257953713  0.8527441359839093  0.5997863743681332
  0.8546803294201395  0.4068956100330184  0.1065005752078487
  0.8618094438033120  0.6005358125206217  0.8874254113596527
  0.1555548576731280  0.5896406397351732  0.1093574134219788
  0.1472952254606763  0.3950243794586883  0.8910590388131590
  0.4039963900082508  0.8894369616107460  0.1434638975898902
  0.4060846565333474  0.1011505084100563  0.8531203495491009
  0.4005079564925475  0.0927931365548364  0.3482685296475110
  0.3964082544187155  0.8965015947377110  0.6513479385595764
  0.3550134710868557  0.3869417552166139  0.0925005853100090
  0.3516508084357832  0.6063850887820303  0.9005260297868198
  0.6167843866586523  0.0944075544515587  0.6516943911729396
  0.6124684408449858  0.8990051393617706  0.3477090413100343
  0.6542876904312991  0.6081976135336051  0.0883773258667949
  0.6581021072130118  0.3870031709333693  0.8979702489102324
  0.9049003823728412  0.3454828555613850  0.6131548149543369
  0.9075856435981675  0.6471579237634790  0.3927152715761677
  0.6065262626654073  0.1019836192433295  0.1422440913531615
  0.6063648750999168  0.8887067440297014  0.8532195052313009
 
  0.00000000E+00  0.00000000E+00  0.00000000E+00
  0.00000000E+00  0.00000000E+00  0.00000000E+00
  0.00000000E+00  0.00000000E+00  0.00000000E+00
  0.00000000E+00  0.00000000E+00  0.00000000E+00
  0.00000000E+00  0.00000000E+00  0.00000000E+00
  0.00000000E+00  0.00000000E+00  0.00000000E+00
  0.00000000E+00  0.00000000E+00  0.00000000E+00
  0.00000000E+00  0.00000000E+00  0.00000000E+00
  0.00000000E+00  0.00000000E+00  0.00000000E+00
  0.00000000E+00  0.00000000E+00  0.00000000E+00
  0.00000000E+00  0.00000000E+00  0.00000000E+00
  0.00000000E+00  0.00000000E+00  0.00000000E+00
  0.00000000E+00  0.00000000E+00  0.00000000E+00
  0.00000000E+00  0.00000000E+00  0.00000000E+00
  0.00000000E+00  0.00000000E+00  0.00000000E+00
  0.00000000E+00  0.00000000E+00  0.00000000E+00
  0.00000000E+00  0.00000000E+00  0.00000000E+00
  0.00000000E+00  0.00000000E+00  0.00000000E+00
  0.00000000E+00  0.00000000E+00  0.00000000E+00
  0.00000000E+00  0.00000000E+00  0.00000000E+00
  0.00000000E+00  0.00000000E+00  0.00000000E+00
  0.00000000E+00  0.00000000E+00  0.00000000E+00
  0.00000000E+00  0.00000000E+00  0.00000000E+00
  0.00000000E+00  0.00000000E+00  0.00000000E+00
  0.00000000E+00  0.00000000E+00  0.00000000E+00
  0.00000000E+00  0.00000000E+00  0.00000000E+00
  0.00000000E+00  0.00000000E+00  0.00000000E+00
  0.00000000E+00  0.00000000E+00  0.00000000E+00
  0.00000000E+00  0.00000000E+00  0.00000000E+00
  0.00000000E+00  0.00000000E+00  0.00000000E+00
  0.00000000E+00  0.00000000E+00  0.00000000E+00
  0.00000000E+00  0.00000000E+00  0.00000000E+00
  0.00000000E+00  0.00000000E+00  0.00000000E+00
  0.00000000E+00  0.00000000E+00  0.00000000E+00
  0.00000000E+00  0.00000000E+00  0.00000000E+00
  0.00000000E+00  0.00000000E+00  0.00000000E+00
  0.00000000E+00  0.00000000E+00  0.00000000E+00
  0.00000000E+00  0.00000000E+00  0.00000000E+00
  0.00000000E+00  0.00000000E+00  0.00000000E+00
  0.00000000E+00  0.00000000E+00  0.00000000E+00
  0.00000000E+00  0.00000000E+00  0.00000000E+00
  0.00000000E+00  0.00000000E+00  0.00000000E+00
  0.00000000E+00  0.00000000E+00  0.00000000E+00
  0.00000000E+00  0.00000000E+00  0.00000000E+00
  0.00000000E+00  0.00000000E+00  0.00000000E+00
  0.00000000E+00  0.00000000E+00  0.00000000E+00
  0.00000000E+00  0.00000000E+00  0.00000000E+00
  0.00000000E+00  0.00000000E+00  0.00000000E+00
  0.00000000E+00  0.00000000E+00  0.00000000E+00
  0.00000000E+00  0.00000000E+00  0.00000000E+00
  0.00000000E+00  0.00000000E+00  0.00000000E+00
  0.00000000E+00  0.00000000E+00  0.00000000E+00
  0.00000000E+00  0.00000000E+00  0.00000000E+00
  0.00000000E+00  0.00000000E+00  0.00000000E+00
  0.00000000E+00  0.00000000E+00  0.00000000E+00
  0.00000000E+00  0.00000000E+00  0.00000000E+00
  0.00000000E+00  0.00000000E+00  0.00000000E+00
  0.00000000E+00  0.00000000E+00  0.00000000E+00
  0.00000000E+00  0.00000000E+00  0.00000000E+00
  0.00000000E+00  0.00000000E+00  0.00000000E+00
  0.00000000E+00  0.00000000E+00  0.00000000E+00
  0.00000000E+00  0.00000000E+00  0.00000000E+00
  0.00000000E+00  0.00000000E+00  0.00000000E+00
  0.00000000E+00  0.00000000E+00  0.00000000E+00
  0.00000000E+00  0.00000000E+00  0.00000000E+00
  0.00000000E+00  0.00000000E+00  0.00000000E+00
  0.00000000E+00  0.00000000E+00  0.00000000E+00
  0.00000000E+00  0.00000000E+00  0.00000000E+00
  0.00000000E+00  0.00000000E+00  0.00000000E+00
  0.00000000E+00  0.00000000E+00  0.00000000E+00
  0.00000000E+00  0.00000000E+00  0.00000000E+00
  0.00000000E+00  0.00000000E+00  0.00000000E+00
  0.00000000E+00  0.00000000E+00  0.00000000E+00
  0.00000000E+00  0.00000000E+00  0.00000000E+00
  0.00000000E+00  0.00000000E+00  0.00000000E+00
  0.00000000E+00  0.00000000E+00  0.00000000E+00
  0.00000000E+00  0.00000000E+00  0.00000000E+00
  0.00000000E+00  0.00000000E+00  0.00000000E+00
  0.00000000E+00  0.00000000E+00  0.00000000E+00
  0.00000000E+00  0.00000000E+00  0.00000000E+00
  0.00000000E+00  0.00000000E+00  0.00000000E+00
  0.00000000E+00  0.00000000E+00  0.00000000E+00
  0.00000000E+00  0.00000000E+00  0.00000000E+00
  0.00000000E+00  0.00000000E+00  0.00000000E+00
  0.00000000E+00  0.00000000E+00  0.00000000E+00
  0.00000000E+00  0.00000000E+00  0.00000000E+00
  0.00000000E+00  0.00000000E+00  0.00000000E+00
  0.00000000E+00  0.00000000E+00  0.00000000E+00
  0.00000000E+00  0.00000000E+00  0.00000000E+00
  0.00000000E+00  0.00000000E+00  0.00000000E+00
  0.00000000E+00  0.00000000E+00  0.00000000E+00
  0.00000000E+00  0.00000000E+00  0.00000000E+00
  0.00000000E+00  0.00000000E+00  0.00000000E+00
  0.00000000E+00  0.00000000E+00  0.00000000E+00
  0.00000000E+00  0.00000000E+00  0.00000000E+00
  0.00000000E+00  0.00000000E+00  0.00000000E+00
  0.00000000E+00  0.00000000E+00  0.00000000E+00
  0.00000000E+00  0.00000000E+00  0.00000000E+00
  0.00000000E+00  0.00000000E+00  0.00000000E+00
  0.00000000E+00  0.00000000E+00  0.00000000E+00
