Li4 O4                                  
   1.00000000000000     
     1.5264840000000000   -2.6439469999999998    0.0000000000000000
     1.5264840000000000    2.6439469999999998    0.0000000000000000
     0.0000000000000000    0.0000000000000000    7.4209620000000003
   Li   O 
     4     4
Direct
  0.0000000000000000  0.0000000000000000  0.0000000000000000
  0.0000000000000000  0.0000000000000000  0.5000000000000000
  0.3333330000000032  0.6666669999999968  0.2500000000000000
  0.6666669999999968  0.3333330000000032  0.7500000000000000
  0.3333330000000032  0.6666669999999968  0.6491469999999993
  0.6666669999999968  0.3333330000000032  0.1491469999999993
  0.6666669999999968  0.3333330000000032  0.3508530000000007
  0.3333330000000032  0.6666669999999968  0.8508530000000007
 
  0.00000000E+00  0.00000000E+00  0.00000000E+00
  0.00000000E+00  0.00000000E+00  0.00000000E+00
  0.00000000E+00  0.00000000E+00  0.00000000E+00
  0.00000000E+00  0.00000000E+00  0.00000000E+00
  0.00000000E+00  0.00000000E+00  0.00000000E+00
  0.00000000E+00  0.00000000E+00  0.00000000E+00
  0.00000000E+00  0.00000000E+00  0.00000000E+00
  0.00000000E+00  0.00000000E+00  0.00000000E+00
