Li71 P24 N1 O94                         
   1.00000000000000     
    14.7141363987522631    0.0040691381586403   -0.0134730141417333
     0.0029216442716643   10.5614240614729002    0.0104472733032659
    -0.0112530920867261    0.0121876441253576   12.3639825369401652
   Li   P    N    O 
    71    24     1    94
Direct
  0.1674099965406302  0.4227151477199806 -0.0051490273324876
  0.1621246161549394  0.4336071182433785  0.5228017264044169
  0.1707845048933849  0.9221182145214760  0.0011616052593688
  0.1709618670379150  0.9210115760050980  0.5006734106441466
  0.5045477809148874  0.4217277981352646 -0.0014259460215196
  0.5070180859085378  0.4243176202524087  0.5045219281976447
  0.5042160287884088  0.9225748230677514 -0.0006318456320893
  0.5034969042360995  0.9226595493419838  0.5003994318157420
  0.8360785254311354  0.4221140968473486  0.0000560683294364
  0.8351278458335738  0.4231686043347429  0.5002840003056909
  0.8374073356071923  0.9252717784464474  0.0011184190426212
  0.8358954371078692  0.9247451225877649  0.4991744901267539
  0.0002820423024274  0.0721740907287518  0.7517186070982010
 -0.0005937289364978  0.5877080509735410  0.2500581638701990
  0.0018372408485978  0.5796756638703093  0.7508059406478641
  0.3382118692730421  0.0794363300007722  0.2438749036920348
  0.3369810572773665  0.0768510550864498  0.7495465622946204
  0.3386132108078503  0.5810999327294574  0.2481701256541572
  0.3368514464509337  0.5776136419013862  0.7504947789601535
  0.6784381787824914  0.0741221252909591  0.2493483302661035
  0.6707984817123011  0.0756778400833915  0.7501260932467305
  0.6708650110429645  0.5801522759248045  0.2493870103279208
  0.6693354903460866  0.5782951955624051  0.7501959161038910
  0.1691549204371195  0.1641062415723432  0.1230431986588119
  0.1671360777906670  0.1609969582132258  0.6289475864756678
  0.1675403236443539  0.6659114441644198  0.1206417300468227
  0.1698189744745764  0.6656684733726210  0.6277376618544627
  0.5060375696486040  0.1621020971301792  0.1253743535874443
  0.5036696522252223  0.1630220191109195  0.6266645566974732
  0.5040062614124988  0.6633631992988368  0.1247336066629919
  0.5027259169319983  0.6638060527643610  0.6267416146201721
  0.8398381841384309  0.1618799677172935  0.1279272931947773
  0.8354026060242380  0.1634539019716565  0.6277075069296763
  0.8353113423306594  0.6657124286066807  0.1252251690137815
  0.8354923646134347  0.6643320057523115  0.6267137238874539
  0.0000445938566761  0.3318393992323488  0.1233087147302341
  0.0002757160641828  0.3351683956194303  0.6270331942024735
 -0.0003195633635671  0.8433442702560772  0.1235162314122997
  0.0027561714283729  0.8394041062016662  0.6225432834529860
  0.3395889838389873  0.3367125887104878  0.1202729782272204
  0.3359613834296303  0.3354262693232882  0.6253562214751442
  0.3380254897881330  0.8372716359260658  0.1226653198931306
  0.3370690766304064  0.8370792979741306  0.6236035526871058
  0.6714075967101885  0.3361546648648829  0.1233268503576368
  0.6700353360465764  0.3360067322416991  0.6249547852342736
  0.6685283416756020  0.8347531657056295  0.1215726637694322
  0.6693313148680504  0.8362443134450229  0.6233685594213699
 -0.0010813231414839  0.3388314420081248  0.3769543350917129
  0.0018081844068397  0.3343652262444728  0.8754603247794088
 -0.0004288509252711  0.8473340852057499  0.3745116333736912
  0.0032395297765368  0.8371014212803736  0.8771258095417287
  0.3697290474835686  0.3345692982180525  0.3815915130164748
  0.3368694802069901  0.3357888193155155  0.8758654565871302
  0.3398016240297823  0.8376527041693145  0.3752770798368075
  0.3372344441378712  0.8369855984604851  0.8762869283912686
  0.6692766385956367  0.3366717659943370  0.3761347099426841
  0.6700431572581632  0.3359074347236422  0.8758082153275913
  0.6676965659437205  0.8352277801745670  0.3779039775209055
  0.6697923734049528  0.8360963702430769  0.8766196592014216
  0.1550135787694317  0.1370919829065522  0.3776421025257079
  0.1680889147255377  0.1608388726521818  0.8724497081731422
  0.1676763693261674  0.6642463286260089  0.3755569097564110
  0.1695175019045183  0.6633127432437911  0.8740865729848388
  0.5068889940068551  0.1582451358093004  0.3720089413934527
  0.5039726097509822  0.1627704677559159  0.8726255339982707
  0.5036036879710128  0.6634417722373773  0.3737712902399780
  0.5030590855406876  0.6631711727266186  0.8732981125374165
  0.8396078394828798  0.1626512435870437  0.3726698833693466
  0.8368483573186000  0.1630984393580959  0.8741493509977351
  0.8350596756961740  0.6662046970974297  0.3741538717865973
  0.8355946528695274  0.6636256390609737  0.8737814499897826
  0.1662363325925509  0.4173825797426709  0.2424747730377538
  0.1664902291060170  0.4122847515297912  0.7521717909467918
  0.1683644464880212  0.9020179468274647  0.2483647029949704
  0.1680428794074938  0.9104591787149217  0.7502567336680975
  0.5005127002019363  0.4137529055987043  0.2484436538625380
  0.5003788389364823  0.4123464265426704  0.7502436252202763
  0.5015037740440241  0.9121467954125529  0.2491714409836774
  0.5008159560928092  0.9118703319975514  0.7497619981685124
  0.8324833501004453  0.4142043575315589  0.2503065268249693
  0.8327520925881383  0.4134158210097341  0.7502192767732752
  0.8284096056982724  0.9117519713214713  0.2502218537912672
  0.8327537714633585  0.9111024024067235  0.7501967706033332
  0.0027561617444020  0.0903001322218133 -0.0045534892435876
  0.0001198344849044  0.0933660746655296  0.5074377159664757
 -0.0005526971503203  0.5873293550722547 -0.0003589434613548
 -0.0007241980527537  0.5903162771212445  0.5007551560643447
  0.3355367569098546  0.0880356904609714 -0.0019937857502283
  0.3339842671031064  0.0884755562625038  0.4995401642511443
  0.3346330190435786  0.5868794107509256 -0.0010094603068773
  0.3339111415397618  0.5863395249446487  0.4997989409451858
  0.6674859011172289  0.0878000077268218 -0.0012308668613950
  0.6666196528861559  0.0881414483153436  0.5008463437698772
  0.6668394537843315  0.5866302228361444 -0.0010033303945628
  0.6663549942627035  0.5875068840123467  0.5006490474831671
  0.2010514354059755  0.0491360047362866  0.2536409640270476
  0.0376908727991390  0.1755438257653093  0.4145795891021463
  0.0337736357891827  0.1530338767435347  0.8864218874602748
  0.0345463218689905  0.6590009196076625  0.3972741582316531
  0.0353843604772417  0.6563413157388387  0.8962631388993202
  0.3698950741771966  0.1567146726115433  0.3955979199409385
  0.3701276782545322  0.1566222258691838  0.8938175142051802
  0.3690804488838336  0.6546439211786168  0.3962109064728480
  0.3689801128528452  0.6566276528114987  0.8953968450417581
  0.7012270944935600  0.1583614056257513  0.3979449328515832
  0.7022912465116925  0.1561461311726492  0.8945740832769067
  0.7014612921401671  0.6560238062351866  0.3971542280955779
  0.7018037429464693  0.6559261024322522  0.8955032104659875
  0.2020565628054012  0.0502729158148447  0.7499871597624997
  0.2025048896561614  0.5549811395440760  0.2499996641526759
  0.2012389950756113  0.5518077352970249  0.7502356468219959
  0.5368789435336775  0.0513460331161026  0.2490035719459968
  0.5346647957536225  0.0517295385285705  0.7495231786752397
  0.5347253945865458  0.5530070269883175  0.2499497982566943
  0.5335096814043595  0.5525953170337906  0.7498171457746591
  0.8494959665329372  0.0542747879055835  0.2505756190757392
  0.8644923501015055  0.0517055858314907  0.7506757408983684
  0.8658055182467371  0.5546947885866266  0.2500623852507892
  0.8667758236705606  0.5533233648929612  0.7500577374574012
  0.0613778277086282  0.4116563607787453  0.2498760543411262
  0.0608667797961268  0.4114374169887114  0.7509584871577856
  0.0646681995189592  0.8856026875868851  0.2482251078511650
  0.0623692654587645  0.9057400554467619  0.7497926129582080
  0.3942239699537722  0.4120176849005129  0.2465299670323571
  0.3944675313127112  0.4091877710852502  0.7498847780338782
  0.3956543071148248  0.9112870454655271  0.2485988831646490
  0.3949317136864871  0.9091863239178686  0.7496194178441897
  0.7265267004099684  0.4109085641700116  0.2501952704473416
  0.7268922555220995  0.4108143762797603  0.7502922191340008
  0.7226689825710059  0.8959733560268055  0.2500341730118518
  0.7269071482384712  0.9059147946449365  0.7497961741450240
  0.2297737325437764  0.0906836136484508 -0.0014546107262706
  0.2280469780705936  0.0927019179060066  0.5001446956691870
  0.2286019078828414  0.5881156752625269 -0.0005046375296941
  0.2276526069002852  0.5870013837675203  0.4996014775260026
  0.5614964822974629  0.0903767713965445 -0.0014391993912519
  0.5605425382406808  0.0904819974812446  0.5008077796640232
  0.5608942797507113  0.5897318924406149 -0.0010037940556600
  0.5603494642705716  0.5917073631005876  0.5007363279282590
  0.8966355442907555  0.0924798147939232 -0.0002350222575184
  0.8942629457158544  0.0918078599296374  0.5029470488920189
  0.8936437124717928  0.5906340622807732 -0.0005538873634131
  0.8935916705880529  0.5922429102283411  0.5008183688623853
  0.2041414928216701  0.3454425901987705  0.1431477758228901
  0.2016665905200954  0.3419093388664387  0.6489820425821750
  0.2065872739716513  0.8352034465973186  0.1442478313033759
  0.2037832319810252  0.8420803645963674  0.6464127443800705
  0.5367813066786272  0.3433873589749490  0.1468872063740306
  0.5357673920190004  0.3433408064864062  0.6468575348629767
  0.5355987900670394  0.8420287188614431  0.1458085798890060
  0.5354704871702626  0.8426755504880526  0.6460833438542417
  0.8678488861486031  0.3452527424966936  0.1471195729386384
  0.8673436761639450  0.3445832189503372  0.6464305742029866
  0.8669250121515447  0.8451890240867573  0.1468040255781746
  0.8688361298482432  0.8434669168424245  0.6464218667660934
  0.0429480447698452  0.1671960740429792  0.0896487471032469
  0.0319431792005741  0.1537577731114563  0.6167150900979770
  0.0347674102068062  0.6562145165326382  0.1030440126751412
  0.0356405494424159  0.6586116257079310  0.6041138807127236
  0.3718710369996253  0.1585043425536963  0.1004147003569491
  0.3695487660490752  0.1576932803370474  0.6027804717221972
  0.3703221089778345  0.6556592746071639  0.1022856889960572
  0.3682728025994651  0.6557323110606051  0.6031994750404108
  0.7026363549847839  0.1575626924223026  0.1015197373231027
  0.7014038330213753  0.1562535743959402  0.6050315302307454
  0.7019009096093366  0.6555410496349862  0.1023654649436741
  0.7018725515922510  0.6560277279144870  0.6040836583301935
  0.0332412064729374  0.4471338185182948 -0.0000416436064049
  0.0334437041007890  0.4498727427953286  0.5015100294090888
  0.0358485541646067  0.9494200541716625 -0.0015064114450737
  0.0364412132037713  0.9540928622360949  0.5002585258748991
  0.3690128414194597  0.4470633791561648 -0.0016509299335506
  0.3679687572863409  0.4460726673511262  0.5008887000645371
  0.3694567647144247  0.9481105787718019 -0.0011603566144817
  0.3673658607290731  0.9483503785884175  0.4999316708146204
  0.7003325162794213  0.4465050818784990 -0.0008419918197508
  0.6986259598680385  0.4467396424775912  0.5005466812873367
  0.7009528775685858  0.9475418423183823 -0.0006923680862610
  0.7000101844243142  0.9479101383849238  0.5003607939001880
  0.2018174252216480  0.3427718478100290  0.8552575519503378
  0.2086067457448061  0.8394316144945405  0.3537593384836999
  0.2037211539341428  0.8414459562178535  0.8537852448529923
  0.5304034207991093  0.3436168892816585  0.3547191200658646
  0.5358650256743427  0.3432126324017182  0.8536372560303555
  0.5345559426680432  0.8425999776902967  0.3538819275066950
  0.5359817112414955  0.8425078116667312  0.8533529794009805
  0.8675645185885027  0.3462321571756571  0.3544838001737480
  0.8681452826254177  0.3439908113031497  0.8535991121688933
  0.8669686203085142  0.8452013306088835  0.3540558861881273
  0.8688588477447287  0.8426108963815709  0.8538147492675258
 
  0.00000000E+00  0.00000000E+00  0.00000000E+00
  0.00000000E+00  0.00000000E+00  0.00000000E+00
  0.00000000E+00  0.00000000E+00  0.00000000E+00
  0.00000000E+00  0.00000000E+00  0.00000000E+00
  0.00000000E+00  0.00000000E+00  0.00000000E+00
  0.00000000E+00  0.00000000E+00  0.00000000E+00
  0.00000000E+00  0.00000000E+00  0.00000000E+00
  0.00000000E+00  0.00000000E+00  0.00000000E+00
  0.00000000E+00  0.00000000E+00  0.00000000E+00
  0.00000000E+00  0.00000000E+00  0.00000000E+00
  0.00000000E+00  0.00000000E+00  0.00000000E+00
  0.00000000E+00  0.00000000E+00  0.00000000E+00
  0.00000000E+00  0.00000000E+00  0.00000000E+00
  0.00000000E+00  0.00000000E+00  0.00000000E+00
  0.00000000E+00  0.00000000E+00  0.00000000E+00
  0.00000000E+00  0.00000000E+00  0.00000000E+00
  0.00000000E+00  0.00000000E+00  0.00000000E+00
  0.00000000E+00  0.00000000E+00  0.00000000E+00
  0.00000000E+00  0.00000000E+00  0.00000000E+00
  0.00000000E+00  0.00000000E+00  0.00000000E+00
  0.00000000E+00  0.00000000E+00  0.00000000E+00
  0.00000000E+00  0.00000000E+00  0.00000000E+00
  0.00000000E+00  0.00000000E+00  0.00000000E+00
  0.00000000E+00  0.00000000E+00  0.00000000E+00
  0.00000000E+00  0.00000000E+00  0.00000000E+00
  0.00000000E+00  0.00000000E+00  0.00000000E+00
  0.00000000E+00  0.00000000E+00  0.00000000E+00
  0.00000000E+00  0.00000000E+00  0.00000000E+00
  0.00000000E+00  0.00000000E+00  0.00000000E+00
  0.00000000E+00  0.00000000E+00  0.00000000E+00
  0.00000000E+00  0.00000000E+00  0.00000000E+00
  0.00000000E+00  0.00000000E+00  0.00000000E+00
  0.00000000E+00  0.00000000E+00  0.00000000E+00
  0.00000000E+00  0.00000000E+00  0.00000000E+00
  0.00000000E+00  0.00000000E+00  0.00000000E+00
  0.00000000E+00  0.00000000E+00  0.00000000E+00
  0.00000000E+00  0.00000000E+00  0.00000000E+00
  0.00000000E+00  0.00000000E+00  0.00000000E+00
  0.00000000E+00  0.00000000E+00  0.00000000E+00
  0.00000000E+00  0.00000000E+00  0.00000000E+00
  0.00000000E+00  0.00000000E+00  0.00000000E+00
  0.00000000E+00  0.00000000E+00  0.00000000E+00
  0.00000000E+00  0.00000000E+00  0.00000000E+00
  0.00000000E+00  0.00000000E+00  0.00000000E+00
  0.00000000E+00  0.00000000E+00  0.00000000E+00
  0.00000000E+00  0.00000000E+00  0.00000000E+00
  0.00000000E+00  0.00000000E+00  0.00000000E+00
  0.00000000E+00  0.00000000E+00  0.00000000E+00
  0.00000000E+00  0.00000000E+00  0.00000000E+00
  0.00000000E+00  0.00000000E+00  0.00000000E+00
  0.00000000E+00  0.00000000E+00  0.00000000E+00
  0.00000000E+00  0.00000000E+00  0.00000000E+00
  0.00000000E+00  0.00000000E+00  0.00000000E+00
  0.00000000E+00  0.00000000E+00  0.00000000E+00
  0.00000000E+00  0.00000000E+00  0.00000000E+00
  0.00000000E+00  0.00000000E+00  0.00000000E+00
  0.00000000E+00  0.00000000E+00  0.00000000E+00
  0.00000000E+00  0.00000000E+00  0.00000000E+00
  0.00000000E+00  0.00000000E+00  0.00000000E+00
  0.00000000E+00  0.00000000E+00  0.00000000E+00
  0.00000000E+00  0.00000000E+00  0.00000000E+00
  0.00000000E+00  0.00000000E+00  0.00000000E+00
  0.00000000E+00  0.00000000E+00  0.00000000E+00
  0.00000000E+00  0.00000000E+00  0.00000000E+00
  0.00000000E+00  0.00000000E+00  0.00000000E+00
  0.00000000E+00  0.00000000E+00  0.00000000E+00
  0.00000000E+00  0.00000000E+00  0.00000000E+00
  0.00000000E+00  0.00000000E+00  0.00000000E+00
  0.00000000E+00  0.00000000E+00  0.00000000E+00
  0.00000000E+00  0.00000000E+00  0.00000000E+00
  0.00000000E+00  0.00000000E+00  0.00000000E+00
  0.00000000E+00  0.00000000E+00  0.00000000E+00
  0.00000000E+00  0.00000000E+00  0.00000000E+00
  0.00000000E+00  0.00000000E+00  0.00000000E+00
  0.00000000E+00  0.00000000E+00  0.00000000E+00
  0.00000000E+00  0.00000000E+00  0.00000000E+00
  0.00000000E+00  0.00000000E+00  0.00000000E+00
  0.00000000E+00  0.00000000E+00  0.00000000E+00
  0.00000000E+00  0.00000000E+00  0.00000000E+00
  0.00000000E+00  0.00000000E+00  0.00000000E+00
  0.00000000E+00  0.00000000E+00  0.00000000E+00
  0.00000000E+00  0.00000000E+00  0.00000000E+00
  0.00000000E+00  0.00000000E+00  0.00000000E+00
  0.00000000E+00  0.00000000E+00  0.00000000E+00
  0.00000000E+00  0.00000000E+00  0.00000000E+00
  0.00000000E+00  0.00000000E+00  0.00000000E+00
  0.00000000E+00  0.00000000E+00  0.00000000E+00
  0.00000000E+00  0.00000000E+00  0.00000000E+00
  0.00000000E+00  0.00000000E+00  0.00000000E+00
  0.00000000E+00  0.00000000E+00  0.00000000E+00
  0.00000000E+00  0.00000000E+00  0.00000000E+00
  0.00000000E+00  0.00000000E+00  0.00000000E+00
  0.00000000E+00  0.00000000E+00  0.00000000E+00
  0.00000000E+00  0.00000000E+00  0.00000000E+00
  0.00000000E+00  0.00000000E+00  0.00000000E+00
  0.00000000E+00  0.00000000E+00  0.00000000E+00
  0.00000000E+00  0.00000000E+00  0.00000000E+00
  0.00000000E+00  0.00000000E+00  0.00000000E+00
  0.00000000E+00  0.00000000E+00  0.00000000E+00
  0.00000000E+00  0.00000000E+00  0.00000000E+00
  0.00000000E+00  0.00000000E+00  0.00000000E+00
  0.00000000E+00  0.00000000E+00  0.00000000E+00
  0.00000000E+00  0.00000000E+00  0.00000000E+00
  0.00000000E+00  0.00000000E+00  0.00000000E+00
  0.00000000E+00  0.00000000E+00  0.00000000E+00
  0.00000000E+00  0.00000000E+00  0.00000000E+00
  0.00000000E+00  0.00000000E+00  0.00000000E+00
  0.00000000E+00  0.00000000E+00  0.00000000E+00
  0.00000000E+00  0.00000000E+00  0.00000000E+00
  0.00000000E+00  0.00000000E+00  0.00000000E+00
  0.00000000E+00  0.00000000E+00  0.00000000E+00
  0.00000000E+00  0.00000000E+00  0.00000000E+00
  0.00000000E+00  0.00000000E+00  0.00000000E+00
  0.00000000E+00  0.00000000E+00  0.00000000E+00
  0.00000000E+00  0.00000000E+00  0.00000000E+00
  0.00000000E+00  0.00000000E+00  0.00000000E+00
  0.00000000E+00  0.00000000E+00  0.00000000E+00
  0.00000000E+00  0.00000000E+00  0.00000000E+00
  0.00000000E+00  0.00000000E+00  0.00000000E+00
  0.00000000E+00  0.00000000E+00  0.00000000E+00
  0.00000000E+00  0.00000000E+00  0.00000000E+00
  0.00000000E+00  0.00000000E+00  0.00000000E+00
  0.00000000E+00  0.00000000E+00  0.00000000E+00
  0.00000000E+00  0.00000000E+00  0.00000000E+00
  0.00000000E+00  0.00000000E+00  0.00000000E+00
  0.00000000E+00  0.00000000E+00  0.00000000E+00
  0.00000000E+00  0.00000000E+00  0.00000000E+00
  0.00000000E+00  0.00000000E+00  0.00000000E+00
  0.00000000E+00  0.00000000E+00  0.00000000E+00
  0.00000000E+00  0.00000000E+00  0.00000000E+00
  0.00000000E+00  0.00000000E+00  0.00000000E+00
  0.00000000E+00  0.00000000E+00  0.00000000E+00
  0.00000000E+00  0.00000000E+00  0.00000000E+00
  0.00000000E+00  0.00000000E+00  0.00000000E+00
  0.00000000E+00  0.00000000E+00  0.00000000E+00
  0.00000000E+00  0.00000000E+00  0.00000000E+00
  0.00000000E+00  0.00000000E+00  0.00000000E+00
  0.00000000E+00  0.00000000E+00  0.00000000E+00
  0.00000000E+00  0.00000000E+00  0.00000000E+00
  0.00000000E+00  0.00000000E+00  0.00000000E+00
  0.00000000E+00  0.00000000E+00  0.00000000E+00
  0.00000000E+00  0.00000000E+00  0.00000000E+00
  0.00000000E+00  0.00000000E+00  0.00000000E+00
  0.00000000E+00  0.00000000E+00  0.00000000E+00
  0.00000000E+00  0.00000000E+00  0.00000000E+00
  0.00000000E+00  0.00000000E+00  0.00000000E+00
  0.00000000E+00  0.00000000E+00  0.00000000E+00
  0.00000000E+00  0.00000000E+00  0.00000000E+00
  0.00000000E+00  0.00000000E+00  0.00000000E+00
  0.00000000E+00  0.00000000E+00  0.00000000E+00
  0.00000000E+00  0.00000000E+00  0.00000000E+00
  0.00000000E+00  0.00000000E+00  0.00000000E+00
  0.00000000E+00  0.00000000E+00  0.00000000E+00
  0.00000000E+00  0.00000000E+00  0.00000000E+00
  0.00000000E+00  0.00000000E+00  0.00000000E+00
  0.00000000E+00  0.00000000E+00  0.00000000E+00
  0.00000000E+00  0.00000000E+00  0.00000000E+00
  0.00000000E+00  0.00000000E+00  0.00000000E+00
  0.00000000E+00  0.00000000E+00  0.00000000E+00
  0.00000000E+00  0.00000000E+00  0.00000000E+00
  0.00000000E+00  0.00000000E+00  0.00000000E+00
  0.00000000E+00  0.00000000E+00  0.00000000E+00
  0.00000000E+00  0.00000000E+00  0.00000000E+00
  0.00000000E+00  0.00000000E+00  0.00000000E+00
  0.00000000E+00  0.00000000E+00  0.00000000E+00
  0.00000000E+00  0.00000000E+00  0.00000000E+00
  0.00000000E+00  0.00000000E+00  0.00000000E+00
  0.00000000E+00  0.00000000E+00  0.00000000E+00
  0.00000000E+00  0.00000000E+00  0.00000000E+00
  0.00000000E+00  0.00000000E+00  0.00000000E+00
  0.00000000E+00  0.00000000E+00  0.00000000E+00
  0.00000000E+00  0.00000000E+00  0.00000000E+00
  0.00000000E+00  0.00000000E+00  0.00000000E+00
  0.00000000E+00  0.00000000E+00  0.00000000E+00
  0.00000000E+00  0.00000000E+00  0.00000000E+00
  0.00000000E+00  0.00000000E+00  0.00000000E+00
  0.00000000E+00  0.00000000E+00  0.00000000E+00
  0.00000000E+00  0.00000000E+00  0.00000000E+00
  0.00000000E+00  0.00000000E+00  0.00000000E+00
  0.00000000E+00  0.00000000E+00  0.00000000E+00
  0.00000000E+00  0.00000000E+00  0.00000000E+00
  0.00000000E+00  0.00000000E+00  0.00000000E+00
  0.00000000E+00  0.00000000E+00  0.00000000E+00
  0.00000000E+00  0.00000000E+00  0.00000000E+00
  0.00000000E+00  0.00000000E+00  0.00000000E+00
  0.00000000E+00  0.00000000E+00  0.00000000E+00
  0.00000000E+00  0.00000000E+00  0.00000000E+00
  0.00000000E+00  0.00000000E+00  0.00000000E+00
  0.00000000E+00  0.00000000E+00  0.00000000E+00
  0.00000000E+00  0.00000000E+00  0.00000000E+00
