Li8 P56                                 
   1.00000000000000     
    -6.8213088734249592    6.8213088734249592    7.4279061940796005
     6.8213088734249592   -6.8213088734249592    7.4279061940796005
     6.8213088734249592    6.8213088734249592   -7.4279061940796005
   Li   P 
     8    56
Direct
  0.1179131824534058  0.1179131824534058  0.7358273649068089
  0.8679131824534059  0.6320868175465941  0.5000000000000000
  0.1320868175465942  0.3679131824534057  0.5000000000000000
  0.3820868175465943  0.3820868175465943  0.2641726350931909
  0.6320868175465941  0.1320868175465942  0.7641726350931911
  0.8820868175465941  0.6179131824534059  0.0000000000000000
  0.6179131824534059  0.8820868175465941 -0.0000000000000000
  0.3679131824534057  0.8679131824534059  0.2358273649068092
  0.7948827665949136  0.7679855362366733  0.3834769740276049
  0.5179855362366733  0.6345095622090657  0.4731027696417595
  0.1614067925673063  0.0448827665949137  0.5268972303582405
  0.8654904377909343  0.9820144637633267  0.5268972303582405
  0.4551172334050862  0.3385932074326937  0.4731027696417595
  0.3845095622090659  0.4114067925673063  0.6165230259723954
  0.7320144637633267  0.7051172334050864  0.6165230259723954
  0.0885932074326936  0.1154904377909341  0.3834769740276049
  0.9551172334050864  0.4820144637633266  0.1165230259723952
  0.2320144637633267  0.6154904377909343  0.0268972303582404
  0.5885932074326933  0.2051172334050863  0.9731027696417595
  0.8845095622090657  0.2679855362366734  0.9731027696417595
  0.2948827665949138  0.9114067925673067  0.0268972303582404
  0.3654904377909341  0.8385932074326933  0.8834769740276046
  0.0179855362366733  0.5448827665949136  0.8834769740276046
  0.6614067925673067  0.1345095622090660  0.1165230259723952
  0.5841830539932062  0.7099890359368402  0.2469288230419004
  0.4599890359368400  0.7130592128949423  0.6258059819436338
  0.0872542309513058  0.8341830539932062  0.3741940180563662
  0.7869407871050577  0.0400109640631599  0.3741940180563662
  0.6658169460067938  0.4127457690486941  0.6258059819436338
  0.4630592128949421  0.3372542309513059  0.7530711769580994
  0.7900109640631598  0.9158169460067938  0.7530711769580994
  0.1627457690486942  0.0369407871050578  0.2469288230419004
  0.1658169460067938  0.5400109640631598  0.2530711769580996
  0.2900109640631600  0.5369407871050577  0.8741940180563662
  0.6627457690486943  0.4158169460067938  0.1258059819436338
  0.9630592128949423  0.2099890359368400  0.1258059819436338
  0.0841830539932062  0.8372542309513057  0.8741940180563662
  0.2869407871050579  0.9127457690486943  0.7469288230419006
  0.9599890359368402  0.3341830539932062  0.7469288230419006
  0.5872542309513057  0.2130592128949421  0.2530711769580996
  0.7178625857194815  0.9699090905613101  0.5943977827553681
  0.7199090905613101  0.6255123078059397  0.7520465048418359
  0.8734648029641059  0.9678625857194815  0.2479534951581640
  0.8744876921940603  0.7800909094386899  0.2479534951581640
  0.5321374142805185  0.6265351970358941  0.7520465048418359
  0.3755123078059396  0.1234648029641061  0.4056022172446318
  0.5300909094386899  0.7821374142805185  0.4056022172446318
  0.3765351970358939  0.1244876921940604  0.5943977827553681
  0.0321374142805186  0.2800909094386896  0.9056022172446319
  0.0300909094386896  0.6244876921940603  0.7479534951581641
  0.8765351970358941  0.2821374142805186  0.2520465048418360
  0.8755123078059397  0.4699090905613104  0.2520465048418360
  0.2178625857194814  0.6234648029641059  0.7479534951581641
  0.3744876921940604  0.1265351970358939  0.0943977827553682
  0.2199090905613104  0.4678625857194814  0.0943977827553682
  0.3734648029641061  0.1255123078059396  0.9056022172446319
  0.6250000000000000  0.9142791259062468  0.7892791259062468
  0.6642791259062468  0.3750000000000000  0.7892791259062468
  0.5857208740937532  0.8750000000000000  0.2107208740937532
  0.1250000000000000  0.8357208740937532  0.2107208740937532
  0.1250000000000000  0.3357208740937532  0.7107208740937532
  0.0857208740937532  0.8750000000000000  0.7107208740937532
  0.1642791259062468  0.3750000000000000  0.2892791259062468
  0.6250000000000000  0.4142791259062468  0.2892791259062468
 
  0.00000000E+00  0.00000000E+00  0.00000000E+00
  0.00000000E+00  0.00000000E+00  0.00000000E+00
  0.00000000E+00  0.00000000E+00  0.00000000E+00
  0.00000000E+00  0.00000000E+00  0.00000000E+00
  0.00000000E+00  0.00000000E+00  0.00000000E+00
  0.00000000E+00  0.00000000E+00  0.00000000E+00
  0.00000000E+00  0.00000000E+00  0.00000000E+00
  0.00000000E+00  0.00000000E+00  0.00000000E+00
  0.00000000E+00  0.00000000E+00  0.00000000E+00
  0.00000000E+00  0.00000000E+00  0.00000000E+00
  0.00000000E+00  0.00000000E+00  0.00000000E+00
  0.00000000E+00  0.00000000E+00  0.00000000E+00
  0.00000000E+00  0.00000000E+00  0.00000000E+00
  0.00000000E+00  0.00000000E+00  0.00000000E+00
  0.00000000E+00  0.00000000E+00  0.00000000E+00
  0.00000000E+00  0.00000000E+00  0.00000000E+00
  0.00000000E+00  0.00000000E+00  0.00000000E+00
  0.00000000E+00  0.00000000E+00  0.00000000E+00
  0.00000000E+00  0.00000000E+00  0.00000000E+00
  0.00000000E+00  0.00000000E+00  0.00000000E+00
  0.00000000E+00  0.00000000E+00  0.00000000E+00
  0.00000000E+00  0.00000000E+00  0.00000000E+00
  0.00000000E+00  0.00000000E+00  0.00000000E+00
  0.00000000E+00  0.00000000E+00  0.00000000E+00
  0.00000000E+00  0.00000000E+00  0.00000000E+00
  0.00000000E+00  0.00000000E+00  0.00000000E+00
  0.00000000E+00  0.00000000E+00  0.00000000E+00
  0.00000000E+00  0.00000000E+00  0.00000000E+00
  0.00000000E+00  0.00000000E+00  0.00000000E+00
  0.00000000E+00  0.00000000E+00  0.00000000E+00
  0.00000000E+00  0.00000000E+00  0.00000000E+00
  0.00000000E+00  0.00000000E+00  0.00000000E+00
  0.00000000E+00  0.00000000E+00  0.00000000E+00
  0.00000000E+00  0.00000000E+00  0.00000000E+00
  0.00000000E+00  0.00000000E+00  0.00000000E+00
  0.00000000E+00  0.00000000E+00  0.00000000E+00
  0.00000000E+00  0.00000000E+00  0.00000000E+00
  0.00000000E+00  0.00000000E+00  0.00000000E+00
  0.00000000E+00  0.00000000E+00  0.00000000E+00
  0.00000000E+00  0.00000000E+00  0.00000000E+00
  0.00000000E+00  0.00000000E+00  0.00000000E+00
  0.00000000E+00  0.00000000E+00  0.00000000E+00
  0.00000000E+00  0.00000000E+00  0.00000000E+00
  0.00000000E+00  0.00000000E+00  0.00000000E+00
  0.00000000E+00  0.00000000E+00  0.00000000E+00
  0.00000000E+00  0.00000000E+00  0.00000000E+00
  0.00000000E+00  0.00000000E+00  0.00000000E+00
  0.00000000E+00  0.00000000E+00  0.00000000E+00
  0.00000000E+00  0.00000000E+00  0.00000000E+00
  0.00000000E+00  0.00000000E+00  0.00000000E+00
  0.00000000E+00  0.00000000E+00  0.00000000E+00
  0.00000000E+00  0.00000000E+00  0.00000000E+00
  0.00000000E+00  0.00000000E+00  0.00000000E+00
  0.00000000E+00  0.00000000E+00  0.00000000E+00
  0.00000000E+00  0.00000000E+00  0.00000000E+00
  0.00000000E+00  0.00000000E+00  0.00000000E+00
  0.00000000E+00  0.00000000E+00  0.00000000E+00
  0.00000000E+00  0.00000000E+00  0.00000000E+00
  0.00000000E+00  0.00000000E+00  0.00000000E+00
  0.00000000E+00  0.00000000E+00  0.00000000E+00
  0.00000000E+00  0.00000000E+00  0.00000000E+00
  0.00000000E+00  0.00000000E+00  0.00000000E+00
  0.00000000E+00  0.00000000E+00  0.00000000E+00
  0.00000000E+00  0.00000000E+00  0.00000000E+00
