Li4 O4                                  
   1.00000000000000     
     1.5810466878647100   -2.7384529122000778   -0.0000000000000000
     1.5810466878647100    2.7384529122000778    0.0000000000000000
    -0.0000000000000000   -0.0000000000000000    7.6862182195930275
   Li   O 
     4     4
Direct
 -0.0000000000000000  0.0000000000000000  0.0000000000000000
 -0.0000000000000000 -0.0000000000000000  0.5000000000000000
  0.3333330000000032  0.6666669999999968  0.2500000000000000
  0.6666669999999968  0.3333330000000032  0.7500000000000000
  0.3333330000000032  0.6666669999999968  0.6491466834002158
  0.6666669999999968  0.3333330000000032  0.1491466834002158
  0.6666669999999968  0.3333330000000032  0.3508533165997842
  0.3333330000000032  0.6666669999999968  0.8508533165997842
 
  0.00000000E+00  0.00000000E+00  0.00000000E+00
  0.00000000E+00  0.00000000E+00  0.00000000E+00
  0.00000000E+00  0.00000000E+00  0.00000000E+00
  0.00000000E+00  0.00000000E+00  0.00000000E+00
  0.00000000E+00  0.00000000E+00  0.00000000E+00
  0.00000000E+00  0.00000000E+00  0.00000000E+00
  0.00000000E+00  0.00000000E+00  0.00000000E+00
  0.00000000E+00  0.00000000E+00  0.00000000E+00
