Li1 N3
1.0
1.715038 2.906365 0.000383
-1.715038 2.906365 0.000383
0.000000 1.514747 4.872159
Li N
1 3
direct
-0.000000 -0.000000 -0.000000 Li
0.605876 0.605876 0.256533 N
0.394124 0.394124 0.743467 N
0.500000 0.500000 0.500000 N
