Li71 P24 N1 O94                         
   1.00000000000000     
    14.7094514100960030    0.0093742158645568    0.0095304839806346
     0.0067118936086909   10.5766607728285997    0.0077145657156540
     0.0079525892315113    0.0090031370058139   12.2926631471439549
   Li   P    N    O 
    71    24     1    94
Direct
  0.1692477726773647  0.4219104679558605  0.0030288978330684
  0.1699121483573865  0.4239042510640686  0.4986806519938831
  0.1586177923164774  0.8959811950121245  0.0027105591618999
  0.1695440860991866  0.9253291129793884  0.4972911171963120
  0.5033150267235958  0.4235376260884980  0.0009689390109189
  0.5031443187608128  0.4228211289210165  0.4994143281868956
  0.5086022484637204  0.9192352372153840  0.0009537104663596
  0.5031114123293805  0.9227338863021667  0.4992483209192231
  0.8372387656493210  0.4222998994378272  0.0006741073283084
  0.8368377320399241  0.4224608384401586  0.4996314776980013
  0.8350495967571772  0.9210756050661134 -0.0007244335429967
  0.8366953457139920  0.9224435524401600  0.4995710827136047
  0.0115427209814476  0.0782703201628039  0.2484229799940585
  0.0008599657724163  0.0772240661283938  0.7503390073612107
  0.0036256013191012  0.5777417490176667  0.2502191838827039
  0.0025457489159049  0.5771289470440186  0.7499205391136629
  0.3388520362974576  0.0800818678239379  0.2506670171488699
  0.3358109963437101  0.0761086381443312  0.7471417540069216
  0.3346808635917578  0.5776029254280948  0.2509713532444544
  0.3369781319777646  0.5777079861968322  0.7493445284632946
  0.6715999225202065  0.0774915678264454  0.2505164627751956
  0.6699675946589139  0.0769377424854132  0.7490355761461062
  0.6701631626574729  0.5773882196646046  0.2502258129848722
  0.6698791445447245  0.5772555761806755  0.7497586035489584
  0.1689500077424776  0.1638427170875408  0.6245354496491567
  0.1683178495326976  0.6587614189335881  0.1277181420084798
  0.1692716854504869  0.6647516315693121  0.6265584609416140
  0.5087657422040305  0.1649799071564992  0.1286801030396115
  0.5028082242836316  0.1633500355734014  0.6256872825189450
  0.5027617924745738  0.6632509518220601  0.1268705531698691
  0.5032037745379357  0.6631898173654019  0.6259631176357080
  0.8403908318061938  0.1625429648973266  0.1252273916249229
  0.8358618821374485  0.1634157353094459  0.6259090334826382
  0.8364217518197032  0.6627968364391231  0.1264164856743936
  0.8358811506162396  0.6631483242638456  0.6265004405361613
  0.0073541172655798  0.3337292281169120  0.1248877471402434
  0.0028384377524245  0.3362423380395957  0.6235664162733179
 -0.0001504254068268  0.8353618647213272  0.1238923615039751
  0.0028883338421738  0.8369638836046256  0.6231439958800153
  0.3331301044619668  0.3388090235035591  0.1252639845560254
  0.3364623541995600  0.3366854515025096  0.6230829042228673
  0.3341801503297052  0.8354407896991366  0.1272352509762501
  0.3367440163432376  0.8369285440416114  0.6230189343127538
  0.6710862304874488  0.3372731342006514  0.1237921347841872
  0.6697481231884034  0.3367445194061080  0.6234718303839391
  0.6710939800542198  0.8361037190969944  0.1244924744751572
  0.6695294021070117  0.8364219320025729  0.6232113213517144
  0.0032975934950105  0.3380689496248879  0.3755260770272339
  0.0016059768209467  0.3364990419792527  0.8775482407317522
  0.0020873471662648  0.8365054386253921  0.3762691845977572
  0.0001006754647909  0.8362406006536829  0.8757262444179578
  0.3356400046630155  0.3373830432396558  0.3757602223228411
  0.3360427056408176  0.3406518306054075  0.8764654027446019
  0.3357072436032109  0.8376071575387941  0.3752928740979511
  0.3359875545078751  0.8345041163085006  0.8754193687230390
  0.6703907662671862  0.3369597975657022  0.3763495731559348
  0.6698162924105372  0.3374495713287409  0.8766347282912839
  0.6703698078709606  0.8366529957079525  0.3766706148498974
  0.6698823740304735  0.8360531354768426  0.8756924390145607
  0.1684907305101927  0.1708454303284335  0.3703492209551948
  0.1624085349118196  0.1715876690787215  0.8643022748248730
  0.1678452148788630  0.6618783733364865  0.3759726633182822
  0.1690329076198231  0.6611830319508624  0.8727846068910383
  0.5041352532602182  0.1638350719984991  0.3740345111248156
  0.5069037491978384  0.1642329663447522  0.8716495158076614
  0.5029237882992237  0.6634433773401535  0.3738170415207031
  0.5030685766972532  0.6627002995491494  0.8735963634020648
  0.8380868785043374  0.1631145187523466  0.3727592341327833
  0.8347414010506720  0.1628132268520718  0.8722761584318359
  0.8367167118591886  0.6630241493334751  0.3736152000493569
  0.8357670715486262  0.6626695866183340  0.8732576654889965
  0.1680147149425287  0.4161089901808942  0.2493824879897690
  0.1670859098677576  0.4126682761441653  0.7498232296087262
  0.1661844131882528  0.9078331525281074  0.2489001874325071
  0.1663859850135578  0.9131486261422650  0.7518324538511310
  0.5010385181596292  0.4128416205837449  0.2501983857646909
  0.5004073362176840  0.4122201692961265  0.7498993483335951
  0.5018881608820506  0.9118181535099587  0.2501371124580593
  0.5003378473729624  0.9119839192405189  0.7500769960034218
  0.8341969891796818  0.4124295433204642  0.2496947102923759
  0.8335305962975198  0.4118938264653815  0.7499751298270821
  0.8338162825297567  0.9123287431240086  0.2500176825532127
  0.8330874618278065  0.9116467928587222  0.7493151619538014
 -0.0017064618839310  0.0867962006605805  0.0004798540393887
  0.0001468639028498  0.0882718322453962  0.5004915569564262
 -0.0000642427071211  0.5876321228615214 -0.0006643568807723
 -0.0000445425295921  0.5879494570695709  0.5009803216999393
  0.3395998249804288  0.0877849025417582  0.0012074783802435
  0.3341143555424541  0.0887898438012621  0.4998170919763825
  0.3336801956624540  0.5883917875654241 -0.0001945895503568
  0.3340675808195613  0.5885156852017657  0.5005650978312139
  0.6667729852874534  0.0877058668332594 -0.0004900420737238
  0.6674508372986487  0.0878081682492497  0.5000936877822869
  0.6672126940416231  0.5879401741696960 -0.0000699974688756
  0.6672031486874032  0.5877869505923299  0.5000355263633176
  0.2068680631780563  0.0493177641099846  0.2578991170852001
  0.0349832064633069  0.1591671650319532  0.3975589349498542
  0.0359426687920261  0.1560102884993425  0.8965634785141584
  0.0347451043611652  0.6573478019619073  0.3970487976669578
  0.0354786328404296  0.6574642883627182  0.8952921451425793
  0.3714921331704980  0.1587853939767011  0.3975117037613294
  0.3666967125244295  0.1571024927881480  0.8940766013690957
  0.3693049300720110  0.6577072934690957  0.3965227626058448
  0.3692625814857722  0.6573228595408670  0.8954353030467006
  0.7028993087753447  0.1571070809516956  0.3961824981678773
  0.7009480003149948  0.1567403337138127  0.8948482627624335
  0.7026379965191973  0.6569341191629068  0.3960590546993333
  0.7021268191425081  0.6569626436687723  0.8955179857111830
  0.2002426943198194  0.0533778719183169  0.7535753273785426
  0.1993307123674566  0.5577839369004710  0.2538386865886795
  0.2009473369305813  0.5522223792169356  0.7498100548688076
  0.5355997349229185  0.0517925981736595  0.2501012544292696
  0.5339033416066312  0.0519063211482151  0.7500603101783809
  0.5346340093170170  0.5526729811923569  0.2501315001862061
  0.5341859807391998  0.5518943408364291  0.7499955501652514
  0.8681638556676889  0.0514245098337984  0.2497922078889568
  0.8666152512666873  0.0514674440254879  0.7492228575445553
  0.8676694232602798  0.5524053681104503  0.2499290917495224
  0.8673420187512541  0.5516373697004208  0.7500349258813426
  0.0618920522913342  0.4115557516488227  0.2502626763776832
  0.0613121168278841  0.4089137021166968  0.7505786888082442
  0.0600170265697435  0.9021367009518519  0.2481193051798974
  0.0607713391181177  0.9099195262570645  0.7508927839622670
  0.3952929791716163  0.4099374959089520  0.2499606306577558
  0.3944990097776044  0.4095047054886164  0.7498479519548540
  0.3962253068004525  0.9091247866524842  0.2494438990738755
  0.3943565470362285  0.9094653576596842  0.7506956361856379
  0.7281948349170068  0.4098589325860359  0.2499619687842980
  0.7276337822011396  0.4093914879866780  0.7499004071559533
  0.7278013449079515  0.9099687067138647  0.2504536744887300
  0.7272159138609524  0.9089874786400104  0.7493172110881003
  0.2282711066369009  0.0927977901650877  0.4993907608450713
  0.2278767269561423  0.5918674772311285 -0.0009194099013614
  0.2282403796042107  0.5917074984765054  0.5018438076440155
  0.5605057450004490  0.0905478067147480 -0.0000976934275708
  0.5615241558517888  0.0903287518393079  0.5001756868829421
  0.5612817484535109  0.5909992977368664  0.0002107620667028
  0.5613041066041754  0.5905189602181314  0.5000005023020981
  0.8922625654227784  0.0863230206189223 -0.0054869894458392
  0.8942408308288248  0.0901160242807816  0.5008353193772189
  0.8940716637221144  0.5908583829266166 -0.0009229141505644
  0.8940896529165445  0.5904599725341576  0.5012055799324194
  0.2051528415070301  0.3556280902292795  0.1445069619403293
  0.2024400471603329  0.3430235324094152  0.6462365591359787
  0.2001373273181331  0.8376076461518934  0.1433820245820662
  0.2030177065782254  0.8450735736949997  0.6483014723573914
  0.5370052799014816  0.3439932952780398  0.1461838262530426
  0.5357215912085044  0.3428017648183486  0.6461207203587069
  0.5375315004638823  0.8427272985466215  0.1461338161893555
  0.5353637136077553  0.8431313609496843  0.6459813692624663
  0.8693506514067214  0.3436516257735076  0.1456439179576159
  0.8689603435776541  0.3428019166720060  0.6460470503332895
  0.8676576827720520  0.8425107343137472  0.1455111941858380
  0.8688572480448684  0.8426182181709300  0.6455595411307096
  0.0279270457710281  0.1553065404155215  0.1045606928367684
  0.0352038390528845  0.1560734186776830  0.6054532012245327
  0.0349873342158929  0.6568666866378654  0.1030503553087688
  0.0353852022935087  0.6572010262266184  0.6049420764529717
  0.3729732708898380  0.1591103784935480  0.1033296557673095
  0.3688398089940292  0.1562225143502127  0.6051380404402968
  0.3688862254473026  0.6573854276746356  0.1037435322237756
  0.3697215102751654  0.6574057522702265  0.6045575064084467
  0.7022894936114571  0.1567174704814954  0.1030990454193514
  0.7022021289150189  0.1569240767202265  0.6042767640648158
  0.7026490091143028  0.6568057291957679  0.1037375490292736
  0.7020403603111861  0.6568955703219773  0.6042085794895715
  0.0337690954100676  0.4480191128371808 -0.0008768403006972
  0.0340965833170211  0.4482791883806552  0.5010304641618737
  0.0332719267495818  0.9466725341222911 -0.0006451549766787
  0.0343345473248096  0.9484163882380269  0.4997862974470783
  0.3679662261828614  0.4487286542221307 -0.0004008159292182
  0.3678731092413535  0.4486196433655966  0.5004659368084406
  0.3679147504658371  0.9462917558055177  0.0006096446607669
  0.3671960111335777  0.9484189536009271  0.4996821643374824
  0.7010351062404362  0.4481052718726326 -0.0002436494716430
  0.7010800814656490  0.4479843214047001  0.5002425775869660
  0.6995735437762002  0.9474579997419257 -0.0006541607914626
  0.7012391103340327  0.9479676229404980  0.5003065147581935
  0.2033206284988236  0.3477904697129074  0.3542193522741186
  0.2026854334823538  0.3434512824780746  0.8542455652092708
  0.2017117745817331  0.8387324453142302  0.3538306035428208
  0.2015217939901205  0.8444614846899787  0.8567411349029048
  0.5365042485068406  0.3434374404151041  0.3540991565124287
  0.5354308192237467  0.3430863882565990  0.8542813110395450
  0.5367884855480257  0.8428587640516737  0.3544199232993759
  0.5357123504339674  0.8428471946180840  0.8541610630907709
  0.8691901890387626  0.3434552504259802  0.3540178333401577
  0.8685002953941066  0.3424505357510189  0.8540820101626431
  0.8687132464521861  0.8424219057032044  0.3539809337738454
  0.8678987609429133  0.8420631212259811  0.8533796891998300
 
  0.00000000E+00  0.00000000E+00  0.00000000E+00
  0.00000000E+00  0.00000000E+00  0.00000000E+00
  0.00000000E+00  0.00000000E+00  0.00000000E+00
  0.00000000E+00  0.00000000E+00  0.00000000E+00
  0.00000000E+00  0.00000000E+00  0.00000000E+00
  0.00000000E+00  0.00000000E+00  0.00000000E+00
  0.00000000E+00  0.00000000E+00  0.00000000E+00
  0.00000000E+00  0.00000000E+00  0.00000000E+00
  0.00000000E+00  0.00000000E+00  0.00000000E+00
  0.00000000E+00  0.00000000E+00  0.00000000E+00
  0.00000000E+00  0.00000000E+00  0.00000000E+00
  0.00000000E+00  0.00000000E+00  0.00000000E+00
  0.00000000E+00  0.00000000E+00  0.00000000E+00
  0.00000000E+00  0.00000000E+00  0.00000000E+00
  0.00000000E+00  0.00000000E+00  0.00000000E+00
  0.00000000E+00  0.00000000E+00  0.00000000E+00
  0.00000000E+00  0.00000000E+00  0.00000000E+00
  0.00000000E+00  0.00000000E+00  0.00000000E+00
  0.00000000E+00  0.00000000E+00  0.00000000E+00
  0.00000000E+00  0.00000000E+00  0.00000000E+00
  0.00000000E+00  0.00000000E+00  0.00000000E+00
  0.00000000E+00  0.00000000E+00  0.00000000E+00
  0.00000000E+00  0.00000000E+00  0.00000000E+00
  0.00000000E+00  0.00000000E+00  0.00000000E+00
  0.00000000E+00  0.00000000E+00  0.00000000E+00
  0.00000000E+00  0.00000000E+00  0.00000000E+00
  0.00000000E+00  0.00000000E+00  0.00000000E+00
  0.00000000E+00  0.00000000E+00  0.00000000E+00
  0.00000000E+00  0.00000000E+00  0.00000000E+00
  0.00000000E+00  0.00000000E+00  0.00000000E+00
  0.00000000E+00  0.00000000E+00  0.00000000E+00
  0.00000000E+00  0.00000000E+00  0.00000000E+00
  0.00000000E+00  0.00000000E+00  0.00000000E+00
  0.00000000E+00  0.00000000E+00  0.00000000E+00
  0.00000000E+00  0.00000000E+00  0.00000000E+00
  0.00000000E+00  0.00000000E+00  0.00000000E+00
  0.00000000E+00  0.00000000E+00  0.00000000E+00
  0.00000000E+00  0.00000000E+00  0.00000000E+00
  0.00000000E+00  0.00000000E+00  0.00000000E+00
  0.00000000E+00  0.00000000E+00  0.00000000E+00
  0.00000000E+00  0.00000000E+00  0.00000000E+00
  0.00000000E+00  0.00000000E+00  0.00000000E+00
  0.00000000E+00  0.00000000E+00  0.00000000E+00
  0.00000000E+00  0.00000000E+00  0.00000000E+00
  0.00000000E+00  0.00000000E+00  0.00000000E+00
  0.00000000E+00  0.00000000E+00  0.00000000E+00
  0.00000000E+00  0.00000000E+00  0.00000000E+00
  0.00000000E+00  0.00000000E+00  0.00000000E+00
  0.00000000E+00  0.00000000E+00  0.00000000E+00
  0.00000000E+00  0.00000000E+00  0.00000000E+00
  0.00000000E+00  0.00000000E+00  0.00000000E+00
  0.00000000E+00  0.00000000E+00  0.00000000E+00
  0.00000000E+00  0.00000000E+00  0.00000000E+00
  0.00000000E+00  0.00000000E+00  0.00000000E+00
  0.00000000E+00  0.00000000E+00  0.00000000E+00
  0.00000000E+00  0.00000000E+00  0.00000000E+00
  0.00000000E+00  0.00000000E+00  0.00000000E+00
  0.00000000E+00  0.00000000E+00  0.00000000E+00
  0.00000000E+00  0.00000000E+00  0.00000000E+00
  0.00000000E+00  0.00000000E+00  0.00000000E+00
  0.00000000E+00  0.00000000E+00  0.00000000E+00
  0.00000000E+00  0.00000000E+00  0.00000000E+00
  0.00000000E+00  0.00000000E+00  0.00000000E+00
  0.00000000E+00  0.00000000E+00  0.00000000E+00
  0.00000000E+00  0.00000000E+00  0.00000000E+00
  0.00000000E+00  0.00000000E+00  0.00000000E+00
  0.00000000E+00  0.00000000E+00  0.00000000E+00
  0.00000000E+00  0.00000000E+00  0.00000000E+00
  0.00000000E+00  0.00000000E+00  0.00000000E+00
  0.00000000E+00  0.00000000E+00  0.00000000E+00
  0.00000000E+00  0.00000000E+00  0.00000000E+00
  0.00000000E+00  0.00000000E+00  0.00000000E+00
  0.00000000E+00  0.00000000E+00  0.00000000E+00
  0.00000000E+00  0.00000000E+00  0.00000000E+00
  0.00000000E+00  0.00000000E+00  0.00000000E+00
  0.00000000E+00  0.00000000E+00  0.00000000E+00
  0.00000000E+00  0.00000000E+00  0.00000000E+00
  0.00000000E+00  0.00000000E+00  0.00000000E+00
  0.00000000E+00  0.00000000E+00  0.00000000E+00
  0.00000000E+00  0.00000000E+00  0.00000000E+00
  0.00000000E+00  0.00000000E+00  0.00000000E+00
  0.00000000E+00  0.00000000E+00  0.00000000E+00
  0.00000000E+00  0.00000000E+00  0.00000000E+00
  0.00000000E+00  0.00000000E+00  0.00000000E+00
  0.00000000E+00  0.00000000E+00  0.00000000E+00
  0.00000000E+00  0.00000000E+00  0.00000000E+00
  0.00000000E+00  0.00000000E+00  0.00000000E+00
  0.00000000E+00  0.00000000E+00  0.00000000E+00
  0.00000000E+00  0.00000000E+00  0.00000000E+00
  0.00000000E+00  0.00000000E+00  0.00000000E+00
  0.00000000E+00  0.00000000E+00  0.00000000E+00
  0.00000000E+00  0.00000000E+00  0.00000000E+00
  0.00000000E+00  0.00000000E+00  0.00000000E+00
  0.00000000E+00  0.00000000E+00  0.00000000E+00
  0.00000000E+00  0.00000000E+00  0.00000000E+00
  0.00000000E+00  0.00000000E+00  0.00000000E+00
  0.00000000E+00  0.00000000E+00  0.00000000E+00
  0.00000000E+00  0.00000000E+00  0.00000000E+00
  0.00000000E+00  0.00000000E+00  0.00000000E+00
  0.00000000E+00  0.00000000E+00  0.00000000E+00
  0.00000000E+00  0.00000000E+00  0.00000000E+00
  0.00000000E+00  0.00000000E+00  0.00000000E+00
  0.00000000E+00  0.00000000E+00  0.00000000E+00
  0.00000000E+00  0.00000000E+00  0.00000000E+00
  0.00000000E+00  0.00000000E+00  0.00000000E+00
  0.00000000E+00  0.00000000E+00  0.00000000E+00
  0.00000000E+00  0.00000000E+00  0.00000000E+00
  0.00000000E+00  0.00000000E+00  0.00000000E+00
  0.00000000E+00  0.00000000E+00  0.00000000E+00
  0.00000000E+00  0.00000000E+00  0.00000000E+00
  0.00000000E+00  0.00000000E+00  0.00000000E+00
  0.00000000E+00  0.00000000E+00  0.00000000E+00
  0.00000000E+00  0.00000000E+00  0.00000000E+00
  0.00000000E+00  0.00000000E+00  0.00000000E+00
  0.00000000E+00  0.00000000E+00  0.00000000E+00
  0.00000000E+00  0.00000000E+00  0.00000000E+00
  0.00000000E+00  0.00000000E+00  0.00000000E+00
  0.00000000E+00  0.00000000E+00  0.00000000E+00
  0.00000000E+00  0.00000000E+00  0.00000000E+00
  0.00000000E+00  0.00000000E+00  0.00000000E+00
  0.00000000E+00  0.00000000E+00  0.00000000E+00
  0.00000000E+00  0.00000000E+00  0.00000000E+00
  0.00000000E+00  0.00000000E+00  0.00000000E+00
  0.00000000E+00  0.00000000E+00  0.00000000E+00
  0.00000000E+00  0.00000000E+00  0.00000000E+00
  0.00000000E+00  0.00000000E+00  0.00000000E+00
  0.00000000E+00  0.00000000E+00  0.00000000E+00
  0.00000000E+00  0.00000000E+00  0.00000000E+00
  0.00000000E+00  0.00000000E+00  0.00000000E+00
  0.00000000E+00  0.00000000E+00  0.00000000E+00
  0.00000000E+00  0.00000000E+00  0.00000000E+00
  0.00000000E+00  0.00000000E+00  0.00000000E+00
  0.00000000E+00  0.00000000E+00  0.00000000E+00
  0.00000000E+00  0.00000000E+00  0.00000000E+00
  0.00000000E+00  0.00000000E+00  0.00000000E+00
  0.00000000E+00  0.00000000E+00  0.00000000E+00
  0.00000000E+00  0.00000000E+00  0.00000000E+00
  0.00000000E+00  0.00000000E+00  0.00000000E+00
  0.00000000E+00  0.00000000E+00  0.00000000E+00
  0.00000000E+00  0.00000000E+00  0.00000000E+00
  0.00000000E+00  0.00000000E+00  0.00000000E+00
  0.00000000E+00  0.00000000E+00  0.00000000E+00
  0.00000000E+00  0.00000000E+00  0.00000000E+00
  0.00000000E+00  0.00000000E+00  0.00000000E+00
  0.00000000E+00  0.00000000E+00  0.00000000E+00
  0.00000000E+00  0.00000000E+00  0.00000000E+00
  0.00000000E+00  0.00000000E+00  0.00000000E+00
  0.00000000E+00  0.00000000E+00  0.00000000E+00
  0.00000000E+00  0.00000000E+00  0.00000000E+00
  0.00000000E+00  0.00000000E+00  0.00000000E+00
  0.00000000E+00  0.00000000E+00  0.00000000E+00
  0.00000000E+00  0.00000000E+00  0.00000000E+00
  0.00000000E+00  0.00000000E+00  0.00000000E+00
  0.00000000E+00  0.00000000E+00  0.00000000E+00
  0.00000000E+00  0.00000000E+00  0.00000000E+00
  0.00000000E+00  0.00000000E+00  0.00000000E+00
  0.00000000E+00  0.00000000E+00  0.00000000E+00
  0.00000000E+00  0.00000000E+00  0.00000000E+00
  0.00000000E+00  0.00000000E+00  0.00000000E+00
  0.00000000E+00  0.00000000E+00  0.00000000E+00
  0.00000000E+00  0.00000000E+00  0.00000000E+00
  0.00000000E+00  0.00000000E+00  0.00000000E+00
  0.00000000E+00  0.00000000E+00  0.00000000E+00
  0.00000000E+00  0.00000000E+00  0.00000000E+00
  0.00000000E+00  0.00000000E+00  0.00000000E+00
  0.00000000E+00  0.00000000E+00  0.00000000E+00
  0.00000000E+00  0.00000000E+00  0.00000000E+00
  0.00000000E+00  0.00000000E+00  0.00000000E+00
  0.00000000E+00  0.00000000E+00  0.00000000E+00
  0.00000000E+00  0.00000000E+00  0.00000000E+00
  0.00000000E+00  0.00000000E+00  0.00000000E+00
  0.00000000E+00  0.00000000E+00  0.00000000E+00
  0.00000000E+00  0.00000000E+00  0.00000000E+00
  0.00000000E+00  0.00000000E+00  0.00000000E+00
  0.00000000E+00  0.00000000E+00  0.00000000E+00
  0.00000000E+00  0.00000000E+00  0.00000000E+00
  0.00000000E+00  0.00000000E+00  0.00000000E+00
  0.00000000E+00  0.00000000E+00  0.00000000E+00
  0.00000000E+00  0.00000000E+00  0.00000000E+00
  0.00000000E+00  0.00000000E+00  0.00000000E+00
  0.00000000E+00  0.00000000E+00  0.00000000E+00
  0.00000000E+00  0.00000000E+00  0.00000000E+00
  0.00000000E+00  0.00000000E+00  0.00000000E+00
  0.00000000E+00  0.00000000E+00  0.00000000E+00
  0.00000000E+00  0.00000000E+00  0.00000000E+00
  0.00000000E+00  0.00000000E+00  0.00000000E+00
  0.00000000E+00  0.00000000E+00  0.00000000E+00
  0.00000000E+00  0.00000000E+00  0.00000000E+00
  0.00000000E+00  0.00000000E+00  0.00000000E+00
  0.00000000E+00  0.00000000E+00  0.00000000E+00
