Li56 P28 O98
1.0
6.730959 0.000000 -2.599490
-2.035903 8.419349 0.002996
0.000000 0.000000 63.126504
Li P O
56 28 98
direct
0.144977 0.012029 0.019882 Li+
0.855023 0.987971 0.060626 Li+
0.588727 0.248347 0.048948 Li+
0.411273 0.751653 0.031561 Li+
0.327738 0.208724 0.079607 Li+
0.672262 0.791276 0.000902 Li+
0.241886 0.549204 0.077175 Li+
0.758114 0.450796 0.003334 Li+
0.144977 0.012029 0.103216 Li+
0.855023 0.987971 0.143959 Li+
0.588727 0.248347 0.132281 Li+
0.411273 0.751653 0.114894 Li+
0.327738 0.208724 0.162940 Li+
0.672262 0.791276 0.084235 Li+
0.241886 0.549204 0.160508 Li+
0.758114 0.450796 0.086667 Li+
0.144977 0.012029 0.186549 Li+
0.855023 0.987971 0.227293 Li+
0.588727 0.248347 0.215614 Li+
0.411273 0.751653 0.198227 Li+
0.327738 0.208724 0.246273 Li+
0.672262 0.791276 0.167568 Li+
0.241886 0.549204 0.243842 Li+
0.758114 0.450796 0.170000 Li+
0.144977 0.012029 0.269882 Li+
0.855023 0.987971 0.310626 Li+
0.588727 0.248347 0.298948 Li+
0.411273 0.751653 0.281561 Li+
0.327738 0.208724 0.329607 Li+
0.672262 0.791276 0.250902 Li+
0.241886 0.549204 0.327175 Li+
0.758114 0.450796 0.253334 Li+
0.144977 0.012029 0.353216 Li+
0.855023 0.987971 0.393959 Li+
0.588727 0.248347 0.382281 Li+
0.411273 0.751653 0.364894 Li+
0.327738 0.208724 0.412940 Li+
0.672262 0.791276 0.334235 Li+
0.241886 0.549204 0.410508 Li+
0.758114 0.450796 0.336667 Li+
0.144977 0.012029 0.436549 Li+
0.855023 0.987971 0.477293 Li+
0.588727 0.248347 0.465614 Li+
0.411273 0.751653 0.448227 Li+
0.327738 0.208724 0.496273 Li+
0.672262 0.791276 0.417568 Li+
0.241886 0.549204 0.493842 Li+
0.758114 0.450796 0.420000 Li+
0.144977 0.012029 0.519882 Li+
0.855023 0.987971 0.560626 Li+
0.588727 0.248347 0.548948 Li+
0.411273 0.751653 0.531561 Li+
0.327738 0.208724 0.579607 Li+
0.672262 0.791276 0.500902 Li+
0.241886 0.549204 0.577175 Li+
0.758114 0.450796 0.503334 Li+
0.213298 0.368044 0.034088 P5+
0.786702 0.631956 0.046420 P5+
0.779241 0.154498 0.016565 P5+
0.220759 0.845502 0.063944 P5+
0.213298 0.368044 0.117422 P5+
0.786702 0.631956 0.129753 P5+
0.779241 0.154498 0.099898 P5+
0.220759 0.845502 0.147277 P5+
0.213298 0.368044 0.200755 P5+
0.786702 0.631956 0.213087 P5+
0.779241 0.154498 0.183232 P5+
0.220759 0.845502 0.230610 P5+
0.213298 0.368044 0.284088 P5+
0.786702 0.631956 0.296420 P5+
0.779241 0.154498 0.266565 P5+
0.220759 0.845502 0.313944 P5+
0.213298 0.368044 0.367422 P5+
0.786702 0.631956 0.379753 P5+
0.779241 0.154498 0.349898 P5+
0.220759 0.845502 0.397277 P5+
0.213298 0.368044 0.450755 P5+
0.786702 0.631956 0.463087 P5+
0.779241 0.154498 0.433232 P5+
0.220759 0.845502 0.480610 P5+
0.213298 0.368044 0.534088 P5+
0.786702 0.631956 0.546420 P5+
0.779241 0.154498 0.516565 P5+
0.220759 0.845502 0.563944 P5+
0.741759 0.125660 0.038595 O2-
0.605720 0.209316 0.081410 O2-
0.394280 0.790684 0.082432 O2-
0.848591 0.018024 0.008345 O2-
0.743350 0.623545 0.020874 O2-
0.256650 0.376455 0.059634 O2-
0.732189 0.473810 0.055684 O2-
0.267811 0.526190 0.024825 O2-
0.702403 0.763496 0.053736 O2-
0.297597 0.236504 0.026773 O2-
0.962384 0.316106 0.020832 O2-
0.037616 0.683894 0.059677 O2-
0.151409 0.981976 0.072163 O2-
0.258241 0.874340 0.041914 O2-
0.741759 0.125660 0.121928 O2-
0.605720 0.209316 0.164743 O2-
0.394280 0.790684 0.165765 O2-
0.848591 0.018024 0.091678 O2-
0.743350 0.623545 0.104207 O2-
0.256650 0.376455 0.142968 O2-
0.732189 0.473810 0.139017 O2-
0.267811 0.526190 0.108158 O2-
0.702403 0.763496 0.137069 O2-
0.297597 0.236504 0.110106 O2-
0.962384 0.316106 0.104165 O2-
0.037616 0.683894 0.143010 O2-
0.151409 0.981976 0.155497 O2-
0.258241 0.874340 0.125247 O2-
0.741759 0.125660 0.205262 O2-
0.605720 0.209316 0.248077 O2-
0.394280 0.790684 0.249098 O2-
0.848591 0.018024 0.175012 O2-
0.743350 0.623545 0.187541 O2-
0.256650 0.376455 0.226301 O2-
0.732189 0.473810 0.222351 O2-
0.267811 0.526190 0.191491 O2-
0.702403 0.763496 0.220402 O2-
0.297597 0.236504 0.193439 O2-
0.962384 0.316106 0.187498 O2-
0.037616 0.683894 0.226343 O2-
0.151409 0.981976 0.238830 O2-
0.258241 0.874340 0.208580 O2-
0.741759 0.125660 0.288595 O2-
0.605720 0.209316 0.331410 O2-
0.394280 0.790684 0.332432 O2-
0.848591 0.018024 0.258345 O2-
0.743350 0.623545 0.270874 O2-
0.256650 0.376455 0.309634 O2-
0.732189 0.473810 0.305684 O2-
0.267811 0.526190 0.274825 O2-
0.702403 0.763496 0.303736 O2-
0.297597 0.236504 0.276773 O2-
0.962384 0.316106 0.270832 O2-
0.037616 0.683894 0.309677 O2-
0.151409 0.981976 0.322163 O2-
0.258241 0.874340 0.291914 O2-
0.741759 0.125660 0.371928 O2-
0.605720 0.209316 0.414743 O2-
0.394280 0.790684 0.415765 O2-
0.848591 0.018024 0.341678 O2-
0.743350 0.623545 0.354207 O2-
0.256650 0.376455 0.392968 O2-
0.732189 0.473810 0.389017 O2-
0.267811 0.526190 0.358158 O2-
0.702403 0.763496 0.387069 O2-
0.297597 0.236504 0.360106 O2-
0.962384 0.316106 0.354165 O2-
0.037616 0.683894 0.393010 O2-
0.151409 0.981976 0.405497 O2-
0.258241 0.874340 0.375247 O2-
0.741759 0.125660 0.455262 O2-
0.605720 0.209316 0.498077 O2-
0.394280 0.790684 0.499098 O2-
0.848591 0.018024 0.425012 O2-
0.743350 0.623545 0.437541 O2-
0.256650 0.376455 0.476301 O2-
0.732189 0.473810 0.472351 O2-
0.267811 0.526190 0.441491 O2-
0.702403 0.763496 0.470402 O2-
0.297597 0.236504 0.443439 O2-
0.962384 0.316106 0.437498 O2-
0.037616 0.683894 0.476343 O2-
0.151409 0.981976 0.488830 O2-
0.258241 0.874340 0.458580 O2-
0.741759 0.125660 0.538595 O2-
0.605720 0.209316 0.581410 O2-
0.394280 0.790684 0.582432 O2-
0.848591 0.018024 0.508345 O2-
0.743350 0.623545 0.520874 O2-
0.256650 0.376455 0.559634 O2-
0.732189 0.473810 0.555684 O2-
0.267811 0.526190 0.524825 O2-
0.702403 0.763496 0.553736 O2-
0.297597 0.236504 0.526773 O2-
0.962384 0.316106 0.520832 O2-
0.037616 0.683894 0.559677 O2-
0.151409 0.981976 0.572163 O2-
0.258241 0.874340 0.541914 O2-
