(1, 0, 0)                               
   1.00000000000000     
     3.0957971005782561    0.0000000153393241   -1.7877639311716547
     0.0000000149522068    3.8644693101086736   -0.0000000065828000
     0.3577169140258639   -0.0000000362351956   43.7138451978945994
   Li   N 
    21     7
Selective dynamics
Direct
 -0.0102143724069375  0.4999995517953063  0.0397593659076440   T   T   T
  0.3333322790115076  0.0000000000000000  0.0138285547461905   F   F   F
  0.6666677209884924  0.0000000000000000  0.0691420134356306   F   F   F
  0.0000000000000000  0.5000006428991171  0.1244554545454548   F   F   F
  0.3333322790115076  0.0000000000000000  0.0967981002007363   F   F   F
  0.6666677209884924  0.0000000000000000  0.1521115588901765   F   F   F
  0.0000000000000000  0.5000006428991171  0.2074250000000006   F   F   F
  0.3333322790115076  0.0000000000000000  0.1797690092916397   F   F   F
  0.6666677209884924  0.0000000000000000  0.2350824679810870   F   F   F
  0.0000000000000000  0.5000006428991171  0.2903956818181825   F   F   F
  0.3333322790115076  0.0000000000000000  0.2627385547461856   F   F   F
  0.6666677209884924  0.0000000000000000  0.3180531497992689   F   F   F
  0.0000000000000000  0.5000006428991171  0.3733665909090931   F   F   F
  0.3333322790115076  0.0000000000000000  0.3457092365643675   F   F   F
  0.6666677209884924  0.0000000000000000  0.4010226952538147   F   F   F
  0.0000000000000000  0.5000006428991171  0.4563361363636389   F   F   F
  0.3333322790115076  0.0000000000000000  0.4286799183825494   F   F   F
  0.6666677209884924  0.0000000000000000  0.4839933770719966   F   F   F
  0.0104330829908741  0.4999996002522569  0.5410324436523386   T   T   T
  0.3333322790115076  0.0000000000000000  0.5116494638370952   F   F   F
  0.6666677209884924  0.0000000000000000  0.5669629225265425   F   F   F
 -0.0001034988167495  0.0000002548757267  0.0414778067558508   T   T   T
  0.0000000000000000  0.0000000000000000  0.1244554545454548   F   F   F
  0.0000000000000000  0.0000000000000000  0.2074250000000006   F   F   F
  0.0000000000000000  0.0000000000000000  0.2903956818181825   F   F   F
  0.0000000000000000  0.0000000000000000  0.3733665909090931   F   F   F
  0.0000000000000000  0.0000000000000000  0.4563361363636389   F   F   F
  0.0000498173936433  0.0000002578143179  0.5393142013383389   T   T   T
 
  0.00000000E+00  0.00000000E+00  0.00000000E+00
  0.00000000E+00  0.00000000E+00  0.00000000E+00
  0.00000000E+00  0.00000000E+00  0.00000000E+00
  0.00000000E+00  0.00000000E+00  0.00000000E+00
  0.00000000E+00  0.00000000E+00  0.00000000E+00
  0.00000000E+00  0.00000000E+00  0.00000000E+00
  0.00000000E+00  0.00000000E+00  0.00000000E+00
  0.00000000E+00  0.00000000E+00  0.00000000E+00
  0.00000000E+00  0.00000000E+00  0.00000000E+00
  0.00000000E+00  0.00000000E+00  0.00000000E+00
  0.00000000E+00  0.00000000E+00  0.00000000E+00
  0.00000000E+00  0.00000000E+00  0.00000000E+00
  0.00000000E+00  0.00000000E+00  0.00000000E+00
  0.00000000E+00  0.00000000E+00  0.00000000E+00
  0.00000000E+00  0.00000000E+00  0.00000000E+00
  0.00000000E+00  0.00000000E+00  0.00000000E+00
  0.00000000E+00  0.00000000E+00  0.00000000E+00
  0.00000000E+00  0.00000000E+00  0.00000000E+00
  0.00000000E+00  0.00000000E+00  0.00000000E+00
  0.00000000E+00  0.00000000E+00  0.00000000E+00
  0.00000000E+00  0.00000000E+00  0.00000000E+00
  0.00000000E+00  0.00000000E+00  0.00000000E+00
  0.00000000E+00  0.00000000E+00  0.00000000E+00
  0.00000000E+00  0.00000000E+00  0.00000000E+00
  0.00000000E+00  0.00000000E+00  0.00000000E+00
  0.00000000E+00  0.00000000E+00  0.00000000E+00
  0.00000000E+00  0.00000000E+00  0.00000000E+00
  0.00000000E+00  0.00000000E+00  0.00000000E+00
