(1, 0, 0)
1.0
3.161590 0.000000 -1.825345
0.000000 3.888635 0.000000
0.000000 0.000000 44.000000
Li N
21 7
Selective dynamics
Cartesian
0.00000 1.94432 1.82533 T T T Li+ 
1.05386 0.00000 0.00001 F F F Li+ 
2.10773 0.00000 1.82535 F F F Li+ 
0.00000 1.94432 5.47604 F F F Li+ 
1.05386 0.00000 3.65067 F F F Li+ 
2.10773 0.00000 5.47601 F F F Li+ 
0.00000 1.94432 9.12670 F F F Li+ 
1.05386 0.00000 7.30139 F F F Li+ 
2.10773 0.00000 9.12673 F F F Li+ 
0.00000 1.94432 12.77741 F F F Li+ 
1.05386 0.00000 10.95205 F F F Li+ 
2.10773 0.00000 12.77744 F F F Li+ 
0.00000 1.94432 16.42813 F F F Li+ 
1.05386 0.00000 14.60276 F F F Li+ 
2.10773 0.00000 16.42810 F F F Li+ 
0.00000 1.94432 20.07879 F F F Li+ 
1.05386 0.00000 18.25347 F F F Li+ 
2.10773 0.00000 20.07881 F F F Li+ 
0.00000 1.94432 23.72950 T T T Li+ 
1.05386 0.00000 21.90413 F F F Li+ 
2.10773 0.00000 23.72947 F F F Li+ 
0.00000 0.00000 1.82533 T T T N3- 
0.00000 0.00000 5.47604 F F F N3- 
0.00000 0.00000 9.12670 F F F N3- 
0.00000 0.00000 12.77741 F F F N3- 
0.00000 0.00000 16.42813 F F F N3- 
0.00000 0.00000 20.07879 F F F N3- 
0.00000 0.00000 23.72950 T T T N3- 
