Li42 P14
1.0
3.668361 0.000000 -2.117929
-0.000000 7.570718 -4.235858
0.000000 0.000000 59.302014
Li P
42 14
direct
0.000000 0.750000 0.017857 Li+
0.000000 0.250000 0.053571 Li+
0.333333 0.084119 0.017913 Li+
0.666667 0.584119 0.029818 Li+
0.666667 0.915881 0.053515 Li+
0.333333 0.415881 0.041611 Li+
0.000000 0.750000 0.089286 Li+
0.000000 0.250000 0.125000 Li+
0.333333 0.084119 0.089342 Li+
0.666667 0.584119 0.101247 Li+
0.666667 0.915881 0.124944 Li+
0.333333 0.415881 0.113039 Li+
0.000000 0.750000 0.160714 Li+
0.000000 0.250000 0.196429 Li+
0.333333 0.084119 0.160770 Li+
0.666667 0.584119 0.172675 Li+
0.666667 0.915881 0.196372 Li+
0.333333 0.415881 0.184468 Li+
0.000000 0.750000 0.232143 Li+
0.000000 0.250000 0.267857 Li+
0.333333 0.084119 0.232199 Li+
0.666667 0.584119 0.244104 Li+
0.666667 0.915881 0.267801 Li+
0.333333 0.415881 0.255896 Li+
0.000000 0.750000 0.303571 Li+
0.000000 0.250000 0.339286 Li+
0.333333 0.084119 0.303628 Li+
0.666667 0.584119 0.315532 Li+
0.666667 0.915881 0.339230 Li+
0.333333 0.415881 0.327325 Li+
0.000000 0.750000 0.375000 Li+
0.000000 0.250000 0.410714 Li+
0.333333 0.084119 0.375056 Li+
0.666667 0.584119 0.386961 Li+
0.666667 0.915881 0.410658 Li+
0.333333 0.415881 0.398753 Li+
0.000000 0.750000 0.446429 Li+
0.000000 0.250000 0.482143 Li+
0.333333 0.084119 0.446485 Li+
0.666667 0.584119 0.458389 Li+
0.666667 0.915881 0.482087 Li+
0.333333 0.415881 0.470182 Li+
0.333333 0.750000 0.065476 P3-
0.666667 0.250000 0.005952 P3-
0.333333 0.750000 0.136905 P3-
0.666667 0.250000 0.077381 P3-
0.333333 0.750000 0.208333 P3-
0.666667 0.250000 0.148810 P3-
0.333333 0.750000 0.279762 P3-
0.666667 0.250000 0.220238 P3-
0.333333 0.750000 0.351190 P3-
0.666667 0.250000 0.291667 P3-
0.333333 0.750000 0.422619 P3-
0.666667 0.250000 0.363095 P3-
0.333333 0.750000 0.494048 P3-
0.666667 0.250000 0.434524 P3-
