Li6 P2
1.0
2.121071 -3.673804 0.000000
2.121071 3.673804 0.000000
0.000000 -0.713525 7.548302
Li P
6 2
direct
0.000000 0.000000 0.250000 Li
0.000000 0.000000 0.750000 Li
0.333333 0.666667 0.584119 Li
0.666667 0.333333 0.084119 Li
0.666667 0.333333 0.415881 Li
0.333333 0.666667 0.915881 Li
0.333333 0.666667 0.250000 P
0.666667 0.333333 0.750000 P
