Li56 P28 O98
1.0
6.730959 0.000000 -2.599490
-2.035903 8.419349 -5.257546
0.000000 0.000000 63.126504
Li P O
56 28 98
direct
0.144977 0.012029 0.004525 Li+
0.855023 0.987971 0.043264 Li+
0.588727 0.248347 0.053284 Li+
0.411273 0.751653 0.077839 Li+
0.327738 0.208724 0.080641 Li+
0.672262 0.791276 0.050482 Li+
0.241886 0.549204 0.023249 Li+
0.758114 0.450796 0.024540 Li+
0.144977 0.012029 0.087858 Li+
0.855023 0.987971 0.126597 Li+
0.588727 0.248347 0.136617 Li+
0.411273 0.751653 0.161172 Li+
0.327738 0.208724 0.163974 Li+
0.672262 0.791276 0.133815 Li+
0.241886 0.549204 0.106582 Li+
0.758114 0.450796 0.107873 Li+
0.144977 0.012029 0.171192 Li+
0.855023 0.987971 0.209931 Li+
0.588727 0.248347 0.219950 Li+
0.411273 0.751653 0.244505 Li+
0.327738 0.208724 0.247307 Li+
0.672262 0.791276 0.217148 Li+
0.241886 0.549204 0.189916 Li+
0.758114 0.450796 0.191207 Li+
0.144977 0.012029 0.254525 Li+
0.855023 0.987971 0.293264 Li+
0.588727 0.248347 0.303284 Li+
0.411273 0.751653 0.327839 Li+
0.327738 0.208724 0.330641 Li+
0.672262 0.791276 0.300482 Li+
0.241886 0.549204 0.273249 Li+
0.758114 0.450796 0.274540 Li+
0.144977 0.012029 0.337858 Li+
0.855023 0.987971 0.376597 Li+
0.588727 0.248347 0.386617 Li+
0.411273 0.751653 0.411172 Li+
0.327738 0.208724 0.413974 Li+
0.672262 0.791276 0.383815 Li+
0.241886 0.549204 0.356582 Li+
0.758114 0.450796 0.357874 Li+
0.144977 0.012029 0.421192 Li+
0.855023 0.987971 0.459931 Li+
0.588727 0.248347 0.469950 Li+
0.411273 0.751653 0.494505 Li+
0.327738 0.208724 0.497307 Li+
0.672262 0.791276 0.467148 Li+
0.241886 0.549204 0.439916 Li+
0.758114 0.450796 0.441207 Li+
0.144977 0.012029 0.504525 Li+
0.855023 0.987971 0.543264 Li+
0.588727 0.248347 0.553284 Li+
0.411273 0.751653 0.577839 Li+
0.327738 0.208724 0.580641 Li+
0.672262 0.791276 0.550482 Li+
0.241886 0.549204 0.523249 Li+
0.758114 0.450796 0.524540 Li+
0.213298 0.368044 0.048399 P5+
0.786702 0.631956 0.082723 P5+
0.779241 0.154498 0.013080 P5+
0.220759 0.845502 0.034709 P5+
0.213298 0.368044 0.131732 P5+
0.786702 0.631956 0.166057 P5+
0.779241 0.154498 0.096413 P5+
0.220759 0.845502 0.118042 P5+
0.213298 0.368044 0.215066 P5+
0.786702 0.631956 0.249390 P5+
0.779241 0.154498 0.179747 P5+
0.220759 0.845502 0.201376 P5+
0.213298 0.368044 0.298399 P5+
0.786702 0.631956 0.332723 P5+
0.779241 0.154498 0.263080 P5+
0.220759 0.845502 0.284709 P5+
0.213298 0.368044 0.381732 P5+
0.786702 0.631956 0.416057 P5+
0.779241 0.154498 0.346413 P5+
0.220759 0.845502 0.368042 P5+
0.213298 0.368044 0.465066 P5+
0.786702 0.631956 0.499390 P5+
0.779241 0.154498 0.429747 P5+
0.220759 0.845502 0.451376 P5+
0.213298 0.368044 0.548399 P5+
0.786702 0.631956 0.582723 P5+
0.779241 0.154498 0.513080 P5+
0.220759 0.845502 0.534709 P5+
0.741759 0.125660 0.032707 O2-
0.605720 0.209316 0.082493 O2-
0.394280 0.790684 0.048629 O2-
0.848591 0.018024 0.076821 O2-
0.743350 0.623545 0.056477 O2-
0.256650 0.376455 0.074646 O2-
0.732189 0.473810 0.078808 O2-
0.267811 0.526190 0.052314 O2-
0.702403 0.763496 0.017667 O2-
0.297597 0.236504 0.030122 O2-
0.962384 0.316106 0.030814 O2-
0.037616 0.683894 0.016975 O2-
0.151409 0.981976 0.054302 O2-
0.258241 0.874340 0.015082 O2-
0.741759 0.125660 0.116040 O2-
0.605720 0.209316 0.165827 O2-
0.394280 0.790684 0.131962 O2-
0.848591 0.018024 0.160154 O2-
0.743350 0.623545 0.139810 O2-
0.256650 0.376455 0.157979 O2-
0.732189 0.473810 0.162142 O2-
0.267811 0.526190 0.135647 O2-
0.702403 0.763496 0.101001 O2-
0.297597 0.236504 0.113455 O2-
0.962384 0.316106 0.114148 O2-
0.037616 0.683894 0.100308 O2-
0.151409 0.981976 0.137635 O2-
0.258241 0.874340 0.098416 O2-
0.741759 0.125660 0.199373 O2-
0.605720 0.209316 0.249160 O2-
0.394280 0.790684 0.215296 O2-
0.848591 0.018024 0.243487 O2-
0.743350 0.623545 0.223143 O2-
0.256650 0.376455 0.241312 O2-
0.732189 0.473810 0.245475 O2-
0.267811 0.526190 0.218981 O2-
0.702403 0.763496 0.184334 O2-
0.297597 0.236504 0.196788 O2-
0.962384 0.316106 0.197481 O2-
0.037616 0.683894 0.183641 O2-
0.151409 0.981976 0.220968 O2-
0.258241 0.874340 0.181749 O2-
0.741759 0.125660 0.282707 O2-
0.605720 0.209316 0.332493 O2-
0.394280 0.790684 0.298629 O2-
0.848591 0.018024 0.326821 O2-
0.743350 0.623545 0.306476 O2-
0.256650 0.376455 0.324646 O2-
0.732189 0.473810 0.328808 O2-
0.267811 0.526190 0.302314 O2-
0.702403 0.763496 0.267667 O2-
0.297597 0.236504 0.280122 O2-
0.962384 0.316106 0.280814 O2-
0.037616 0.683894 0.266975 O2-
0.151409 0.981976 0.304302 O2-
0.258241 0.874340 0.265082 O2-
0.741759 0.125660 0.366040 O2-
0.605720 0.209316 0.415827 O2-
0.394280 0.790684 0.381962 O2-
0.848591 0.018024 0.410154 O2-
0.743350 0.623545 0.389810 O2-
0.256650 0.376455 0.407979 O2-
0.732189 0.473810 0.412142 O2-
0.267811 0.526190 0.385647 O2-
0.702403 0.763496 0.351001 O2-
0.297597 0.236504 0.363455 O2-
0.962384 0.316106 0.364148 O2-
0.037616 0.683894 0.350308 O2-
0.151409 0.981976 0.387635 O2-
0.258241 0.874340 0.348415 O2-
0.741759 0.125660 0.449374 O2-
0.605720 0.209316 0.499160 O2-
0.394280 0.790684 0.465296 O2-
0.848591 0.018024 0.493487 O2-
0.743350 0.623545 0.473143 O2-
0.256650 0.376455 0.491313 O2-
0.732189 0.473810 0.495475 O2-
0.267811 0.526190 0.468981 O2-
0.702403 0.763496 0.434334 O2-
0.297597 0.236504 0.446788 O2-
0.962384 0.316106 0.447481 O2-
0.037616 0.683894 0.433641 O2-
0.151409 0.981976 0.470968 O2-
0.258241 0.874340 0.431749 O2-
0.741759 0.125660 0.532707 O2-
0.605720 0.209316 0.582493 O2-
0.394280 0.790684 0.548629 O2-
0.848591 0.018024 0.576821 O2-
0.743350 0.623545 0.556477 O2-
0.256650 0.376455 0.574646 O2-
0.732189 0.473810 0.578808 O2-
0.267811 0.526190 0.552314 O2-
0.702403 0.763496 0.517667 O2-
0.297597 0.236504 0.530122 O2-
0.962384 0.316106 0.530814 O2-
0.037616 0.683894 0.516975 O2-
0.151409 0.981976 0.554302 O2-
0.258241 0.874340 0.515082 O2-
