Li61 P7 N32                             
   1.00000000000000     
     0.0147837739620676    9.5984191630459783   -0.0296210298139696
     0.0164394780951604   -0.0297621944831856    9.6189349045099544
     9.5825203528180598    0.0147258422174725    0.0162361757656074
   Li   P    N 
    61     7    32
Direct
  0.4965971786353949 -0.0111508874787220  0.5012978259214683
 -0.0054632415009830  0.5061193780587542  0.0155980306677961
  0.4977440532471853  0.0058581404394333  0.0006258495986938
  0.0003451435228056  0.0011102327717648  0.5016765796975350
  0.4900282137462995  0.5030571677130863  0.0227876171936185
 -0.0241748211779075  0.5000711607120751  0.5138436059973429
  0.7512712010084874  0.0086583703817104  0.4935767347591893
  0.2486263788560160  0.0008552715685945  0.5028627836059788
  0.7347699364138388  0.5390376015676737  0.4743840478177643
  0.2148375846090138  0.5034479252362158  0.4987396538205149
  0.2582290454232690  0.0000417048005335  0.0062160430632875
  0.7416655250128905 -0.0048977664321458 -0.0332471715444841
  0.5750174052226540  0.4303960073793794  0.5674947195794130
  0.4884165763119188  0.2519800748913312 -0.0099614451505676
  0.4830049136866219  0.7571455896325630 -0.0080251704713863
  0.0476538674968224  0.5218380449009424  0.2787111757562762
  0.0149604506937037  0.5226970491181681  0.7559884310801959
  0.1832394155429205  0.2571434159969043  0.2218939605773187
  0.2606315438977085  0.7355953637130846  0.7526762242700308
  0.2939375785953087  0.2206662700508417  0.7005681265143463
  0.2461840339772454  0.7473487808463531  0.2656049519610441
  0.6800305713791372  0.1852092143117873  0.3287443639487557
  0.7751812262056531  0.7045430428673179  0.7241195891338041
  0.7812534397157012  0.1791936769781831  0.7294918969226756
  0.7497756190986953  0.7643824851834877  0.2309400824378645
  0.9198164878003646  0.2912085058313216  0.2693014303077501
  0.0125701400230671  0.7820703903374645  0.7459788875414731
  0.2508147729188322  0.2504923434315582  0.4762174523652393
  0.2517044974807329  0.7534645904564800  0.4990419546623825
  0.7607527307270057  0.2888860089802590  0.5032598541519393
  0.7385459014298604  0.7640583412687356  0.4936590578952313
  0.8005944717099607  0.5255307701333818  0.2515179142915179
  0.7464430891561036  0.4848989949964119  0.7333794692247928
  0.2928758658045385  0.5232319558484898  0.2344539467461423
  0.2696513445439864  0.4624423264501556  0.7539139412813950
  0.4809856049517219  0.7586847924708099  0.2495631605697715
  0.5225250286755508  0.2569189361365565  0.7529081582596584
  0.2297557321855492  0.9955636697689373  0.2510722982861895
  0.2379687378281458 -0.0080078404381753  0.7623465521785822
  0.2457278615188034  0.2369172294077477  0.9695562665772515
  0.2348345699660545  0.7568358679436485  0.0075965643644813
  0.7432041032515646  0.9401422645735930  0.7210169274492473
  0.7419578870567352 -0.0037872838485203  0.2086476047580675
  0.7332140277405615  0.7562206379127124  0.9735216430257381
  0.7428151116461879  0.2245450434515354  0.0172570512848461
  0.0583312430761187  0.2601192319641366  0.7618708740399392
 -0.0013594882952648  0.7712154794867092  0.2345027591187985
  0.4429508934914693  0.2575636624752016  0.2307232593249484
  0.5247295261192555  0.7527616182231295  0.7337086975211824
  0.0036816345320499  0.2600848180017509  0.0242770088454614
 -0.0158151779587316  0.7432008158319140 -0.0101276419395621
  0.4976723958004240  0.2209542950505630  0.5043179017164598
  0.5059153806207588  0.7556283450413531  0.4831449246580738
  0.5526275761582569  0.5473227205831597  0.2904265712987456
  0.5080515832890873  0.5103992760820742  0.7857444651398954
 -0.0139634956132438  0.0223565534300034  0.2652319880651700
 -0.0039737279187211  0.0185509860128086  0.7399024113915760
  0.4243243915741011  0.4252037032497938  0.4134412629672596
  0.4272800594377141  0.5766053152957189  0.5709515172360843
  0.8764907193007627  0.3452372994455229  0.8575240126960135
  0.6538662042644792  0.3563123377184929  0.1826801852556335
 -0.0032970987791537  0.0049615766330123 -0.0000599053508712
  0.7469613724076747  0.5010938493639074 -0.0011526158850209
  0.2380651594725898  0.4967959033833185  0.0000975622287756
 -0.0043062549277422  0.7565579518376003  0.4942978223545637
 -0.0006059294517002  0.2464382971761937  0.5131730644585824
  0.4886851773750533  0.0068071389714794  0.2469582279429147
  0.4957570042562223 -0.0035723037431063  0.7536304291605955
  0.6241844209548508  0.6208413970647800  0.6228050277154044
  0.6260879149672152  0.3754437815749149  0.3787514725683120
  0.8867918373389446  0.9020887253570393  0.0952111848737120
  0.8998978479937728  0.1152559849549800  0.8988855942974775
  0.0959323431521322  0.9023522556320981  0.8969513304277678
  0.0997130563157315  0.1000327790901204  0.1042810917518342
  0.3744882415580811  0.6279176362166776  0.3797914935188599
  0.3854254842385851  0.3750503142453221  0.6108181655578497
  0.0820913073459790  0.3534884920497436  0.3998585651715154
  0.0920495696620536  0.6567299143414647  0.6027568507270293
  0.1135219708988286  0.1449259053804054  0.6000566452953610
  0.1004215472187621  0.8584222382819339  0.3940448184904656
  0.8847436420434754  0.1505043117739571  0.4189026012005626
  0.8903873953025244  0.8556707454696325  0.5982660091720667
  0.8466452396172381  0.3937291874789344  0.0968857173684693
  0.8495482224332882  0.5938294563923995  0.8903516608056498
  0.1464399310088027  0.6015863705295961  0.1095333267409748
  0.1319114037962565  0.4010026710221874  0.8978693882310009
  0.3890813926323221  0.9030219370267770  0.1450783799327149
  0.3964334045754221  0.1057710334432382  0.8491033111409686
  0.3861484516460790  0.0987796382084967  0.3552292528226104
  0.3887578584245300  0.8935967569218682  0.6554764428373292
  0.3342899096087418  0.3816001484935848  0.0949220841644479
  0.3429347004092405  0.6014656166573081  0.9019991714531423
  0.6076273883477408  0.0871370992181382  0.6500399996563028
  0.6052168227317404  0.9077046708932135  0.3389471241394509
  0.6553711799784711  0.6052780182318229  0.1064890641537700
  0.6444693120296883  0.3909682778015134  0.9066669664398987
  0.9074702743160897  0.3407753405917268  0.6357439154412879
  0.8946513978659921  0.6582744299055688  0.3860104733379434
  0.5873874458379732  0.1207547379399395  0.1473488537490904
  0.5951351314822660  0.8936343959734538  0.8590265921913377
 
  0.00000000E+00  0.00000000E+00  0.00000000E+00
  0.00000000E+00  0.00000000E+00  0.00000000E+00
  0.00000000E+00  0.00000000E+00  0.00000000E+00
  0.00000000E+00  0.00000000E+00  0.00000000E+00
  0.00000000E+00  0.00000000E+00  0.00000000E+00
  0.00000000E+00  0.00000000E+00  0.00000000E+00
  0.00000000E+00  0.00000000E+00  0.00000000E+00
  0.00000000E+00  0.00000000E+00  0.00000000E+00
  0.00000000E+00  0.00000000E+00  0.00000000E+00
  0.00000000E+00  0.00000000E+00  0.00000000E+00
  0.00000000E+00  0.00000000E+00  0.00000000E+00
  0.00000000E+00  0.00000000E+00  0.00000000E+00
  0.00000000E+00  0.00000000E+00  0.00000000E+00
  0.00000000E+00  0.00000000E+00  0.00000000E+00
  0.00000000E+00  0.00000000E+00  0.00000000E+00
  0.00000000E+00  0.00000000E+00  0.00000000E+00
  0.00000000E+00  0.00000000E+00  0.00000000E+00
  0.00000000E+00  0.00000000E+00  0.00000000E+00
  0.00000000E+00  0.00000000E+00  0.00000000E+00
  0.00000000E+00  0.00000000E+00  0.00000000E+00
  0.00000000E+00  0.00000000E+00  0.00000000E+00
  0.00000000E+00  0.00000000E+00  0.00000000E+00
  0.00000000E+00  0.00000000E+00  0.00000000E+00
  0.00000000E+00  0.00000000E+00  0.00000000E+00
  0.00000000E+00  0.00000000E+00  0.00000000E+00
  0.00000000E+00  0.00000000E+00  0.00000000E+00
  0.00000000E+00  0.00000000E+00  0.00000000E+00
  0.00000000E+00  0.00000000E+00  0.00000000E+00
  0.00000000E+00  0.00000000E+00  0.00000000E+00
  0.00000000E+00  0.00000000E+00  0.00000000E+00
  0.00000000E+00  0.00000000E+00  0.00000000E+00
  0.00000000E+00  0.00000000E+00  0.00000000E+00
  0.00000000E+00  0.00000000E+00  0.00000000E+00
  0.00000000E+00  0.00000000E+00  0.00000000E+00
  0.00000000E+00  0.00000000E+00  0.00000000E+00
  0.00000000E+00  0.00000000E+00  0.00000000E+00
  0.00000000E+00  0.00000000E+00  0.00000000E+00
  0.00000000E+00  0.00000000E+00  0.00000000E+00
  0.00000000E+00  0.00000000E+00  0.00000000E+00
  0.00000000E+00  0.00000000E+00  0.00000000E+00
  0.00000000E+00  0.00000000E+00  0.00000000E+00
  0.00000000E+00  0.00000000E+00  0.00000000E+00
  0.00000000E+00  0.00000000E+00  0.00000000E+00
  0.00000000E+00  0.00000000E+00  0.00000000E+00
  0.00000000E+00  0.00000000E+00  0.00000000E+00
  0.00000000E+00  0.00000000E+00  0.00000000E+00
  0.00000000E+00  0.00000000E+00  0.00000000E+00
  0.00000000E+00  0.00000000E+00  0.00000000E+00
  0.00000000E+00  0.00000000E+00  0.00000000E+00
  0.00000000E+00  0.00000000E+00  0.00000000E+00
  0.00000000E+00  0.00000000E+00  0.00000000E+00
  0.00000000E+00  0.00000000E+00  0.00000000E+00
  0.00000000E+00  0.00000000E+00  0.00000000E+00
  0.00000000E+00  0.00000000E+00  0.00000000E+00
  0.00000000E+00  0.00000000E+00  0.00000000E+00
  0.00000000E+00  0.00000000E+00  0.00000000E+00
  0.00000000E+00  0.00000000E+00  0.00000000E+00
  0.00000000E+00  0.00000000E+00  0.00000000E+00
  0.00000000E+00  0.00000000E+00  0.00000000E+00
  0.00000000E+00  0.00000000E+00  0.00000000E+00
  0.00000000E+00  0.00000000E+00  0.00000000E+00
  0.00000000E+00  0.00000000E+00  0.00000000E+00
  0.00000000E+00  0.00000000E+00  0.00000000E+00
  0.00000000E+00  0.00000000E+00  0.00000000E+00
  0.00000000E+00  0.00000000E+00  0.00000000E+00
  0.00000000E+00  0.00000000E+00  0.00000000E+00
  0.00000000E+00  0.00000000E+00  0.00000000E+00
  0.00000000E+00  0.00000000E+00  0.00000000E+00
  0.00000000E+00  0.00000000E+00  0.00000000E+00
  0.00000000E+00  0.00000000E+00  0.00000000E+00
  0.00000000E+00  0.00000000E+00  0.00000000E+00
  0.00000000E+00  0.00000000E+00  0.00000000E+00
  0.00000000E+00  0.00000000E+00  0.00000000E+00
  0.00000000E+00  0.00000000E+00  0.00000000E+00
  0.00000000E+00  0.00000000E+00  0.00000000E+00
  0.00000000E+00  0.00000000E+00  0.00000000E+00
  0.00000000E+00  0.00000000E+00  0.00000000E+00
  0.00000000E+00  0.00000000E+00  0.00000000E+00
  0.00000000E+00  0.00000000E+00  0.00000000E+00
  0.00000000E+00  0.00000000E+00  0.00000000E+00
  0.00000000E+00  0.00000000E+00  0.00000000E+00
  0.00000000E+00  0.00000000E+00  0.00000000E+00
  0.00000000E+00  0.00000000E+00  0.00000000E+00
  0.00000000E+00  0.00000000E+00  0.00000000E+00
  0.00000000E+00  0.00000000E+00  0.00000000E+00
  0.00000000E+00  0.00000000E+00  0.00000000E+00
  0.00000000E+00  0.00000000E+00  0.00000000E+00
  0.00000000E+00  0.00000000E+00  0.00000000E+00
  0.00000000E+00  0.00000000E+00  0.00000000E+00
  0.00000000E+00  0.00000000E+00  0.00000000E+00
  0.00000000E+00  0.00000000E+00  0.00000000E+00
  0.00000000E+00  0.00000000E+00  0.00000000E+00
  0.00000000E+00  0.00000000E+00  0.00000000E+00
  0.00000000E+00  0.00000000E+00  0.00000000E+00
  0.00000000E+00  0.00000000E+00  0.00000000E+00
  0.00000000E+00  0.00000000E+00  0.00000000E+00
  0.00000000E+00  0.00000000E+00  0.00000000E+00
  0.00000000E+00  0.00000000E+00  0.00000000E+00
  0.00000000E+00  0.00000000E+00  0.00000000E+00
  0.00000000E+00  0.00000000E+00  0.00000000E+00
