Li1
1.0
-1.752490 1.752490 1.752490
1.752490 -1.752490 1.752490
1.752490 1.752490 -1.752490
Li
1
direct
0.000000 0.000000 0.000000 Li
