Li1                                     
   1.00000000000000     
    -1.6843630000000001    1.6843630000000001    1.6843630000000001
     1.6843630000000001   -1.6843630000000001    1.6843630000000001
     1.6843630000000001    1.6843630000000001   -1.6843630000000001
   Li
     1
Direct
  0.0000000000000000  0.0000000000000000  0.0000000000000000
 
  0.00000000E+00  0.00000000E+00  0.00000000E+00
