Li28 P28 N56
1.0
4.571448 0.000000 0.000000
0.000000 4.571448 0.000000
0.000000 0.000000 72.898480
Li P N
28 28 56
direct
0.500000 0.500000 0.093750 Li+
0.500000 0.000000 0.018750 Li+
0.000000 0.000000 0.043750 Li+
0.000000 0.500000 0.068750 Li+
0.500000 0.500000 0.193750 Li+
0.500000 0.000000 0.118750 Li+
0.000000 0.000000 0.143750 Li+
0.000000 0.500000 0.168750 Li+
0.500000 0.500000 0.293750 Li+
0.500000 0.000000 0.218750 Li+
0.000000 0.000000 0.243750 Li+
0.000000 0.500000 0.268750 Li+
0.500000 0.500000 0.393750 Li+
0.500000 0.000000 0.318750 Li+
0.000000 0.000000 0.343750 Li+
0.000000 0.500000 0.368750 Li+
0.500000 0.500000 0.493750 Li+
0.500000 0.000000 0.418750 Li+
0.000000 0.000000 0.443750 Li+
0.000000 0.500000 0.468750 Li+
0.500000 0.500000 0.593750 Li+
0.500000 0.000000 0.518750 Li+
0.000000 0.000000 0.543750 Li+
0.000000 0.500000 0.568750 Li+
0.500000 0.500000 0.693750 Li+
0.500000 0.000000 0.618750 Li+
0.000000 0.000000 0.643750 Li+
0.000000 0.500000 0.668750 Li+
0.000000 0.000000 0.093750 P5+
0.000000 0.500000 0.018750 P5+
0.500000 0.500000 0.043750 P5+
0.500000 0.000000 0.068750 P5+
0.000000 0.000000 0.193750 P5+
0.000000 0.500000 0.118750 P5+
0.500000 0.500000 0.143750 P5+
0.500000 0.000000 0.168750 P5+
0.000000 0.000000 0.293750 P5+
0.000000 0.500000 0.218750 P5+
0.500000 0.500000 0.243750 P5+
0.500000 0.000000 0.268750 P5+
0.000000 0.000000 0.393750 P5+
0.000000 0.500000 0.318750 P5+
0.500000 0.500000 0.343750 P5+
0.500000 0.000000 0.368750 P5+
0.000000 0.000000 0.493750 P5+
0.000000 0.500000 0.418750 P5+
0.500000 0.500000 0.443750 P5+
0.500000 0.000000 0.468750 P5+
0.000000 0.000000 0.593750 P5+
0.000000 0.500000 0.518750 P5+
0.500000 0.500000 0.543750 P5+
0.500000 0.000000 0.568750 P5+
0.000000 0.000000 0.693750 P5+
0.000000 0.500000 0.618750 P5+
0.500000 0.500000 0.643750 P5+
0.500000 0.000000 0.668750 P5+
0.167003 0.250000 0.006250 N3-
0.832997 0.750000 0.006250 N3-
0.750000 0.332997 0.031250 N3-
0.250000 0.667003 0.031250 N3-
0.667003 0.750000 0.056250 N3-
0.332997 0.250000 0.056250 N3-
0.250000 0.832997 0.081250 N3-
0.750000 0.167003 0.081250 N3-
0.167003 0.250000 0.106250 N3-
0.832997 0.750000 0.106250 N3-
0.750000 0.332997 0.131250 N3-
0.250000 0.667003 0.131250 N3-
0.667003 0.750000 0.156250 N3-
0.332997 0.250000 0.156250 N3-
0.250000 0.832997 0.181250 N3-
0.750000 0.167003 0.181250 N3-
0.167003 0.250000 0.206250 N3-
0.832997 0.750000 0.206250 N3-
0.750000 0.332997 0.231250 N3-
0.250000 0.667003 0.231250 N3-
0.667003 0.750000 0.256250 N3-
0.332997 0.250000 0.256250 N3-
0.250000 0.832997 0.281250 N3-
0.750000 0.167003 0.281250 N3-
0.167003 0.250000 0.306250 N3-
0.832997 0.750000 0.306250 N3-
0.750000 0.332997 0.331250 N3-
0.250000 0.667003 0.331250 N3-
0.667003 0.750000 0.356250 N3-
0.332997 0.250000 0.356250 N3-
0.250000 0.832997 0.381250 N3-
0.750000 0.167003 0.381250 N3-
0.167003 0.250000 0.406250 N3-
0.832997 0.750000 0.406250 N3-
0.750000 0.332997 0.431250 N3-
0.250000 0.667003 0.431250 N3-
0.667003 0.750000 0.456250 N3-
0.332997 0.250000 0.456250 N3-
0.250000 0.832997 0.481250 N3-
0.750000 0.167003 0.481250 N3-
0.167003 0.250000 0.506250 N3-
0.832997 0.750000 0.506250 N3-
0.750000 0.332997 0.531250 N3-
0.250000 0.667003 0.531250 N3-
0.667003 0.750000 0.556250 N3-
0.332997 0.250000 0.556250 N3-
0.250000 0.832997 0.581250 N3-
0.750000 0.167003 0.581250 N3-
0.167003 0.250000 0.606250 N3-
0.832997 0.750000 0.606250 N3-
0.750000 0.332997 0.631250 N3-
0.250000 0.667003 0.631250 N3-
0.667003 0.750000 0.656250 N3-
0.332997 0.250000 0.656250 N3-
0.250000 0.832997 0.681250 N3-
0.750000 0.167003 0.681250 N3-
