Li71 P24 N1 O94                         
   1.00000000000000     
    14.7230277284249897   -0.0053252101738224    0.0011262288004897
    -0.0038403893859261   10.5582307041056023    0.0031506424900413
     0.0009212526331820    0.0036510825040676   12.3331762546717751
   Li   P    N    O 
    71    24     1    94
Direct
  0.1693297675062657  0.4214134167430720 -0.0021787487814101
  0.1688138478977938  0.4217711018382338  0.5027974956942569
  0.1697215400027264  0.9224012250499167  0.0013793099462128
  0.1710689194495647  0.9218424808762994  0.4993145014863943
  0.5037174122673863  0.4216840165229783 -0.0011311998250471
  0.5032272101175934  0.4215368698313305  0.5010534853325589
  0.5043723246387951  0.9226181745821400 -0.0004707083274167
  0.5035065865916406  0.9232668238367081  0.5002831337293178
  0.8339569654428055  0.4234373958455948 -0.0017125119506321
  0.8347995737797933  0.4226965569252892  0.5012720061182928
  0.8358291940764290  0.9209771122011684  0.0000626347861152
  0.8368128157168990  0.9248386179837538  0.4992409230114649
  0.0013809933570176  0.0718392824102355  0.7495722497533190
 -0.0095001932842095  0.6258448114642609  0.2502253478814730
  0.0027987075815285  0.5784115053241691  0.7499950109425614
  0.3361426462960552  0.0749611642771852  0.2505193698168217
  0.3368285463981381  0.0769954816671724  0.7500047299184927
  0.3415309128089375  0.5819808125052501  0.2499493412945984
  0.3364868626592127  0.5776906951038719  0.7500675315169851
  0.6766157007736666  0.0737207072195738  0.2499246587317334
  0.6699946502660179  0.0763483218731413  0.7496151642879921
  0.6687658381756900  0.5802906502968870  0.2504547127690600
  0.6692091411215757  0.5776384500348842  0.7499746377084514
  0.1720375665356159  0.1560234233056716  0.1290882783466056
  0.1684022143185485  0.1612927580599081  0.6276252659068464
  0.1692619977454829  0.6672745940920102  0.1237527260492639
  0.1699072711137737  0.6627344883925642  0.6263526123847825
  0.5047292272668424  0.1616840814464214  0.1270894058113255
  0.5030625612335354  0.1632425683551441  0.6264156786075812
  0.5033651201420719  0.6632560018517045  0.1254389791918447
  0.5024811077152759  0.6633454458101961  0.6265900604497725
  0.8391997447974905  0.1613518311837146  0.1264875401454155
  0.8365938439368026  0.1629712632759743  0.6266911622029451
  0.8329166388056992  0.6653516246669546  0.1239966767476857
  0.8357920718520184  0.6633744983920479  0.6265594151195663
 -0.0063622723540293  0.3374059940450792  0.1125687820276976
  0.0029838030078104  0.3350173671870443  0.6267337089153386
  0.0010284993770827  0.8483626328694861  0.1238502389430851
  0.0030348711967609  0.8367878731041719  0.6230455240758355
  0.3425427397451581  0.3351855558574660  0.1211969449243194
  0.3357626355909291  0.3359706166692776  0.6245227027518474
  0.3388094729167882  0.8372976543568009  0.1231050311569244
  0.3366457841690889  0.8366035818220200  0.6236985579851316
  0.6698118845893002  0.3365617700554276  0.1245437195895244
  0.6692945096490649  0.3358886063316009  0.6245908107417597
  0.6678287081696994  0.8349156780770688  0.1222173169113581
  0.6692088492957030  0.8363819687180262  0.6230036331483669
 -0.0030971545267427  0.3293338825525148  0.3890771936805386
  0.0026238768011466  0.3354473270014311  0.8755151738523065
  0.0013616554533767  0.8512468866933124  0.3760093787585775
  0.0019316305132201  0.8353053098426663  0.8751902831999622
  0.3405356462447517  0.3348906948569173  0.3784833023053356
  0.3362977572531154  0.3360075326792323  0.8756941611548578
  0.3383694380587436  0.8370090305625988  0.3767953077845587
  0.3366087656617094  0.8368924145516848  0.8764915944918681
  0.6694746226540796  0.3365219084615999  0.3765015709957102
  0.6691296137701179  0.3357385329251865  0.8755309303030393
  0.6679127365901538  0.8352423273435499  0.3780819249141733
  0.6693145524255176  0.8363549559362261  0.8761011994767456
  0.1660578278697756  0.1551669598694840  0.3721334647929787
  0.1693614684374538  0.1609260747214568  0.8737091386898912
  0.1687716536642239  0.6668227616314558  0.3762597271815271
  0.1699939140665983  0.6629282287536297  0.8739706404454222
  0.5044433105286996  0.1619361330924612  0.3730620136383535
  0.5035129821579152  0.1630906730073962  0.8732297459795891
  0.5034413611713875  0.6632280519829447  0.3748910537689537
  0.5023804421732042  0.6634178700391391  0.8730860718706859
  0.8394717836983410  0.1608678237971906  0.3715362360969325
  0.8355435119067952  0.1622508397746981  0.8728892620566595
  0.8332779407358932  0.6662296535075165  0.3762888863767316
  0.8354511111464675  0.6628731321897070  0.8729786152843479
  0.1741182463526096  0.4129544024713376  0.2490432946484301
  0.1668608840606542  0.4122059199962056  0.7504176452006445
  0.1693007802955760  0.9067385047930601  0.2500519038861866
  0.1678741037980663  0.9100029018468753  0.7501141285829344
  0.5001273649599154  0.4126436008739416  0.2502993762780283
  0.5002584889229209  0.4123081416992579  0.7499369943579250
  0.5016169482190430  0.9118036890661241  0.2501524770454391
  0.5007051964992768  0.9119929011324083  0.7497930984647979
  0.8337775225348157  0.4159207581893977  0.2502035868928822
  0.8335949726159102  0.4125810832887109  0.7500933442830797
  0.8296167481353192  0.9109886073264700  0.2498441078139652
  0.8326844709587899  0.9106915039914348  0.7492988281806532
  0.0001449601549558  0.0868522383719241 -0.0054511224756931
  0.0020567198123804  0.0906652331249372  0.5056095690352873
 -0.0002905696394132  0.5896301682390754  0.0002177396232000
 -0.0004311741315193  0.5886399154846571  0.4994754361654454
  0.3355437037574965  0.0871049834120354 -0.0006490253500932
  0.3343306209580778  0.0877412967741099  0.5004550366854802
  0.3341383743183693  0.5870391156682857 -0.0002495913102243
  0.3338205897905474  0.5867748955264729  0.5001656366661462
  0.6671981836724427  0.0880265331342806 -0.0006793514510414
  0.6674771289574174  0.0884722663681445  0.5003949417146455
  0.6660479156952462  0.5867417917111585 -0.0008657030568093
  0.6663892177717384  0.5867147591326938  0.5010451429792778
  0.0435012087935342  0.1723871884787928  0.0904474385395770
  0.0412043890296850  0.1676763693946247  0.4103517153259425
  0.0339450189910904  0.1539312998191747  0.8882246998855534
  0.0344919254031689  0.6588966766132609  0.3959720984736405
  0.0356435252200105  0.6568846909031933  0.8962161088046025
  0.3699070207269387  0.1566459249669882  0.3964526204587602
  0.3704246473134500  0.1573076614748349  0.8957859900006887
  0.3697752238789137  0.6555722543384247  0.3965846621760290
  0.3688331907886106  0.6565468819434132  0.8959743631480789
  0.7029815123888533  0.1582030430252718  0.3972262549748884
  0.7020896653407623  0.1562948747371202  0.8948017752499171
  0.7012987889674892  0.6558056140046598  0.3972006903691010
  0.7019047294910820  0.6559068274817503  0.8957252723751493
  0.2020970858991636  0.0474953195526520  0.2510012104008183
  0.2015738203858032  0.0500998821063112  0.7501790112294936
  0.2006170368792249  0.5551179468954829  0.2503170892335246
  0.2013252540065519  0.5519617721805429  0.7502426097711160
  0.5367226455840696  0.0511929098102348  0.2501197879633799
  0.5344813590471048  0.0520386611290446  0.7497374060056723
  0.5333702794851930  0.5529438513555488  0.2501976956537925
  0.5338468456824672  0.5525103032916570  0.7499215256710197
  0.8522443150825408  0.0531654170664835  0.2489884992050326
  0.8657416989188577  0.0508993871171801  0.7498669855015599
  0.8677380873477338  0.5563028294093326  0.2502149032466548
  0.8675102971159458  0.5526541859818365  0.7500499211440997
  0.0610642670886678  0.4111567754414019  0.7508130659477724
  0.0653797143668506  0.8926245265278775  0.2495728029573205
  0.0621271960581623  0.9054874225128228  0.7498233587114870
  0.3940040777201474  0.4099583457319512  0.2503643767169249
  0.3944573975343243  0.4094224196653253  0.7499354977301431
  0.3958490399686316  0.9098781728916465  0.2501153264956174
  0.3949246711556885  0.9090481475203582  0.7499666410381141
  0.7282202815756821  0.4126145760409782  0.2512358938770127
  0.7278374334540904  0.4098286929601717  0.7501215028247032
  0.7239511490986115  0.8964346862513937  0.2500853228899156
  0.7269159080060101  0.9071423335165555  0.7493221968531623
  0.2299929705710333  0.0889348218799924 -0.0008594047883466
  0.2286714094985384  0.0904733423408732  0.5005139584014326
  0.2282517565858835  0.5890141667024206  0.0004490947112879
  0.2279337904545468  0.5889881138644771  0.4996086073308127
  0.5613627461171935  0.0910538268114604 -0.0004396387984244
  0.5616017520461934  0.0912891854491838  0.5003592926277404
  0.5603401707266524  0.5900282211722321 -0.0010246128036854
  0.5606390511909092  0.5896056627334263  0.5010832669849131
  0.8939629999937626  0.0865463892965172 -0.0027412266743935
  0.8960322081313080  0.0922382607825259  0.5011366018390673
  0.8939874837633752  0.5911105402768221 -0.0001659059689534
  0.8938778101488050  0.5904429089749043  0.5000045768393038
  0.2060451235261808  0.3439504629074935  0.1450777580336367
  0.2014584035969888  0.3427118424001629  0.6465558606266171
  0.2076892744817782  0.8412289616653400  0.1453877420833529
  0.2034705720917226  0.8411952221816068  0.6462684322957124
  0.5350403595756905  0.3435388767993475  0.1465209512090193
  0.5356343350652708  0.3431959358132074  0.6463093176322968
  0.5356161926682339  0.8420012875884116  0.1460995995708583
  0.5356999265061407  0.8428341397602908  0.6458964746580568
  0.8681745578068306  0.3478050406334091  0.1457831217305983
  0.8689044900815499  0.3437470491059489  0.6463022646695459
  0.8679303108524569  0.8424222063319952  0.1467431695091844
  0.8685719690229643  0.8425324356098346  0.6453482231633214
  0.0334468439930631  0.1540682045914222  0.6142342371351028
  0.0346219853229224  0.6593990955682977  0.1039183905080199
  0.0355968943412594  0.6561404827739362  0.6033657736436620
  0.3704643362266204  0.1561456390694657  0.1035704634105725
  0.3695277243301212  0.1572909852562212  0.6041127203702730
  0.3699108805935212  0.6557592819046333  0.1033933764785416
  0.3687511772419739  0.6559954102484522  0.6038806518136679
  0.7027868112255103  0.1579061690407434  0.1022782763384926
  0.7025149096945132  0.1568030033939401  0.6047165995528875
  0.7010865943418457  0.6554385343782129  0.1030278371567663
  0.7020065036000169  0.6559874183180211  0.6044389783104924
  0.0343180472799174  0.4497453969088219  0.0019570023979925
  0.0338982598559103  0.4484431570316052  0.4978216628241832
  0.0330125010808945  0.9458768456493304 -0.0038757518800481
  0.0358234907368178  0.9503779846555321  0.5025283554017888
  0.3681355708110002  0.4470328889367882 -0.0008361928993080
  0.3673693212138835  0.4465086249289326  0.5005166242011563
  0.3702061157648331  0.9475586460186473 -0.0008928451296156
  0.3685519553656646  0.9479354643705037  0.5006911572910270
  0.6994758297948647  0.4465524306768694 -0.0005737184257889
  0.7001186337870258  0.4466668596130531  0.5008018416589317
  0.7002404196729105  0.9475202293730796 -0.0003514691006658
  0.7008493067323219  0.9481661073728959  0.5000322967536700
  0.2015708165740511  0.3423736579070583  0.3544163042564479
  0.2018430058495426  0.3424239879049170  0.8540099001372855
  0.2072226833752346  0.8403897140334653  0.3546446757994373
  0.2032549283227126  0.8414071415565534  0.8541390653662786
  0.5350904413467941  0.3435382144333610  0.3540848414916803
  0.5356756928778140  0.3432226468323207  0.8535859118077879
  0.5354801936266471  0.8421409966029514  0.3544147129276479
  0.5360310603273659  0.8426578746264592  0.8534633804597854
  0.8706707859669219  0.3464625336316191  0.3529468119477112
  0.8687464233094341  0.3435541509647899  0.8540743622915583
  0.8681812896449854  0.8440411714606484  0.3536839860353507
  0.8680785320876684  0.8411225070104027  0.8527977139972270
 
  0.00000000E+00  0.00000000E+00  0.00000000E+00
  0.00000000E+00  0.00000000E+00  0.00000000E+00
  0.00000000E+00  0.00000000E+00  0.00000000E+00
  0.00000000E+00  0.00000000E+00  0.00000000E+00
  0.00000000E+00  0.00000000E+00  0.00000000E+00
  0.00000000E+00  0.00000000E+00  0.00000000E+00
  0.00000000E+00  0.00000000E+00  0.00000000E+00
  0.00000000E+00  0.00000000E+00  0.00000000E+00
  0.00000000E+00  0.00000000E+00  0.00000000E+00
  0.00000000E+00  0.00000000E+00  0.00000000E+00
  0.00000000E+00  0.00000000E+00  0.00000000E+00
  0.00000000E+00  0.00000000E+00  0.00000000E+00
  0.00000000E+00  0.00000000E+00  0.00000000E+00
  0.00000000E+00  0.00000000E+00  0.00000000E+00
  0.00000000E+00  0.00000000E+00  0.00000000E+00
  0.00000000E+00  0.00000000E+00  0.00000000E+00
  0.00000000E+00  0.00000000E+00  0.00000000E+00
  0.00000000E+00  0.00000000E+00  0.00000000E+00
  0.00000000E+00  0.00000000E+00  0.00000000E+00
  0.00000000E+00  0.00000000E+00  0.00000000E+00
  0.00000000E+00  0.00000000E+00  0.00000000E+00
  0.00000000E+00  0.00000000E+00  0.00000000E+00
  0.00000000E+00  0.00000000E+00  0.00000000E+00
  0.00000000E+00  0.00000000E+00  0.00000000E+00
  0.00000000E+00  0.00000000E+00  0.00000000E+00
  0.00000000E+00  0.00000000E+00  0.00000000E+00
  0.00000000E+00  0.00000000E+00  0.00000000E+00
  0.00000000E+00  0.00000000E+00  0.00000000E+00
  0.00000000E+00  0.00000000E+00  0.00000000E+00
  0.00000000E+00  0.00000000E+00  0.00000000E+00
  0.00000000E+00  0.00000000E+00  0.00000000E+00
  0.00000000E+00  0.00000000E+00  0.00000000E+00
  0.00000000E+00  0.00000000E+00  0.00000000E+00
  0.00000000E+00  0.00000000E+00  0.00000000E+00
  0.00000000E+00  0.00000000E+00  0.00000000E+00
  0.00000000E+00  0.00000000E+00  0.00000000E+00
  0.00000000E+00  0.00000000E+00  0.00000000E+00
  0.00000000E+00  0.00000000E+00  0.00000000E+00
  0.00000000E+00  0.00000000E+00  0.00000000E+00
  0.00000000E+00  0.00000000E+00  0.00000000E+00
  0.00000000E+00  0.00000000E+00  0.00000000E+00
  0.00000000E+00  0.00000000E+00  0.00000000E+00
  0.00000000E+00  0.00000000E+00  0.00000000E+00
  0.00000000E+00  0.00000000E+00  0.00000000E+00
  0.00000000E+00  0.00000000E+00  0.00000000E+00
  0.00000000E+00  0.00000000E+00  0.00000000E+00
  0.00000000E+00  0.00000000E+00  0.00000000E+00
  0.00000000E+00  0.00000000E+00  0.00000000E+00
  0.00000000E+00  0.00000000E+00  0.00000000E+00
  0.00000000E+00  0.00000000E+00  0.00000000E+00
  0.00000000E+00  0.00000000E+00  0.00000000E+00
  0.00000000E+00  0.00000000E+00  0.00000000E+00
  0.00000000E+00  0.00000000E+00  0.00000000E+00
  0.00000000E+00  0.00000000E+00  0.00000000E+00
  0.00000000E+00  0.00000000E+00  0.00000000E+00
  0.00000000E+00  0.00000000E+00  0.00000000E+00
  0.00000000E+00  0.00000000E+00  0.00000000E+00
  0.00000000E+00  0.00000000E+00  0.00000000E+00
  0.00000000E+00  0.00000000E+00  0.00000000E+00
  0.00000000E+00  0.00000000E+00  0.00000000E+00
  0.00000000E+00  0.00000000E+00  0.00000000E+00
  0.00000000E+00  0.00000000E+00  0.00000000E+00
  0.00000000E+00  0.00000000E+00  0.00000000E+00
  0.00000000E+00  0.00000000E+00  0.00000000E+00
  0.00000000E+00  0.00000000E+00  0.00000000E+00
  0.00000000E+00  0.00000000E+00  0.00000000E+00
  0.00000000E+00  0.00000000E+00  0.00000000E+00
  0.00000000E+00  0.00000000E+00  0.00000000E+00
  0.00000000E+00  0.00000000E+00  0.00000000E+00
  0.00000000E+00  0.00000000E+00  0.00000000E+00
  0.00000000E+00  0.00000000E+00  0.00000000E+00
  0.00000000E+00  0.00000000E+00  0.00000000E+00
  0.00000000E+00  0.00000000E+00  0.00000000E+00
  0.00000000E+00  0.00000000E+00  0.00000000E+00
  0.00000000E+00  0.00000000E+00  0.00000000E+00
  0.00000000E+00  0.00000000E+00  0.00000000E+00
  0.00000000E+00  0.00000000E+00  0.00000000E+00
  0.00000000E+00  0.00000000E+00  0.00000000E+00
  0.00000000E+00  0.00000000E+00  0.00000000E+00
  0.00000000E+00  0.00000000E+00  0.00000000E+00
  0.00000000E+00  0.00000000E+00  0.00000000E+00
  0.00000000E+00  0.00000000E+00  0.00000000E+00
  0.00000000E+00  0.00000000E+00  0.00000000E+00
  0.00000000E+00  0.00000000E+00  0.00000000E+00
  0.00000000E+00  0.00000000E+00  0.00000000E+00
  0.00000000E+00  0.00000000E+00  0.00000000E+00
  0.00000000E+00  0.00000000E+00  0.00000000E+00
  0.00000000E+00  0.00000000E+00  0.00000000E+00
  0.00000000E+00  0.00000000E+00  0.00000000E+00
  0.00000000E+00  0.00000000E+00  0.00000000E+00
  0.00000000E+00  0.00000000E+00  0.00000000E+00
  0.00000000E+00  0.00000000E+00  0.00000000E+00
  0.00000000E+00  0.00000000E+00  0.00000000E+00
  0.00000000E+00  0.00000000E+00  0.00000000E+00
  0.00000000E+00  0.00000000E+00  0.00000000E+00
  0.00000000E+00  0.00000000E+00  0.00000000E+00
  0.00000000E+00  0.00000000E+00  0.00000000E+00
  0.00000000E+00  0.00000000E+00  0.00000000E+00
  0.00000000E+00  0.00000000E+00  0.00000000E+00
  0.00000000E+00  0.00000000E+00  0.00000000E+00
  0.00000000E+00  0.00000000E+00  0.00000000E+00
  0.00000000E+00  0.00000000E+00  0.00000000E+00
  0.00000000E+00  0.00000000E+00  0.00000000E+00
  0.00000000E+00  0.00000000E+00  0.00000000E+00
  0.00000000E+00  0.00000000E+00  0.00000000E+00
  0.00000000E+00  0.00000000E+00  0.00000000E+00
  0.00000000E+00  0.00000000E+00  0.00000000E+00
  0.00000000E+00  0.00000000E+00  0.00000000E+00
  0.00000000E+00  0.00000000E+00  0.00000000E+00
  0.00000000E+00  0.00000000E+00  0.00000000E+00
  0.00000000E+00  0.00000000E+00  0.00000000E+00
  0.00000000E+00  0.00000000E+00  0.00000000E+00
  0.00000000E+00  0.00000000E+00  0.00000000E+00
  0.00000000E+00  0.00000000E+00  0.00000000E+00
  0.00000000E+00  0.00000000E+00  0.00000000E+00
  0.00000000E+00  0.00000000E+00  0.00000000E+00
  0.00000000E+00  0.00000000E+00  0.00000000E+00
  0.00000000E+00  0.00000000E+00  0.00000000E+00
  0.00000000E+00  0.00000000E+00  0.00000000E+00
  0.00000000E+00  0.00000000E+00  0.00000000E+00
  0.00000000E+00  0.00000000E+00  0.00000000E+00
  0.00000000E+00  0.00000000E+00  0.00000000E+00
  0.00000000E+00  0.00000000E+00  0.00000000E+00
  0.00000000E+00  0.00000000E+00  0.00000000E+00
  0.00000000E+00  0.00000000E+00  0.00000000E+00
  0.00000000E+00  0.00000000E+00  0.00000000E+00
  0.00000000E+00  0.00000000E+00  0.00000000E+00
  0.00000000E+00  0.00000000E+00  0.00000000E+00
  0.00000000E+00  0.00000000E+00  0.00000000E+00
  0.00000000E+00  0.00000000E+00  0.00000000E+00
  0.00000000E+00  0.00000000E+00  0.00000000E+00
  0.00000000E+00  0.00000000E+00  0.00000000E+00
  0.00000000E+00  0.00000000E+00  0.00000000E+00
  0.00000000E+00  0.00000000E+00  0.00000000E+00
  0.00000000E+00  0.00000000E+00  0.00000000E+00
  0.00000000E+00  0.00000000E+00  0.00000000E+00
  0.00000000E+00  0.00000000E+00  0.00000000E+00
  0.00000000E+00  0.00000000E+00  0.00000000E+00
  0.00000000E+00  0.00000000E+00  0.00000000E+00
  0.00000000E+00  0.00000000E+00  0.00000000E+00
  0.00000000E+00  0.00000000E+00  0.00000000E+00
  0.00000000E+00  0.00000000E+00  0.00000000E+00
  0.00000000E+00  0.00000000E+00  0.00000000E+00
  0.00000000E+00  0.00000000E+00  0.00000000E+00
  0.00000000E+00  0.00000000E+00  0.00000000E+00
  0.00000000E+00  0.00000000E+00  0.00000000E+00
  0.00000000E+00  0.00000000E+00  0.00000000E+00
  0.00000000E+00  0.00000000E+00  0.00000000E+00
  0.00000000E+00  0.00000000E+00  0.00000000E+00
  0.00000000E+00  0.00000000E+00  0.00000000E+00
  0.00000000E+00  0.00000000E+00  0.00000000E+00
  0.00000000E+00  0.00000000E+00  0.00000000E+00
  0.00000000E+00  0.00000000E+00  0.00000000E+00
  0.00000000E+00  0.00000000E+00  0.00000000E+00
  0.00000000E+00  0.00000000E+00  0.00000000E+00
  0.00000000E+00  0.00000000E+00  0.00000000E+00
  0.00000000E+00  0.00000000E+00  0.00000000E+00
  0.00000000E+00  0.00000000E+00  0.00000000E+00
  0.00000000E+00  0.00000000E+00  0.00000000E+00
  0.00000000E+00  0.00000000E+00  0.00000000E+00
  0.00000000E+00  0.00000000E+00  0.00000000E+00
  0.00000000E+00  0.00000000E+00  0.00000000E+00
  0.00000000E+00  0.00000000E+00  0.00000000E+00
  0.00000000E+00  0.00000000E+00  0.00000000E+00
  0.00000000E+00  0.00000000E+00  0.00000000E+00
  0.00000000E+00  0.00000000E+00  0.00000000E+00
  0.00000000E+00  0.00000000E+00  0.00000000E+00
  0.00000000E+00  0.00000000E+00  0.00000000E+00
  0.00000000E+00  0.00000000E+00  0.00000000E+00
  0.00000000E+00  0.00000000E+00  0.00000000E+00
  0.00000000E+00  0.00000000E+00  0.00000000E+00
  0.00000000E+00  0.00000000E+00  0.00000000E+00
  0.00000000E+00  0.00000000E+00  0.00000000E+00
  0.00000000E+00  0.00000000E+00  0.00000000E+00
  0.00000000E+00  0.00000000E+00  0.00000000E+00
  0.00000000E+00  0.00000000E+00  0.00000000E+00
  0.00000000E+00  0.00000000E+00  0.00000000E+00
  0.00000000E+00  0.00000000E+00  0.00000000E+00
  0.00000000E+00  0.00000000E+00  0.00000000E+00
  0.00000000E+00  0.00000000E+00  0.00000000E+00
  0.00000000E+00  0.00000000E+00  0.00000000E+00
  0.00000000E+00  0.00000000E+00  0.00000000E+00
  0.00000000E+00  0.00000000E+00  0.00000000E+00
  0.00000000E+00  0.00000000E+00  0.00000000E+00
  0.00000000E+00  0.00000000E+00  0.00000000E+00
  0.00000000E+00  0.00000000E+00  0.00000000E+00
  0.00000000E+00  0.00000000E+00  0.00000000E+00
  0.00000000E+00  0.00000000E+00  0.00000000E+00
  0.00000000E+00  0.00000000E+00  0.00000000E+00
  0.00000000E+00  0.00000000E+00  0.00000000E+00
