Li61 P7 N32                             
   1.00000000000000     
     0.0011491051331254    9.4862028258543667   -0.0012597866108910
    -0.0176243753847811   -0.0011448354340937    9.5482237227717306
     9.5344421760207592    0.0012454354820349   -0.0176463468579296
   Li   P    N 
    61     7    32
Direct
  0.4981615364488587 -0.0001662915517733  0.5018394170256747
  0.0099296041502499  0.4959890662162835  0.0016966004498074
  0.5007542482370979 -0.0077191780480150  0.0027536398916553
  0.0029331730757902 -0.0010291727827351  0.5013001858481508
  0.4943559625998170  0.4987350347457407  0.0016249037524431
  0.0059652687069708  0.4999928499416980  0.5038277464351327
  0.7492129320713605 -0.0130941255593553  0.5013435769532426
  0.2504817709994526 -0.0026990253282408  0.5012203002044926
  0.7699654509128759  0.4978487766591442  0.4958711792128101
  0.2397749983924336  0.4992311198496573  0.4996329236290435
  0.2646217892561813 -0.0011022824628034  0.0013414752909777
  0.7360588252837584 -0.0062267056933098  0.0025893168692599
  0.6732011511333592  0.5746207956954287 -0.0904537208616414
  0.5101891138169711  0.2390187679382333 -0.0095268190936803
  0.5048251906765080  0.7505645735694330  0.0157524098252210
 -0.0029743824289568  0.4859820152918947  0.2585549382475598
  0.0148110348671451  0.5100684851763840  0.7537340311355617
  0.2424881587983682  0.2147291576753135  0.2115744090395925
  0.2323540703498683  0.7905180379488959  0.7770565707097720
  0.2398171667442695  0.3006531650063832  0.7072793801177096
  0.2653141148451050  0.7178933844594142  0.2791422957538789
  0.7638886419729723  0.2978229300165395  0.3076648752815609
  0.7412608966971400  0.7252567308765340  0.7070485263224846
  0.7253056684215291  0.1953828128614008  0.8139372014894287
  0.7428071495718658  0.7971033617052919  0.2037439064647077
  0.9919587400909838  0.2437489993289884  0.2451568763359392
  0.9819422031082260  0.7479216368476043  0.7543650762497538
  0.2662288003833240  0.2408711550187258  0.4685706946484646
  0.2655748028735243  0.7529320635637260  0.5245853613791688
  0.7593977645402886  0.2114022127800692  0.5501303517854826
  0.7462464833571962  0.7549234687685152  0.4586102118971610
  0.7397724184906502  0.5463747551737015  0.2787270734071289
  0.7893223690284370  0.4914471783381517  0.7293404868279211
  0.2389735025009899  0.4640212447983447  0.2586162791997499
  0.2412978949542336  0.5461969078493268  0.7415230881339139
  0.5154067653416277  0.7425936325967029  0.2564740990114897
  0.4846810471451889  0.2451678101668394  0.7538058086047974
  0.2379705036690346  0.9714736296524926  0.2551837057244744
  0.2399366566010776  0.0348989484427129  0.7463548344802376
  0.2682380494646107  0.2411376101252531  0.9596317012339323
  0.2613349488472950  0.7600336076217779  0.0313857245115897
  0.7647159221493982  0.9675952115199834  0.7433046199364222
  0.7575467992244355  0.0390709047403573  0.2697085313356103
  0.7660967746526467  0.7750073490823519  0.9567748675796470
  0.7779096063400347  0.2047506622024602  0.0680757508177189
 -0.0013984787424740  0.2437079532064917  0.7629215990828068
  0.0145198071860759  0.7438492983927519  0.2362597012694445
  0.4901722519356309  0.2618546471922592  0.2453615316734469
  0.4803242182184405  0.7351911714398603  0.7604105985656074
  0.0185547927878973  0.2585217903066414  0.0136695213820415
  0.0142086149880045  0.7368762520644034 -0.0147844553906239
  0.5042718008529694  0.2346658603507973  0.4877738020760929
  0.5053618705325037  0.7620879273502120  0.5088855763795943
  0.4886770366464549  0.5140142382090618  0.2385750204101953
  0.4763622806393911  0.4922899134161848  0.7688981717293139
 -0.0009145107066038 -0.0076205605152561  0.2626667900966707
  0.0023975196056120 -0.0011957568192897  0.7395259200914597
  0.6275166968368374  0.3726329911120074  0.6605045337804001
  0.8228857646969931  0.3952764086155526  0.9262074121692652
  0.8286628517516020  0.5841627718446899  0.0773689166604175
  0.6728784701080021  0.4147791724278415  0.0925753707541727
  0.4979596888792253  0.5021596971454605  0.4970401711818200
  0.0033059928429385 -0.0022187241356108  0.0011207352509303
  0.2531565234040145  0.5003595557158850  0.0004017928871430
  0.0045258207461889  0.7483241995871180  0.4980305735767666
  0.0051315286034927  0.2502822562674916  0.5023903523878313
  0.4995203900055499 -0.0001952632008274  0.2511178366923900
  0.5003482523067921 -0.0071937093189149  0.7528760620639440
  0.6059832525109641  0.5945017054799142  0.6054155479956549
  0.6029054346027024  0.4014346035516071  0.3954150547007857
  0.8992260188447239  0.8931632620055434  0.0994523770649421
  0.8967289580676888  0.1021982442622314  0.9023640034187711
  0.1068269049115331  0.9023024690569784  0.8944274222135684
  0.1067014894805248  0.0951247254532530  0.1074749240720465
  0.3949728763833411  0.6075180915505700  0.4036952940758192
  0.3997491950204906  0.3925171834968373  0.5977380023420941
  0.1052612332429708  0.3486473755138014  0.3953080876537685
  0.1058286024874032  0.6518167888214971  0.6089515009252834
  0.1125800881588773  0.1509807232459778  0.6043739627238118
  0.1136128313307897  0.8486202013088165  0.3988944295951014
  0.8938324898332006  0.1463439390281075  0.4075072079161794
  0.8901537539967807  0.8495104593938995  0.5934120934262425
  0.8694936396878825  0.3781363670187423  0.1320482559104505
  0.8715557503395304  0.6133358317959252  0.8712840160426891
  0.1540527830905516  0.5975049109252534  0.1130144071185385
  0.1562960381003728  0.4030489280196263  0.8845382010901022
  0.3996780384607926  0.8898449190522673  0.1536787059651588
  0.4013893717181523  0.0967591720557961  0.8572260970798266
  0.3901621194895057  0.1014168293256767  0.3500616650545280
  0.3901541611938081  0.8965056240074827  0.6509464963012419
  0.3514309507268073  0.3858710260982216  0.0980667268163612
  0.3524649999621517  0.6139263025008106  0.9030651385007199
  0.6099224590301459  0.0958186460097789  0.6524005713036539
  0.6115835538764265  0.9050505719054922  0.3542613232991234
  0.6341213757068608  0.6266871859458154  0.1183364627851185
  0.6268376400963559  0.3720862591356918  0.8703928477515593
  0.9019347481502977  0.3528773605086064  0.6084633443343910
  0.9066806470146748  0.6439324854861230  0.3917470005453124
  0.6007854352301939  0.1051623520949358  0.1487086486215540
  0.6039373867637600  0.8852650924643894  0.8493792354890181
 
  0.00000000E+00  0.00000000E+00  0.00000000E+00
  0.00000000E+00  0.00000000E+00  0.00000000E+00
  0.00000000E+00  0.00000000E+00  0.00000000E+00
  0.00000000E+00  0.00000000E+00  0.00000000E+00
  0.00000000E+00  0.00000000E+00  0.00000000E+00
  0.00000000E+00  0.00000000E+00  0.00000000E+00
  0.00000000E+00  0.00000000E+00  0.00000000E+00
  0.00000000E+00  0.00000000E+00  0.00000000E+00
  0.00000000E+00  0.00000000E+00  0.00000000E+00
  0.00000000E+00  0.00000000E+00  0.00000000E+00
  0.00000000E+00  0.00000000E+00  0.00000000E+00
  0.00000000E+00  0.00000000E+00  0.00000000E+00
  0.00000000E+00  0.00000000E+00  0.00000000E+00
  0.00000000E+00  0.00000000E+00  0.00000000E+00
  0.00000000E+00  0.00000000E+00  0.00000000E+00
  0.00000000E+00  0.00000000E+00  0.00000000E+00
  0.00000000E+00  0.00000000E+00  0.00000000E+00
  0.00000000E+00  0.00000000E+00  0.00000000E+00
  0.00000000E+00  0.00000000E+00  0.00000000E+00
  0.00000000E+00  0.00000000E+00  0.00000000E+00
  0.00000000E+00  0.00000000E+00  0.00000000E+00
  0.00000000E+00  0.00000000E+00  0.00000000E+00
  0.00000000E+00  0.00000000E+00  0.00000000E+00
  0.00000000E+00  0.00000000E+00  0.00000000E+00
  0.00000000E+00  0.00000000E+00  0.00000000E+00
  0.00000000E+00  0.00000000E+00  0.00000000E+00
  0.00000000E+00  0.00000000E+00  0.00000000E+00
  0.00000000E+00  0.00000000E+00  0.00000000E+00
  0.00000000E+00  0.00000000E+00  0.00000000E+00
  0.00000000E+00  0.00000000E+00  0.00000000E+00
  0.00000000E+00  0.00000000E+00  0.00000000E+00
  0.00000000E+00  0.00000000E+00  0.00000000E+00
  0.00000000E+00  0.00000000E+00  0.00000000E+00
  0.00000000E+00  0.00000000E+00  0.00000000E+00
  0.00000000E+00  0.00000000E+00  0.00000000E+00
  0.00000000E+00  0.00000000E+00  0.00000000E+00
  0.00000000E+00  0.00000000E+00  0.00000000E+00
  0.00000000E+00  0.00000000E+00  0.00000000E+00
  0.00000000E+00  0.00000000E+00  0.00000000E+00
  0.00000000E+00  0.00000000E+00  0.00000000E+00
  0.00000000E+00  0.00000000E+00  0.00000000E+00
  0.00000000E+00  0.00000000E+00  0.00000000E+00
  0.00000000E+00  0.00000000E+00  0.00000000E+00
  0.00000000E+00  0.00000000E+00  0.00000000E+00
  0.00000000E+00  0.00000000E+00  0.00000000E+00
  0.00000000E+00  0.00000000E+00  0.00000000E+00
  0.00000000E+00  0.00000000E+00  0.00000000E+00
  0.00000000E+00  0.00000000E+00  0.00000000E+00
  0.00000000E+00  0.00000000E+00  0.00000000E+00
  0.00000000E+00  0.00000000E+00  0.00000000E+00
  0.00000000E+00  0.00000000E+00  0.00000000E+00
  0.00000000E+00  0.00000000E+00  0.00000000E+00
  0.00000000E+00  0.00000000E+00  0.00000000E+00
  0.00000000E+00  0.00000000E+00  0.00000000E+00
  0.00000000E+00  0.00000000E+00  0.00000000E+00
  0.00000000E+00  0.00000000E+00  0.00000000E+00
  0.00000000E+00  0.00000000E+00  0.00000000E+00
  0.00000000E+00  0.00000000E+00  0.00000000E+00
  0.00000000E+00  0.00000000E+00  0.00000000E+00
  0.00000000E+00  0.00000000E+00  0.00000000E+00
  0.00000000E+00  0.00000000E+00  0.00000000E+00
  0.00000000E+00  0.00000000E+00  0.00000000E+00
  0.00000000E+00  0.00000000E+00  0.00000000E+00
  0.00000000E+00  0.00000000E+00  0.00000000E+00
  0.00000000E+00  0.00000000E+00  0.00000000E+00
  0.00000000E+00  0.00000000E+00  0.00000000E+00
  0.00000000E+00  0.00000000E+00  0.00000000E+00
  0.00000000E+00  0.00000000E+00  0.00000000E+00
  0.00000000E+00  0.00000000E+00  0.00000000E+00
  0.00000000E+00  0.00000000E+00  0.00000000E+00
  0.00000000E+00  0.00000000E+00  0.00000000E+00
  0.00000000E+00  0.00000000E+00  0.00000000E+00
  0.00000000E+00  0.00000000E+00  0.00000000E+00
  0.00000000E+00  0.00000000E+00  0.00000000E+00
  0.00000000E+00  0.00000000E+00  0.00000000E+00
  0.00000000E+00  0.00000000E+00  0.00000000E+00
  0.00000000E+00  0.00000000E+00  0.00000000E+00
  0.00000000E+00  0.00000000E+00  0.00000000E+00
  0.00000000E+00  0.00000000E+00  0.00000000E+00
  0.00000000E+00  0.00000000E+00  0.00000000E+00
  0.00000000E+00  0.00000000E+00  0.00000000E+00
  0.00000000E+00  0.00000000E+00  0.00000000E+00
  0.00000000E+00  0.00000000E+00  0.00000000E+00
  0.00000000E+00  0.00000000E+00  0.00000000E+00
  0.00000000E+00  0.00000000E+00  0.00000000E+00
  0.00000000E+00  0.00000000E+00  0.00000000E+00
  0.00000000E+00  0.00000000E+00  0.00000000E+00
  0.00000000E+00  0.00000000E+00  0.00000000E+00
  0.00000000E+00  0.00000000E+00  0.00000000E+00
  0.00000000E+00  0.00000000E+00  0.00000000E+00
  0.00000000E+00  0.00000000E+00  0.00000000E+00
  0.00000000E+00  0.00000000E+00  0.00000000E+00
  0.00000000E+00  0.00000000E+00  0.00000000E+00
  0.00000000E+00  0.00000000E+00  0.00000000E+00
  0.00000000E+00  0.00000000E+00  0.00000000E+00
  0.00000000E+00  0.00000000E+00  0.00000000E+00
  0.00000000E+00  0.00000000E+00  0.00000000E+00
  0.00000000E+00  0.00000000E+00  0.00000000E+00
  0.00000000E+00  0.00000000E+00  0.00000000E+00
  0.00000000E+00  0.00000000E+00  0.00000000E+00
