Li1
1.0
-1.724756 1.724756 1.724756
1.724756 -1.724756 1.724756
1.724756 1.724756 -1.724756
Li
1
direct
0.000000 0.000000 0.000000 Li
