P28 N28 O28
1.0
4.831544 0.000000 -4.524130
-0.000000 7.043614 -4.524130
0.000000 0.000000 63.337820
P N O
28 28 28
Selective dynamics
direct
0.250000 0.639517 0.045680 T T T P5+
0.750000 0.860483 0.025749 T T T P5+
0.750000 0.139517 0.009965 T T T P5+
0.250000 0.360483 0.061463 T T T P5+
0.250000 0.639517 0.117108 F F F P5+
0.750000 0.860483 0.097177 F F F P5+
0.750000 0.139517 0.081394 T T T P5+
0.250000 0.360483 0.132892 F F F P5+
0.250000 0.639517 0.188537 F F F P5+
0.750000 0.860483 0.168606 F F F P5+
0.750000 0.139517 0.152823 F F F P5+
0.250000 0.360483 0.204320 F F F P5+
0.250000 0.639517 0.259965 F F F P5+
0.750000 0.860483 0.240034 F F F P5+
0.750000 0.139517 0.224251 F F F P5+
0.250000 0.360483 0.275749 F F F P5+
0.250000 0.639517 0.331394 F F F P5+
0.750000 0.860483 0.311463 F F F P5+
0.750000 0.139517 0.295680 F F F P5+
0.250000 0.360483 0.347177 F F F P5+
0.250000 0.639517 0.402823 T T T P5+
0.750000 0.860483 0.382892 T T T P5+
0.750000 0.139517 0.367108 F F F P5+
0.250000 0.360483 0.418606 T T T P5+
0.250000 0.639517 0.474251 T T T P5+
0.750000 0.860483 0.454320 T T T P5+
0.750000 0.139517 0.438537 T T T P5+
0.250000 0.360483 0.490034 T T T P5+
0.500000 0.750000 0.061374 T T T N3-
0.000000 0.750000 0.045769 T T T N3-
0.000000 0.250000 0.025659 T T T N3-
0.500000 0.250000 0.010055 T T T N3-
0.500000 0.750000 0.132802 F F F N3-
0.000000 0.750000 0.117198 F F F N3-
0.000000 0.250000 0.097088 F F F N3-
0.500000 0.250000 0.081483 T T T N3-
0.500000 0.750000 0.204231 F F F N3-
0.000000 0.750000 0.188626 F F F N3-
0.000000 0.250000 0.168516 F F F N3-
0.500000 0.250000 0.152912 F F F N3-
0.500000 0.750000 0.275659 F F F N3-
0.000000 0.750000 0.260055 F F F N3-
0.000000 0.250000 0.239945 F F F N3-
0.500000 0.250000 0.224341 F F F N3-
0.500000 0.750000 0.347088 T T T N3-
0.000000 0.750000 0.331483 F F F N3-
0.000000 0.250000 0.311374 F F F N3-
0.500000 0.250000 0.295769 F F F N3-
0.500000 0.750000 0.418517 T T T N3-
0.000000 0.750000 0.402912 T T T N3-
0.000000 0.250000 0.382802 T T T N3-
0.500000 0.250000 0.367198 F F F N3-
0.500000 0.750000 0.489945 T T T N3-
0.000000 0.750000 0.474341 T T T N3-
0.000000 0.250000 0.454231 T T T N3-
0.500000 0.250000 0.438626 T T T N3-
0.627000 0.000000 0.044786 T T T O2-
0.873000 0.000000 0.026643 T T T O2-
0.127000 0.500000 0.009071 T T T O2-
0.373000 0.500000 0.062357 T T T O2-
0.627000 0.000000 0.116214 F F F O2-
0.873000 0.000000 0.098071 T T T O2-
0.127000 0.500000 0.080500 F F F O2-
0.373000 0.500000 0.133786 F F F O2-
0.627000 0.000000 0.187643 F F F O2-
0.873000 0.000000 0.169500 F F F O2-
0.127000 0.500000 0.151929 F F F O2-
0.373000 0.500000 0.205214 F F F O2-
0.627000 0.000000 0.259071 F F F O2-
0.873000 0.000000 0.240929 F F F O2-
0.127000 0.500000 0.223357 F F F O2-
0.373000 0.500000 0.276643 F F F O2-
0.627000 0.000000 0.330500 F F F O2-
0.873000 0.000000 0.312357 F F F O2-
0.127000 0.500000 0.294786 F F F O2-
0.373000 0.500000 0.348071 F F F O2-
0.627000 0.000000 0.401929 T T T O2-
0.873000 0.000000 0.383786 F F F O2-
0.127000 0.500000 0.366214 T T T O2-
0.373000 0.500000 0.419500 T T T O2-
0.627000 0.000000 0.473357 T T T O2-
0.873000 0.000000 0.455214 T T T O2-
0.127000 0.500000 0.437643 T T T O2-
0.373000 0.500000 0.490929 T T T O2-
