Li42 P14 O56
1.0
6.176136 0.000000 0.000000
0.000000 5.296402 -4.922448
0.000000 0.000000 63.991824
Li P O
42 14 56
direct
0.000000 0.155480 0.032021 Li+
0.500000 0.844520 0.046563 Li+
0.252873 0.673566 0.071955 Li+
0.247127 0.326434 0.006791 Li+
0.752873 0.326434 0.006791 Li+
0.747127 0.673566 0.071955 Li+
0.000000 0.155480 0.108944 Li+
0.500000 0.844520 0.123486 Li+
0.252873 0.673566 0.148878 Li+
0.247127 0.326434 0.083714 Li+
0.752873 0.326434 0.083714 Li+
0.747127 0.673566 0.148878 Li+
0.000000 0.155480 0.185868 Li+
0.500000 0.844520 0.200409 Li+
0.252873 0.673566 0.225801 Li+
0.247127 0.326434 0.160637 Li+
0.752873 0.326434 0.160637 Li+
0.747127 0.673566 0.225801 Li+
0.000000 0.155480 0.262791 Li+
0.500000 0.844520 0.277332 Li+
0.252873 0.673566 0.302725 Li+
0.247127 0.326434 0.237561 Li+
0.752873 0.326434 0.237561 Li+
0.747127 0.673566 0.302725 Li+
0.000000 0.155480 0.339714 Li+
0.500000 0.844520 0.354255 Li+
0.252873 0.673566 0.379648 Li+
0.247127 0.326434 0.314484 Li+
0.752873 0.326434 0.314484 Li+
0.747127 0.673566 0.379648 Li+
0.000000 0.155480 0.416637 Li+
0.500000 0.844520 0.431178 Li+
0.252873 0.673566 0.456571 Li+
0.247127 0.326434 0.391407 Li+
0.752873 0.326434 0.391407 Li+
0.747127 0.673566 0.456571 Li+
0.000000 0.155480 0.493560 Li+
0.500000 0.844520 0.508101 Li+
0.252873 0.673566 0.533494 Li+
0.247127 0.326434 0.468330 Li+
0.752873 0.326434 0.468330 Li+
0.747127 0.673566 0.533494 Li+
0.500000 0.175739 0.034195 P5+
0.000000 0.824261 0.045620 P5+
0.500000 0.175739 0.111118 P5+
0.000000 0.824261 0.122543 P5+
0.500000 0.175739 0.188041 P5+
0.000000 0.824261 0.199466 P5+
0.500000 0.175739 0.264964 P5+
0.000000 0.824261 0.276389 P5+
0.500000 0.175739 0.341887 P5+
0.000000 0.824261 0.353312 P5+
0.500000 0.175739 0.418810 P5+
0.000000 0.824261 0.430235 P5+
0.500000 0.175739 0.495733 P5+
0.000000 0.824261 0.507158 P5+
0.792862 0.686491 0.026900 O2-
0.500000 0.896492 0.004968 O2-
0.500000 0.181604 0.058971 O2-
0.000000 0.818396 0.069494 O2-
0.292862 0.313509 0.036670 O2-
0.207138 0.686491 0.026900 O2-
0.000000 0.103508 0.059354 O2-
0.707138 0.313509 0.036670 O2-
0.792862 0.686491 0.103823 O2-
0.500000 0.896492 0.081891 O2-
0.500000 0.181604 0.135895 O2-
0.000000 0.818396 0.146417 O2-
0.292862 0.313509 0.113593 O2-
0.207138 0.686491 0.103823 O2-
0.000000 0.103508 0.136277 O2-
0.707138 0.313509 0.113593 O2-
0.792862 0.686491 0.180746 O2-
0.500000 0.896492 0.158814 O2-
0.500000 0.181604 0.212818 O2-
0.000000 0.818396 0.223340 O2-
0.292862 0.313509 0.190517 O2-
0.207138 0.686491 0.180746 O2-
0.000000 0.103508 0.213200 O2-
0.707138 0.313509 0.190517 O2-
0.792862 0.686491 0.257669 O2-
0.500000 0.896492 0.235737 O2-
0.500000 0.181604 0.289741 O2-
0.000000 0.818396 0.300263 O2-
0.292862 0.313509 0.267440 O2-
0.207138 0.686491 0.257669 O2-
0.000000 0.103508 0.290123 O2-
0.707138 0.313509 0.267440 O2-
0.792862 0.686491 0.334592 O2-
0.500000 0.896492 0.312660 O2-
0.500000 0.181604 0.366664 O2-
0.000000 0.818396 0.377186 O2-
0.292862 0.313509 0.344363 O2-
0.207138 0.686491 0.334592 O2-
0.000000 0.103508 0.367046 O2-
0.707138 0.313509 0.344363 O2-
0.792862 0.686491 0.411515 O2-
0.500000 0.896492 0.389583 O2-
0.500000 0.181604 0.443587 O2-
0.000000 0.818396 0.454109 O2-
0.292862 0.313509 0.421286 O2-
0.207138 0.686491 0.411515 O2-
0.000000 0.103508 0.443969 O2-
0.707138 0.313509 0.421286 O2-
0.792862 0.686491 0.488438 O2-
0.500000 0.896492 0.466506 O2-
0.500000 0.181604 0.520510 O2-
0.000000 0.818396 0.531032 O2-
0.292862 0.313509 0.498209 O2-
0.207138 0.686491 0.488438 O2-
0.000000 0.103508 0.520892 O2-
0.707138 0.313509 0.498209 O2-
