Li56 P28 O98
1.0
6.730959 0.000000 -2.599490
-2.035903 8.419349 5.263538
0.000000 0.000000 63.126504
Li P O
56 28 98
direct
0.144977 0.012029 0.007248 Li+
0.855023 0.987971 0.049997 Li+
0.588727 0.248347 0.016620 Li+
0.411273 0.751653 0.040624 Li+
0.327738 0.208724 0.050581 Li+
0.672262 0.791276 0.006663 Li+
0.241886 0.549204 0.019776 Li+
0.758114 0.450796 0.037469 Li+
0.144977 0.012029 0.090581 Li+
0.855023 0.987971 0.133330 Li+
0.588727 0.248347 0.099954 Li+
0.411273 0.751653 0.123958 Li+
0.327738 0.208724 0.133915 Li+
0.672262 0.791276 0.089997 Li+
0.241886 0.549204 0.103109 Li+
0.758114 0.450796 0.120802 Li+
0.144977 0.012029 0.173915 Li+
0.855023 0.987971 0.216663 Li+
0.588727 0.248347 0.183287 Li+
0.411273 0.751653 0.207291 Li+
0.327738 0.208724 0.217248 Li+
0.672262 0.791276 0.173330 Li+
0.241886 0.549204 0.186443 Li+
0.758114 0.450796 0.204135 Li+
0.144977 0.012029 0.257248 Li+
0.855023 0.987971 0.299997 Li+
0.588727 0.248347 0.266620 Li+
0.411273 0.751653 0.290624 Li+
0.327738 0.208724 0.300581 Li+
0.672262 0.791276 0.256663 Li+
0.241886 0.549204 0.269776 Li+
0.758114 0.450796 0.287469 Li+
0.144977 0.012029 0.340581 Li+
0.855023 0.987971 0.383330 Li+
0.588727 0.248347 0.349954 Li+
0.411273 0.751653 0.373958 Li+
0.327738 0.208724 0.383915 Li+
0.672262 0.791276 0.339997 Li+
0.241886 0.549204 0.353109 Li+
0.758114 0.450796 0.370802 Li+
0.144977 0.012029 0.423915 Li+
0.855023 0.987971 0.466663 Li+
0.588727 0.248347 0.433287 Li+
0.411273 0.751653 0.457291 Li+
0.327738 0.208724 0.467248 Li+
0.672262 0.791276 0.423330 Li+
0.241886 0.549204 0.436443 Li+
0.758114 0.450796 0.454135 Li+
0.144977 0.012029 0.507248 Li+
0.855023 0.987971 0.549997 Li+
0.588727 0.248347 0.516620 Li+
0.411273 0.751653 0.540624 Li+
0.327738 0.208724 0.550581 Li+
0.672262 0.791276 0.506663 Li+
0.241886 0.549204 0.519776 Li+
0.758114 0.450796 0.537469 Li+
0.213298 0.368044 0.075120 P5+
0.786702 0.631956 0.065459 P5+
0.779241 0.154498 0.075392 P5+
0.220759 0.845502 0.065186 P5+
0.213298 0.368044 0.158453 P5+
0.786702 0.631956 0.148792 P5+
0.779241 0.154498 0.158725 P5+
0.220759 0.845502 0.148520 P5+
0.213298 0.368044 0.241786 P5+
0.786702 0.631956 0.232125 P5+
0.779241 0.154498 0.242058 P5+
0.220759 0.845502 0.231853 P5+
0.213298 0.368044 0.325120 P5+
0.786702 0.631956 0.315459 P5+
0.779241 0.154498 0.325392 P5+
0.220759 0.845502 0.315186 P5+
0.213298 0.368044 0.408453 P5+
0.786702 0.631956 0.398792 P5+
0.779241 0.154498 0.408725 P5+
0.220759 0.845502 0.398520 P5+
0.213298 0.368044 0.491786 P5+
0.786702 0.631956 0.482125 P5+
0.779241 0.154498 0.492058 P5+
0.220759 0.845502 0.481853 P5+
0.213298 0.368044 0.575120 P5+
0.786702 0.631956 0.565458 P5+
0.779241 0.154498 0.575392 P5+
0.220759 0.845502 0.565187 P5+
0.741759 0.125660 0.016491 O2-
0.605720 0.209316 0.052335 O2-
0.394280 0.790684 0.004910 O2-
0.848591 0.018024 0.078544 O2-
0.743350 0.623545 0.040614 O2-
0.256650 0.376455 0.016631 O2-
0.732189 0.473810 0.004568 O2-
0.267811 0.526190 0.052677 O2-
0.702403 0.763496 0.061813 O2-
0.297597 0.236504 0.078766 O2-
0.962384 0.316106 0.066191 O2-
0.037616 0.683894 0.074387 O2-
0.151409 0.981976 0.062034 O2-
0.258241 0.874340 0.040753 O2-
0.741759 0.125660 0.099825 O2-
0.605720 0.209316 0.135668 O2-
0.394280 0.790684 0.088243 O2-
0.848591 0.018024 0.161878 O2-
0.743350 0.623545 0.123947 O2-
0.256650 0.376455 0.099965 O2-
0.732189 0.473810 0.087901 O2-
0.267811 0.526190 0.136010 O2-
0.702403 0.763496 0.145146 O2-
0.297597 0.236504 0.162099 O2-
0.962384 0.316106 0.149524 O2-
0.037616 0.683894 0.157720 O2-
0.151409 0.981976 0.145367 O2-
0.258241 0.874340 0.124087 O2-
0.741759 0.125660 0.183158 O2-
0.605720 0.209316 0.219002 O2-
0.394280 0.790684 0.171576 O2-
0.848591 0.018024 0.245211 O2-
0.743350 0.623545 0.207280 O2-
0.256650 0.376455 0.183298 O2-
0.732189 0.473810 0.171234 O2-
0.267811 0.526190 0.219343 O2-
0.702403 0.763496 0.228479 O2-
0.297597 0.236504 0.245432 O2-
0.962384 0.316106 0.232858 O2-
0.037616 0.683894 0.241054 O2-
0.151409 0.981976 0.228700 O2-
0.258241 0.874340 0.207420 O2-
0.741759 0.125660 0.266491 O2-
0.605720 0.209316 0.302335 O2-
0.394280 0.790684 0.254910 O2-
0.848591 0.018024 0.328544 O2-
0.743350 0.623545 0.290614 O2-
0.256650 0.376455 0.266631 O2-
0.732189 0.473810 0.254568 O2-
0.267811 0.526190 0.302677 O2-
0.702403 0.763496 0.311812 O2-
0.297597 0.236504 0.328765 O2-
0.962384 0.316106 0.316191 O2-
0.037616 0.683894 0.324387 O2-
0.151409 0.981976 0.312034 O2-
0.258241 0.874340 0.290753 O2-
0.741759 0.125660 0.349825 O2-
0.605720 0.209316 0.385668 O2-
0.394280 0.790684 0.338243 O2-
0.848591 0.018024 0.411878 O2-
0.743350 0.623545 0.373947 O2-
0.256650 0.376455 0.349965 O2-
0.732189 0.473810 0.337901 O2-
0.267811 0.526190 0.386010 O2-
0.702403 0.763496 0.395146 O2-
0.297597 0.236504 0.412099 O2-
0.962384 0.316106 0.399524 O2-
0.037616 0.683894 0.407720 O2-
0.151409 0.981976 0.395367 O2-
0.258241 0.874340 0.374087 O2-
0.741759 0.125660 0.433158 O2-
0.605720 0.209316 0.469002 O2-
0.394280 0.790684 0.421576 O2-
0.848591 0.018024 0.495211 O2-
0.743350 0.623545 0.457280 O2-
0.256650 0.376455 0.433298 O2-
0.732189 0.473810 0.421235 O2-
0.267811 0.526190 0.469344 O2-
0.702403 0.763496 0.478479 O2-
0.297597 0.236504 0.495432 O2-
0.962384 0.316106 0.482858 O2-
0.037616 0.683894 0.491054 O2-
0.151409 0.981976 0.478700 O2-
0.258241 0.874340 0.457420 O2-
0.741759 0.125660 0.516491 O2-
0.605720 0.209316 0.552335 O2-
0.394280 0.790684 0.504910 O2-
0.848591 0.018024 0.578544 O2-
0.743350 0.623545 0.540613 O2-
0.256650 0.376455 0.516631 O2-
0.732189 0.473810 0.504568 O2-
0.267811 0.526190 0.552677 O2-
0.702403 0.763496 0.561813 O2-
0.297597 0.236504 0.578766 O2-
0.962384 0.316106 0.566191 O2-
0.037616 0.683894 0.574387 O2-
0.151409 0.981976 0.562034 O2-
0.258241 0.874340 0.540753 O2-
