Li7 P2 N1 O7                            
   1.00000000000000     
     4.8763414363578974    0.0192972499613789   -0.0022368638613311
     0.0249342769031815    6.1040972986238691   -0.0676882074238542
    -0.0032560948951209   -0.0580062277412695    5.4848994225810639
   Li   P    N    O 
     7     2     1     7
Direct
  0.0110862005661356  0.5025577629970379  0.1419899683739423
  0.5304435071035407  0.7100252843905855  0.3051001102729243
  0.5210228410514678  0.2942307521265590  0.3115182793982998
 -0.0050147536704531  0.7416520606936609  0.6819710843137492
 -0.0161018693592271  0.2526821783515037  0.6882822237665076
  0.5177973264416779 -0.0103173755165811  0.9025913323355861
  0.4232216552772645 -0.0036168073174022  0.5160288594179916
  0.4912468670160741  0.5090003701718991  0.8023428735998969
  0.0025136448448314  0.0032012343505141  0.1884847838328132
  0.5836740074415125  0.7221175701946019  0.6667934367356504
  0.1197725350878516  0.2074836810770898  0.3307213110283236
  0.1224007034500769  0.7959705574416285  0.3130446673637645
  0.6118761396132109  0.4923958335289185  0.0738364692307221
  0.1696525832224665  0.4923717024711359  0.8295381725977767
  0.6821271399469276  0.0048899940742487  0.2156290252664637
  0.5815171335196084  0.2781544981281557  0.6731948901607382
  0.0858943384470605  0.0072007028364462  0.9158525123048462
 
  0.00000000E+00  0.00000000E+00  0.00000000E+00
  0.00000000E+00  0.00000000E+00  0.00000000E+00
  0.00000000E+00  0.00000000E+00  0.00000000E+00
  0.00000000E+00  0.00000000E+00  0.00000000E+00
  0.00000000E+00  0.00000000E+00  0.00000000E+00
  0.00000000E+00  0.00000000E+00  0.00000000E+00
  0.00000000E+00  0.00000000E+00  0.00000000E+00
  0.00000000E+00  0.00000000E+00  0.00000000E+00
  0.00000000E+00  0.00000000E+00  0.00000000E+00
  0.00000000E+00  0.00000000E+00  0.00000000E+00
  0.00000000E+00  0.00000000E+00  0.00000000E+00
  0.00000000E+00  0.00000000E+00  0.00000000E+00
  0.00000000E+00  0.00000000E+00  0.00000000E+00
  0.00000000E+00  0.00000000E+00  0.00000000E+00
  0.00000000E+00  0.00000000E+00  0.00000000E+00
  0.00000000E+00  0.00000000E+00  0.00000000E+00
  0.00000000E+00  0.00000000E+00  0.00000000E+00
