Li71 P24 N1 O94                         
   1.00000000000000     
    14.7163209141989508   -0.0025691020070198   -0.0044497714061979
    -0.0018706675310564   10.5822112550592387    0.0163346482933655
    -0.0037154812415427    0.0190687413961058   12.3104041808093623
   Li   P    N    O 
    71    24     1    94
Direct
  0.2018273629340011  0.4122926102691377  0.0014254015973880
  0.1704456703428290  0.4223986897230840  0.4993259008588839
  0.1706424908433757  0.9292410378813932  0.0063562841882127
  0.1710815377443410  0.9236729682365862  0.4983087309912634
  0.5006480153870740  0.4214547568509532  0.0008961594740830
  0.5025353604520295  0.4218131976521428  0.4998106644054287
  0.5029991808101381  0.9236358114652984  0.0004507379594092
  0.5023467641102680  0.9234529178691030  0.4994686964276508
  0.8322095893944560  0.4205687185452589  0.0006812065217206
  0.8363313006801761  0.4217190208482773  0.5000752752835889
  0.8349577176383114  0.9196037970478773 -0.0001248031548509
  0.8367535696521798  0.9236855003377131  0.4994450870620237
  0.0090554783514169  0.0758491839333804  0.2511240646430545
  0.0039428068906897  0.0717484814165879  0.7451737583777361
  0.0026275463650784  0.5819800406691267  0.2549367473013180
  0.0024774201769817  0.5766288930480262  0.7475266700503203
  0.3317658937387391  0.0782941549603378  0.2454739006054093
  0.3368257525461703  0.0769022312947245  0.7501160189218472
  0.3360616424254178  0.5783344700586096  0.2513319646072641
  0.3369617884425303  0.5777100150395298  0.7496503992996534
  0.6705395401212091  0.0771168870182802  0.2498118132252042
  0.6691513977076923  0.0764860458820055  0.7492038801128101
  0.6681526107978065  0.5782070117525615  0.2508540254628034
  0.6683851227413647  0.5772867675730838  0.7494622965749836
  0.1697787714615448  0.1626398942139842  0.6255629542297366
  0.1732288869060117  0.6656661793441060  0.1291520085422297
  0.1699965601196407  0.6634636589774047  0.6262092853568006
  0.5016994142108897  0.1626761524492334  0.1260721317732998
  0.5023756259138847  0.1631254243764085  0.6258965260683739
  0.5025633450980718  0.6640454925363397  0.1267002546485337
  0.5028143885667300  0.6634630395485379  0.6257975432132616
  0.8397045357232280  0.1624897819541269  0.1255696831510555
  0.8362829781327827  0.1628621719590709  0.6253785655807226
  0.8329439091686746  0.6654729332467185  0.1299301813949758
  0.8353773867022311  0.6633014199582530  0.6258846562562879
 -0.0004836597924937  0.3319121351662548  0.1441819762756289
  0.0042475031244388  0.3364647812715560  0.6228859459838467
  0.0035103092241815  0.8458928633783888  0.1258237192859548
  0.0032416308565093  0.8359360518661842  0.6218922855414983
  0.3339041400237464  0.3302415397068242  0.1282344029505163
  0.3358872499586089  0.3359148966256146  0.6232126632898473
  0.3365368698846217  0.8387414631008100  0.1235440300150158
  0.3367496355623253  0.8367739436806471  0.6228217948142680
  0.6687965178912995  0.3359350030065458  0.1246535746655157
  0.6691273701060370  0.3361353168204205  0.6237329675198714
  0.6686287779699429  0.8373488204783259  0.1240209211552495
  0.6690816644777938  0.8366018274240259  0.6231438803701372
  0.0051917407532343  0.3384254269823325  0.3769727348010615
 -0.0019679304921232  0.3164694857027995  0.8597825639088255
  0.0036419450643769  0.8374604084692647  0.3774885734942859
  0.0032812919627388  0.8411170431520690  0.8728541132809042
  0.3354194846057698  0.3369797491394474  0.3763506384877066
  0.3396646954476242  0.3323380102165270  0.8738945144030651
  0.3354216642987917  0.8370053971600694  0.3762396317941027
  0.3365056731553341  0.8384781177622519  0.8771488560562972
  0.6689220599809549  0.3365431247920473  0.3770311969435824
  0.6677643462207578  0.3363590890894094  0.8766073457598986
  0.6692400110872911  0.8370765666197548  0.3767167793741460
  0.6685445034728436  0.8371682028431205  0.8763735411576770
  0.1708207776330146  0.1650464781609704  0.3676031381917703
  0.1699770145001122  0.1598601818667768  0.8747328091390160
  0.1692369807575747  0.6633995660094658  0.3770583675546872
  0.1722245411313388  0.6652184197282680  0.8728965208138796
  0.5021305787510301  0.1629112524281506  0.3726959879133785
  0.5035950482436156  0.1622422455725414  0.8736055513152721
  0.5025356550088564  0.6635019441633314  0.3739743901497838
  0.5026605311760938  0.6638059730899920  0.8731158607406543
  0.8372385636838190  0.1635738589596555  0.3726870962521932
  0.8333701862707766  0.1618072025279653  0.8705553352728401
  0.8357355060911692  0.6641453134149599  0.3754762323141217
  0.8326655656370425  0.6642703373770812  0.8702846211610175
  0.1682287724155160  0.4188516748740599  0.2500619561889521
  0.1673001240065116  0.4120720282768285  0.7513119166904070
  0.1688045370649909  0.9104435821091749  0.2535485319926223
  0.1679975216691427  0.9110158070647809  0.7485859264884055
  0.5002294408136185  0.4122766214877461  0.2502565536553257
  0.5002466237805062  0.4123177173177920  0.7497461058048663
  0.5006707774223217  0.9123911592207039  0.2502629315344537
  0.5005650300621605  0.9119101038604458  0.7495755898063730
  0.8328733514789788  0.4147771258365786  0.2505480463942374
  0.8334798021084787  0.4124678044713809  0.7505692361563162
  0.8339379466193547  0.9120230321805907  0.2506212503909315
  0.8334923722987686  0.9110547377641148  0.7488727000068873
 -0.0015283618145338  0.0846875143567199 -0.0051259043273604
  0.0007759952772847  0.0889399659928291  0.4997429408597329
 -0.0018772665369347  0.5973727517542875  0.0005044897870615
 -0.0002127607123154  0.5874751001829353  0.5014207941471066
  0.3342226135058858  0.0868857658930456 -0.0019410239653630
  0.3335642838358406  0.0888963282938770  0.4992562490937589
  0.3332527282037627  0.5889454254712027 -0.0002380846580733
  0.3341306554516517  0.5873134563300824  0.5008964694937005
  0.6677832582460349  0.0880622028056084 -0.0000550832036834
  0.6673673599033433  0.0881961434020745  0.4997585741372005
  0.6657922625377491  0.5875683830342827 -0.0000106962662380
  0.6669225660719348  0.5873819667771644  0.5003240448216074
  0.0207931604388555  0.1624133169801651  0.1045710876404737
  0.0360109172951373  0.1590075659033611  0.3965798727912796
  0.0346412540407061  0.1490974829672470  0.8881902693987189
  0.0344916808909678  0.6578143822320446  0.3981534707447728
  0.0358226615102450  0.6569396495195516  0.8943600143282969
  0.3693019160538663  0.1582553425955998  0.3956739479086889
  0.3722655857726690  0.1559866800427718  0.8942596645251715
  0.3695398370514166  0.6566611613529107  0.3971778353936130
  0.3692948708334718  0.6564034833703662  0.8955385186005719
  0.7030740897609092  0.1574226905030063  0.3959327798505115
  0.7020067306532990  0.1569219578986141  0.8949967126738363
  0.7022069745849147  0.6569409818965591  0.3964993901526190
  0.7012345065446206  0.6565432422424268  0.8957996619058917
  0.2033917483010485  0.0469059175822677  0.2581384939686144
  0.2007514901762706  0.0510233207583295  0.7478518290138290
  0.2009283393750116  0.5594564093975091  0.2546680654386591
  0.2003963131781970  0.5518846892898694  0.7509820477654793
  0.5353802024061167  0.0517859625044263  0.2499238872855272
  0.5347037271801766  0.0515584377290954  0.7493117818653759
  0.5339913859484978  0.5522188737991103  0.2501150221027309
  0.5340755945400115  0.5520963519834581  0.7497003244780746
  0.8673695413666492  0.0515369386529847  0.2505057797270022
  0.8673430301116193  0.0507150474101033  0.7484965246811828
  0.8664848103949596  0.5546974839914319  0.2507520184445006
  0.8671884720308594  0.5522032929860752  0.7507053718312957
  0.0616478880505313  0.4183357190682488  0.2510779972512704
  0.0609146231772249  0.4094268084336002  0.7535835751925591
  0.0624511428530938  0.9063880246795826  0.2521602709022119
  0.0619216383316979  0.9066489349723438  0.7473377970201200
  0.3945516970448859  0.4096618799528206  0.2503934084398394
  0.3944447374574575  0.4097710188498121  0.7489729866217318
  0.3950710514188214  0.9097376252469473  0.2501206095300557
  0.3948559706886495  0.9089640510477675  0.7494837137635130
  0.7272379076507274  0.4108824322353493  0.2507238867324467
  0.7279002440223259  0.4090515245485699  0.7506769781754151
  0.7280735485113330  0.9082644317813368  0.2499992086957343
  0.7277489146880808  0.9082183160968723  0.7497585135501665
  0.2301460069406226  0.0872999324510993 -0.0066099846806493
  0.2278469824747035  0.0925272046276073  0.4995878380489638
  0.2272197265005253  0.5938337021810614 -0.0002640892675758
  0.2283422254772615  0.5894338442081605  0.5020472530430953
  0.5621713050233648  0.0912500991076753  0.0007941492449092
  0.5615984376017413  0.0911609063029008  0.4997177641187652
  0.5601243391410012  0.5899308405776612  0.0000180520059024
  0.5611978902692476  0.5895394186494508  0.5001704423016773
  0.8918898551144513  0.0859154422438441 -0.0063472475558071
  0.8947806310398801  0.0914953612465332  0.4997509118942273
  0.8927366140244544  0.5922773383260534  0.0000905393863077
  0.8939114899470371  0.5891881495107270  0.5014244154626171
  0.2039266579304736  0.3570778571842848  0.1457022717004499
  0.2009517581775651  0.3433195130529555  0.6470738129386923
  0.2035201309119709  0.8421937952689762  0.1485482726960271
  0.2033957376215068  0.8419780249109723  0.6448936797642669
  0.5355168543244809  0.3434170917971254  0.1463338439747247
  0.5360838177691533  0.3429592385976925  0.6465274979839662
  0.5361714869981193  0.8429226955349750  0.1466148135666775
  0.5358133232139471  0.8428855641161250  0.6457108391015285
  0.8680866431719615  0.3477692929738207  0.1453836738634720
  0.8698046276652182  0.3428867105795939  0.6478583563679731
  0.8694030804291389  0.8427830166359580  0.1466393545071318
  0.8687273748077843  0.8421426835350684  0.6451306453863846
  0.0354604976731388  0.1574374859209485  0.6042950951960164
  0.0357230944536734  0.6599057268875078  0.1048449845522468
  0.0350337253773072  0.6559595398940745  0.6054829205967732
  0.3703663055598883  0.1562141441040227  0.1015918993019096
  0.3691105975872772  0.1573271598311696  0.6035812657343735
  0.3695303258994185  0.6562128490777037  0.1034313878958938
  0.3696084526475013  0.6562685155832974  0.6047137085868169
  0.7044941286426057  0.1572088300325122  0.1030013702802779
  0.7027152113874671  0.1570939473145704  0.6037841413012797
  0.7014284054850302  0.6568845965518840  0.1035133469091907
  0.7020339752881305  0.6564263470878650  0.6043005002890963
  0.0340866065530428  0.4480334011073407  0.5013384746853626
  0.0337719120906337  0.9451641231641043 -0.0035719570584164
  0.0342635405365803  0.9491182371669875  0.5001682796421936
  0.3623937390467999  0.4465883557718824 -0.0004724352439845
  0.3677777041011268  0.4474286276138307  0.5006829020985443
  0.3702677530005021  0.9472732223615642 -0.0002986313528641
  0.3673035356423300  0.9489453112434226  0.4996252176405096
  0.6999238237174350  0.4478999347091399  0.0001884503906948
  0.7012259168788540  0.4477591372978813  0.5005734760153121
  0.7010545051836395  0.9479213471731223 -0.0002471465961339
  0.7011666714644103  0.9484020461010287  0.5000885004590585
  0.2018234145645247  0.3471124445045931  0.3538818309370119
  0.2030056729538910  0.3422006544331409  0.8547071631346683
  0.2020873049743747  0.8369083126560014  0.3570702082759267
  0.2027111279089603  0.8422371319068704  0.8528565244170475
  0.5359527171732322  0.3430949281336949  0.3541431991452534
  0.5348344142008605  0.3436563363175655  0.8544365861275401
  0.5359690553480386  0.8430372096892802  0.3544648889031914
  0.5360278683197207  0.8428739533020839  0.8536911594038127
  0.8696824614014756  0.3445727503991691  0.3531274957831591
  0.8691650521760639  0.3437008953987287  0.8554438247088012
  0.8690990516624805  0.8425630867450152  0.3546433954910899
  0.8691707904516915  0.8413294619457501  0.8527777999135789
 
  0.00000000E+00  0.00000000E+00  0.00000000E+00
  0.00000000E+00  0.00000000E+00  0.00000000E+00
  0.00000000E+00  0.00000000E+00  0.00000000E+00
  0.00000000E+00  0.00000000E+00  0.00000000E+00
  0.00000000E+00  0.00000000E+00  0.00000000E+00
  0.00000000E+00  0.00000000E+00  0.00000000E+00
  0.00000000E+00  0.00000000E+00  0.00000000E+00
  0.00000000E+00  0.00000000E+00  0.00000000E+00
  0.00000000E+00  0.00000000E+00  0.00000000E+00
  0.00000000E+00  0.00000000E+00  0.00000000E+00
  0.00000000E+00  0.00000000E+00  0.00000000E+00
  0.00000000E+00  0.00000000E+00  0.00000000E+00
  0.00000000E+00  0.00000000E+00  0.00000000E+00
  0.00000000E+00  0.00000000E+00  0.00000000E+00
  0.00000000E+00  0.00000000E+00  0.00000000E+00
  0.00000000E+00  0.00000000E+00  0.00000000E+00
  0.00000000E+00  0.00000000E+00  0.00000000E+00
  0.00000000E+00  0.00000000E+00  0.00000000E+00
  0.00000000E+00  0.00000000E+00  0.00000000E+00
  0.00000000E+00  0.00000000E+00  0.00000000E+00
  0.00000000E+00  0.00000000E+00  0.00000000E+00
  0.00000000E+00  0.00000000E+00  0.00000000E+00
  0.00000000E+00  0.00000000E+00  0.00000000E+00
  0.00000000E+00  0.00000000E+00  0.00000000E+00
  0.00000000E+00  0.00000000E+00  0.00000000E+00
  0.00000000E+00  0.00000000E+00  0.00000000E+00
  0.00000000E+00  0.00000000E+00  0.00000000E+00
  0.00000000E+00  0.00000000E+00  0.00000000E+00
  0.00000000E+00  0.00000000E+00  0.00000000E+00
  0.00000000E+00  0.00000000E+00  0.00000000E+00
  0.00000000E+00  0.00000000E+00  0.00000000E+00
  0.00000000E+00  0.00000000E+00  0.00000000E+00
  0.00000000E+00  0.00000000E+00  0.00000000E+00
  0.00000000E+00  0.00000000E+00  0.00000000E+00
  0.00000000E+00  0.00000000E+00  0.00000000E+00
  0.00000000E+00  0.00000000E+00  0.00000000E+00
  0.00000000E+00  0.00000000E+00  0.00000000E+00
  0.00000000E+00  0.00000000E+00  0.00000000E+00
  0.00000000E+00  0.00000000E+00  0.00000000E+00
  0.00000000E+00  0.00000000E+00  0.00000000E+00
  0.00000000E+00  0.00000000E+00  0.00000000E+00
  0.00000000E+00  0.00000000E+00  0.00000000E+00
  0.00000000E+00  0.00000000E+00  0.00000000E+00
  0.00000000E+00  0.00000000E+00  0.00000000E+00
  0.00000000E+00  0.00000000E+00  0.00000000E+00
  0.00000000E+00  0.00000000E+00  0.00000000E+00
  0.00000000E+00  0.00000000E+00  0.00000000E+00
  0.00000000E+00  0.00000000E+00  0.00000000E+00
  0.00000000E+00  0.00000000E+00  0.00000000E+00
  0.00000000E+00  0.00000000E+00  0.00000000E+00
  0.00000000E+00  0.00000000E+00  0.00000000E+00
  0.00000000E+00  0.00000000E+00  0.00000000E+00
  0.00000000E+00  0.00000000E+00  0.00000000E+00
  0.00000000E+00  0.00000000E+00  0.00000000E+00
  0.00000000E+00  0.00000000E+00  0.00000000E+00
  0.00000000E+00  0.00000000E+00  0.00000000E+00
  0.00000000E+00  0.00000000E+00  0.00000000E+00
  0.00000000E+00  0.00000000E+00  0.00000000E+00
  0.00000000E+00  0.00000000E+00  0.00000000E+00
  0.00000000E+00  0.00000000E+00  0.00000000E+00
  0.00000000E+00  0.00000000E+00  0.00000000E+00
  0.00000000E+00  0.00000000E+00  0.00000000E+00
  0.00000000E+00  0.00000000E+00  0.00000000E+00
  0.00000000E+00  0.00000000E+00  0.00000000E+00
  0.00000000E+00  0.00000000E+00  0.00000000E+00
  0.00000000E+00  0.00000000E+00  0.00000000E+00
  0.00000000E+00  0.00000000E+00  0.00000000E+00
  0.00000000E+00  0.00000000E+00  0.00000000E+00
  0.00000000E+00  0.00000000E+00  0.00000000E+00
  0.00000000E+00  0.00000000E+00  0.00000000E+00
  0.00000000E+00  0.00000000E+00  0.00000000E+00
  0.00000000E+00  0.00000000E+00  0.00000000E+00
  0.00000000E+00  0.00000000E+00  0.00000000E+00
  0.00000000E+00  0.00000000E+00  0.00000000E+00
  0.00000000E+00  0.00000000E+00  0.00000000E+00
  0.00000000E+00  0.00000000E+00  0.00000000E+00
  0.00000000E+00  0.00000000E+00  0.00000000E+00
  0.00000000E+00  0.00000000E+00  0.00000000E+00
  0.00000000E+00  0.00000000E+00  0.00000000E+00
  0.00000000E+00  0.00000000E+00  0.00000000E+00
  0.00000000E+00  0.00000000E+00  0.00000000E+00
  0.00000000E+00  0.00000000E+00  0.00000000E+00
  0.00000000E+00  0.00000000E+00  0.00000000E+00
  0.00000000E+00  0.00000000E+00  0.00000000E+00
  0.00000000E+00  0.00000000E+00  0.00000000E+00
  0.00000000E+00  0.00000000E+00  0.00000000E+00
  0.00000000E+00  0.00000000E+00  0.00000000E+00
  0.00000000E+00  0.00000000E+00  0.00000000E+00
  0.00000000E+00  0.00000000E+00  0.00000000E+00
  0.00000000E+00  0.00000000E+00  0.00000000E+00
  0.00000000E+00  0.00000000E+00  0.00000000E+00
  0.00000000E+00  0.00000000E+00  0.00000000E+00
  0.00000000E+00  0.00000000E+00  0.00000000E+00
  0.00000000E+00  0.00000000E+00  0.00000000E+00
  0.00000000E+00  0.00000000E+00  0.00000000E+00
  0.00000000E+00  0.00000000E+00  0.00000000E+00
  0.00000000E+00  0.00000000E+00  0.00000000E+00
  0.00000000E+00  0.00000000E+00  0.00000000E+00
  0.00000000E+00  0.00000000E+00  0.00000000E+00
  0.00000000E+00  0.00000000E+00  0.00000000E+00
  0.00000000E+00  0.00000000E+00  0.00000000E+00
  0.00000000E+00  0.00000000E+00  0.00000000E+00
  0.00000000E+00  0.00000000E+00  0.00000000E+00
  0.00000000E+00  0.00000000E+00  0.00000000E+00
  0.00000000E+00  0.00000000E+00  0.00000000E+00
  0.00000000E+00  0.00000000E+00  0.00000000E+00
  0.00000000E+00  0.00000000E+00  0.00000000E+00
  0.00000000E+00  0.00000000E+00  0.00000000E+00
  0.00000000E+00  0.00000000E+00  0.00000000E+00
  0.00000000E+00  0.00000000E+00  0.00000000E+00
  0.00000000E+00  0.00000000E+00  0.00000000E+00
  0.00000000E+00  0.00000000E+00  0.00000000E+00
  0.00000000E+00  0.00000000E+00  0.00000000E+00
  0.00000000E+00  0.00000000E+00  0.00000000E+00
  0.00000000E+00  0.00000000E+00  0.00000000E+00
  0.00000000E+00  0.00000000E+00  0.00000000E+00
  0.00000000E+00  0.00000000E+00  0.00000000E+00
  0.00000000E+00  0.00000000E+00  0.00000000E+00
  0.00000000E+00  0.00000000E+00  0.00000000E+00
  0.00000000E+00  0.00000000E+00  0.00000000E+00
  0.00000000E+00  0.00000000E+00  0.00000000E+00
  0.00000000E+00  0.00000000E+00  0.00000000E+00
  0.00000000E+00  0.00000000E+00  0.00000000E+00
  0.00000000E+00  0.00000000E+00  0.00000000E+00
  0.00000000E+00  0.00000000E+00  0.00000000E+00
  0.00000000E+00  0.00000000E+00  0.00000000E+00
  0.00000000E+00  0.00000000E+00  0.00000000E+00
  0.00000000E+00  0.00000000E+00  0.00000000E+00
  0.00000000E+00  0.00000000E+00  0.00000000E+00
  0.00000000E+00  0.00000000E+00  0.00000000E+00
  0.00000000E+00  0.00000000E+00  0.00000000E+00
  0.00000000E+00  0.00000000E+00  0.00000000E+00
  0.00000000E+00  0.00000000E+00  0.00000000E+00
  0.00000000E+00  0.00000000E+00  0.00000000E+00
  0.00000000E+00  0.00000000E+00  0.00000000E+00
  0.00000000E+00  0.00000000E+00  0.00000000E+00
  0.00000000E+00  0.00000000E+00  0.00000000E+00
  0.00000000E+00  0.00000000E+00  0.00000000E+00
  0.00000000E+00  0.00000000E+00  0.00000000E+00
  0.00000000E+00  0.00000000E+00  0.00000000E+00
  0.00000000E+00  0.00000000E+00  0.00000000E+00
  0.00000000E+00  0.00000000E+00  0.00000000E+00
  0.00000000E+00  0.00000000E+00  0.00000000E+00
  0.00000000E+00  0.00000000E+00  0.00000000E+00
  0.00000000E+00  0.00000000E+00  0.00000000E+00
  0.00000000E+00  0.00000000E+00  0.00000000E+00
  0.00000000E+00  0.00000000E+00  0.00000000E+00
  0.00000000E+00  0.00000000E+00  0.00000000E+00
  0.00000000E+00  0.00000000E+00  0.00000000E+00
  0.00000000E+00  0.00000000E+00  0.00000000E+00
  0.00000000E+00  0.00000000E+00  0.00000000E+00
  0.00000000E+00  0.00000000E+00  0.00000000E+00
  0.00000000E+00  0.00000000E+00  0.00000000E+00
  0.00000000E+00  0.00000000E+00  0.00000000E+00
  0.00000000E+00  0.00000000E+00  0.00000000E+00
  0.00000000E+00  0.00000000E+00  0.00000000E+00
  0.00000000E+00  0.00000000E+00  0.00000000E+00
  0.00000000E+00  0.00000000E+00  0.00000000E+00
  0.00000000E+00  0.00000000E+00  0.00000000E+00
  0.00000000E+00  0.00000000E+00  0.00000000E+00
  0.00000000E+00  0.00000000E+00  0.00000000E+00
  0.00000000E+00  0.00000000E+00  0.00000000E+00
  0.00000000E+00  0.00000000E+00  0.00000000E+00
  0.00000000E+00  0.00000000E+00  0.00000000E+00
  0.00000000E+00  0.00000000E+00  0.00000000E+00
  0.00000000E+00  0.00000000E+00  0.00000000E+00
  0.00000000E+00  0.00000000E+00  0.00000000E+00
  0.00000000E+00  0.00000000E+00  0.00000000E+00
  0.00000000E+00  0.00000000E+00  0.00000000E+00
  0.00000000E+00  0.00000000E+00  0.00000000E+00
  0.00000000E+00  0.00000000E+00  0.00000000E+00
  0.00000000E+00  0.00000000E+00  0.00000000E+00
  0.00000000E+00  0.00000000E+00  0.00000000E+00
  0.00000000E+00  0.00000000E+00  0.00000000E+00
  0.00000000E+00  0.00000000E+00  0.00000000E+00
  0.00000000E+00  0.00000000E+00  0.00000000E+00
  0.00000000E+00  0.00000000E+00  0.00000000E+00
  0.00000000E+00  0.00000000E+00  0.00000000E+00
  0.00000000E+00  0.00000000E+00  0.00000000E+00
  0.00000000E+00  0.00000000E+00  0.00000000E+00
  0.00000000E+00  0.00000000E+00  0.00000000E+00
  0.00000000E+00  0.00000000E+00  0.00000000E+00
  0.00000000E+00  0.00000000E+00  0.00000000E+00
  0.00000000E+00  0.00000000E+00  0.00000000E+00
  0.00000000E+00  0.00000000E+00  0.00000000E+00
  0.00000000E+00  0.00000000E+00  0.00000000E+00
  0.00000000E+00  0.00000000E+00  0.00000000E+00
  0.00000000E+00  0.00000000E+00  0.00000000E+00
  0.00000000E+00  0.00000000E+00  0.00000000E+00
  0.00000000E+00  0.00000000E+00  0.00000000E+00
