Li42 P14 O56
1.0
5.296402 0.000000 -4.922448
0.000000 6.176136 -4.922448
0.000000 0.000000 68.914272
Li P O
42 14 56
direct
0.844520 0.000000 0.005020 Li+
0.155480 0.500000 0.027231 Li+
0.326434 0.747127 0.021305 Li+
0.673566 0.752873 0.010796 Li+
0.673566 0.247127 0.046100 Li+
0.326434 0.252873 0.057429 Li+
0.844520 0.000000 0.076448 Li+
0.155480 0.500000 0.098660 Li+
0.326434 0.747127 0.092733 Li+
0.673566 0.752873 0.082225 Li+
0.673566 0.247127 0.117528 Li+
0.326434 0.252873 0.128858 Li+
0.844520 0.000000 0.147877 Li+
0.155480 0.500000 0.170088 Li+
0.326434 0.747127 0.164162 Li+
0.673566 0.752873 0.153653 Li+
0.673566 0.247127 0.188957 Li+
0.326434 0.252873 0.200287 Li+
0.844520 0.000000 0.219306 Li+
0.155480 0.500000 0.241517 Li+
0.326434 0.747127 0.235590 Li+
0.673566 0.752873 0.225082 Li+
0.673566 0.247127 0.260385 Li+
0.326434 0.252873 0.271715 Li+
0.844520 0.000000 0.290734 Li+
0.155480 0.500000 0.312946 Li+
0.326434 0.747127 0.307019 Li+
0.673566 0.752873 0.296510 Li+
0.673566 0.247127 0.331814 Li+
0.326434 0.252873 0.343144 Li+
0.844520 0.000000 0.362163 Li+
0.155480 0.500000 0.384374 Li+
0.326434 0.747127 0.378447 Li+
0.673566 0.752873 0.367939 Li+
0.673566 0.247127 0.403243 Li+
0.326434 0.252873 0.414572 Li+
0.844520 0.000000 0.433591 Li+
0.155480 0.500000 0.455803 Li+
0.326434 0.747127 0.449876 Li+
0.673566 0.752873 0.439367 Li+
0.673566 0.247127 0.474671 Li+
0.326434 0.252873 0.486001 Li+
0.824261 0.500000 0.038716 P5+
0.175739 0.000000 0.063821 P5+
0.824261 0.500000 0.110144 P5+
0.175739 0.000000 0.135250 P5+
0.824261 0.500000 0.181573 P5+
0.175739 0.000000 0.206679 P5+
0.824261 0.500000 0.253002 P5+
0.175739 0.000000 0.278107 P5+
0.824261 0.500000 0.324430 P5+
0.175739 0.000000 0.349536 P5+
0.824261 0.500000 0.395859 P5+
0.175739 0.000000 0.420964 P5+
0.824261 0.500000 0.467287 P5+
0.175739 0.000000 0.492393 P5+
0.313509 0.207138 0.024571 O2-
0.103508 0.500000 0.065855 O2-
0.818396 0.500000 0.015709 O2-
0.181604 0.000000 0.041653 O2-
0.686491 0.707138 0.051213 O2-
0.313509 0.792862 0.066409 O2-
0.896492 0.000000 0.051068 O2-
0.686491 0.292862 0.021622 O2-
0.313509 0.207138 0.096000 O2-
0.103508 0.500000 0.137284 O2-
0.818396 0.500000 0.087138 O2-
0.181604 0.000000 0.113081 O2-
0.686491 0.707138 0.122641 O2-
0.313509 0.792862 0.137837 O2-
0.896492 0.000000 0.122497 O2-
0.686491 0.292862 0.093050 O2-
0.313509 0.207138 0.167428 O2-
0.103508 0.500000 0.208712 O2-
0.818396 0.500000 0.158566 O2-
0.181604 0.000000 0.184510 O2-
0.686491 0.707138 0.194070 O2-
0.313509 0.792862 0.209266 O2-
0.896492 0.000000 0.193926 O2-
0.686491 0.292862 0.164479 O2-
0.313509 0.207138 0.238857 O2-
0.103508 0.500000 0.280141 O2-
0.818396 0.500000 0.229995 O2-
0.181604 0.000000 0.255938 O2-
0.686491 0.707138 0.265499 O2-
0.313509 0.792862 0.280694 O2-
0.896492 0.000000 0.265354 O2-
0.686491 0.292862 0.235907 O2-
0.313509 0.207138 0.310286 O2-
0.103508 0.500000 0.351570 O2-
0.818396 0.500000 0.301423 O2-
0.181604 0.000000 0.327367 O2-
0.686491 0.707138 0.336927 O2-
0.313509 0.792862 0.352123 O2-
0.896492 0.000000 0.336783 O2-
0.686491 0.292862 0.307336 O2-
0.313509 0.207138 0.381714 O2-
0.103508 0.500000 0.422998 O2-
0.818396 0.500000 0.372852 O2-
0.181604 0.000000 0.398795 O2-
0.686491 0.707138 0.408356 O2-
0.313509 0.792862 0.423552 O2-
0.896492 0.000000 0.408211 O2-
0.686491 0.292862 0.378765 O2-
0.313509 0.207138 0.453143 O2-
0.103508 0.500000 0.494427 O2-
0.818396 0.500000 0.444281 O2-
0.181604 0.000000 0.470224 O2-
0.686491 0.707138 0.479784 O2-
0.313509 0.792862 0.494980 O2-
0.896492 0.000000 0.479640 O2-
0.686491 0.292862 0.450193 O2-
