Li71 P24 N1 O94                         
   1.00000000000000     
    14.7143730565015378   -0.0030350012959911    0.0039562644458446
    -0.0021700444816389   10.5712914313821518   -0.0032338838825232
     0.0033180826985792   -0.0038088540425717   12.2997563510959420
   Li   P    N    O 
    71    24     1    94
Direct
  0.1708823641928299  0.4191078323978994 -0.0022887460569580
  0.1701193683497043  0.4234643613860035  0.5028418287111917
  0.1653880994678369  0.9270428079486680  0.0079899629315718
  0.1711452599445640  0.9230253861467731  0.5003341191388947
  0.5025848084897604  0.4213846898462378 -0.0005589156957972
  0.5030112799739315  0.4220771936147072  0.5005733848660141
  0.5066749368753322  0.9225863308997900 -0.0003846014216713
  0.5024816494605990  0.9230707818516609  0.4998108707533646
  0.8355352645049023  0.4226756475692895 -0.0011525923926430
  0.8344160494526068  0.4223794989566364  0.5012515951159521
  0.8357808832127629  0.9199048609393450 -0.0013273197881395
  0.8365216001243387  0.9228378099669997  0.4999050389292486
  0.0088296877855158  0.0752008927571440  0.2459067476130333
  0.0028383807911959  0.0764526713843701  0.7511774558410995
 -0.0058514596696539  0.6115785610455257  0.2497420143845240
  0.0032817063198667  0.5787294313097751  0.7502536633054719
  0.3323866402271761  0.0766676399709673  0.2458862644482006
  0.3368384077601193  0.0774897223618147  0.7521815249429902
  0.3402034822227891  0.5813824480693994  0.2498815082200956
  0.3366132304583954  0.5773736348916968  0.7508197416152613
  0.6706599589494714  0.0766550195446355  0.2494834810006158
  0.6703088200853894  0.0765329362904702  0.7495803509195005
  0.6685320330551503  0.5775425444274483  0.2498521573545566
  0.6689063224805608  0.5780919018082488  0.7500860848100999
  0.1699885425594866  0.1634363895691145  0.6274550397607390
  0.1703372386662600  0.6651473947600585  0.1249189366421272
  0.1703328144761788  0.6652757434284665  0.6269782090110054
  0.5037802623235855  0.1622464203664020  0.1266788556278245
  0.5026143314394904  0.1629734292998928  0.6266241442090579
  0.5026208641789500  0.6639059673097877  0.1256321307629319
  0.5025369063072310  0.6634932341072215  0.6264861244704772
  0.8399280301904619  0.1610901157474720  0.1255295363633164
  0.8362718277539133  0.1630727111912420  0.6259914920861127
  0.8341543417370325  0.6634777292345591  0.1249511388016030
  0.8355650090007495  0.6635420096859042  0.6265323759651403
  0.0017967105672965  0.3281135196947216  0.1100192828981875
  0.0027913671000477  0.3365667505156438  0.6256707310415215
  0.0032456940408781  0.8400643878271763  0.1224944845389209
  0.0032386479958842  0.8370109749908522  0.6243126234078515
  0.3355631121266803  0.3319204659877702  0.1208861925290219
  0.3363286496844640  0.3362288028681323  0.6245429561750369
  0.3365973976378915  0.8391070809801824  0.1216080049548466
  0.3362488019185204  0.8374179610124909  0.6241827186791076
  0.6698814156710597  0.3359920216569885  0.1237854004610236
  0.6688481501465764  0.3365690225821265  0.6238697376262123
  0.6697591859907727  0.8368192216321615  0.1240375248859572
  0.6690729835197164  0.8368238420081784  0.6227686632992955
 -0.0014841708796960  0.3285968794488292  0.3901472705685991
  0.0019907613109611  0.3366428420880662  0.8747149217428313
  0.0035626824394089  0.8396951836016158  0.3783911100474393
  0.0027939806545068  0.8372606437592284  0.8764194200198685
  0.3396293791515156  0.3356035558496861  0.3776602139265955
  0.3360792256230662  0.3320255378458694  0.8766429892060631
  0.3352720472283562  0.8372021576903056  0.3760414891490707
  0.3368414105072791  0.8383108943169675  0.8782245904600762
  0.6687448728660718  0.3364748091968376  0.3756489684962624
  0.6698022651920468  0.3366776844646631  0.8759893863913627
  0.6689866050888105  0.8370657876497181  0.3763995935369238
  0.6699915762929588  0.8366638365485104  0.8758592726494566
  0.1706189619391994  0.1593262494107068  0.3694227889016063
  0.1631343844992065  0.1684837118676723  0.8769419723263358
  0.1684014432386552  0.6647385344346033  0.3784380392570315
  0.1705158305104933  0.6646563634321637  0.8742348444954859
  0.5022746809121521  0.1622744256666665  0.3729891298381970
  0.5064403483799536  0.1623505805238426  0.8730163081962060
  0.5028204761074373  0.6640255149032090  0.3741910877259453
  0.5024611694732374  0.6635007289708406  0.8736497511012725
  0.8364694291471199  0.1616437336338174  0.3722846352791735
  0.8357765895280612  0.1625852212915473  0.8713382049847268
  0.8339517200456420  0.6640160960172892  0.3756962555597223
  0.8361675626251308  0.6629832047501308  0.8731510090291297
  0.1718209115255792  0.4161634083829032  0.2494052501787277
  0.1669103076503083  0.4139885364324561  0.7492374540856440
  0.1683103619182051  0.9088261642054429  0.2530216072630231
  0.1671589989349503  0.9129299194068227  0.7513467080942177
  0.4995298848051560  0.4121091687077225  0.2496455628296346
  0.5004658246705364  0.4123081261372127  0.7500815321744032
  0.5009150570843924  0.9118126711729344  0.2501995655559052
  0.5012723689825224  0.9115941050636546  0.7493794924392594
  0.8359324808308469  0.4135400671399545  0.2497846880825145
  0.8335611789895234  0.4129809804445122  0.7496323844960736
  0.8344582393134684  0.9107861614579035  0.2505704135184526
  0.8338262530291751  0.9111443341363087  0.7486105096624593
 -0.0047117478825573  0.0869808914537453 -0.0001742214071135
  0.0009212066337227  0.0878225539205334  0.5003789611778663
  0.0002854337701760  0.5876294647173703  0.0003165139754926
 -0.0005950829496657  0.5873247858391881  0.4997282473077376
  0.3380333546311043  0.0865363398546748 -0.0012670908879799
  0.3333965892218255  0.0884258892784110  0.5001834811993763
  0.3336981712487420  0.5868506313329049 -0.0001610554452598
  0.3338462224688168  0.5875862988744806  0.5005706742934125
  0.6687958289888098  0.0880716590417932  0.0000864864131578
  0.6673972661023604  0.0884920170686564  0.4996369672800487
  0.6669182789381486  0.5873328777973758  0.0001067481783997
  0.6665070296946951  0.5874390176158838  0.4998201164309876
  0.2283405983550623  0.0889173957303526 -0.0056878166865364
  0.0365748814844505  0.1568302239453185  0.3961363649457604
  0.0305412712450746  0.1579189921794803  0.8962045053005712
  0.0340635682720653  0.6561891526640686  0.3951829926614087
  0.0360047556343394  0.6566039405283912  0.8969116384381766
  0.3687687044797859  0.1577061013445942  0.3962536875531390
  0.3764028235956663  0.1549518258021833  0.8946015495181276
  0.3691671874326952  0.6564917198285936  0.3965551465936861
  0.3689846083101680  0.6564043216323908  0.8960613718983703
  0.7030070571523187  0.1577341691577117  0.3956250287982982
  0.7029653215914554  0.1568838690007320  0.8953200419687355
  0.7016224171374915  0.6564517488355798  0.3955919234803357
  0.7027697861117991  0.6565575476279701  0.8964783979285122
  0.2033271736163207  0.0454230276574811  0.2573965494349421
  0.2000006488384141  0.0532756094948365  0.7513479933667855
  0.1984509272596709  0.5583973419062317  0.2543759189287682
  0.2004371302264562  0.5539180604224844  0.7492003866383399
  0.5354292686893436  0.0514665665375355  0.2502285674913391
  0.5359271582661593  0.0511004366713130  0.7489489625361095
  0.5330132280991849  0.5522415517062976  0.2500214370967958
  0.5339893395237294  0.5524363275920513  0.7496756822923799
  0.8685513630848640  0.0501702308674236  0.2505860616652519
  0.8674925503895781  0.0510004075786649  0.7480933552623426
  0.8692224570550529  0.5539388510056129  0.2507270937785703
  0.8677941148511312  0.5526671436160655  0.7495233613353677
  0.0608593914619681  0.4112068889728573  0.7495019900451553
  0.0618199506007124  0.9049614827784456  0.2510055640238332
  0.0611002545061558  0.9090698039531221  0.7504076691174126
  0.3934670753290097  0.4091761412989378  0.2491543299863153
  0.3946572974121378  0.4091710027957736  0.7505582463888608
  0.3952577896895506  0.9089045899631216  0.2498712052217561
  0.3954845742739956  0.9090984865316347  0.7499763759818090
  0.7303259455591574  0.4097842643059268  0.2501332277543858
  0.7277925745332242  0.4105569332733714  0.7493717989620881
  0.7286089378803264  0.9082412586375906  0.2505045487077018
  0.7280100501850831  0.9083811072824602  0.7488644981793700
  0.2276028074887004  0.0920135212495405  0.5006455091530367
  0.2278352487476697  0.5896469966439726 -0.0000217239292589
  0.2279497334926130  0.5897745813176861  0.5010959397482008
  0.5631649076749847  0.0915008339946990  0.0009674113065729
  0.5616199071047916  0.0913563831040902  0.4996256932831424
  0.5611945959364624  0.5899321899595725 -0.0001800918290999
  0.5607976658080417  0.5900461371515765  0.5000748629585592
  0.8890296128106776  0.0857125729579353 -0.0048760602863178
  0.8950569118876767  0.0911937672020739  0.4993350339426642
  0.8945201019794113  0.5902901876750688  0.0002085115885154
  0.8937650379422644  0.5890865160032066  0.5003301292176364
  0.2013900938134025  0.3527103392278901  0.1435386182927531
  0.2017536159698332  0.3446404207646301  0.6450510070922112
  0.2033136656587735  0.8391701539680484  0.1488476829520154
  0.2024929383761753  0.8444101081229414  0.6466302358858508
  0.5358664647182316  0.3431859470715549  0.1461722279586860
  0.5355706528078014  0.3431639107888848  0.6458396923485226
  0.5371343999360342  0.8421095574852410  0.1468599638334471
  0.5358088636879624  0.8425261434761190  0.6447500313689888
  0.8724871154540315  0.3458109029210099  0.1459800909159373
  0.8690059402083806  0.3434616203494062  0.6456894602709100
  0.8696232879339433  0.8404542202911530  0.1469611132894363
  0.8691284970671023  0.8422327315138551  0.6443345296527548
  0.0231411876928886  0.1560136759543690  0.1051290533386904
  0.0355234232444606  0.1579788826250703  0.6041145122654813
  0.0354331329725624  0.6562319617173632  0.1049984473998015
  0.0356501582053934  0.6562247674558750  0.6029105146835093
  0.3713533879848611  0.1563860089860294  0.1038528801801503
  0.3690292853681781  0.1570567688075528  0.6043904794262518
  0.3689864633529364  0.6560852349373590  0.1039201118781117
  0.3690077495467153  0.6567146364917889  0.6044531285351733
  0.7048344582317628  0.1572418309061100  0.1038755554727608
  0.7028384765279038  0.1575725653917124  0.6036245349569389
  0.7019583297430827  0.6562453566664022  0.1044774258921067
  0.7022462139470627  0.6566059115200130  0.6034928762642149
  0.0342888650763600  0.4477255002441090  0.0009856913036006
  0.0340538020800254  0.4474359866583081  0.4982207491733944
  0.0302831440643423  0.9474851315600611 -0.0005084038954180
  0.0346273297204025  0.9482627041272663  0.5009706447910600
  0.3673535036581475  0.4468914335710316 -0.0003914551458985
  0.3673851482003169  0.4474786908847141  0.5002672201202510
  0.3759722958891175  0.9473419344249028 -0.0004949086461803
  0.3669760812365802  0.9484044811752919  0.4998698423708911
  0.7010427812302777  0.4475338032310885  0.0003532673619425
  0.7003614154464918  0.4474714770091112  0.4994170344142564
  0.7013288600240278  0.9474761062509457 -0.0000585858496507
  0.7012857888617872  0.9486458419404622  0.4995178940736496
  0.1996864115331860  0.3442033390537448  0.3546653524418917
  0.2020530017672435  0.3448106856494825  0.8525771529681277
  0.2011203053865272  0.8366539334275588  0.3574922993623444
  0.2023878700690473  0.8430874595411176  0.8546411672966842
  0.5346263751143072  0.3432089079801608  0.3538739940895492
  0.5367767827469743  0.3437359141035811  0.8536663750987004
  0.5358535691445494  0.8430029137564383  0.3547180566633363
  0.5373166392625547  0.8419872215816538  0.8526730163544194
  0.8722078786863631  0.3440655066697039  0.3533214691391284
  0.8685444412737475  0.3440246991416144  0.8536970219146747
  0.8696092619187685  0.8413087154753589  0.3547331708017610
  0.8690392221219071  0.8412666960282265  0.8521037143652146
 
  0.00000000E+00  0.00000000E+00  0.00000000E+00
  0.00000000E+00  0.00000000E+00  0.00000000E+00
  0.00000000E+00  0.00000000E+00  0.00000000E+00
  0.00000000E+00  0.00000000E+00  0.00000000E+00
  0.00000000E+00  0.00000000E+00  0.00000000E+00
  0.00000000E+00  0.00000000E+00  0.00000000E+00
  0.00000000E+00  0.00000000E+00  0.00000000E+00
  0.00000000E+00  0.00000000E+00  0.00000000E+00
  0.00000000E+00  0.00000000E+00  0.00000000E+00
  0.00000000E+00  0.00000000E+00  0.00000000E+00
  0.00000000E+00  0.00000000E+00  0.00000000E+00
  0.00000000E+00  0.00000000E+00  0.00000000E+00
  0.00000000E+00  0.00000000E+00  0.00000000E+00
  0.00000000E+00  0.00000000E+00  0.00000000E+00
  0.00000000E+00  0.00000000E+00  0.00000000E+00
  0.00000000E+00  0.00000000E+00  0.00000000E+00
  0.00000000E+00  0.00000000E+00  0.00000000E+00
  0.00000000E+00  0.00000000E+00  0.00000000E+00
  0.00000000E+00  0.00000000E+00  0.00000000E+00
  0.00000000E+00  0.00000000E+00  0.00000000E+00
  0.00000000E+00  0.00000000E+00  0.00000000E+00
  0.00000000E+00  0.00000000E+00  0.00000000E+00
  0.00000000E+00  0.00000000E+00  0.00000000E+00
  0.00000000E+00  0.00000000E+00  0.00000000E+00
  0.00000000E+00  0.00000000E+00  0.00000000E+00
  0.00000000E+00  0.00000000E+00  0.00000000E+00
  0.00000000E+00  0.00000000E+00  0.00000000E+00
  0.00000000E+00  0.00000000E+00  0.00000000E+00
  0.00000000E+00  0.00000000E+00  0.00000000E+00
  0.00000000E+00  0.00000000E+00  0.00000000E+00
  0.00000000E+00  0.00000000E+00  0.00000000E+00
  0.00000000E+00  0.00000000E+00  0.00000000E+00
  0.00000000E+00  0.00000000E+00  0.00000000E+00
  0.00000000E+00  0.00000000E+00  0.00000000E+00
  0.00000000E+00  0.00000000E+00  0.00000000E+00
  0.00000000E+00  0.00000000E+00  0.00000000E+00
  0.00000000E+00  0.00000000E+00  0.00000000E+00
  0.00000000E+00  0.00000000E+00  0.00000000E+00
  0.00000000E+00  0.00000000E+00  0.00000000E+00
  0.00000000E+00  0.00000000E+00  0.00000000E+00
  0.00000000E+00  0.00000000E+00  0.00000000E+00
  0.00000000E+00  0.00000000E+00  0.00000000E+00
  0.00000000E+00  0.00000000E+00  0.00000000E+00
  0.00000000E+00  0.00000000E+00  0.00000000E+00
  0.00000000E+00  0.00000000E+00  0.00000000E+00
  0.00000000E+00  0.00000000E+00  0.00000000E+00
  0.00000000E+00  0.00000000E+00  0.00000000E+00
  0.00000000E+00  0.00000000E+00  0.00000000E+00
  0.00000000E+00  0.00000000E+00  0.00000000E+00
  0.00000000E+00  0.00000000E+00  0.00000000E+00
  0.00000000E+00  0.00000000E+00  0.00000000E+00
  0.00000000E+00  0.00000000E+00  0.00000000E+00
  0.00000000E+00  0.00000000E+00  0.00000000E+00
  0.00000000E+00  0.00000000E+00  0.00000000E+00
  0.00000000E+00  0.00000000E+00  0.00000000E+00
  0.00000000E+00  0.00000000E+00  0.00000000E+00
  0.00000000E+00  0.00000000E+00  0.00000000E+00
  0.00000000E+00  0.00000000E+00  0.00000000E+00
  0.00000000E+00  0.00000000E+00  0.00000000E+00
  0.00000000E+00  0.00000000E+00  0.00000000E+00
  0.00000000E+00  0.00000000E+00  0.00000000E+00
  0.00000000E+00  0.00000000E+00  0.00000000E+00
  0.00000000E+00  0.00000000E+00  0.00000000E+00
  0.00000000E+00  0.00000000E+00  0.00000000E+00
  0.00000000E+00  0.00000000E+00  0.00000000E+00
  0.00000000E+00  0.00000000E+00  0.00000000E+00
  0.00000000E+00  0.00000000E+00  0.00000000E+00
  0.00000000E+00  0.00000000E+00  0.00000000E+00
  0.00000000E+00  0.00000000E+00  0.00000000E+00
  0.00000000E+00  0.00000000E+00  0.00000000E+00
  0.00000000E+00  0.00000000E+00  0.00000000E+00
  0.00000000E+00  0.00000000E+00  0.00000000E+00
  0.00000000E+00  0.00000000E+00  0.00000000E+00
  0.00000000E+00  0.00000000E+00  0.00000000E+00
  0.00000000E+00  0.00000000E+00  0.00000000E+00
  0.00000000E+00  0.00000000E+00  0.00000000E+00
  0.00000000E+00  0.00000000E+00  0.00000000E+00
  0.00000000E+00  0.00000000E+00  0.00000000E+00
  0.00000000E+00  0.00000000E+00  0.00000000E+00
  0.00000000E+00  0.00000000E+00  0.00000000E+00
  0.00000000E+00  0.00000000E+00  0.00000000E+00
  0.00000000E+00  0.00000000E+00  0.00000000E+00
  0.00000000E+00  0.00000000E+00  0.00000000E+00
  0.00000000E+00  0.00000000E+00  0.00000000E+00
  0.00000000E+00  0.00000000E+00  0.00000000E+00
  0.00000000E+00  0.00000000E+00  0.00000000E+00
  0.00000000E+00  0.00000000E+00  0.00000000E+00
  0.00000000E+00  0.00000000E+00  0.00000000E+00
  0.00000000E+00  0.00000000E+00  0.00000000E+00
  0.00000000E+00  0.00000000E+00  0.00000000E+00
  0.00000000E+00  0.00000000E+00  0.00000000E+00
  0.00000000E+00  0.00000000E+00  0.00000000E+00
  0.00000000E+00  0.00000000E+00  0.00000000E+00
  0.00000000E+00  0.00000000E+00  0.00000000E+00
  0.00000000E+00  0.00000000E+00  0.00000000E+00
  0.00000000E+00  0.00000000E+00  0.00000000E+00
  0.00000000E+00  0.00000000E+00  0.00000000E+00
  0.00000000E+00  0.00000000E+00  0.00000000E+00
  0.00000000E+00  0.00000000E+00  0.00000000E+00
  0.00000000E+00  0.00000000E+00  0.00000000E+00
  0.00000000E+00  0.00000000E+00  0.00000000E+00
  0.00000000E+00  0.00000000E+00  0.00000000E+00
  0.00000000E+00  0.00000000E+00  0.00000000E+00
  0.00000000E+00  0.00000000E+00  0.00000000E+00
  0.00000000E+00  0.00000000E+00  0.00000000E+00
  0.00000000E+00  0.00000000E+00  0.00000000E+00
  0.00000000E+00  0.00000000E+00  0.00000000E+00
  0.00000000E+00  0.00000000E+00  0.00000000E+00
  0.00000000E+00  0.00000000E+00  0.00000000E+00
  0.00000000E+00  0.00000000E+00  0.00000000E+00
  0.00000000E+00  0.00000000E+00  0.00000000E+00
  0.00000000E+00  0.00000000E+00  0.00000000E+00
  0.00000000E+00  0.00000000E+00  0.00000000E+00
  0.00000000E+00  0.00000000E+00  0.00000000E+00
  0.00000000E+00  0.00000000E+00  0.00000000E+00
  0.00000000E+00  0.00000000E+00  0.00000000E+00
  0.00000000E+00  0.00000000E+00  0.00000000E+00
  0.00000000E+00  0.00000000E+00  0.00000000E+00
  0.00000000E+00  0.00000000E+00  0.00000000E+00
  0.00000000E+00  0.00000000E+00  0.00000000E+00
  0.00000000E+00  0.00000000E+00  0.00000000E+00
  0.00000000E+00  0.00000000E+00  0.00000000E+00
  0.00000000E+00  0.00000000E+00  0.00000000E+00
  0.00000000E+00  0.00000000E+00  0.00000000E+00
  0.00000000E+00  0.00000000E+00  0.00000000E+00
  0.00000000E+00  0.00000000E+00  0.00000000E+00
  0.00000000E+00  0.00000000E+00  0.00000000E+00
  0.00000000E+00  0.00000000E+00  0.00000000E+00
  0.00000000E+00  0.00000000E+00  0.00000000E+00
  0.00000000E+00  0.00000000E+00  0.00000000E+00
  0.00000000E+00  0.00000000E+00  0.00000000E+00
  0.00000000E+00  0.00000000E+00  0.00000000E+00
  0.00000000E+00  0.00000000E+00  0.00000000E+00
  0.00000000E+00  0.00000000E+00  0.00000000E+00
  0.00000000E+00  0.00000000E+00  0.00000000E+00
  0.00000000E+00  0.00000000E+00  0.00000000E+00
  0.00000000E+00  0.00000000E+00  0.00000000E+00
  0.00000000E+00  0.00000000E+00  0.00000000E+00
  0.00000000E+00  0.00000000E+00  0.00000000E+00
  0.00000000E+00  0.00000000E+00  0.00000000E+00
  0.00000000E+00  0.00000000E+00  0.00000000E+00
  0.00000000E+00  0.00000000E+00  0.00000000E+00
  0.00000000E+00  0.00000000E+00  0.00000000E+00
  0.00000000E+00  0.00000000E+00  0.00000000E+00
  0.00000000E+00  0.00000000E+00  0.00000000E+00
  0.00000000E+00  0.00000000E+00  0.00000000E+00
  0.00000000E+00  0.00000000E+00  0.00000000E+00
  0.00000000E+00  0.00000000E+00  0.00000000E+00
  0.00000000E+00  0.00000000E+00  0.00000000E+00
  0.00000000E+00  0.00000000E+00  0.00000000E+00
  0.00000000E+00  0.00000000E+00  0.00000000E+00
  0.00000000E+00  0.00000000E+00  0.00000000E+00
  0.00000000E+00  0.00000000E+00  0.00000000E+00
  0.00000000E+00  0.00000000E+00  0.00000000E+00
  0.00000000E+00  0.00000000E+00  0.00000000E+00
  0.00000000E+00  0.00000000E+00  0.00000000E+00
  0.00000000E+00  0.00000000E+00  0.00000000E+00
  0.00000000E+00  0.00000000E+00  0.00000000E+00
  0.00000000E+00  0.00000000E+00  0.00000000E+00
  0.00000000E+00  0.00000000E+00  0.00000000E+00
  0.00000000E+00  0.00000000E+00  0.00000000E+00
  0.00000000E+00  0.00000000E+00  0.00000000E+00
  0.00000000E+00  0.00000000E+00  0.00000000E+00
  0.00000000E+00  0.00000000E+00  0.00000000E+00
  0.00000000E+00  0.00000000E+00  0.00000000E+00
  0.00000000E+00  0.00000000E+00  0.00000000E+00
  0.00000000E+00  0.00000000E+00  0.00000000E+00
  0.00000000E+00  0.00000000E+00  0.00000000E+00
  0.00000000E+00  0.00000000E+00  0.00000000E+00
  0.00000000E+00  0.00000000E+00  0.00000000E+00
  0.00000000E+00  0.00000000E+00  0.00000000E+00
  0.00000000E+00  0.00000000E+00  0.00000000E+00
  0.00000000E+00  0.00000000E+00  0.00000000E+00
  0.00000000E+00  0.00000000E+00  0.00000000E+00
  0.00000000E+00  0.00000000E+00  0.00000000E+00
  0.00000000E+00  0.00000000E+00  0.00000000E+00
  0.00000000E+00  0.00000000E+00  0.00000000E+00
  0.00000000E+00  0.00000000E+00  0.00000000E+00
  0.00000000E+00  0.00000000E+00  0.00000000E+00
  0.00000000E+00  0.00000000E+00  0.00000000E+00
  0.00000000E+00  0.00000000E+00  0.00000000E+00
  0.00000000E+00  0.00000000E+00  0.00000000E+00
  0.00000000E+00  0.00000000E+00  0.00000000E+00
  0.00000000E+00  0.00000000E+00  0.00000000E+00
  0.00000000E+00  0.00000000E+00  0.00000000E+00
  0.00000000E+00  0.00000000E+00  0.00000000E+00
  0.00000000E+00  0.00000000E+00  0.00000000E+00
  0.00000000E+00  0.00000000E+00  0.00000000E+00
  0.00000000E+00  0.00000000E+00  0.00000000E+00
  0.00000000E+00  0.00000000E+00  0.00000000E+00
