Li1 O8
1.0
4.555217 0.034031 1.870520
1.935479 4.363873 1.499448
0.548832 -0.340821 4.961898
Li O
1 8
direct
0.492984 0.804430 0.804430 Li
0.841361 0.333115 0.820647 O
0.151779 0.231386 0.699762 O
0.151779 0.699762 0.231386 O
0.841361 0.820647 0.333115 O
0.837960 0.256273 0.256273 O
0.154752 0.741977 0.741977 O
0.143998 0.152143 0.152143 O
0.842360 0.865028 0.865028 O
