Li140 P140 O420
1.0
13.312980 0.000000 -5.521558
2.677750 16.540545 0.000000
0.000000 0.000000 60.737138
Li P O
140 140 420
direct
0.944698 0.181780 0.022061 Li+
0.444698 0.681780 0.066535 Li+
0.822834 0.065996 0.011909 Li+
0.322834 0.565996 0.054530 Li+
0.702414 0.950543 0.089928 Li+
0.202414 0.450543 0.045525 Li+
0.582845 0.835452 0.078928 Li+
0.082845 0.335452 0.034786 Li+
0.512460 0.758434 0.028387 Li+
0.012460 0.258434 0.072530 Li+
0.942549 0.681714 0.019449 Li+
0.442549 0.181714 0.068757 Li+
0.821455 0.566270 0.012520 Li+
0.321455 0.066270 0.053668 Li+
0.702271 0.449547 0.087418 Li+
0.202271 0.949547 0.048009 Li+
0.582496 0.332984 0.081576 Li+
0.082496 0.832984 0.032074 Li+
0.510463 0.256366 0.031105 Li+
0.010463 0.756366 0.069449 Li+
0.944698 0.181780 0.112970 Li+
0.444698 0.681780 0.157444 Li+
0.822834 0.065996 0.102818 Li+
0.322834 0.565996 0.145440 Li+
0.702414 0.950543 0.180837 Li+
0.202414 0.450543 0.136435 Li+
0.582845 0.835452 0.169837 Li+
0.082845 0.335452 0.125696 Li+
0.512460 0.758434 0.119296 Li+
0.012460 0.258434 0.163439 Li+
0.942549 0.681714 0.110358 Li+
0.442549 0.181714 0.159666 Li+
0.821455 0.566270 0.103429 Li+
0.321455 0.066270 0.144577 Li+
0.702271 0.449547 0.178328 Li+
0.202271 0.949547 0.138918 Li+
0.582496 0.332984 0.172486 Li+
0.082496 0.832984 0.122983 Li+
0.510463 0.256366 0.122014 Li+
0.010463 0.756366 0.160358 Li+
0.944698 0.181780 0.203879 Li+
0.444698 0.681780 0.248353 Li+
0.822834 0.065996 0.193727 Li+
0.322834 0.565996 0.236349 Li+
0.702414 0.950543 0.271747 Li+
0.202414 0.450543 0.227344 Li+
0.582845 0.835452 0.260746 Li+
0.082845 0.335452 0.216605 Li+
0.512460 0.758434 0.210205 Li+
0.012460 0.258434 0.254348 Li+
0.942549 0.681714 0.201267 Li+
0.442549 0.181714 0.250575 Li+
0.821455 0.566270 0.194339 Li+
0.321455 0.066270 0.235486 Li+
0.702271 0.449547 0.269237 Li+
0.202271 0.949547 0.229828 Li+
0.582496 0.332984 0.263395 Li+
0.082496 0.832984 0.213892 Li+
0.510463 0.256366 0.212923 Li+
0.010463 0.756366 0.251267 Li+
0.944698 0.181780 0.294788 Li+
0.444698 0.681780 0.339262 Li+
0.822834 0.065996 0.284636 Li+
0.322834 0.565996 0.327258 Li+
0.702414 0.950543 0.362656 Li+
0.202414 0.450543 0.318253 Li+
0.582845 0.835452 0.351655 Li+
0.082845 0.335452 0.307514 Li+
0.512460 0.758434 0.301114 Li+
0.012460 0.258434 0.345257 Li+
0.942549 0.681714 0.292176 Li+
0.442549 0.181714 0.341484 Li+
0.821455 0.566270 0.285248 Li+
0.321455 0.066270 0.326395 Li+
0.702271 0.449547 0.360146 Li+
0.202271 0.949547 0.320737 Li+
0.582496 0.332984 0.354304 Li+
0.082496 0.832984 0.304801 Li+
0.510463 0.256366 0.303832 Li+
0.010463 0.756366 0.342176 Li+
0.944698 0.181780 0.385698 Li+
0.444698 0.681780 0.430172 Li+
0.822834 0.065996 0.375545 Li+
0.322834 0.565996 0.418167 Li+
0.702414 0.950543 0.453565 Li+
0.202414 0.450543 0.409162 Li+
0.582845 0.835452 0.442564 Li+
0.082845 0.335452 0.398423 Li+
0.512460 0.758434 0.392024 Li+
0.012460 0.258434 0.436166 Li+
0.942549 0.681714 0.383085 Li+
0.442549 0.181714 0.432393 Li+
0.821455 0.566270 0.376157 Li+
0.321455 0.066270 0.417305 Li+
0.702271 0.449547 0.451055 Li+
0.202271 0.949547 0.411646 Li+
0.582496 0.332984 0.445213 Li+
0.082496 0.832984 0.395710 Li+
0.510463 0.256366 0.394741 Li+
0.010463 0.756366 0.433085 Li+
0.944698 0.181780 0.476607 Li+
0.444698 0.681780 0.521081 Li+
0.822834 0.065996 0.466454 Li+
0.322834 0.565996 0.509076 Li+
0.702414 0.950543 0.544474 Li+
0.202414 0.450543 0.500071 Li+
0.582845 0.835452 0.533473 Li+
0.082845 0.335452 0.489332 Li+
0.512460 0.758434 0.482933 Li+
0.012460 0.258434 0.527075 Li+
0.942549 0.681714 0.473994 Li+
0.442549 0.181714 0.523302 Li+
0.821455 0.566270 0.467066 Li+
0.321455 0.066270 0.508214 Li+
0.702271 0.449547 0.541964 Li+
0.202271 0.949547 0.502555 Li+
0.582496 0.332984 0.536122 Li+
0.082496 0.832984 0.486620 Li+
0.510463 0.256366 0.485651 Li+
0.010463 0.756366 0.523994 Li+
0.944698 0.181780 0.567516 Li+
0.444698 0.681780 0.611990 Li+
0.822834 0.065996 0.557363 Li+
0.322834 0.565996 0.599985 Li+
0.702414 0.950543 0.635383 Li+
0.202414 0.450543 0.590980 Li+
0.582845 0.835452 0.624382 Li+
0.082845 0.335452 0.580241 Li+
0.512460 0.758434 0.573842 Li+
0.012460 0.258434 0.617984 Li+
0.942549 0.681714 0.564903 Li+
0.442549 0.181714 0.614211 Li+
0.821455 0.566270 0.557975 Li+
0.321455 0.066270 0.599123 Li+
0.702271 0.449547 0.632873 Li+
0.202271 0.949547 0.593464 Li+
0.582496 0.332984 0.627031 Li+
0.082496 0.832984 0.577529 Li+
0.510463 0.256366 0.576560 Li+
0.010463 0.756366 0.614903 Li+
0.001192 0.999587 0.055309 P5+
0.501192 0.499587 0.043559 P5+
0.887667 0.906720 0.076085 P5+
0.387667 0.406720 0.002142 P5+
0.795924 0.802939 0.036369 P5+
0.295924 0.302939 0.025177 P5+
0.716706 0.691689 0.061846 P5+
0.216706 0.191689 0.076206 P5+
0.616650 0.591751 0.022681 P5+
0.116650 0.091751 0.006270 P5+
0.909487 0.425433 0.078013 P5+
0.409487 0.925433 0.004182 P5+
0.808986 0.325562 0.038841 P5+
0.308986 0.825562 0.025081 P5+
0.730132 0.213545 0.064585 P5+
0.230132 0.713545 0.075908 P5+
0.637722 0.110144 0.025309 P5+
0.137722 0.610144 0.007473 P5+
0.524425 0.017155 0.046104 P5+
0.024425 0.517155 0.056989 P5+
0.001192 0.999587 0.146218 P5+
0.501192 0.499587 0.134468 P5+
0.887667 0.906720 0.166994 P5+
0.387667 0.406720 0.093051 P5+
0.795924 0.802939 0.127278 P5+
0.295924 0.302939 0.116086 P5+
0.716706 0.691689 0.152756 P5+
0.216706 0.191689 0.167115 P5+
0.616650 0.591751 0.113590 P5+
0.116650 0.091751 0.097179 P5+
0.909487 0.425433 0.168922 P5+
0.409487 0.925433 0.095091 P5+
0.808986 0.325562 0.129750 P5+
0.308986 0.825562 0.115990 P5+
0.730132 0.213545 0.155494 P5+
0.230132 0.713545 0.166817 P5+
0.637722 0.110144 0.116218 P5+
0.137722 0.610144 0.098382 P5+
0.524425 0.017155 0.137013 P5+
0.024425 0.517155 0.147898 P5+
0.001192 0.999587 0.237127 P5+
0.501192 0.499587 0.225377 P5+
0.887667 0.906720 0.257903 P5+
0.387667 0.406720 0.183961 P5+
0.795924 0.802939 0.218187 P5+
0.295924 0.302939 0.206995 P5+
0.716706 0.691689 0.243665 P5+
0.216706 0.191689 0.258024 P5+
0.616650 0.591751 0.204499 P5+
0.116650 0.091751 0.188088 P5+
0.909487 0.425433 0.259831 P5+
0.409487 0.925433 0.186000 P5+
0.808986 0.325562 0.220659 P5+
0.308986 0.825562 0.206899 P5+
0.730132 0.213545 0.246403 P5+
0.230132 0.713545 0.257727 P5+
0.637722 0.110144 0.207128 P5+
0.137722 0.610144 0.189291 P5+
0.524425 0.017155 0.227922 P5+
0.024425 0.517155 0.238807 P5+
0.001192 0.999587 0.328036 P5+
0.501192 0.499587 0.316286 P5+
0.887667 0.906720 0.348812 P5+
0.387667 0.406720 0.274870 P5+
0.795924 0.802939 0.309097 P5+
0.295924 0.302939 0.297905 P5+
0.716706 0.691689 0.334574 P5+
0.216706 0.191689 0.348933 P5+
0.616650 0.591751 0.295408 P5+
0.116650 0.091751 0.278997 P5+
0.909487 0.425433 0.350740 P5+
0.409487 0.925433 0.276909 P5+
0.808986 0.325562 0.311568 P5+
0.308986 0.825562 0.297808 P5+
0.730132 0.213545 0.337312 P5+
0.230132 0.713545 0.348636 P5+
0.637722 0.110144 0.298037 P5+
0.137722 0.610144 0.280200 P5+
0.524425 0.017155 0.318831 P5+
0.024425 0.517155 0.329716 P5+
0.001192 0.999587 0.418945 P5+
0.501192 0.499587 0.407196 P5+
0.887667 0.906720 0.439721 P5+
0.387667 0.406720 0.365779 P5+
0.795924 0.802939 0.400006 P5+
0.295924 0.302939 0.388814 P5+
0.716706 0.691689 0.425483 P5+
0.216706 0.191689 0.439842 P5+
0.616650 0.591751 0.386318 P5+
0.116650 0.091751 0.369906 P5+
0.909487 0.425433 0.441649 P5+
0.409487 0.925433 0.367818 P5+
0.808986 0.325562 0.402477 P5+
0.308986 0.825562 0.388717 P5+
0.730132 0.213545 0.428221 P5+
0.230132 0.713545 0.439545 P5+
0.637722 0.110144 0.388946 P5+
0.137722 0.610144 0.371110 P5+
0.524425 0.017155 0.409740 P5+
0.024425 0.517155 0.420625 P5+
0.001192 0.999587 0.509854 P5+
0.501192 0.499587 0.498105 P5+
0.887667 0.906720 0.530630 P5+
0.387667 0.406720 0.456688 P5+
0.795924 0.802939 0.490915 P5+
0.295924 0.302939 0.479723 P5+
0.716706 0.691689 0.516392 P5+
0.216706 0.191689 0.530751 P5+
0.616650 0.591751 0.477227 P5+
0.116650 0.091751 0.460816 P5+
0.909487 0.425433 0.532558 P5+
0.409487 0.925433 0.458727 P5+
0.808986 0.325562 0.493386 P5+
0.308986 0.825562 0.479626 P5+
0.730132 0.213545 0.519131 P5+
0.230132 0.713545 0.530454 P5+
0.637722 0.110144 0.479855 P5+
0.137722 0.610144 0.462019 P5+
0.524425 0.017155 0.500649 P5+
0.024425 0.517155 0.511534 P5+
0.001192 0.999587 0.600763 P5+
0.501192 0.499587 0.589014 P5+
0.887667 0.906720 0.621539 P5+
0.387667 0.406720 0.547597 P5+
0.795924 0.802939 0.581824 P5+
0.295924 0.302939 0.570632 P5+
0.716706 0.691689 0.607301 P5+
0.216706 0.191689 0.621660 P5+
0.616650 0.591751 0.568136 P5+
0.116650 0.091751 0.551725 P5+
0.909487 0.425433 0.623467 P5+
0.409487 0.925433 0.549636 P5+
0.808986 0.325562 0.584295 P5+
0.308986 0.825562 0.570535 P5+
0.730132 0.213545 0.610040 P5+
0.230132 0.713545 0.621363 P5+
0.637722 0.110144 0.570764 P5+
0.137722 0.610144 0.552928 P5+
0.524425 0.017155 0.591558 P5+
0.024425 0.517155 0.602443 P5+
0.905428 0.964587 0.057183 O2-
0.405428 0.464587 0.024274 O2-
0.800449 0.859372 0.058359 O2-
0.300449 0.359372 0.004011 O2-
0.757206 0.724144 0.042706 O2-
0.257206 0.224144 0.011801 O2-
0.685355 0.607741 0.050114 O2-
0.185355 0.107741 0.082238 O2-
0.058300 0.021852 0.082624 O2-
0.558300 0.521852 0.026628 O2-
0.840686 0.409378 0.050590 O2-
0.340686 0.909378 0.019095 O2-
0.772630 0.290596 0.058488 O2-
0.272630 0.790596 0.089732 O2-
0.726756 0.156445 0.042734 O2-
0.226756 0.656445 0.006237 O2-
0.618048 0.056520 0.044713 O2-
0.118048 0.556520 0.075402 O2-
0.967956 0.495673 0.074168 O2-
0.467956 0.995673 0.018657 O2-
0.955284 0.073889 0.038643 O2-
0.455284 0.573889 0.051878 O2-
0.071165 0.933926 0.049984 O2-
0.571165 0.433926 0.061606 O2-
0.836724 0.958651 0.089612 O2-
0.336724 0.458651 0.070262 O2-
0.982201 0.846743 0.089043 O2-
0.482201 0.346743 0.006372 O2-
0.714989 0.845353 0.014145 O2-
0.214989 0.345353 0.032686 O2-
0.902007 0.775410 0.037528 O2-
0.402007 0.275410 0.043306 O2-
0.622035 0.747295 0.060279 O2-
0.122035 0.247295 0.060560 O2-
0.803128 0.669352 0.085402 O2-
0.303128 0.169352 0.068364 O2-
0.542257 0.667159 0.010883 O2-
0.042257 0.167159 0.004542 O2-
0.685603 0.553292 0.011128 O2-
0.185603 0.053292 0.030360 O2-
0.839056 0.463335 0.089250 O2-
0.339056 0.963335 0.071048 O2-
0.984307 0.350606 0.090081 O2-
0.484307 0.850606 0.005717 O2-
0.720379 0.348215 0.015652 O2-
0.220379 0.848215 0.032159 O2-
0.903854 0.271458 0.039854 O2-
0.403854 0.771458 0.041316 O2-
0.623095 0.241625 0.062722 O2-
0.123095 0.741625 0.058310 O2-
0.808921 0.171199 0.087141 O2-
0.308921 0.671199 0.067678 O2-
0.543593 0.170027 0.011900 O2-
0.043593 0.670027 0.003768 O2-
0.687356 0.055640 0.012058 O2-
0.187356 0.555640 0.029748 O2-
0.452378 0.080441 0.051590 O2-
0.952378 0.580441 0.038403 O2-
0.572944 0.942366 0.062419 O2-
0.072944 0.442366 0.049495 O2-
0.905428 0.964587 0.148092 O2-
0.405428 0.464587 0.115183 O2-
0.800449 0.859372 0.149268 O2-
0.300449 0.359372 0.094920 O2-
0.757206 0.724144 0.133615 O2-
0.257206 0.224144 0.102710 O2-
0.685355 0.607741 0.141023 O2-
0.185355 0.107741 0.173147 O2-
0.058300 0.021852 0.173533 O2-
0.558300 0.521852 0.117537 O2-
0.840686 0.409378 0.141499 O2-
0.340686 0.909378 0.110004 O2-
0.772630 0.290596 0.149397 O2-
0.272630 0.790596 0.180641 O2-
0.726756 0.156445 0.133643 O2-
0.226756 0.656445 0.097146 O2-
0.618048 0.056520 0.135622 O2-
0.118048 0.556520 0.166311 O2-
0.967956 0.495673 0.165077 O2-
0.467956 0.995673 0.109566 O2-
0.955284 0.073889 0.129552 O2-
0.455284 0.573889 0.142787 O2-
0.071165 0.933926 0.140894 O2-
0.571165 0.433926 0.152515 O2-
0.836724 0.958651 0.180521 O2-
0.336724 0.458651 0.161171 O2-
0.982201 0.846743 0.179953 O2-
0.482201 0.346743 0.097281 O2-
0.714989 0.845353 0.105054 O2-
0.214989 0.345353 0.123595 O2-
0.902007 0.775410 0.128437 O2-
0.402007 0.275410 0.134215 O2-
0.622035 0.747295 0.151188 O2-
0.122035 0.247295 0.151469 O2-
0.803128 0.669352 0.176311 O2-
0.303128 0.169352 0.159273 O2-
0.542257 0.667159 0.101793 O2-
0.042257 0.167159 0.095451 O2-
0.685603 0.553292 0.102037 O2-
0.185603 0.053292 0.121269 O2-
0.839056 0.463335 0.180159 O2-
0.339056 0.963335 0.161957 O2-
0.984307 0.350606 0.180990 O2-
0.484307 0.850606 0.096626 O2-
0.720379 0.348215 0.106561 O2-
0.220379 0.848215 0.123069 O2-
0.903854 0.271458 0.130763 O2-
0.403854 0.771458 0.132225 O2-
0.623095 0.241625 0.153631 O2-
0.123095 0.741625 0.149219 O2-
0.808921 0.171199 0.178050 O2-
0.308921 0.671199 0.158587 O2-
0.543593 0.170027 0.102809 O2-
0.043593 0.670027 0.094677 O2-
0.687356 0.055640 0.102968 O2-
0.187356 0.555640 0.120658 O2-
0.452378 0.080441 0.142499 O2-
0.952378 0.580441 0.129312 O2-
0.572944 0.942366 0.153328 O2-
0.072944 0.442366 0.140404 O2-
0.905428 0.964587 0.239001 O2-
0.405428 0.464587 0.206092 O2-
0.800449 0.859372 0.240177 O2-
0.300449 0.359372 0.185829 O2-
0.757206 0.724144 0.224525 O2-
0.257206 0.224144 0.193619 O2-
0.685355 0.607741 0.231932 O2-
0.185355 0.107741 0.264056 O2-
0.058300 0.021852 0.264442 O2-
0.558300 0.521852 0.208446 O2-
0.840686 0.409378 0.232408 O2-
0.340686 0.909378 0.200914 O2-
0.772630 0.290596 0.240306 O2-
0.272630 0.790596 0.271550 O2-
0.726756 0.156445 0.224552 O2-
0.226756 0.656445 0.188055 O2-
0.618048 0.056520 0.226531 O2-
0.118048 0.556520 0.257220 O2-
0.967956 0.495673 0.255986 O2-
0.467956 0.995673 0.200475 O2-
0.955284 0.073889 0.220461 O2-
0.455284 0.573889 0.233696 O2-
0.071165 0.933926 0.231803 O2-
0.571165 0.433926 0.243424 O2-
0.836724 0.958651 0.271430 O2-
0.336724 0.458651 0.252080 O2-
0.982201 0.846743 0.270862 O2-
0.482201 0.346743 0.188190 O2-
0.714989 0.845353 0.195963 O2-
0.214989 0.345353 0.214504 O2-
0.902007 0.775410 0.219346 O2-
0.402007 0.275410 0.225125 O2-
0.622035 0.747295 0.242097 O2-
0.122035 0.247295 0.242378 O2-
0.803128 0.669352 0.267220 O2-
0.303128 0.169352 0.250182 O2-
0.542257 0.667159 0.192702 O2-
0.042257 0.167159 0.186360 O2-
0.685603 0.553292 0.192946 O2-
0.185603 0.053292 0.212178 O2-
0.839056 0.463335 0.271068 O2-
0.339056 0.963335 0.252866 O2-
0.984307 0.350606 0.271899 O2-
0.484307 0.850606 0.187535 O2-
0.720379 0.348215 0.197470 O2-
0.220379 0.848215 0.213978 O2-
0.903854 0.271458 0.221672 O2-
0.403854 0.771458 0.223135 O2-
0.623095 0.241625 0.244540 O2-
0.123095 0.741625 0.240128 O2-
0.808921 0.171199 0.268959 O2-
0.308921 0.671199 0.249496 O2-
0.543593 0.170027 0.193718 O2-
0.043593 0.670027 0.185586 O2-
0.687356 0.055640 0.193877 O2-
0.187356 0.555640 0.211567 O2-
0.452378 0.080441 0.233408 O2-
0.952378 0.580441 0.220221 O2-
0.572944 0.942366 0.244237 O2-
0.072944 0.442366 0.231313 O2-
0.905428 0.964587 0.329910 O2-
0.405428 0.464587 0.297001 O2-
0.800449 0.859372 0.331086 O2-
0.300449 0.359372 0.276738 O2-
0.757206 0.724144 0.315434 O2-
0.257206 0.224144 0.284528 O2-
0.685355 0.607741 0.322841 O2-
0.185355 0.107741 0.354965 O2-
0.058300 0.021852 0.355351 O2-
0.558300 0.521852 0.299355 O2-
0.840686 0.409378 0.323317 O2-
0.340686 0.909378 0.291823 O2-
0.772630 0.290596 0.331216 O2-
0.272630 0.790596 0.362459 O2-
0.726756 0.156445 0.315461 O2-
0.226756 0.656445 0.278964 O2-
0.618048 0.056520 0.317440 O2-
0.118048 0.556520 0.348129 O2-
0.967956 0.495673 0.346895 O2-
0.467956 0.995673 0.291384 O2-
0.955284 0.073889 0.311370 O2-
0.455284 0.573889 0.324606 O2-
0.071165 0.933926 0.322712 O2-
0.571165 0.433926 0.334333 O2-
0.836724 0.958651 0.362339 O2-
0.336724 0.458651 0.342989 O2-
0.982201 0.846743 0.361771 O2-
0.482201 0.346743 0.279099 O2-
0.714989 0.845353 0.286872 O2-
0.214989 0.345353 0.305413 O2-
0.902007 0.775410 0.310255 O2-
0.402007 0.275410 0.316034 O2-
0.622035 0.747295 0.333006 O2-
0.122035 0.247295 0.333288 O2-
0.803128 0.669352 0.358129 O2-
0.303128 0.169352 0.341091 O2-
0.542257 0.667159 0.283611 O2-
0.042257 0.167159 0.277269 O2-
0.685603 0.553292 0.283855 O2-
0.185603 0.053292 0.303087 O2-
0.839056 0.463335 0.361977 O2-
0.339056 0.963335 0.343775 O2-
0.984307 0.350606 0.362808 O2-
0.484307 0.850606 0.278444 O2-
0.720379 0.348215 0.288379 O2-
0.220379 0.848215 0.304887 O2-
0.903854 0.271458 0.312581 O2-
0.403854 0.771458 0.314044 O2-
0.623095 0.241625 0.335449 O2-
0.123095 0.741625 0.331037 O2-
0.808921 0.171199 0.359868 O2-
0.308921 0.671199 0.340405 O2-
0.543593 0.170027 0.284628 O2-
0.043593 0.670027 0.276495 O2-
0.687356 0.055640 0.284786 O2-
0.187356 0.555640 0.302476 O2-
0.452378 0.080441 0.324317 O2-
0.952378 0.580441 0.311130 O2-
0.572944 0.942366 0.335147 O2-
0.072944 0.442366 0.322222 O2-
0.905428 0.964587 0.420819 O2-
0.405428 0.464587 0.387910 O2-
0.800449 0.859372 0.421995 O2-
0.300449 0.359372 0.367647 O2-
0.757206 0.724144 0.406343 O2-
0.257206 0.224144 0.375437 O2-
0.685355 0.607741 0.413751 O2-
0.185355 0.107741 0.445874 O2-
0.058300 0.021852 0.446260 O2-
0.558300 0.521852 0.390264 O2-
0.840686 0.409378 0.414226 O2-
0.340686 0.909378 0.382732 O2-
0.772630 0.290596 0.422125 O2-
0.272630 0.790596 0.453368 O2-
0.726756 0.156445 0.406370 O2-
0.226756 0.656445 0.369873 O2-
0.618048 0.056520 0.408349 O2-
0.118048 0.556520 0.439038 O2-
0.967956 0.495673 0.437804 O2-
0.467956 0.995673 0.382294 O2-
0.955284 0.073889 0.402279 O2-
0.455284 0.573889 0.415515 O2-
0.071165 0.933926 0.413621 O2-
0.571165 0.433926 0.425242 O2-
0.836724 0.958651 0.453248 O2-
0.336724 0.458651 0.433898 O2-
0.982201 0.846743 0.452680 O2-
0.482201 0.346743 0.370008 O2-
0.714989 0.845353 0.377782 O2-
0.214989 0.345353 0.396322 O2-
0.902007 0.775410 0.401164 O2-
0.402007 0.275410 0.406943 O2-
0.622035 0.747295 0.423916 O2-
0.122035 0.247295 0.424197 O2-
0.803128 0.669352 0.449038 O2-
0.303128 0.169352 0.432000 O2-
0.542257 0.667159 0.374520 O2-
0.042257 0.167159 0.368178 O2-
0.685603 0.553292 0.374764 O2-
0.185603 0.053292 0.393997 O2-
0.839056 0.463335 0.452886 O2-
0.339056 0.963335 0.434684 O2-
0.984307 0.350606 0.453718 O2-
0.484307 0.850606 0.369353 O2-
0.720379 0.348215 0.379288 O2-
0.220379 0.848215 0.395796 O2-
0.903854 0.271458 0.403490 O2-
0.403854 0.771458 0.404953 O2-
0.623095 0.241625 0.426358 O2-
0.123095 0.741625 0.421946 O2-
0.808921 0.171199 0.450778 O2-
0.308921 0.671199 0.431314 O2-
0.543593 0.170027 0.375537 O2-
0.043593 0.670027 0.367404 O2-
0.687356 0.055640 0.375695 O2-
0.187356 0.555640 0.393385 O2-
0.452378 0.080441 0.415226 O2-
0.952378 0.580441 0.402039 O2-
0.572944 0.942366 0.426056 O2-
0.072944 0.442366 0.413131 O2-
0.905428 0.964587 0.511728 O2-
0.405428 0.464587 0.478819 O2-
0.800449 0.859372 0.512904 O2-
0.300449 0.359372 0.458556 O2-
0.757206 0.724144 0.497252 O2-
0.257206 0.224144 0.466346 O2-
0.685355 0.607741 0.504660 O2-
0.185355 0.107741 0.536783 O2-
0.058300 0.021852 0.537169 O2-
0.558300 0.521852 0.481173 O2-
0.840686 0.409378 0.505135 O2-
0.340686 0.909378 0.473641 O2-
0.772630 0.290596 0.513034 O2-
0.272630 0.790596 0.544278 O2-
0.726756 0.156445 0.497279 O2-
0.226756 0.656445 0.460782 O2-
0.618048 0.056520 0.499258 O2-
0.118048 0.556520 0.529947 O2-
0.967956 0.495673 0.528713 O2-
0.467956 0.995673 0.473203 O2-
0.955284 0.073889 0.493188 O2-
0.455284 0.573889 0.506424 O2-
0.071165 0.933926 0.504530 O2-
0.571165 0.433926 0.516151 O2-
0.836724 0.958651 0.544157 O2-
0.336724 0.458651 0.524807 O2-
0.982201 0.846743 0.543589 O2-
0.482201 0.346743 0.460917 O2-
0.714989 0.845353 0.468691 O2-
0.214989 0.345353 0.487231 O2-
0.902007 0.775410 0.492073 O2-
0.402007 0.275410 0.497852 O2-
0.622035 0.747295 0.514825 O2-
0.122035 0.247295 0.515106 O2-
0.803128 0.669352 0.539947 O2-
0.303128 0.169352 0.522909 O2-
0.542257 0.667159 0.465429 O2-
0.042257 0.167159 0.459087 O2-
0.685603 0.553292 0.465673 O2-
0.185603 0.053292 0.484906 O2-
0.839056 0.463335 0.543795 O2-
0.339056 0.963335 0.525593 O2-
0.984307 0.350606 0.544627 O2-
0.484307 0.850606 0.460262 O2-
0.720379 0.348215 0.470197 O2-
0.220379 0.848215 0.486705 O2-
0.903854 0.271458 0.494399 O2-
0.403854 0.771458 0.495862 O2-
0.623095 0.241625 0.517268 O2-
0.123095 0.741625 0.512856 O2-
0.808921 0.171199 0.541687 O2-
0.308921 0.671199 0.522223 O2-
0.543593 0.170027 0.466446 O2-
0.043593 0.670027 0.458313 O2-
0.687356 0.055640 0.466604 O2-
0.187356 0.555640 0.484294 O2-
0.452378 0.080441 0.506135 O2-
0.952378 0.580441 0.492948 O2-
0.572944 0.942366 0.516965 O2-
0.072944 0.442366 0.504040 O2-
0.905428 0.964587 0.602637 O2-
0.405428 0.464587 0.569728 O2-
0.800449 0.859372 0.603813 O2-
0.300449 0.359372 0.549465 O2-
0.757206 0.724144 0.588161 O2-
0.257206 0.224144 0.557255 O2-
0.685355 0.607741 0.595569 O2-
0.185355 0.107741 0.627693 O2-
0.058300 0.021852 0.628078 O2-
0.558300 0.521852 0.572082 O2-
0.840686 0.409378 0.596044 O2-
0.340686 0.909378 0.564550 O2-
0.772630 0.290596 0.603943 O2-
0.272630 0.790596 0.635187 O2-
0.726756 0.156445 0.588188 O2-
0.226756 0.656445 0.551691 O2-
0.618048 0.056520 0.590168 O2-
0.118048 0.556520 0.620856 O2-
0.967956 0.495673 0.619622 O2-
0.467956 0.995673 0.564112 O2-
0.955284 0.073889 0.584097 O2-
0.455284 0.573889 0.597333 O2-
0.071165 0.933926 0.595439 O2-
0.571165 0.433926 0.607060 O2-
0.836724 0.958651 0.635066 O2-
0.336724 0.458651 0.615717 O2-
0.982201 0.846743 0.634498 O2-
0.482201 0.346743 0.551826 O2-
0.714989 0.845353 0.559600 O2-
0.214989 0.345353 0.578140 O2-
0.902007 0.775410 0.582983 O2-
0.402007 0.275410 0.588761 O2-
0.622035 0.747295 0.605734 O2-
0.122035 0.247295 0.606015 O2-
0.803128 0.669352 0.630856 O2-
0.303128 0.169352 0.613818 O2-
0.542257 0.667159 0.556338 O2-
0.042257 0.167159 0.549996 O2-
0.685603 0.553292 0.556583 O2-
0.185603 0.053292 0.575815 O2-
0.839056 0.463335 0.634704 O2-
0.339056 0.963335 0.616503 O2-
0.984307 0.350606 0.635536 O2-
0.484307 0.850606 0.551171 O2-
0.720379 0.348215 0.561106 O2-
0.220379 0.848215 0.577614 O2-
0.903854 0.271458 0.585308 O2-
0.403854 0.771458 0.586771 O2-
0.623095 0.241625 0.608177 O2-
0.123095 0.741625 0.603765 O2-
0.808921 0.171199 0.632596 O2-
0.308921 0.671199 0.613132 O2-
0.543593 0.170027 0.557355 O2-
0.043593 0.670027 0.549222 O2-
0.687356 0.055640 0.557513 O2-
0.187356 0.555640 0.575203 O2-
0.452378 0.080441 0.597045 O2-
0.952378 0.580441 0.583857 O2-
0.572944 0.942366 0.607874 O2-
0.072944 0.442366 0.594949 O2-
