Li71 P24 N1 O94                         
   1.00000000000000     
    14.7201247720252386   -0.0035521335306026   -0.0106597412395193
    -0.0025306286907012   10.5683771589390112    0.0200450203606620
    -0.0088456697772426    0.0233340562956020   12.3576649920723920
   Li   P    N    O 
    71    24     1    94
Direct
  0.1705024731285993  0.4170686347941594 -0.0050223353642680
  0.1607759301332420  0.4362740676340893  0.5262606984995722
  0.1704228316874642  0.9230484728908028  0.0001288000118592
  0.1717524792934202  0.9196918230241388  0.5007193265654575
  0.5044818862898309  0.4214225204585835 -0.0008936754740468
  0.5073808740373612  0.4246636838528545  0.5050213780951561
  0.5042805326207066  0.9225234328116165 -0.0007230112614328
  0.5034154506210318  0.9225170922473053  0.5001669162780502
  0.8360772260546496  0.4222572042734962  0.0005529766139439
  0.8346941555411624  0.4231548455808276  0.5009450466247788
  0.8367506071826184  0.9238795475515651  0.0006264077759036
  0.8366404744028683  0.9258879833252560  0.4987381802692417
  0.0010011424585141  0.0731215788807433  0.7510186664012676
 -0.0036559787453444  0.5940850439800600  0.2524805579009354
  0.0020867659571886  0.5789947299892159  0.7515735275288506
  0.3350603944039063  0.0766929172614371  0.2464414898263779
  0.3367464207684154  0.0766974697016837  0.7501737978263209
  0.3372505590373824  0.5793656921203464  0.2476213699400089
  0.3370846638912878  0.5769684473044293  0.7505553873107630
  0.6784984817569947  0.0737272537154050  0.2490411467355791
  0.6703843444282537  0.0758655383243259  0.7498851945238452
  0.6719845305753409  0.5803113686794009  0.2496030588490513
  0.6692162365320955  0.5778723996836407  0.7504003720482559
  0.1645047205955335  0.1557691869261700  0.1266811109325117
  0.1678832848223124  0.1608284906347515  0.6275757304210119
  0.1686433911403389  0.6744566127150962  0.1181079773034623
  0.1700250512970218  0.6658741604958398  0.6281702757698551
  0.5055279455824510  0.1613080097147220  0.1258087171471791
  0.5030504165179330  0.1628971230361715  0.6263981298063345
  0.5043664640973116  0.6628919450232711  0.1250394099490579
  0.5024649587421931  0.6639791469600184  0.6265363584374622
  0.8402392940853884  0.1612960039700928  0.1269370409524761
  0.8361993339901981  0.1634798415510295  0.6267321741380738
  0.8352460265737334  0.6660387319382194  0.1251463290986446
  0.8351209405760326  0.6645024892942190  0.6274617583116162
 -0.0007410789467019  0.3299762345423460  0.1245985537480452
  0.0003450924510591  0.3352488170282071  0.6278715691392373
  0.0002571626543268  0.8467859635062629  0.1252838713781680
  0.0027428921808451  0.8397947847430381  0.6223283245163539
  0.3391835292330744  0.3343501445525160  0.1224841713455496
  0.3356238943302349  0.3353841803949353  0.6252030427419114
  0.3401451132336150  0.8369069063218660  0.1221406624427701
  0.3369911570967851  0.8369116364365641  0.6234155122074746
  0.6715058045323048  0.3356638852740431  0.1235486546914038
  0.6700138175141618  0.3357781713173192  0.6253766362722816
  0.6684677395097254  0.8346299047630008  0.1218164034714111
  0.6693511757981231  0.8365022595290497  0.6234471339587786
 -0.0014900641397077  0.3389736821536287  0.3789736240333010
  0.0022633109983170  0.3339580112638748  0.8771871191610568
  0.0004032406409176  0.8491260876261287  0.3741547379152338
  0.0031788257227110  0.8366262934862402  0.8769087309272011
  0.3743044302251413  0.3340892523546027  0.3815226913103602
  0.3373015164712311  0.3348458369512934  0.8769995587860187
  0.3391387904621644  0.8369786632129473  0.3752708327946330
  0.3370450541712531  0.8365397274775452  0.8764143292599622
  0.6690815610031087  0.3366430497096181  0.3766442294258088
  0.6698532975389102  0.3356504906767142  0.8762198182197272
  0.6678504375895505  0.8352432924333840  0.3781306157592055
  0.6697615705216532  0.8361799515820378  0.8763064491597199
  0.1570764737252751  0.1284763284922337  0.3703510199969133
  0.1683617525662800  0.1598249258098257  0.8738475982779622
  0.1655493793939995  0.6685845419590297  0.3769556271597300
  0.1700294893015016  0.6624326298119371  0.8740805806503797
  0.5074923908110828  0.1576207258010887  0.3713887025424718
  0.5034268212073745  0.1624051936347410  0.8730378178290616
  0.5036792523379064  0.6630776423210145  0.3732891041075584
  0.5028861979868844  0.6630362581614390  0.8733809840869440
  0.8393533099741215  0.1629998115642133  0.3716218542771621
  0.8362842420935083  0.1626339089129828  0.8730014888706130
  0.8347401654980541  0.6668781595382013  0.3751459108357446
  0.8360817830345088  0.6632930851741208  0.8740515625392028
  0.1570524550564486  0.4333655521026326  0.2172110131399854
  0.1667632422739485  0.4114929911389241  0.7525103369336926
  0.1699152153737163  0.9047546969667404  0.2486086808023778
  0.1678671174654455  0.9103703909436512  0.7500483457335705
  0.5015476456309740  0.4142029217997264  0.2485935676376208
  0.5001904126559571  0.4119945173320873  0.7503869273839443
  0.5016835650210942  0.9117648978427273  0.2494935659432882
  0.5005055400050311  0.9118026180405259  0.7495957225208923
  0.8322386438983115  0.4144987798508845  0.2507681303265816
  0.8330259902500501  0.4131653338846911  0.7508656871292888
  0.8287324811754821  0.9117825510586669  0.2502617858191775
  0.8329732694768267  0.9112558937487230  0.7495855868333772
  0.0009149917459504  0.0890938154873565 -0.0048945432013169
  0.0019777369052426  0.0943353352231654  0.5057628572982827
  0.0005570533954197  0.5874825803222798  0.0007619870378141
 -0.0014090179670370  0.5910643363377601  0.5017862221129515
  0.3353987208546005  0.0864532661911269 -0.0011301805354559
  0.3337426265151276  0.0883059576662413  0.4986347055693374
  0.3347948726448414  0.5861596781858015 -0.0005091579928992
  0.3334671577562263  0.5859856822500991  0.4990945408507399
  0.6674883032332578  0.0875695548809612 -0.0014067980632212
  0.6668347859475764  0.0882379995934368  0.5006975075759059
  0.6670581793665192  0.5866513808071061 -0.0010498177759597
  0.6662986017604822  0.5876233356451466  0.5010864003275602
  0.2058486130168387  0.3347506240900983  0.1496815904895798
  0.0412252018431853  0.1748679121623199  0.4122257347745631
  0.0334898581661375  0.1528888758945357  0.8869295438518481
  0.0331796009239633  0.6615504590507701  0.3987943715752217
  0.0362819909076525  0.6557424946400123  0.8968177730532830
  0.3699271935138923  0.1565190789287323  0.3945889779091080
  0.3698959518996094  0.1561078411411389  0.8947777226501901
  0.3686631931399011  0.6540802263817169  0.3953161419154468
  0.3687234954715733  0.6562856272755716  0.8956271554142330
  0.7013138781323441  0.1584081833150875  0.3975086425005427
  0.7021133455459434  0.1559226739022454  0.8941265927456418
  0.7017800424766796  0.6562597920788172  0.3976965724675376
  0.7021132439459624  0.6559182098864518  0.8952686368370356
  0.2017263463640684  0.0458474744745444  0.2482913666134978
  0.2019625643792347  0.0500601556392617  0.7496025765148608
  0.1981594481237214  0.5609012350129385  0.2513526119466252
  0.2014956202428790  0.5510661445319991  0.7502487661672543
  0.5376227264421138  0.0505801514917720  0.2491680310146354
  0.5341672910896706  0.0517327747704644  0.7493406216965965
  0.5369204906467414  0.5528537965166990  0.2499929662964838
  0.5332066441374009  0.5523042623165216  0.7497349854252957
  0.8497744348515915  0.0542498518026878  0.2501518345124504
  0.8652084123830508  0.0515951360992110  0.7496397538900237
  0.8646770652166960  0.5553877297422209  0.2505503205924891
  0.8670778805287006  0.5530335008864978  0.7505612474078024
  0.0581899269814386  0.4214909442004562  0.2545988987968665
  0.0611415890731005  0.4107788779722114  0.7518248933238429
  0.0662928757408592  0.8911858520079535  0.2491473782012528
  0.0622468086948113  0.9059625111081311  0.7494443853639212
  0.3955813006429238  0.4137702632242495  0.2470299070142266
  0.3943240528030866  0.4085155056597859  0.7499283768868015
  0.3958722651897322  0.9110031363756214  0.2491570029265572
  0.3946703127239861  0.9087942390965272  0.7493991674626576
  0.7264028879362129  0.4104206999358793  0.2506282040252030
  0.7272154285232566  0.4104443202135168  0.7507185230168709
  0.7230816244630490  0.8955960355268642  0.2500748300530198
  0.7271342531047230  0.9066159962845713  0.7495304171718942
  0.2297735462566463  0.0880897168082484 -0.0008354574409248
  0.2278240015590074  0.0922087249806839  0.4975951779549577
  0.2286299474259825  0.5877960902645550  0.0004793878630053
  0.2271700134340618  0.5867878379356051  0.4989037379948682
  0.5615640521012631  0.0902731408930431 -0.0012783965931518
  0.5607851087926482  0.0903858545401398  0.5009008269139744
  0.5611632405254529  0.5896349453396266 -0.0009989824039789
  0.5603306166488508  0.5918184756393372  0.5008031862696283
  0.8947706298217685  0.0900603635887626 -0.0024986407716421
  0.8961207385776055  0.0938976893721340  0.5008900399023172
  0.8948100621054077  0.5905387510313824  0.0004015604521494
  0.8930066728788973  0.5919741701000270  0.5019718766245193
  0.2015237115698236  0.3417604909389368  0.6488940030369087
  0.2089659647903278  0.8407246681994794  0.1444819286551950
  0.2036696065511075  0.8419796616843280  0.6462419149704938
  0.5374108091250467  0.3430108095547493  0.1473562594708081
  0.5356529032644316  0.3431150355164805  0.6470141220006692
  0.5355167929783936  0.8416127639170138  0.1460880976528612
  0.5352470801751551  0.8428674580059279  0.6458700673122744
  0.8677531033813338  0.3457353723928637  0.1476263663208746
  0.8676732556445237  0.3444074304926949  0.6471002786781815
  0.8674807169240860  0.8450129707068966  0.1471480200206253
  0.8687720726216623  0.8437485549116722  0.6456414499745586
  0.0383083636678184  0.1649608982686102  0.0909637049058126
  0.0330637127216909  0.1551503077470356  0.6150732258351216
  0.0360311362721655  0.6574429450501182  0.1038264324001418
  0.0354646725018801  0.6583941003592810  0.6052747575929535
  0.3721718307239732  0.1548014855702067  0.1018571163658649
  0.3686202884258415  0.1577602894317439  0.6019941215078767
  0.3704147787335827  0.6552109250049866  0.1027014703284368
  0.3677894185651222  0.6554185374841947  0.6025001421700060
  0.7029551870422055  0.1572773490122334  0.1011584771855024
  0.7018580080405883  0.1564590796283132  0.6046578116273021
  0.7022911492911854  0.6557294288224110  0.1020926496167529
  0.7015636755050806  0.6560088234980961  0.6046666141986039
  0.0345757062766903  0.4474145864038343  0.0025178062022811
  0.0331066757977260  0.4507764274027023  0.5018995233938263
  0.0350695302676088  0.9487045625474089 -0.0019023705068342
  0.0373237436003655  0.9546901814528862  0.4998607319625357
  0.3694041270971412  0.4468588092638955 -0.0014125877093054
  0.3674119059424664  0.4457920775942916  0.5004505576823083
  0.3699020315598507  0.9467087135978297 -0.0017769396787934
  0.3673333726235588  0.9484308040228047  0.4996989780355484
  0.7005345041986549  0.4466521698599580 -0.0006823831349297
  0.6984397000866701  0.4469248391970696  0.5011356020864759
  0.7006539908381544  0.9472715825176073 -0.0008274208445337
  0.7004537750439844  0.9482363826980267  0.5003379241408535
  0.2024954446333317  0.3414746750311164  0.8550043944480963
  0.2081839855208899  0.8401907104850108  0.3539880186716931
  0.2033232123800187  0.8410520797040006  0.8536338631352425
  0.5305412890165131  0.3435078114792027  0.3553615229940726
  0.5357280009643816  0.3430071922907150  0.8538938201519860
  0.5347578388236903  0.8421184323230851  0.3542543452549060
  0.5358934442172097  0.8423791604571012  0.8531195918344250
  0.8676110086436271  0.3466347931497937  0.3549899709219181
  0.8684827838480276  0.3439417447136233  0.8544110006799568
  0.8674406809571804  0.8456434018411471  0.3542981507624464
  0.8689390905087921  0.8421481254735815  0.8530581413768389
 
  0.00000000E+00  0.00000000E+00  0.00000000E+00
  0.00000000E+00  0.00000000E+00  0.00000000E+00
  0.00000000E+00  0.00000000E+00  0.00000000E+00
  0.00000000E+00  0.00000000E+00  0.00000000E+00
  0.00000000E+00  0.00000000E+00  0.00000000E+00
  0.00000000E+00  0.00000000E+00  0.00000000E+00
  0.00000000E+00  0.00000000E+00  0.00000000E+00
  0.00000000E+00  0.00000000E+00  0.00000000E+00
  0.00000000E+00  0.00000000E+00  0.00000000E+00
  0.00000000E+00  0.00000000E+00  0.00000000E+00
  0.00000000E+00  0.00000000E+00  0.00000000E+00
  0.00000000E+00  0.00000000E+00  0.00000000E+00
  0.00000000E+00  0.00000000E+00  0.00000000E+00
  0.00000000E+00  0.00000000E+00  0.00000000E+00
  0.00000000E+00  0.00000000E+00  0.00000000E+00
  0.00000000E+00  0.00000000E+00  0.00000000E+00
  0.00000000E+00  0.00000000E+00  0.00000000E+00
  0.00000000E+00  0.00000000E+00  0.00000000E+00
  0.00000000E+00  0.00000000E+00  0.00000000E+00
  0.00000000E+00  0.00000000E+00  0.00000000E+00
  0.00000000E+00  0.00000000E+00  0.00000000E+00
  0.00000000E+00  0.00000000E+00  0.00000000E+00
  0.00000000E+00  0.00000000E+00  0.00000000E+00
  0.00000000E+00  0.00000000E+00  0.00000000E+00
  0.00000000E+00  0.00000000E+00  0.00000000E+00
  0.00000000E+00  0.00000000E+00  0.00000000E+00
  0.00000000E+00  0.00000000E+00  0.00000000E+00
  0.00000000E+00  0.00000000E+00  0.00000000E+00
  0.00000000E+00  0.00000000E+00  0.00000000E+00
  0.00000000E+00  0.00000000E+00  0.00000000E+00
  0.00000000E+00  0.00000000E+00  0.00000000E+00
  0.00000000E+00  0.00000000E+00  0.00000000E+00
  0.00000000E+00  0.00000000E+00  0.00000000E+00
  0.00000000E+00  0.00000000E+00  0.00000000E+00
  0.00000000E+00  0.00000000E+00  0.00000000E+00
  0.00000000E+00  0.00000000E+00  0.00000000E+00
  0.00000000E+00  0.00000000E+00  0.00000000E+00
  0.00000000E+00  0.00000000E+00  0.00000000E+00
  0.00000000E+00  0.00000000E+00  0.00000000E+00
  0.00000000E+00  0.00000000E+00  0.00000000E+00
  0.00000000E+00  0.00000000E+00  0.00000000E+00
  0.00000000E+00  0.00000000E+00  0.00000000E+00
  0.00000000E+00  0.00000000E+00  0.00000000E+00
  0.00000000E+00  0.00000000E+00  0.00000000E+00
  0.00000000E+00  0.00000000E+00  0.00000000E+00
  0.00000000E+00  0.00000000E+00  0.00000000E+00
  0.00000000E+00  0.00000000E+00  0.00000000E+00
  0.00000000E+00  0.00000000E+00  0.00000000E+00
  0.00000000E+00  0.00000000E+00  0.00000000E+00
  0.00000000E+00  0.00000000E+00  0.00000000E+00
  0.00000000E+00  0.00000000E+00  0.00000000E+00
  0.00000000E+00  0.00000000E+00  0.00000000E+00
  0.00000000E+00  0.00000000E+00  0.00000000E+00
  0.00000000E+00  0.00000000E+00  0.00000000E+00
  0.00000000E+00  0.00000000E+00  0.00000000E+00
  0.00000000E+00  0.00000000E+00  0.00000000E+00
  0.00000000E+00  0.00000000E+00  0.00000000E+00
  0.00000000E+00  0.00000000E+00  0.00000000E+00
  0.00000000E+00  0.00000000E+00  0.00000000E+00
  0.00000000E+00  0.00000000E+00  0.00000000E+00
  0.00000000E+00  0.00000000E+00  0.00000000E+00
  0.00000000E+00  0.00000000E+00  0.00000000E+00
  0.00000000E+00  0.00000000E+00  0.00000000E+00
  0.00000000E+00  0.00000000E+00  0.00000000E+00
  0.00000000E+00  0.00000000E+00  0.00000000E+00
  0.00000000E+00  0.00000000E+00  0.00000000E+00
  0.00000000E+00  0.00000000E+00  0.00000000E+00
  0.00000000E+00  0.00000000E+00  0.00000000E+00
  0.00000000E+00  0.00000000E+00  0.00000000E+00
  0.00000000E+00  0.00000000E+00  0.00000000E+00
  0.00000000E+00  0.00000000E+00  0.00000000E+00
  0.00000000E+00  0.00000000E+00  0.00000000E+00
  0.00000000E+00  0.00000000E+00  0.00000000E+00
  0.00000000E+00  0.00000000E+00  0.00000000E+00
  0.00000000E+00  0.00000000E+00  0.00000000E+00
  0.00000000E+00  0.00000000E+00  0.00000000E+00
  0.00000000E+00  0.00000000E+00  0.00000000E+00
  0.00000000E+00  0.00000000E+00  0.00000000E+00
  0.00000000E+00  0.00000000E+00  0.00000000E+00
  0.00000000E+00  0.00000000E+00  0.00000000E+00
  0.00000000E+00  0.00000000E+00  0.00000000E+00
  0.00000000E+00  0.00000000E+00  0.00000000E+00
  0.00000000E+00  0.00000000E+00  0.00000000E+00
  0.00000000E+00  0.00000000E+00  0.00000000E+00
  0.00000000E+00  0.00000000E+00  0.00000000E+00
  0.00000000E+00  0.00000000E+00  0.00000000E+00
  0.00000000E+00  0.00000000E+00  0.00000000E+00
  0.00000000E+00  0.00000000E+00  0.00000000E+00
  0.00000000E+00  0.00000000E+00  0.00000000E+00
  0.00000000E+00  0.00000000E+00  0.00000000E+00
  0.00000000E+00  0.00000000E+00  0.00000000E+00
  0.00000000E+00  0.00000000E+00  0.00000000E+00
  0.00000000E+00  0.00000000E+00  0.00000000E+00
  0.00000000E+00  0.00000000E+00  0.00000000E+00
  0.00000000E+00  0.00000000E+00  0.00000000E+00
  0.00000000E+00  0.00000000E+00  0.00000000E+00
  0.00000000E+00  0.00000000E+00  0.00000000E+00
  0.00000000E+00  0.00000000E+00  0.00000000E+00
  0.00000000E+00  0.00000000E+00  0.00000000E+00
  0.00000000E+00  0.00000000E+00  0.00000000E+00
  0.00000000E+00  0.00000000E+00  0.00000000E+00
  0.00000000E+00  0.00000000E+00  0.00000000E+00
  0.00000000E+00  0.00000000E+00  0.00000000E+00
  0.00000000E+00  0.00000000E+00  0.00000000E+00
  0.00000000E+00  0.00000000E+00  0.00000000E+00
  0.00000000E+00  0.00000000E+00  0.00000000E+00
  0.00000000E+00  0.00000000E+00  0.00000000E+00
  0.00000000E+00  0.00000000E+00  0.00000000E+00
  0.00000000E+00  0.00000000E+00  0.00000000E+00
  0.00000000E+00  0.00000000E+00  0.00000000E+00
  0.00000000E+00  0.00000000E+00  0.00000000E+00
  0.00000000E+00  0.00000000E+00  0.00000000E+00
  0.00000000E+00  0.00000000E+00  0.00000000E+00
  0.00000000E+00  0.00000000E+00  0.00000000E+00
  0.00000000E+00  0.00000000E+00  0.00000000E+00
  0.00000000E+00  0.00000000E+00  0.00000000E+00
  0.00000000E+00  0.00000000E+00  0.00000000E+00
  0.00000000E+00  0.00000000E+00  0.00000000E+00
  0.00000000E+00  0.00000000E+00  0.00000000E+00
  0.00000000E+00  0.00000000E+00  0.00000000E+00
  0.00000000E+00  0.00000000E+00  0.00000000E+00
  0.00000000E+00  0.00000000E+00  0.00000000E+00
  0.00000000E+00  0.00000000E+00  0.00000000E+00
  0.00000000E+00  0.00000000E+00  0.00000000E+00
  0.00000000E+00  0.00000000E+00  0.00000000E+00
  0.00000000E+00  0.00000000E+00  0.00000000E+00
  0.00000000E+00  0.00000000E+00  0.00000000E+00
  0.00000000E+00  0.00000000E+00  0.00000000E+00
  0.00000000E+00  0.00000000E+00  0.00000000E+00
  0.00000000E+00  0.00000000E+00  0.00000000E+00
  0.00000000E+00  0.00000000E+00  0.00000000E+00
  0.00000000E+00  0.00000000E+00  0.00000000E+00
  0.00000000E+00  0.00000000E+00  0.00000000E+00
  0.00000000E+00  0.00000000E+00  0.00000000E+00
  0.00000000E+00  0.00000000E+00  0.00000000E+00
  0.00000000E+00  0.00000000E+00  0.00000000E+00
  0.00000000E+00  0.00000000E+00  0.00000000E+00
  0.00000000E+00  0.00000000E+00  0.00000000E+00
  0.00000000E+00  0.00000000E+00  0.00000000E+00
  0.00000000E+00  0.00000000E+00  0.00000000E+00
  0.00000000E+00  0.00000000E+00  0.00000000E+00
  0.00000000E+00  0.00000000E+00  0.00000000E+00
  0.00000000E+00  0.00000000E+00  0.00000000E+00
  0.00000000E+00  0.00000000E+00  0.00000000E+00
  0.00000000E+00  0.00000000E+00  0.00000000E+00
  0.00000000E+00  0.00000000E+00  0.00000000E+00
  0.00000000E+00  0.00000000E+00  0.00000000E+00
  0.00000000E+00  0.00000000E+00  0.00000000E+00
  0.00000000E+00  0.00000000E+00  0.00000000E+00
  0.00000000E+00  0.00000000E+00  0.00000000E+00
  0.00000000E+00  0.00000000E+00  0.00000000E+00
  0.00000000E+00  0.00000000E+00  0.00000000E+00
  0.00000000E+00  0.00000000E+00  0.00000000E+00
  0.00000000E+00  0.00000000E+00  0.00000000E+00
  0.00000000E+00  0.00000000E+00  0.00000000E+00
  0.00000000E+00  0.00000000E+00  0.00000000E+00
  0.00000000E+00  0.00000000E+00  0.00000000E+00
  0.00000000E+00  0.00000000E+00  0.00000000E+00
  0.00000000E+00  0.00000000E+00  0.00000000E+00
  0.00000000E+00  0.00000000E+00  0.00000000E+00
  0.00000000E+00  0.00000000E+00  0.00000000E+00
  0.00000000E+00  0.00000000E+00  0.00000000E+00
  0.00000000E+00  0.00000000E+00  0.00000000E+00
  0.00000000E+00  0.00000000E+00  0.00000000E+00
  0.00000000E+00  0.00000000E+00  0.00000000E+00
  0.00000000E+00  0.00000000E+00  0.00000000E+00
  0.00000000E+00  0.00000000E+00  0.00000000E+00
  0.00000000E+00  0.00000000E+00  0.00000000E+00
  0.00000000E+00  0.00000000E+00  0.00000000E+00
  0.00000000E+00  0.00000000E+00  0.00000000E+00
  0.00000000E+00  0.00000000E+00  0.00000000E+00
  0.00000000E+00  0.00000000E+00  0.00000000E+00
  0.00000000E+00  0.00000000E+00  0.00000000E+00
  0.00000000E+00  0.00000000E+00  0.00000000E+00
  0.00000000E+00  0.00000000E+00  0.00000000E+00
  0.00000000E+00  0.00000000E+00  0.00000000E+00
  0.00000000E+00  0.00000000E+00  0.00000000E+00
  0.00000000E+00  0.00000000E+00  0.00000000E+00
  0.00000000E+00  0.00000000E+00  0.00000000E+00
  0.00000000E+00  0.00000000E+00  0.00000000E+00
  0.00000000E+00  0.00000000E+00  0.00000000E+00
  0.00000000E+00  0.00000000E+00  0.00000000E+00
  0.00000000E+00  0.00000000E+00  0.00000000E+00
  0.00000000E+00  0.00000000E+00  0.00000000E+00
  0.00000000E+00  0.00000000E+00  0.00000000E+00
  0.00000000E+00  0.00000000E+00  0.00000000E+00
  0.00000000E+00  0.00000000E+00  0.00000000E+00
  0.00000000E+00  0.00000000E+00  0.00000000E+00
  0.00000000E+00  0.00000000E+00  0.00000000E+00
  0.00000000E+00  0.00000000E+00  0.00000000E+00
