Li21 N7
1.0
3.650690 0.000000 0.000000
-1.825345 3.161590 0.000000
0.000000 0.000000 50.552255
Li N
21 7
direct
0.000000 0.000000 0.019231 Li+
0.666667 0.333333 0.057692 Li+
0.333333 0.666667 0.057692 Li+
0.000000 0.000000 0.096154 Li+
0.666667 0.333333 0.134615 Li+
0.333333 0.666667 0.134615 Li+
0.000000 0.000000 0.173077 Li+
0.666667 0.333333 0.211538 Li+
0.333333 0.666667 0.211538 Li+
0.000000 0.000000 0.250000 Li+
0.666667 0.333333 0.288462 Li+
0.333333 0.666667 0.288462 Li+
0.000000 0.000000 0.326923 Li+
0.666667 0.333333 0.365385 Li+
0.333333 0.666667 0.365385 Li+
0.000000 0.000000 0.403846 Li+
0.666667 0.333333 0.442308 Li+
0.333333 0.666667 0.442308 Li+
0.000000 0.000000 0.480769 Li+
0.666667 0.333333 0.519231 Li+
0.333333 0.666667 0.519231 Li+
0.000000 0.000000 0.057692 N3-
0.000000 0.000000 0.134615 N3-
0.000000 0.000000 0.211538 N3-
0.000000 0.000000 0.288462 N3-
0.000000 0.000000 0.365385 N3-
0.000000 0.000000 0.442308 N3-
0.000000 0.000000 0.519231 N3-
