ALGO = Fast
EDIFF = 1e-05
ENCUT = 520
IBRION = -1
ISIF = 2
ISMEAR = -5
ISPIN = 2
LASPH = True
LCHARG = False
LORBIT = 11
LPLANE = True
LREAL = Auto
LWAVE = False
MAGMOM = 64*0.6
NCORE = 6
NELM = 100
NSIM = 4
NSW = 0
PREC = Accurate
SIGMA = 0.05
