Li5 P2 N1 O6                            
   1.00000000000000     
    -0.0985737028951338   -0.1062152982600071    4.8810750005248389
     6.3477588191201466   -0.0392164271751982   -0.1223500616352029
    -0.0326723734066150    5.4995037210352216   -0.1115996992283323
   Li   P    N    O 
     5     2     1     6
Direct
  0.5117047302101347  0.0223196226699453  0.8505705705251244
  0.0050488220734915  0.5076095468142198  0.1242979462121477
  0.5120518760621009  0.7423252630407872  0.3349822009454849
  0.0114405205452711  0.7460192749095114  0.6613243383623951
 -0.0169556574923494  0.2502087579332302  0.7202183697846761
  0.5072591793232341  0.5101852114787329  0.8241277675860406
 -0.0222035500587166 -0.0680726127537681  0.1292080935486501
  0.1058550276556272 -0.0003035190783466  0.8926621123597137
  0.6041972842979718  0.7045409783123503  0.6727328272835515
  0.1106176383255236  0.7782381433982339  0.3110285051889518
  0.6058146740350967  0.3013464158475246  0.7171579389427873
  0.6216817949656827  0.5425900744396990  0.0913835830436824
  0.1841794708129819  0.5014252015027130  0.8196877580573982
  0.7017351892439737  0.0015566414851661  0.2106749881593943
 
  0.00000000E+00  0.00000000E+00  0.00000000E+00
  0.00000000E+00  0.00000000E+00  0.00000000E+00
  0.00000000E+00  0.00000000E+00  0.00000000E+00
  0.00000000E+00  0.00000000E+00  0.00000000E+00
  0.00000000E+00  0.00000000E+00  0.00000000E+00
  0.00000000E+00  0.00000000E+00  0.00000000E+00
  0.00000000E+00  0.00000000E+00  0.00000000E+00
  0.00000000E+00  0.00000000E+00  0.00000000E+00
  0.00000000E+00  0.00000000E+00  0.00000000E+00
  0.00000000E+00  0.00000000E+00  0.00000000E+00
  0.00000000E+00  0.00000000E+00  0.00000000E+00
  0.00000000E+00  0.00000000E+00  0.00000000E+00
  0.00000000E+00  0.00000000E+00  0.00000000E+00
  0.00000000E+00  0.00000000E+00  0.00000000E+00
