Li4 P2 N2 O4
1.0
2.626815 -4.398313 0.000000
2.626815 4.398313 0.000000
0.000000 0.000000 4.579506
Li P N O
4 2 2 4
direct
0.324815 0.993646 0.501496 Li
0.993646 0.324815 0.501496 Li
0.675185 0.006354 0.001496 Li
0.006354 0.675185 0.001496 Li
0.654491 0.654491 0.499236 P
0.345509 0.345509 0.999236 P
0.385840 0.385840 0.342723 N
0.614160 0.614160 0.842723 N
0.945867 0.666917 0.418025 O
0.666917 0.945867 0.418025 O
0.054133 0.333083 0.918025 O
0.333083 0.054133 0.918025 O
