Li140 P140 O420
1.0
13.312980 0.000000 -5.521558
2.677750 16.540545 0.000000
0.000000 0.000000 60.737138
Li P O
140 140 420
direct
0.944698 0.181780 0.078895 Li+
0.444698 0.681780 0.032460 Li+
0.822834 0.065996 0.068742 Li+
0.322834 0.565996 0.020455 Li+
0.702414 0.950543 0.055853 Li+
0.202414 0.450543 0.011450 Li+
0.582845 0.835452 0.044852 Li+
0.082845 0.335452 0.000711 Li+
0.512460 0.758434 0.085221 Li+
0.012460 0.258434 0.038454 Li+
0.942549 0.681714 0.076282 Li+
0.442549 0.181714 0.034681 Li+
0.821455 0.566270 0.069354 Li+
0.321455 0.066270 0.019593 Li+
0.702271 0.449547 0.053343 Li+
0.202271 0.949547 0.013934 Li+
0.582496 0.332984 0.047501 Li+
0.082496 0.832984 0.088908 Li+
0.510463 0.256366 0.087939 Li+
0.010463 0.756366 0.035373 Li+
0.944698 0.181780 0.169804 Li+
0.444698 0.681780 0.123369 Li+
0.822834 0.065996 0.159651 Li+
0.322834 0.565996 0.111364 Li+
0.702414 0.950543 0.146762 Li+
0.202414 0.450543 0.102359 Li+
0.582845 0.835452 0.135761 Li+
0.082845 0.335452 0.091620 Li+
0.512460 0.758434 0.176130 Li+
0.012460 0.258434 0.129363 Li+
0.942549 0.681714 0.167191 Li+
0.442549 0.181714 0.125590 Li+
0.821455 0.566270 0.160263 Li+
0.321455 0.066270 0.110502 Li+
0.702271 0.449547 0.144252 Li+
0.202271 0.949547 0.104843 Li+
0.582496 0.332984 0.138410 Li+
0.082496 0.832984 0.179817 Li+
0.510463 0.256366 0.178848 Li+
0.010463 0.756366 0.126282 Li+
0.944698 0.181780 0.260713 Li+
0.444698 0.681780 0.214278 Li+
0.822834 0.065996 0.250560 Li+
0.322834 0.565996 0.202273 Li+
0.702414 0.950543 0.237671 Li+
0.202414 0.450543 0.193268 Li+
0.582845 0.835452 0.226670 Li+
0.082845 0.335452 0.182529 Li+
0.512460 0.758434 0.267039 Li+
0.012460 0.258434 0.220272 Li+
0.942549 0.681714 0.258101 Li+
0.442549 0.181714 0.216499 Li+
0.821455 0.566270 0.251172 Li+
0.321455 0.066270 0.201411 Li+
0.702271 0.449547 0.235161 Li+
0.202271 0.949547 0.195752 Li+
0.582496 0.332984 0.229319 Li+
0.082496 0.832984 0.270726 Li+
0.510463 0.256366 0.269757 Li+
0.010463 0.756366 0.217191 Li+
0.944698 0.181780 0.351622 Li+
0.444698 0.681780 0.305187 Li+
0.822834 0.065996 0.341470 Li+
0.322834 0.565996 0.293182 Li+
0.702414 0.950543 0.328580 Li+
0.202414 0.450543 0.284177 Li+
0.582845 0.835452 0.317579 Li+
0.082845 0.335452 0.273438 Li+
0.512460 0.758434 0.357948 Li+
0.012460 0.258434 0.311181 Li+
0.942549 0.681714 0.349010 Li+
0.442549 0.181714 0.307408 Li+
0.821455 0.566270 0.342081 Li+
0.321455 0.066270 0.292320 Li+
0.702271 0.449547 0.326070 Li+
0.202271 0.949547 0.286661 Li+
0.582496 0.332984 0.320228 Li+
0.082496 0.832984 0.361635 Li+
0.510463 0.256366 0.360666 Li+
0.010463 0.756366 0.308100 Li+
0.944698 0.181780 0.442531 Li+
0.444698 0.681780 0.396096 Li+
0.822834 0.065996 0.432379 Li+
0.322834 0.565996 0.384091 Li+
0.702414 0.950543 0.419489 Li+
0.202414 0.450543 0.375086 Li+
0.582845 0.835452 0.408488 Li+
0.082845 0.335452 0.364347 Li+
0.512460 0.758434 0.448857 Li+
0.012460 0.258434 0.402090 Li+
0.942549 0.681714 0.439919 Li+
0.442549 0.181714 0.398318 Li+
0.821455 0.566270 0.432990 Li+
0.321455 0.066270 0.383229 Li+
0.702271 0.449547 0.416979 Li+
0.202271 0.949547 0.377570 Li+
0.582496 0.332984 0.411137 Li+
0.082496 0.832984 0.452544 Li+
0.510463 0.256366 0.451575 Li+
0.010463 0.756366 0.399009 Li+
0.944698 0.181780 0.533440 Li+
0.444698 0.681780 0.487005 Li+
0.822834 0.065996 0.523288 Li+
0.322834 0.565996 0.475000 Li+
0.702414 0.950543 0.510398 Li+
0.202414 0.450543 0.465995 Li+
0.582845 0.835452 0.499397 Li+
0.082845 0.335452 0.455256 Li+
0.512460 0.758434 0.539766 Li+
0.012460 0.258434 0.492999 Li+
0.942549 0.681714 0.530828 Li+
0.442549 0.181714 0.489227 Li+
0.821455 0.566270 0.523899 Li+
0.321455 0.066270 0.474138 Li+
0.702271 0.449547 0.507888 Li+
0.202271 0.949547 0.468479 Li+
0.582496 0.332984 0.502046 Li+
0.082496 0.832984 0.543453 Li+
0.510463 0.256366 0.542484 Li+
0.010463 0.756366 0.489918 Li+
0.944698 0.181780 0.624349 Li+
0.444698 0.681780 0.577914 Li+
0.822834 0.065996 0.614197 Li+
0.322834 0.565996 0.565909 Li+
0.702414 0.950543 0.601307 Li+
0.202414 0.450543 0.556904 Li+
0.582845 0.835452 0.590306 Li+
0.082845 0.335452 0.546165 Li+
0.512460 0.758434 0.630675 Li+
0.012460 0.258434 0.583908 Li+
0.942549 0.681714 0.621737 Li+
0.442549 0.181714 0.580136 Li+
0.821455 0.566270 0.614808 Li+
0.321455 0.066270 0.565047 Li+
0.702271 0.449547 0.598797 Li+
0.202271 0.949547 0.559388 Li+
0.582496 0.332984 0.592955 Li+
0.082496 0.832984 0.634362 Li+
0.510463 0.256366 0.633393 Li+
0.010463 0.756366 0.580827 Li+
0.001192 0.999587 0.021233 P5+
0.501192 0.499587 0.009484 P5+
0.887667 0.906720 0.042009 P5+
0.387667 0.406720 0.058976 P5+
0.795924 0.802939 0.002294 P5+
0.295924 0.302939 0.082011 P5+
0.716706 0.691689 0.027771 P5+
0.216706 0.191689 0.042130 P5+
0.616650 0.591751 0.079515 P5+
0.116650 0.091751 0.063104 P5+
0.909487 0.425433 0.043937 P5+
0.409487 0.925433 0.061015 P5+
0.808986 0.325562 0.004765 P5+
0.308986 0.825562 0.081914 P5+
0.730132 0.213545 0.030509 P5+
0.230132 0.713545 0.041833 P5+
0.637722 0.110144 0.082143 P5+
0.137722 0.610144 0.064307 P5+
0.524425 0.017155 0.012028 P5+
0.024425 0.517155 0.022913 P5+
0.001192 0.999587 0.112142 P5+
0.501192 0.499587 0.100393 P5+
0.887667 0.906720 0.132918 P5+
0.387667 0.406720 0.149885 P5+
0.795924 0.802939 0.093203 P5+
0.295924 0.302939 0.172920 P5+
0.716706 0.691689 0.118680 P5+
0.216706 0.191689 0.133039 P5+
0.616650 0.591751 0.170424 P5+
0.116650 0.091751 0.154013 P5+
0.909487 0.425433 0.134846 P5+
0.409487 0.925433 0.151924 P5+
0.808986 0.325562 0.095674 P5+
0.308986 0.825562 0.172823 P5+
0.730132 0.213545 0.121419 P5+
0.230132 0.713545 0.132742 P5+
0.637722 0.110144 0.173052 P5+
0.137722 0.610144 0.155216 P5+
0.524425 0.017155 0.102937 P5+
0.024425 0.517155 0.113822 P5+
0.001192 0.999587 0.203051 P5+
0.501192 0.499587 0.191302 P5+
0.887667 0.906720 0.223827 P5+
0.387667 0.406720 0.240794 P5+
0.795924 0.802939 0.184112 P5+
0.295924 0.302939 0.263829 P5+
0.716706 0.691689 0.209589 P5+
0.216706 0.191689 0.223948 P5+
0.616650 0.591751 0.261333 P5+
0.116650 0.091751 0.244922 P5+
0.909487 0.425433 0.225755 P5+
0.409487 0.925433 0.242833 P5+
0.808986 0.325562 0.186583 P5+
0.308986 0.825562 0.263733 P5+
0.730132 0.213545 0.212328 P5+
0.230132 0.713545 0.223651 P5+
0.637722 0.110144 0.263961 P5+
0.137722 0.610144 0.246125 P5+
0.524425 0.017155 0.193846 P5+
0.024425 0.517155 0.204731 P5+
0.001192 0.999587 0.293961 P5+
0.501192 0.499587 0.282211 P5+
0.887667 0.906720 0.314736 P5+
0.387667 0.406720 0.331703 P5+
0.795924 0.802939 0.275021 P5+
0.295924 0.302939 0.354738 P5+
0.716706 0.691689 0.300498 P5+
0.216706 0.191689 0.314858 P5+
0.616650 0.591751 0.352242 P5+
0.116650 0.091751 0.335831 P5+
0.909487 0.425433 0.316664 P5+
0.409487 0.925433 0.333742 P5+
0.808986 0.325562 0.277492 P5+
0.308986 0.825562 0.354642 P5+
0.730132 0.213545 0.303237 P5+
0.230132 0.713545 0.314560 P5+
0.637722 0.110144 0.354870 P5+
0.137722 0.610144 0.337034 P5+
0.524425 0.017155 0.284755 P5+
0.024425 0.517155 0.295640 P5+
0.001192 0.999587 0.384870 P5+
0.501192 0.499587 0.373120 P5+
0.887667 0.906720 0.405645 P5+
0.387667 0.406720 0.422612 P5+
0.795924 0.802939 0.365930 P5+
0.295924 0.302939 0.445647 P5+
0.716706 0.691689 0.391407 P5+
0.216706 0.191689 0.405767 P5+
0.616650 0.591751 0.443151 P5+
0.116650 0.091751 0.426740 P5+
0.909487 0.425433 0.407573 P5+
0.409487 0.925433 0.424652 P5+
0.808986 0.325562 0.368401 P5+
0.308986 0.825562 0.445551 P5+
0.730132 0.213545 0.394146 P5+
0.230132 0.713545 0.405469 P5+
0.637722 0.110144 0.445779 P5+
0.137722 0.610144 0.427943 P5+
0.524425 0.017155 0.375664 P5+
0.024425 0.517155 0.386549 P5+
0.001192 0.999587 0.475779 P5+
0.501192 0.499587 0.464029 P5+
0.887667 0.906720 0.496555 P5+
0.387667 0.406720 0.513521 P5+
0.795924 0.802939 0.456839 P5+
0.295924 0.302939 0.536556 P5+
0.716706 0.691689 0.482316 P5+
0.216706 0.191689 0.496676 P5+
0.616650 0.591751 0.534060 P5+
0.116650 0.091751 0.517649 P5+
0.909487 0.425433 0.498482 P5+
0.409487 0.925433 0.515561 P5+
0.808986 0.325562 0.459310 P5+
0.308986 0.825562 0.536460 P5+
0.730132 0.213545 0.485055 P5+
0.230132 0.713545 0.496378 P5+
0.637722 0.110144 0.536688 P5+
0.137722 0.610144 0.518852 P5+
0.524425 0.017155 0.466573 P5+
0.024425 0.517155 0.477458 P5+
0.001192 0.999587 0.566688 P5+
0.501192 0.499587 0.554938 P5+
0.887667 0.906720 0.587464 P5+
0.387667 0.406720 0.604430 P5+
0.795924 0.802939 0.547748 P5+
0.295924 0.302939 0.627465 P5+
0.716706 0.691689 0.573225 P5+
0.216706 0.191689 0.587585 P5+
0.616650 0.591751 0.624969 P5+
0.116650 0.091751 0.608558 P5+
0.909487 0.425433 0.589392 P5+
0.409487 0.925433 0.606470 P5+
0.808986 0.325562 0.550219 P5+
0.308986 0.825562 0.627369 P5+
0.730132 0.213545 0.575964 P5+
0.230132 0.713545 0.587287 P5+
0.637722 0.110144 0.627597 P5+
0.137722 0.610144 0.609761 P5+
0.524425 0.017155 0.557483 P5+
0.024425 0.517155 0.568367 P5+
0.905428 0.964587 0.023107 O2-
0.405428 0.464587 0.081107 O2-
0.800449 0.859372 0.024283 O2-
0.300449 0.359372 0.060844 O2-
0.757206 0.724144 0.008631 O2-
0.257206 0.224144 0.068634 O2-
0.685355 0.607741 0.016039 O2-
0.185355 0.107741 0.048162 O2-
0.058300 0.021852 0.048548 O2-
0.558300 0.521852 0.083461 O2-
0.840686 0.409378 0.016514 O2-
0.340686 0.909378 0.075929 O2-
0.772630 0.290596 0.024413 O2-
0.272630 0.790596 0.055656 O2-
0.726756 0.156445 0.008658 O2-
0.226756 0.656445 0.063070 O2-
0.618048 0.056520 0.010637 O2-
0.118048 0.556520 0.041326 O2-
0.967956 0.495673 0.040092 O2-
0.467956 0.995673 0.075491 O2-
0.955284 0.073889 0.004567 O2-
0.455284 0.573889 0.017803 O2-
0.071165 0.933926 0.015909 O2-
0.571165 0.433926 0.027530 O2-
0.836724 0.958651 0.055536 O2-
0.336724 0.458651 0.036186 O2-
0.982201 0.846743 0.054968 O2-
0.482201 0.346743 0.063205 O2-
0.714989 0.845353 0.070979 O2-
0.214989 0.345353 0.089519 O2-
0.902007 0.775410 0.003452 O2-
0.402007 0.275410 0.009231 O2-
0.622035 0.747295 0.026204 O2-
0.122035 0.247295 0.026485 O2-
0.803128 0.669352 0.051326 O2-
0.303128 0.169352 0.034288 O2-
0.542257 0.667159 0.067717 O2-
0.042257 0.167159 0.061375 O2-
0.685603 0.553292 0.067961 O2-
0.185603 0.053292 0.087194 O2-
0.839056 0.463335 0.055174 O2-
0.339056 0.963335 0.036972 O2-
0.984307 0.350606 0.056006 O2-
0.484307 0.850606 0.062550 O2-
0.720379 0.348215 0.072485 O2-
0.220379 0.848215 0.088993 O2-
0.903854 0.271458 0.005778 O2-
0.403854 0.771458 0.007241 O2-
0.623095 0.241625 0.028646 O2-
0.123095 0.741625 0.024234 O2-
0.808921 0.171199 0.053066 O2-
0.308921 0.671199 0.033602 O2-
0.543593 0.170027 0.068734 O2-
0.043593 0.670027 0.060601 O2-
0.687356 0.055640 0.068892 O2-
0.187356 0.555640 0.086582 O2-
0.452378 0.080441 0.017514 O2-
0.952378 0.580441 0.004327 O2-
0.572944 0.942366 0.028344 O2-
0.072944 0.442366 0.015419 O2-
0.905428 0.964587 0.114016 O2-
0.405428 0.464587 0.172016 O2-
0.800449 0.859372 0.115192 O2-
0.300449 0.359372 0.151753 O2-
0.757206 0.724144 0.099540 O2-
0.257206 0.224144 0.159543 O2-
0.685355 0.607741 0.106948 O2-
0.185355 0.107741 0.139071 O2-
0.058300 0.021852 0.139457 O2-
0.558300 0.521852 0.174370 O2-
0.840686 0.409378 0.107423 O2-
0.340686 0.909378 0.166838 O2-
0.772630 0.290596 0.115322 O2-
0.272630 0.790596 0.146566 O2-
0.726756 0.156445 0.099567 O2-
0.226756 0.656445 0.153979 O2-
0.618048 0.056520 0.101547 O2-
0.118048 0.556520 0.132235 O2-
0.967956 0.495673 0.131001 O2-
0.467956 0.995673 0.166400 O2-
0.955284 0.073889 0.095476 O2-
0.455284 0.573889 0.108712 O2-
0.071165 0.933926 0.106818 O2-
0.571165 0.433926 0.118439 O2-
0.836724 0.958651 0.146445 O2-
0.336724 0.458651 0.127095 O2-
0.982201 0.846743 0.145877 O2-
0.482201 0.346743 0.154114 O2-
0.714989 0.845353 0.161888 O2-
0.214989 0.345353 0.180428 O2-
0.902007 0.775410 0.094361 O2-
0.402007 0.275410 0.100140 O2-
0.622035 0.747295 0.117113 O2-
0.122035 0.247295 0.117394 O2-
0.803128 0.669352 0.142235 O2-
0.303128 0.169352 0.125197 O2-
0.542257 0.667159 0.158626 O2-
0.042257 0.167159 0.152284 O2-
0.685603 0.553292 0.158871 O2-
0.185603 0.053292 0.178103 O2-
0.839056 0.463335 0.146083 O2-
0.339056 0.963335 0.127881 O2-
0.984307 0.350606 0.146915 O2-
0.484307 0.850606 0.153459 O2-
0.720379 0.348215 0.163394 O2-
0.220379 0.848215 0.179902 O2-
0.903854 0.271458 0.096687 O2-
0.403854 0.771458 0.098150 O2-
0.623095 0.241625 0.119556 O2-
0.123095 0.741625 0.115144 O2-
0.808921 0.171199 0.143975 O2-
0.308921 0.671199 0.124511 O2-
0.543593 0.170027 0.159643 O2-
0.043593 0.670027 0.151510 O2-
0.687356 0.055640 0.159801 O2-
0.187356 0.555640 0.177491 O2-
0.452378 0.080441 0.108424 O2-
0.952378 0.580441 0.095236 O2-
0.572944 0.942366 0.119253 O2-
0.072944 0.442366 0.106328 O2-
0.905428 0.964587 0.204925 O2-
0.405428 0.464587 0.262925 O2-
0.800449 0.859372 0.206101 O2-
0.300449 0.359372 0.242662 O2-
0.757206 0.724144 0.190449 O2-
0.257206 0.224144 0.250452 O2-
0.685355 0.607741 0.197857 O2-
0.185355 0.107741 0.229981 O2-
0.058300 0.021852 0.230366 O2-
0.558300 0.521852 0.265279 O2-
0.840686 0.409378 0.198332 O2-
0.340686 0.909378 0.257747 O2-
0.772630 0.290596 0.206231 O2-
0.272630 0.790596 0.237475 O2-
0.726756 0.156445 0.190476 O2-
0.226756 0.656445 0.244888 O2-
0.618048 0.056520 0.192456 O2-
0.118048 0.556520 0.223144 O2-
0.967956 0.495673 0.221911 O2-
0.467956 0.995673 0.257309 O2-
0.955284 0.073889 0.186385 O2-
0.455284 0.573889 0.199621 O2-
0.071165 0.933926 0.197727 O2-
0.571165 0.433926 0.209348 O2-
0.836724 0.958651 0.237354 O2-
0.336724 0.458651 0.218005 O2-
0.982201 0.846743 0.236786 O2-
0.482201 0.346743 0.245023 O2-
0.714989 0.845353 0.252797 O2-
0.214989 0.345353 0.271338 O2-
0.902007 0.775410 0.185271 O2-
0.402007 0.275410 0.191049 O2-
0.622035 0.747295 0.208022 O2-
0.122035 0.247295 0.208303 O2-
0.803128 0.669352 0.233144 O2-
0.303128 0.169352 0.216106 O2-
0.542257 0.667159 0.249535 O2-
0.042257 0.167159 0.243193 O2-
0.685603 0.553292 0.249780 O2-
0.185603 0.053292 0.269012 O2-
0.839056 0.463335 0.236992 O2-
0.339056 0.963335 0.218791 O2-
0.984307 0.350606 0.237824 O2-
0.484307 0.850606 0.244368 O2-
0.720379 0.348215 0.254303 O2-
0.220379 0.848215 0.270811 O2-
0.903854 0.271458 0.187596 O2-
0.403854 0.771458 0.189059 O2-
0.623095 0.241625 0.210465 O2-
0.123095 0.741625 0.206053 O2-
0.808921 0.171199 0.234884 O2-
0.308921 0.671199 0.215420 O2-
0.543593 0.170027 0.250552 O2-
0.043593 0.670027 0.242420 O2-
0.687356 0.055640 0.250710 O2-
0.187356 0.555640 0.268400 O2-
0.452378 0.080441 0.199333 O2-
0.952378 0.580441 0.186145 O2-
0.572944 0.942366 0.210162 O2-
0.072944 0.442366 0.197237 O2-
0.905428 0.964587 0.295834 O2-
0.405428 0.464587 0.353834 O2-
0.800449 0.859372 0.297010 O2-
0.300449 0.359372 0.333571 O2-
0.757206 0.724144 0.281358 O2-
0.257206 0.224144 0.341361 O2-
0.685355 0.607741 0.288766 O2-
0.185355 0.107741 0.320890 O2-
0.058300 0.021852 0.321275 O2-
0.558300 0.521852 0.356188 O2-
0.840686 0.409378 0.289241 O2-
0.340686 0.909378 0.348656 O2-
0.772630 0.290596 0.297140 O2-
0.272630 0.790596 0.328384 O2-
0.726756 0.156445 0.281386 O2-
0.226756 0.656445 0.335797 O2-
0.618048 0.056520 0.283365 O2-
0.118048 0.556520 0.314053 O2-
0.967956 0.495673 0.312820 O2-
0.467956 0.995673 0.348218 O2-
0.955284 0.073889 0.277294 O2-
0.455284 0.573889 0.290530 O2-
0.071165 0.933926 0.288636 O2-
0.571165 0.433926 0.300258 O2-
0.836724 0.958651 0.328263 O2-
0.336724 0.458651 0.308914 O2-
0.982201 0.846743 0.327695 O2-
0.482201 0.346743 0.335932 O2-
0.714989 0.845353 0.343706 O2-
0.214989 0.345353 0.362247 O2-
0.902007 0.775410 0.276180 O2-
0.402007 0.275410 0.281958 O2-
0.622035 0.747295 0.298931 O2-
0.122035 0.247295 0.299212 O2-
0.803128 0.669352 0.324053 O2-
0.303128 0.169352 0.307015 O2-
0.542257 0.667159 0.340444 O2-
0.042257 0.167159 0.334103 O2-
0.685603 0.553292 0.340689 O2-
0.185603 0.053292 0.359921 O2-
0.839056 0.463335 0.327901 O2-
0.339056 0.963335 0.309700 O2-
0.984307 0.350606 0.328733 O2-
0.484307 0.850606 0.335278 O2-
0.720379 0.348215 0.345212 O2-
0.220379 0.848215 0.361720 O2-
0.903854 0.271458 0.278505 O2-
0.403854 0.771458 0.279968 O2-
0.623095 0.241625 0.301374 O2-
0.123095 0.741625 0.296962 O2-
0.808921 0.171199 0.325793 O2-
0.308921 0.671199 0.306329 O2-
0.543593 0.170027 0.341461 O2-
0.043593 0.670027 0.333329 O2-
0.687356 0.055640 0.341619 O2-
0.187356 0.555640 0.359309 O2-
0.452378 0.080441 0.290242 O2-
0.952378 0.580441 0.277054 O2-
0.572944 0.942366 0.301071 O2-
0.072944 0.442366 0.288146 O2-
0.905428 0.964587 0.386744 O2-
0.405428 0.464587 0.444744 O2-
0.800449 0.859372 0.387919 O2-
0.300449 0.359372 0.424481 O2-
0.757206 0.724144 0.372267 O2-
0.257206 0.224144 0.432270 O2-
0.685355 0.607741 0.379675 O2-
0.185355 0.107741 0.411799 O2-
0.058300 0.021852 0.412184 O2-
0.558300 0.521852 0.447098 O2-
0.840686 0.409378 0.380151 O2-
0.340686 0.909378 0.439565 O2-
0.772630 0.290596 0.388049 O2-
0.272630 0.790596 0.419293 O2-
0.726756 0.156445 0.372295 O2-
0.226756 0.656445 0.426706 O2-
0.618048 0.056520 0.374274 O2-
0.118048 0.556520 0.404962 O2-
0.967956 0.495673 0.403729 O2-
0.467956 0.995673 0.439127 O2-
0.955284 0.073889 0.368204 O2-
0.455284 0.573889 0.381439 O2-
0.071165 0.933926 0.379545 O2-
0.571165 0.433926 0.391167 O2-
0.836724 0.958651 0.419173 O2-
0.336724 0.458651 0.399823 O2-
0.982201 0.846743 0.418604 O2-
0.482201 0.346743 0.426841 O2-
0.714989 0.845353 0.434615 O2-
0.214989 0.345353 0.453156 O2-
0.902007 0.775410 0.367089 O2-
0.402007 0.275410 0.372867 O2-
0.622035 0.747295 0.389840 O2-
0.122035 0.247295 0.390121 O2-
0.803128 0.669352 0.414963 O2-
0.303128 0.169352 0.397924 O2-
0.542257 0.667159 0.431353 O2-
0.042257 0.167159 0.425012 O2-
0.685603 0.553292 0.431598 O2-
0.185603 0.053292 0.450830 O2-
0.839056 0.463335 0.418811 O2-
0.339056 0.963335 0.400609 O2-
0.984307 0.350606 0.419642 O2-
0.484307 0.850606 0.426187 O2-
0.720379 0.348215 0.436121 O2-
0.220379 0.848215 0.452629 O2-
0.903854 0.271458 0.369415 O2-
0.403854 0.771458 0.370877 O2-
0.623095 0.241625 0.392283 O2-
0.123095 0.741625 0.387871 O2-
0.808921 0.171199 0.416702 O2-
0.308921 0.671199 0.397238 O2-
0.543593 0.170027 0.432370 O2-
0.043593 0.670027 0.424238 O2-
0.687356 0.055640 0.432528 O2-
0.187356 0.555640 0.450218 O2-
0.452378 0.080441 0.381151 O2-
0.952378 0.580441 0.367963 O2-
0.572944 0.942366 0.391980 O2-
0.072944 0.442366 0.379055 O2-
0.905428 0.964587 0.477653 O2-
0.405428 0.464587 0.535653 O2-
0.800449 0.859372 0.478828 O2-
0.300449 0.359372 0.515390 O2-
0.757206 0.724144 0.463176 O2-
0.257206 0.224144 0.523179 O2-
0.685355 0.607741 0.470584 O2-
0.185355 0.107741 0.502708 O2-
0.058300 0.021852 0.503093 O2-
0.558300 0.521852 0.538007 O2-
0.840686 0.409378 0.471060 O2-
0.340686 0.909378 0.530474 O2-
0.772630 0.290596 0.478958 O2-
0.272630 0.790596 0.510202 O2-
0.726756 0.156445 0.463204 O2-
0.226756 0.656445 0.517616 O2-
0.618048 0.056520 0.465183 O2-
0.118048 0.556520 0.495871 O2-
0.967956 0.495673 0.494638 O2-
0.467956 0.995673 0.530036 O2-
0.955284 0.073889 0.459113 O2-
0.455284 0.573889 0.472348 O2-
0.071165 0.933926 0.470454 O2-
0.571165 0.433926 0.482076 O2-
0.836724 0.958651 0.510082 O2-
0.336724 0.458651 0.490732 O2-
0.982201 0.846743 0.509513 O2-
0.482201 0.346743 0.517751 O2-
0.714989 0.845353 0.525524 O2-
0.214989 0.345353 0.544065 O2-
0.902007 0.775410 0.457998 O2-
0.402007 0.275410 0.463776 O2-
0.622035 0.747295 0.480749 O2-
0.122035 0.247295 0.481030 O2-
0.803128 0.669352 0.505872 O2-
0.303128 0.169352 0.488833 O2-
0.542257 0.667159 0.522262 O2-
0.042257 0.167159 0.515921 O2-
0.685603 0.553292 0.522507 O2-
0.185603 0.053292 0.541739 O2-
0.839056 0.463335 0.509720 O2-
0.339056 0.963335 0.491518 O2-
0.984307 0.350606 0.510551 O2-
0.484307 0.850606 0.517096 O2-
0.720379 0.348215 0.527031 O2-
0.220379 0.848215 0.543538 O2-
0.903854 0.271458 0.460324 O2-
0.403854 0.771458 0.461786 O2-
0.623095 0.241625 0.483192 O2-
0.123095 0.741625 0.478780 O2-
0.808921 0.171199 0.507611 O2-
0.308921 0.671199 0.488147 O2-
0.543593 0.170027 0.523279 O2-
0.043593 0.670027 0.515147 O2-
0.687356 0.055640 0.523437 O2-
0.187356 0.555640 0.541127 O2-
0.452378 0.080441 0.472060 O2-
0.952378 0.580441 0.458873 O2-
0.572944 0.942366 0.482889 O2-
0.072944 0.442366 0.469964 O2-
0.905428 0.964587 0.568562 O2-
0.405428 0.464587 0.626562 O2-
0.800449 0.859372 0.569737 O2-
0.300449 0.359372 0.606299 O2-
0.757206 0.724144 0.554085 O2-
0.257206 0.224144 0.614089 O2-
0.685355 0.607741 0.561493 O2-
0.185355 0.107741 0.593617 O2-
0.058300 0.021852 0.594003 O2-
0.558300 0.521852 0.628916 O2-
0.840686 0.409378 0.561969 O2-
0.340686 0.909378 0.621383 O2-
0.772630 0.290596 0.569867 O2-
0.272630 0.790596 0.601111 O2-
0.726756 0.156445 0.554113 O2-
0.226756 0.656445 0.608525 O2-
0.618048 0.056520 0.556092 O2-
0.118048 0.556520 0.586780 O2-
0.967956 0.495673 0.585547 O2-
0.467956 0.995673 0.620945 O2-
0.955284 0.073889 0.550022 O2-
0.455284 0.573889 0.563257 O2-
0.071165 0.933926 0.561363 O2-
0.571165 0.433926 0.572985 O2-
0.836724 0.958651 0.600991 O2-
0.336724 0.458651 0.581641 O2-
0.982201 0.846743 0.600422 O2-
0.482201 0.346743 0.608660 O2-
0.714989 0.845353 0.616433 O2-
0.214989 0.345353 0.634974 O2-
0.902007 0.775410 0.548907 O2-
0.402007 0.275410 0.554685 O2-
0.622035 0.747295 0.571658 O2-
0.122035 0.247295 0.571939 O2-
0.803128 0.669352 0.596781 O2-
0.303128 0.169352 0.579743 O2-
0.542257 0.667159 0.613171 O2-
0.042257 0.167159 0.606830 O2-
0.685603 0.553292 0.613416 O2-
0.185603 0.053292 0.632648 O2-
0.839056 0.463335 0.600629 O2-
0.339056 0.963335 0.582427 O2-
0.984307 0.350606 0.601460 O2-
0.484307 0.850606 0.608005 O2-
0.720379 0.348215 0.617940 O2-
0.220379 0.848215 0.634447 O2-
0.903854 0.271458 0.551233 O2-
0.403854 0.771458 0.552695 O2-
0.623095 0.241625 0.574101 O2-
0.123095 0.741625 0.569689 O2-
0.808921 0.171199 0.598520 O2-
0.308921 0.671199 0.579056 O2-
0.543593 0.170027 0.614188 O2-
0.043593 0.670027 0.606056 O2-
0.687356 0.055640 0.614346 O2-
0.187356 0.555640 0.632036 O2-
0.452378 0.080441 0.562969 O2-
0.952378 0.580441 0.549782 O2-
0.572944 0.942366 0.573798 O2-
0.072944 0.442366 0.560873 O2-
