Li21 N7
1.0
3.161590 0.000000 -1.825345
0.000000 3.888635 0.000000
0.000000 0.000000 51.109658
Li N
21 7
direct
0.000000 0.500000 0.035714 Li+
0.333333 0.000000 0.011905 Li+
0.666667 0.000000 0.059524 Li+
0.000000 0.500000 0.107143 Li+
0.333333 0.000000 0.083333 Li+
0.666667 0.000000 0.130952 Li+
0.000000 0.500000 0.178571 Li+
0.333333 0.000000 0.154762 Li+
0.666667 0.000000 0.202381 Li+
0.000000 0.500000 0.250000 Li+
0.333333 0.000000 0.226190 Li+
0.666667 0.000000 0.273810 Li+
0.000000 0.500000 0.321429 Li+
0.333333 0.000000 0.297619 Li+
0.666667 0.000000 0.345238 Li+
0.000000 0.500000 0.392857 Li+
0.333333 0.000000 0.369048 Li+
0.666667 0.000000 0.416667 Li+
0.000000 0.500000 0.464286 Li+
0.333333 0.000000 0.440476 Li+
0.666667 0.000000 0.488095 Li+
0.000000 0.000000 0.035714 N3-
0.000000 0.000000 0.107143 N3-
0.000000 0.000000 0.178571 N3-
0.000000 0.000000 0.250000 N3-
0.000000 0.000000 0.321429 N3-
0.000000 0.000000 0.392857 N3-
0.000000 0.000000 0.464286 N3-
