Li4 O4                                  
   1.00000000000000     
     1.5918180000000000   -2.7571099999999999    0.0000000000000000
     1.5918180000000000    2.7571099999999999    0.0000000000000000
     0.0000000000000000   -0.6050340000000000    7.6876819999999997
   Li   O 
     4     4
Direct
  0.0000000000000000  0.0000000000000000  0.0000000000000000
  0.0000000000000000  0.0000000000000000  0.5000000000000000
  0.3333330000000032  0.6666669999999968  0.2500000000000000
  0.6666669999999968  0.3333330000000032  0.7500000000000000
  0.3333330000000032  0.6666669999999968  0.6493099999999998
  0.6666669999999968  0.3333330000000032  0.1493099999999998
  0.6666669999999968  0.3333330000000032  0.3506900000000002
  0.3333330000000032  0.6666669999999968  0.8506900000000002
 
  0.00000000E+00  0.00000000E+00  0.00000000E+00
  0.00000000E+00  0.00000000E+00  0.00000000E+00
  0.00000000E+00  0.00000000E+00  0.00000000E+00
  0.00000000E+00  0.00000000E+00  0.00000000E+00
  0.00000000E+00  0.00000000E+00  0.00000000E+00
  0.00000000E+00  0.00000000E+00  0.00000000E+00
  0.00000000E+00  0.00000000E+00  0.00000000E+00
  0.00000000E+00  0.00000000E+00  0.00000000E+00
