Li56 P28 N28 O56
1.0
5.461026 0.000000 0.000000
-0.000000 9.155868 4.748969
0.000000 0.000000 56.987628
Li P N O
56 28 28 56
Selective dynamics
direct
0.340535 0.665671 0.030092 T T T Li+
0.340535 0.334329 0.057704 T T T Li+
0.659465 0.334329 0.016037 T T T Li+
0.659465 0.665671 0.071759 F F F Li+
0.840536 0.165671 0.071759 T T T Li+
0.840536 0.834329 0.016037 T T T Li+
0.159465 0.834329 0.057704 F F F Li+
0.159465 0.165671 0.030092 T T T Li+
0.340535 0.665671 0.113425 F F F Li+
0.340535 0.334329 0.141037 F F F Li+
0.659465 0.334329 0.099370 F F F Li+
0.659465 0.665671 0.155092 F F F Li+
0.840536 0.165671 0.155092 F F F Li+
0.840536 0.834329 0.099370 F F F Li+
0.159465 0.834329 0.141037 F F F Li+
0.159465 0.165671 0.113425 F F F Li+
0.340535 0.665671 0.196759 F F F Li+
0.340535 0.334329 0.224370 F F F Li+
0.659465 0.334329 0.182704 F F F Li+
0.659465 0.665671 0.238425 F F F Li+
0.840536 0.165671 0.238425 F F F Li+
0.840536 0.834329 0.182704 F F F Li+
0.159465 0.834329 0.224370 F F F Li+
0.159465 0.165671 0.196759 F F F Li+
0.340535 0.665671 0.280092 F F F Li+
0.340535 0.334329 0.307704 F F F Li+
0.659465 0.334329 0.266037 F F F Li+
0.659465 0.665671 0.321759 F F F Li+
0.840536 0.165671 0.321759 F F F Li+
0.840536 0.834329 0.266037 F F F Li+
0.159465 0.834329 0.307704 F F F Li+
0.159465 0.165671 0.280092 F F F Li+
0.340535 0.665671 0.363425 F F F Li+
0.340535 0.334329 0.391037 F F F Li+
0.659465 0.334329 0.349370 F F F Li+
0.659465 0.665671 0.405092 F F F Li+
0.840536 0.165671 0.405092 F F F Li+
0.840536 0.834329 0.349370 F F F Li+
0.159465 0.834329 0.391037 F F F Li+
0.159465 0.165671 0.363425 F F F Li+
0.340535 0.665671 0.446759 F F F Li+
0.340535 0.334329 0.474370 F F F Li+
0.659465 0.334329 0.432704 F F F Li+
0.659465 0.665671 0.488425 F F F Li+
0.840536 0.165671 0.488425 F F F Li+
0.840536 0.834329 0.432704 F F F Li+
0.159465 0.834329 0.474370 F F F Li+
0.159465 0.165671 0.446759 F F F Li+
0.340535 0.665671 0.530092 T T T Li+
0.340535 0.334329 0.557704 T T T Li+
0.659465 0.334329 0.516037 F F F Li+
0.659465 0.665671 0.571759 T T T Li+
0.840536 0.165671 0.571759 T T T Li+
0.840536 0.834329 0.516037 T T T Li+
0.159465 0.834329 0.557704 T T T Li+
0.159465 0.165671 0.530092 F F F Li+
0.346250 0.000000 0.002485 T T T P5+
0.653750 0.000000 0.044152 T T T P5+
0.846250 0.500000 0.044152 T T T P5+
0.153750 0.500000 0.002485 T T T P5+
0.346250 0.000000 0.085818 T T T P5+
0.653750 0.000000 0.127485 F F F P5+
0.846250 0.500000 0.127485 F F F P5+
0.153750 0.500000 0.085818 F F F P5+
0.346250 0.000000 0.169152 F F F P5+
0.653750 0.000000 0.210818 F F F P5+
0.846250 0.500000 0.210818 F F F P5+
0.153750 0.500000 0.169152 F F F P5+
0.346250 0.000000 0.252485 F F F P5+
0.653750 0.000000 0.294152 F F F P5+
0.846250 0.500000 0.294152 F F F P5+
0.153750 0.500000 0.252485 F F F P5+
0.346250 0.000000 0.335818 F F F P5+
0.653750 0.000000 0.377485 F F F P5+
0.846250 0.500000 0.377485 F F F P5+
0.153750 0.500000 0.335818 F F F P5+
0.346250 0.000000 0.419152 F F F P5+
0.653750 0.000000 0.460818 F F F P5+
0.846250 0.500000 0.460818 F F F P5+
0.153750 0.500000 0.419152 F F F P5+
0.346250 0.000000 0.502485 T T T P5+
0.653750 0.000000 0.544152 T T T P5+
0.846250 0.500000 0.544152 T T T P5+
0.153750 0.500000 0.502485 F F F P5+
0.613000 0.000000 0.015596 T T T N3-
0.387000 0.000000 0.057263 T T T N3-
0.113000 0.500000 0.057263 T T T N3-
0.887000 0.500000 0.015596 T T T N3-
0.613000 0.000000 0.098929 T T T N3-
0.387000 0.000000 0.140596 F F F N3-
0.113000 0.500000 0.140596 F F F N3-
0.887000 0.500000 0.098929 F F F N3-
0.613000 0.000000 0.182263 F F F N3-
0.387000 0.000000 0.223929 F F F N3-
0.113000 0.500000 0.223929 F F F N3-
0.887000 0.500000 0.182263 F F F N3-
0.613000 0.000000 0.265596 F F F N3-
0.387000 0.000000 0.307263 F F F N3-
0.113000 0.500000 0.307263 F F F N3-
0.887000 0.500000 0.265596 F F F N3-
0.613000 0.000000 0.348929 F F F N3-
0.387000 0.000000 0.390596 F F F N3-
0.113000 0.500000 0.390596 F F F N3-
0.887000 0.500000 0.348929 F F F N3-
0.613000 0.000000 0.432263 F F F N3-
0.387000 0.000000 0.473929 F F F N3-
0.113000 0.500000 0.473929 F F F N3-
0.887000 0.500000 0.432263 F F F N3-
0.613000 0.000000 0.515596 T T T N3-
0.387000 0.000000 0.557263 T T T N3-
0.113000 0.500000 0.557263 T T T N3-
0.887000 0.500000 0.515596 F F F N3-
0.194550 0.139047 0.080848 T T T O2-
0.194550 0.860953 0.020690 T T T O2-
0.805450 0.860953 0.062356 F F F O2-
0.805450 0.139047 0.039182 T T T O2-
0.694550 0.639047 0.039182 T T T O2-
0.694550 0.360953 0.062356 T T T O2-
0.305450 0.360953 0.020690 T T T O2-
0.305450 0.639047 0.080848 F F F O2-
0.194550 0.139047 0.164182 F F F O2-
0.194550 0.860953 0.104023 F F F O2-
0.805450 0.860953 0.145690 F F F O2-
0.805450 0.139047 0.122515 F F F O2-
0.694550 0.639047 0.122515 F F F O2-
0.694550 0.360953 0.145690 F F F O2-
0.305450 0.360953 0.104023 F F F O2-
0.305450 0.639047 0.164182 F F F O2-
0.194550 0.139047 0.247515 F F F O2-
0.194550 0.860953 0.187356 F F F O2-
0.805450 0.860953 0.229023 F F F O2-
0.805450 0.139047 0.205848 F F F O2-
0.694550 0.639047 0.205848 F F F O2-
0.694550 0.360953 0.229023 F F F O2-
0.305450 0.360953 0.187356 F F F O2-
0.305450 0.639047 0.247515 F F F O2-
0.194550 0.139047 0.330848 F F F O2-
0.194550 0.860953 0.270690 F F F O2-
0.805450 0.860953 0.312356 F F F O2-
0.805450 0.139047 0.289182 F F F O2-
0.694550 0.639047 0.289182 F F F O2-
0.694550 0.360953 0.312356 F F F O2-
0.305450 0.360953 0.270690 F F F O2-
0.305450 0.639047 0.330848 F F F O2-
0.194550 0.139047 0.414182 F F F O2-
0.194550 0.860953 0.354023 F F F O2-
0.805450 0.860953 0.395690 F F F O2-
0.805450 0.139047 0.372515 F F F O2-
0.694550 0.639047 0.372515 F F F O2-
0.694550 0.360953 0.395690 F F F O2-
0.305450 0.360953 0.354023 F F F O2-
0.305450 0.639047 0.414182 F F F O2-
0.194550 0.139047 0.497515 F F F O2-
0.194550 0.860953 0.437356 F F F O2-
0.805450 0.860953 0.479023 F F F O2-
0.805450 0.139047 0.455848 F F F O2-
0.694550 0.639047 0.455848 F F F O2-
0.694550 0.360953 0.479023 F F F O2-
0.305450 0.360953 0.437356 F F F O2-
0.305450 0.639047 0.497515 F F F O2-
0.194550 0.139047 0.580848 T T T O2-
0.194550 0.860953 0.520690 T T T O2-
0.805450 0.860953 0.562356 T T T O2-
0.805450 0.139047 0.539182 F F F O2-
0.694550 0.639047 0.539182 T T T O2-
0.694550 0.360953 0.562356 T T T O2-
0.305450 0.360953 0.520690 F F F O2-
0.305450 0.639047 0.580848 T T T O2-
