Li7 P2 N1 O7                            
   1.00000000000000     
     5.0994399020058276   -0.0218445563004800   -0.0766722738539822
    -0.0219946142277474    5.2835720942470283    0.0030919802365635
    -0.0951180192734423    0.0028964093894512    6.1594523163252726
   Li   P    N    O 
     7     2     1     7
Direct
 -0.0425916313241453  0.6763691654016196  0.2967538978648382
 -0.0228501954710206  0.6794811251335844  0.7365792169675432
  0.5032255919739619  0.3222040188053156  0.7432965663733858
  0.6476595395947846  0.8536194961546671  0.0009875086169389
 -0.0002606406366063  0.1522139241704581  0.5139318577407076
  0.5232312190954022  0.3073862820844201  0.2770145448388695
  0.2936560561374608  0.6094328899979946  0.0561747361920949
  0.4869664995154570  0.8171172649912888  0.4975164656067998
 -0.0069271342619234  0.1883939812924463  0.0116617871213328
  0.5726592526781152  0.6815497300832382  0.2823705880516026
  0.1140622217944716  0.3300647871022381  0.8142388427856616
  0.6001225742028019  0.0985233181589996  0.5193134478775540
  0.1761589560103441  0.8325155205146846  0.5180482811121024
  0.6900921043063157  0.2127465861753263  0.0035601949380466
  0.1093170319019405  0.3207880327833015  0.2203220191833561
  0.0513029008175795  0.8973634296946019  0.0080024677049705
  0.5878756536650916  0.6817904474558174  0.7190475770241962
 
  0.00000000E+00  0.00000000E+00  0.00000000E+00
  0.00000000E+00  0.00000000E+00  0.00000000E+00
  0.00000000E+00  0.00000000E+00  0.00000000E+00
  0.00000000E+00  0.00000000E+00  0.00000000E+00
  0.00000000E+00  0.00000000E+00  0.00000000E+00
  0.00000000E+00  0.00000000E+00  0.00000000E+00
  0.00000000E+00  0.00000000E+00  0.00000000E+00
  0.00000000E+00  0.00000000E+00  0.00000000E+00
  0.00000000E+00  0.00000000E+00  0.00000000E+00
  0.00000000E+00  0.00000000E+00  0.00000000E+00
  0.00000000E+00  0.00000000E+00  0.00000000E+00
  0.00000000E+00  0.00000000E+00  0.00000000E+00
  0.00000000E+00  0.00000000E+00  0.00000000E+00
  0.00000000E+00  0.00000000E+00  0.00000000E+00
  0.00000000E+00  0.00000000E+00  0.00000000E+00
  0.00000000E+00  0.00000000E+00  0.00000000E+00
  0.00000000E+00  0.00000000E+00  0.00000000E+00
