Li5 P2 N1 O6                            
   1.00000000000000     
     0.0131404044795485    0.0590828720182281    5.0186459819247480
     5.9324554093542252    0.5534684722977852   -0.0243780100445941
     0.4421768453551017    5.5514346220101434    0.0597570784404140
   Li   P    N    O 
     5     2     1     6
Direct
  0.5889445978811791  0.0843414454131530  0.5907483196190582
  0.9591186637929807  0.4488354994621154  0.1820228135539331
  0.4655249206091112  0.5967657858628002  0.3902457576280078
  0.0442311693099472  0.8116997121536604  0.7177102420949192
  0.9743367532442672  0.2899055849532230  0.7256431033509020
  0.4683848538167459  0.5414396743129473  0.8473789642749181
  0.0198986993206801  0.9570719866923562  0.2435131431865808
  0.9812672575749899  0.1289085024756315  0.4177551980579498
  0.5192640903873847  0.7773481074178035  0.6797229252184332
  0.0830534169808399  0.7071015468576756  0.3435554218439519
  0.5824318660978954  0.3636981143099862  0.6963523502661537
  0.5984002333959551  0.5242604078955705  0.0970594867683438
  0.1606127258257800  0.5086823082116074  0.8771064164431600
  0.0018417517622718  0.0070683239814779  0.9682598576936869
 
  0.00000000E+00  0.00000000E+00  0.00000000E+00
  0.00000000E+00  0.00000000E+00  0.00000000E+00
  0.00000000E+00  0.00000000E+00  0.00000000E+00
  0.00000000E+00  0.00000000E+00  0.00000000E+00
  0.00000000E+00  0.00000000E+00  0.00000000E+00
  0.00000000E+00  0.00000000E+00  0.00000000E+00
  0.00000000E+00  0.00000000E+00  0.00000000E+00
  0.00000000E+00  0.00000000E+00  0.00000000E+00
  0.00000000E+00  0.00000000E+00  0.00000000E+00
  0.00000000E+00  0.00000000E+00  0.00000000E+00
  0.00000000E+00  0.00000000E+00  0.00000000E+00
  0.00000000E+00  0.00000000E+00  0.00000000E+00
  0.00000000E+00  0.00000000E+00  0.00000000E+00
  0.00000000E+00  0.00000000E+00  0.00000000E+00
