Li5 P2 N1 O6                            
   1.00000000000000     
     0.0208530235475497    0.0392529666106488    5.0087500033734349
     5.9026113207459225    0.5150867809135813   -0.0170456044600259
     0.4038541645854516    5.5490190134985555    0.0383206361111421
   Li   P    N    O 
     5     2     1     6
Direct
  0.5775859022972193  0.0824722024295454  0.5777798827386076
 -0.0364618943697901  0.4514561969191691  0.1819030693065030
  0.4589665778737938  0.5840421303703558  0.3876391034444208
  0.0459002131025200  0.8213118321896657  0.7174302221464666
 -0.0322931088064847  0.2912912622156693  0.7317074722928014
  0.4684969201643901  0.5417278504259114  0.8443728033275816
  0.0232622178739808 -0.0438124227840870  0.2494311600853822
 -0.0146967327120499  0.1295669693230860  0.4258923449693189
  0.5223362592181057  0.7760410409382424  0.6784176605441399
  0.0855947175577122  0.7053418279574947  0.3464560591335394
  0.5773685381509721  0.3605419379131694  0.6918941129959196
  0.6049360086390326  0.5242211222352271  0.0922985571801955
  0.1606740895382240  0.5140019036692038  0.8773222979702365
  0.0056412914724002  0.0089231461973455 -0.0254707461351145
 
  0.00000000E+00  0.00000000E+00  0.00000000E+00
  0.00000000E+00  0.00000000E+00  0.00000000E+00
  0.00000000E+00  0.00000000E+00  0.00000000E+00
  0.00000000E+00  0.00000000E+00  0.00000000E+00
  0.00000000E+00  0.00000000E+00  0.00000000E+00
  0.00000000E+00  0.00000000E+00  0.00000000E+00
  0.00000000E+00  0.00000000E+00  0.00000000E+00
  0.00000000E+00  0.00000000E+00  0.00000000E+00
  0.00000000E+00  0.00000000E+00  0.00000000E+00
  0.00000000E+00  0.00000000E+00  0.00000000E+00
  0.00000000E+00  0.00000000E+00  0.00000000E+00
  0.00000000E+00  0.00000000E+00  0.00000000E+00
  0.00000000E+00  0.00000000E+00  0.00000000E+00
  0.00000000E+00  0.00000000E+00  0.00000000E+00
