Li56 P28 O98
1.0
4.907295 0.000000 -1.895193
-0.730671 8.419349 -1.900271
0.000000 0.000000 79.370284
Li P O
56 28 98
Selective dynamics
direct
0.744463 0.987971 0.008593 T T T Li+
0.255537 0.012029 0.034952 T T T Li+
0.395677 0.751653 0.059161 T T T Li+
0.604323 0.248347 0.075293 T T T Li+
0.027769 0.791276 0.082887 T T T Li+
0.972231 0.208724 0.051567 T T T Li+
0.056952 0.450796 0.090692 T T T Li+
0.943048 0.549204 0.043762 T T T Li+
0.744463 0.987971 0.099502 F F F Li+
0.255537 0.012029 0.125862 F F F Li+
0.395677 0.751653 0.150070 F F F Li+
0.604323 0.248347 0.166202 F F F Li+
0.027769 0.791276 0.173797 F F F Li+
0.972231 0.208724 0.142476 F F F Li+
0.056952 0.450796 0.181601 F F F Li+
0.943048 0.549204 0.134671 F F F Li+
0.744463 0.987971 0.190411 F F F Li+
0.255537 0.012029 0.216771 F F F Li+
0.395677 0.751653 0.240979 F F F Li+
0.604323 0.248347 0.257112 F F F Li+
0.027769 0.791276 0.264706 F F F Li+
0.972231 0.208724 0.233385 F F F Li+
0.056952 0.450796 0.272510 F F F Li+
0.943048 0.549204 0.225581 F F F Li+
0.744463 0.987971 0.281320 F F F Li+
0.255537 0.012029 0.307680 F F F Li+
0.395677 0.751653 0.331888 F F F Li+
0.604323 0.248347 0.348021 F F F Li+
0.027769 0.791276 0.355615 F F F Li+
0.972231 0.208724 0.324294 F F F Li+
0.056952 0.450796 0.363419 F F F Li+
0.943048 0.549204 0.316490 F F F Li+
0.744463 0.987971 0.372229 F F F Li+
0.255537 0.012029 0.398589 F F F Li+
0.395677 0.751653 0.422798 F F F Li+
0.604323 0.248347 0.438930 F F F Li+
0.027769 0.791276 0.446524 F F F Li+
0.972231 0.208724 0.415203 F F F Li+
0.056952 0.450796 0.454329 F F F Li+
0.943048 0.549204 0.407399 F F F Li+
0.744463 0.987971 0.463138 F F F Li+
0.255537 0.012029 0.489498 F F F Li+
0.395677 0.751653 0.513707 F F F Li+
0.604323 0.248347 0.529839 F F F Li+
0.027769 0.791276 0.537433 F F F Li+
0.972231 0.208724 0.506113 F F F Li+
0.056952 0.450796 0.545238 F F F Li+
0.943048 0.549204 0.498308 F F F Li+
0.744463 0.987971 0.554048 T T T Li+
0.255537 0.012029 0.580407 T T T Li+
0.395677 0.751653 0.604616 T T T Li+
0.604323 0.248347 0.620748 T T T Li+
0.027769 0.791276 0.628342 T T T Li+
0.972231 0.208724 0.597022 T T T Li+
0.056952 0.450796 0.636147 T T T Li+
0.943048 0.549204 0.589217 T T T Li+
0.573990 0.631956 0.002382 T T T P5+
0.426010 0.368044 0.041163 T T T P5+
0.784272 0.845502 0.041842 T T T P5+
0.215728 0.154498 0.001704 T T T P5+
0.573990 0.631956 0.093291 F F F P5+
0.426010 0.368044 0.132073 F F F P5+
0.784272 0.845502 0.132751 F F F P5+
0.215728 0.154498 0.092613 F F F P5+
0.573990 0.631956 0.184200 F F F P5+
0.426010 0.368044 0.222982 F F F P5+
0.784272 0.845502 0.223660 F F F P5+
0.215728 0.154498 0.183522 F F F P5+
0.573990 0.631956 0.275109 F F F P5+
0.426010 0.368044 0.313891 F F F P5+
0.784272 0.845502 0.314569 F F F P5+
0.215728 0.154498 0.274431 F F F P5+
0.573990 0.631956 0.366018 F F F P5+
0.426010 0.368044 0.404800 F F F P5+
0.784272 0.845502 0.405478 F F F P5+
0.215728 0.154498 0.365340 F F F P5+
0.573990 0.631956 0.456927 F F F P5+
0.426010 0.368044 0.495709 F F F P5+
0.784272 0.845502 0.496387 F F F P5+
0.215728 0.154498 0.456249 F F F P5+
0.573990 0.631956 0.547837 T T T P5+
0.426010 0.368044 0.586618 T T T P5+
0.784272 0.845502 0.587296 T T T P5+
0.215728 0.154498 0.547158 T T T P5+
0.519912 0.874340 0.045249 T T T O2-
0.006130 0.790684 0.057616 T T T O2-
0.993870 0.209316 0.076838 T T T O2-
0.882911 0.981976 0.035537 T T T O2-
0.732561 0.376455 0.045105 T T T O2-
0.267439 0.623545 0.089350 T T T O2-
0.314844 0.526190 0.046119 T T T O2-
0.685156 0.473810 0.088335 T T T O2-
0.338222 0.236504 0.048827 T T T O2-
0.661778 0.763496 0.085628 T T T O2-
0.733069 0.683894 0.025192 T T T O2-
0.266931 0.316106 0.018353 T T T O2-
0.117089 0.018024 0.008008 T T T O2-
0.480088 0.125660 0.089205 T T T O2-
0.519912 0.874340 0.136158 F F F O2-
0.006130 0.790684 0.148525 F F F O2-
0.993870 0.209316 0.167747 F F F O2-
0.882911 0.981976 0.126446 F F F O2-
0.732561 0.376455 0.136014 F F F O2-
0.267439 0.623545 0.180259 F F F O2-
0.314844 0.526190 0.137028 F F F O2-
0.685156 0.473810 0.179244 F F F O2-
0.338222 0.236504 0.139736 F F F O2-
0.661778 0.763496 0.176537 F F F O2-
0.733069 0.683894 0.116101 F F F O2-
0.266931 0.316106 0.109262 F F F O2-
0.117089 0.018024 0.098917 F F F O2-
0.480088 0.125660 0.180114 F F F O2-
0.519912 0.874340 0.227067 F F F O2-
0.006130 0.790684 0.239435 F F F O2-
0.993870 0.209316 0.258656 F F F O2-
0.882911 0.981976 0.217355 F F F O2-
0.732561 0.376455 0.226923 F F F O2-
0.267439 0.623545 0.271168 F F F O2-
0.314844 0.526190 0.227937 F F F O2-
0.685156 0.473810 0.270154 F F F O2-
0.338222 0.236504 0.230645 F F F O2-
0.661778 0.763496 0.267446 F F F O2-
0.733069 0.683894 0.207011 F F F O2-
0.266931 0.316106 0.200171 F F F O2-
0.117089 0.018024 0.189826 F F F O2-
0.480088 0.125660 0.271024 F F F O2-
0.519912 0.874340 0.317976 F F F O2-
0.006130 0.790684 0.330344 F F F O2-
0.993870 0.209316 0.349565 F F F O2-
0.882911 0.981976 0.308264 F F F O2-
0.732561 0.376455 0.317832 F F F O2-
0.267439 0.623545 0.362077 F F F O2-
0.314844 0.526190 0.318846 F F F O2-
0.685156 0.473810 0.361063 F F F O2-
0.338222 0.236504 0.321554 F F F O2-
0.661778 0.763496 0.358355 F F F O2-
0.733069 0.683894 0.297920 F F F O2-
0.266931 0.316106 0.291080 F F F O2-
0.117089 0.018024 0.280736 F F F O2-
0.480088 0.125660 0.361933 F F F O2-
0.519912 0.874340 0.408886 F F F O2-
0.006130 0.790684 0.421253 F F F O2-
0.993870 0.209316 0.440475 F F F O2-
0.882911 0.981976 0.399174 F F F O2-
0.732561 0.376455 0.408741 F F F O2-
0.267439 0.623545 0.452986 F F F O2-
0.314844 0.526190 0.409756 F F F O2-
0.685156 0.473810 0.451972 F F F O2-
0.338222 0.236504 0.412463 F F F O2-
0.661778 0.763496 0.449264 F F F O2-
0.733069 0.683894 0.388829 F F F O2-
0.266931 0.316106 0.381989 F F F O2-
0.117089 0.018024 0.371645 F F F O2-
0.480088 0.125660 0.452842 F F F O2-
0.519912 0.874340 0.499795 F F F O2-
0.006130 0.790684 0.512162 F F F O2-
0.993870 0.209316 0.531384 F F F O2-
0.882911 0.981976 0.490083 F F F O2-
0.732561 0.376455 0.499650 F F F O2-
0.267439 0.623545 0.543895 F F F O2-
0.314844 0.526190 0.500665 F F F O2-
0.685156 0.473810 0.542881 F F F O2-
0.338222 0.236504 0.503372 F F F O2-
0.661778 0.763496 0.540173 F F F O2-
0.733069 0.683894 0.479738 F F F O2-
0.266931 0.316106 0.472899 F F F O2-
0.117089 0.018024 0.462554 F F F O2-
0.480088 0.125660 0.543751 F F F O2-
0.519912 0.874340 0.590704 T T T O2-
0.006130 0.790684 0.603071 T T T O2-
0.993870 0.209316 0.622293 T T T O2-
0.882911 0.981976 0.580992 T T T O2-
0.732561 0.376455 0.590559 T T T O2-
0.267439 0.623545 0.634805 T T T O2-
0.314844 0.526190 0.591574 T T T O2-
0.685156 0.473810 0.633790 T T T O2-
0.338222 0.236504 0.594282 T T T O2-
0.661778 0.763496 0.631082 T T T O2-
0.733069 0.683894 0.570647 T T T O2-
0.266931 0.316106 0.563808 T T T O2-
0.117089 0.018024 0.553463 T T T O2-
0.480088 0.125660 0.634660 T T T O2-
