Li71 P24 N1 O94                         
   1.00000000000000     
    14.7203852424832071    0.0015447560238148    0.0024994213213105
     0.0011379825874994   10.5875672815416610    0.0091354452071404
     0.0020675439347619    0.0106432590052106   12.3092766026182652
   Li   P    N    O 
    71    24     1    94
Direct
  0.1744474481993811  0.4197034874689772 -0.0018840900683263
  0.1631642833356261  0.4352307355690947  0.5227785286990871
  0.1679683326032820  0.9312420474183190  0.0070125252616186
  0.1707246756633036  0.9215717752965090  0.5006147252063724
  0.5039674710778648  0.4222784317177690 -0.0008860121562032
  0.5063140243906769  0.4252056349669815  0.5038048495874337
  0.5045283861731422  0.9228838294763607 -0.0003343337908023
  0.5022624062763938  0.9229337068646357  0.4997454142949713
  0.8397723494856190  0.4254294007986741 -0.0001790963637139
  0.8345010687658129  0.4221364469071563  0.5001794645805947
  0.8351746975791430  0.9189661494460932 -0.0013153366719051
  0.8363169693650943  0.9239357964581868  0.4993204124009173
  0.0063393384720110  0.0761230148504472  0.2459521767563809
  0.0029642974796573  0.0759163002454609  0.7510310908599880
 -0.0000415738579599  0.5812707688500147  0.2505527760022502
  0.0023453363348055  0.5767257709326002  0.7514186751070155
  0.3326843193954881  0.0772291912725810  0.2422797333895793
  0.3361223784528610  0.0774990311310297  0.7521717217890471
  0.3372671500991484  0.5802075273075297  0.2480062792019907
  0.3367061425355497  0.5773310634592740  0.7517477904358660
  0.6707259275165661  0.0772587986336102  0.2485215255905325
  0.6695680381650747  0.0767241131763309  0.7494443143089066
  0.6704763501792531  0.5782515581299569  0.2494301112763524
  0.6691695727396257  0.5779235383073321  0.7501865518007784
  0.1688621325111871  0.1627141182933431  0.6282973220967694
  0.1691522926826949  0.6672505238089002  0.1224962477140412
  0.1699834640535812  0.6664801699148329  0.6290054487826013
  0.5030232330665887  0.1620933135289202  0.1252193933274939
  0.5026268199800497  0.1632758202121317  0.6265846123150697
  0.5042308922466455  0.6641431869332163  0.1253763863382329
  0.5025238476142427  0.6644575253006748  0.6267071911507097
  0.8398114331570055  0.1613144472037885  0.1239994721954233
  0.8358084244264448  0.1634388100164552  0.6253690763415739
  0.8349116561412037  0.6654359369053299  0.1268973787603297
  0.8352952730434697  0.6635855403086768  0.6267602194180500
  0.0026805559913877  0.3252492552191868  0.1225501349393525
  0.0010004793805398  0.3356319627730639  0.6265163792358307
  0.0019162268015647  0.8397582716867078  0.1253961020595971
  0.0026513981364315  0.8373642480383260  0.6234034908655104
  0.3371334348568281  0.3323081737337208  0.1207506717045572
  0.3358402718760287  0.3359795644238202  0.6257972009658502
  0.3371281807493617  0.8378960666943035  0.1218760461056739
  0.3360679628505767  0.8378177945864682  0.6239260096393874
  0.6718374068369224  0.3359940423783560  0.1225037746053364
  0.6693661833394242  0.3366143878446693  0.6242195729416489
  0.6698710175290826  0.8372971357515011  0.1237683665812952
  0.6688920170682658  0.8370269080305445  0.6227473044579808
  0.0001925471875506  0.3366149572744188  0.3765388252687297
  0.0000367672805929  0.3273171973114365  0.8777637268769064
  0.0027866134874847  0.8378466561044683  0.3765865789103457
  0.0022370536498352  0.8395778149997645  0.8758023413956438
  0.3675703259760020  0.3359732516681700  0.3808528284703451
  0.3383487770967300  0.3337842683670010  0.8770689088745269
  0.3351112443597837  0.8373348345187848  0.3751664989783925
  0.3363413487582203  0.8381762130229130  0.8775640399762875
  0.6678888532501984  0.3368242511362136  0.3760673401939834
  0.6704638487096741  0.3366784478018224  0.8766900406867646
  0.6689447155484418  0.8374344005267926  0.3765204447164941
  0.6696120439728821  0.8371604346626976  0.8754287531554483
  0.1655539043565057  0.1439300062989687  0.3701508876772237
  0.1680445499068600  0.1619756937882298  0.8801821177754942
  0.1672495404067301  0.6636275920665129  0.3769807790643839
  0.1698325487890432  0.6643671897967052  0.8754894651205640
  0.5041980352115488  0.1591853218958256  0.3719790296705766
  0.5043555963590032  0.1626898950773383  0.8734437207064920
  0.5029010297948514  0.6643891730897156  0.3733130336004077
  0.5035757739635663  0.6638138744102047  0.8733853045632186
  0.8357049784128753  0.1636505450331829  0.3723404337646327
  0.8345625939252443  0.1614074255786938  0.8711177540593490
  0.8353813632359882  0.6641796542229369  0.3744134920391564
  0.8352997984091108  0.6648143998747684  0.8724824594250915
  0.1667799829504376  0.4186627850271135  0.2418601842939657
  0.1669482229569500  0.4113191030743718  0.7534740993871821
  0.1684619130598574  0.9087548938623001  0.2523934360207239
  0.1670771704538235  0.9123838381376379  0.7504148503285426
  0.5007714300801039  0.4136085132894492  0.2482743134666107
  0.5007084303561683  0.4124853730191764  0.7501466208235514
  0.5007298494817645  0.9119340017943375  0.2498340095260046
  0.5005158284764499  0.9122355094603535  0.7492841000721340
  0.8328941069075820  0.4129089349186076  0.2500614148523427
  0.8329627534082134  0.4123932391232177  0.7498928887286748
  0.8333948752504435  0.9124129104755868  0.2510386184916775
  0.8333492175877167  0.9119079957148168  0.7477843306130056
 -0.0041065435516953  0.0843870495406961  0.0001672524288683
  0.0006846150369936  0.0895462521590826  0.5002000709814474
 -0.0007814212174685  0.5924155248388190  0.0001352082137360
 -0.0009698068230412  0.5874514094370010  0.5006142994972715
  0.3356471605842333  0.0861492000842042 -0.0022093685064137
  0.3329506854003170  0.0895304136413490  0.4992533148108383
  0.3356087010749799  0.5881285728699169 -0.0005373075174079
  0.3336052145178233  0.5873491168928012  0.5003515051275785
  0.6679194611153341  0.0873944520549695 -0.0006816509974819
  0.6666267962980488  0.0884575827746035  0.4996206294155712
  0.6675730961089179  0.5880409613941545 -0.0003975348261407
  0.6664582977316038  0.5884784052681366  0.4999428788653930
  0.0384763802349080  0.4488426876900202 -0.0004749293628280
  0.0371258333877792  0.1598668598344382  0.3967727372314042
  0.0334577212520309  0.1526970016396324  0.8963891138543248
  0.0337545276971213  0.6559654600971438  0.3963705806810511
  0.0347265950140581  0.6597369230215069  0.8952744988012283
  0.3684840657315031  0.1584236029883100  0.3950109075807988
  0.3731679317437144  0.1561604489653970  0.8942902497225442
  0.3683703125930162  0.6557925849588701  0.3962197609241722
  0.3703378583744695  0.6574323106616841  0.8952567258775850
  0.7013151020660016  0.1580325395979433  0.3954929552488884
  0.7020309320571493  0.1562314888808383  0.8945620775690428
  0.7019574614668039  0.6573118537029545  0.3960742162769940
  0.7021870846489813  0.6575645529452288  0.8954934767995243
  0.2047799589397756  0.0446682153997059  0.2570788178277206
  0.2002388233414451  0.0521700816529323  0.7497772266616101
  0.1997224732744936  0.5578172326365121  0.2533632580658239
  0.1998328365762869  0.5514568035830589  0.7512796138519519
  0.5351758731029014  0.0513954812928784  0.2496279245643502
  0.5347119447334260  0.0516872434503233  0.7488826173802262
  0.5355505133632773  0.5523978183604881  0.2501162261318222
  0.5341124470747214  0.5523333132404853  0.7493254529360667
  0.8671089454862486  0.0518195159031285  0.2511019308999026
  0.8670168844913730  0.0515302229804782  0.7470290369496301
  0.8662154002879753  0.5529406581546011  0.2506007056781526
  0.8673649742271352  0.5518005312873727  0.7500743594921131
  0.0613291747811961  0.4094400735527678  0.2491935816037188
  0.0609591172404274  0.4077664793607271  0.7538697739418013
  0.0622633609239056  0.9073813358418610  0.2513847359279661
  0.0611481361271507  0.9088642757769968  0.7491608621669370
  0.3947439395489792  0.4123972166947356  0.2462516578549704
  0.3948931340044137  0.4095423124906564  0.7501681237594109
  0.3950930709422057  0.9092549097188918  0.2495071116642002
  0.3947436536832049  0.9095882867389459  0.7495179756974358
  0.7270661004688196  0.4096729167259529  0.2505607737056069
  0.7271967556433724  0.4105251487380518  0.7495261978778006
  0.7275335244769006  0.9092955980755143  0.2508674678738537
  0.7275275472120661  0.9090753006527533  0.7482142824008146
  0.2317499741812494  0.0853634001524353 -0.0058918623115730
  0.2269844376241883  0.0944488590582559  0.4993341709482435
  0.2299113327231348  0.5913516608789888  0.0002004979909765
  0.2274677984864214  0.5880256098921584  0.5011385148048701
  0.5622561724216957  0.0907668615883000  0.0001209977939728
  0.5607428650503067  0.0907825095430599  0.4999418400756690
  0.5617379576062160  0.5897960509347943 -0.0004526280882414
  0.5605998862660034  0.5921961989018945  0.5000056022795125
  0.8897396670214155  0.0838385821181426 -0.0065031277421144
  0.8949909837712352  0.0924316290012087  0.4987372185298945
  0.8931661364522668  0.5986265288117909  0.0001599908194752
  0.8934825595290137  0.5892512387666241  0.5011105166798463
  0.2075448034838281  0.3519785523229220  0.1435809768516574
  0.2013067022479752  0.3431069110820273  0.6482359416476008
  0.2034343564770951  0.8402712608777078  0.1479285392263299
  0.2024747272270413  0.8437126552423443  0.6458315457987601
  0.5376355445056022  0.3430417735147140  0.1466265042595166
  0.5357445748054568  0.3432772084817011  0.6460779568630680
  0.5368707306209487  0.8424359246599569  0.1467291091856876
  0.5351045108062271  0.8433148898977187  0.6447966821810307
  0.8683581548634955  0.3446400146610584  0.1463140111087893
  0.8680642390653963  0.3434415440590153  0.6457597722260420
  0.8685021032812069  0.8430764664064181  0.1474231807230650
  0.8685585540960493  0.8428799743967340  0.6437274909492254
  0.0227585989767508  0.1529643899371850  0.1054083398569786
  0.0351716767505213  0.1580623044479892  0.6045662240751936
  0.0342243784026998  0.6589809449934914  0.1057089485659241
  0.0355856224782616  0.6556802358861238  0.6040950877684096
  0.3718291875789397  0.1560248644903846  0.1013537912133405
  0.3685532600149198  0.1580248259249340  0.6030458250104382
  0.3711167641680066  0.6569735402261617  0.1033128360886417
  0.3681824596904314  0.6565349338815371  0.6040565396107918
  0.7040551249703091  0.1563681142645924  0.1027457580455741
  0.7019776024933848  0.1576092411706955  0.6032954486139390
  0.7020920923922644  0.6574749647023643  0.1036102662846909
  0.7019283901109904  0.6568552338675309  0.6038164305757434
  0.0336602544007064  0.4473277698235646  0.5006475981234793
  0.0315408929814571  0.9451750865904056  0.0006259759428164
  0.0347571986627990  0.9500487708393982  0.4997062700073276
  0.3692293278043802  0.4483554188685420 -0.0010843540630183
  0.3675807458487249  0.4473584920277834  0.5008770580287540
  0.3723559302384905  0.9469080181503947 -0.0006917958128450
  0.3657555070802225  0.9495271778688944  0.4990462565067215
  0.7022881718676496  0.4488174201810466 -0.0002955690487018
  0.6989889356967608  0.4480800458359773  0.4997065168499157
  0.7006577478501967  0.9471344610874484 -0.0007745388513952
  0.7007322340351929  0.9489995902995794  0.4995407139413324
  0.2043497368599338  0.3416848477384579  0.8550689749714866
  0.2011452852844528  0.8358498819968533  0.3567000900646556
  0.2021841719296807  0.8425514575830642  0.8536774167286068
  0.5306252722952299  0.3434372177148943  0.3550198108746546
  0.5365949451562361  0.3436882934347939  0.8537485798382933
  0.5353351385611803  0.8432973867617717  0.3546299531280775
  0.5364832566921486  0.8427376997265783  0.8525897039570499
  0.8684575767275560  0.3440024940903462  0.3541770525504470
  0.8677062503057471  0.3423754464050169  0.8534561248071134
  0.8686174382452093  0.8430995518707589  0.3551743791531611
  0.8686507705547400  0.8423674251155806  0.8512661885632670
 
  0.00000000E+00  0.00000000E+00  0.00000000E+00
  0.00000000E+00  0.00000000E+00  0.00000000E+00
  0.00000000E+00  0.00000000E+00  0.00000000E+00
  0.00000000E+00  0.00000000E+00  0.00000000E+00
  0.00000000E+00  0.00000000E+00  0.00000000E+00
  0.00000000E+00  0.00000000E+00  0.00000000E+00
  0.00000000E+00  0.00000000E+00  0.00000000E+00
  0.00000000E+00  0.00000000E+00  0.00000000E+00
  0.00000000E+00  0.00000000E+00  0.00000000E+00
  0.00000000E+00  0.00000000E+00  0.00000000E+00
  0.00000000E+00  0.00000000E+00  0.00000000E+00
  0.00000000E+00  0.00000000E+00  0.00000000E+00
  0.00000000E+00  0.00000000E+00  0.00000000E+00
  0.00000000E+00  0.00000000E+00  0.00000000E+00
  0.00000000E+00  0.00000000E+00  0.00000000E+00
  0.00000000E+00  0.00000000E+00  0.00000000E+00
  0.00000000E+00  0.00000000E+00  0.00000000E+00
  0.00000000E+00  0.00000000E+00  0.00000000E+00
  0.00000000E+00  0.00000000E+00  0.00000000E+00
  0.00000000E+00  0.00000000E+00  0.00000000E+00
  0.00000000E+00  0.00000000E+00  0.00000000E+00
  0.00000000E+00  0.00000000E+00  0.00000000E+00
  0.00000000E+00  0.00000000E+00  0.00000000E+00
  0.00000000E+00  0.00000000E+00  0.00000000E+00
  0.00000000E+00  0.00000000E+00  0.00000000E+00
  0.00000000E+00  0.00000000E+00  0.00000000E+00
  0.00000000E+00  0.00000000E+00  0.00000000E+00
  0.00000000E+00  0.00000000E+00  0.00000000E+00
  0.00000000E+00  0.00000000E+00  0.00000000E+00
  0.00000000E+00  0.00000000E+00  0.00000000E+00
  0.00000000E+00  0.00000000E+00  0.00000000E+00
  0.00000000E+00  0.00000000E+00  0.00000000E+00
  0.00000000E+00  0.00000000E+00  0.00000000E+00
  0.00000000E+00  0.00000000E+00  0.00000000E+00
  0.00000000E+00  0.00000000E+00  0.00000000E+00
  0.00000000E+00  0.00000000E+00  0.00000000E+00
  0.00000000E+00  0.00000000E+00  0.00000000E+00
  0.00000000E+00  0.00000000E+00  0.00000000E+00
  0.00000000E+00  0.00000000E+00  0.00000000E+00
  0.00000000E+00  0.00000000E+00  0.00000000E+00
  0.00000000E+00  0.00000000E+00  0.00000000E+00
  0.00000000E+00  0.00000000E+00  0.00000000E+00
  0.00000000E+00  0.00000000E+00  0.00000000E+00
  0.00000000E+00  0.00000000E+00  0.00000000E+00
  0.00000000E+00  0.00000000E+00  0.00000000E+00
  0.00000000E+00  0.00000000E+00  0.00000000E+00
  0.00000000E+00  0.00000000E+00  0.00000000E+00
  0.00000000E+00  0.00000000E+00  0.00000000E+00
  0.00000000E+00  0.00000000E+00  0.00000000E+00
  0.00000000E+00  0.00000000E+00  0.00000000E+00
  0.00000000E+00  0.00000000E+00  0.00000000E+00
  0.00000000E+00  0.00000000E+00  0.00000000E+00
  0.00000000E+00  0.00000000E+00  0.00000000E+00
  0.00000000E+00  0.00000000E+00  0.00000000E+00
  0.00000000E+00  0.00000000E+00  0.00000000E+00
  0.00000000E+00  0.00000000E+00  0.00000000E+00
  0.00000000E+00  0.00000000E+00  0.00000000E+00
  0.00000000E+00  0.00000000E+00  0.00000000E+00
  0.00000000E+00  0.00000000E+00  0.00000000E+00
  0.00000000E+00  0.00000000E+00  0.00000000E+00
  0.00000000E+00  0.00000000E+00  0.00000000E+00
  0.00000000E+00  0.00000000E+00  0.00000000E+00
  0.00000000E+00  0.00000000E+00  0.00000000E+00
  0.00000000E+00  0.00000000E+00  0.00000000E+00
  0.00000000E+00  0.00000000E+00  0.00000000E+00
  0.00000000E+00  0.00000000E+00  0.00000000E+00
  0.00000000E+00  0.00000000E+00  0.00000000E+00
  0.00000000E+00  0.00000000E+00  0.00000000E+00
  0.00000000E+00  0.00000000E+00  0.00000000E+00
  0.00000000E+00  0.00000000E+00  0.00000000E+00
  0.00000000E+00  0.00000000E+00  0.00000000E+00
  0.00000000E+00  0.00000000E+00  0.00000000E+00
  0.00000000E+00  0.00000000E+00  0.00000000E+00
  0.00000000E+00  0.00000000E+00  0.00000000E+00
  0.00000000E+00  0.00000000E+00  0.00000000E+00
  0.00000000E+00  0.00000000E+00  0.00000000E+00
  0.00000000E+00  0.00000000E+00  0.00000000E+00
  0.00000000E+00  0.00000000E+00  0.00000000E+00
  0.00000000E+00  0.00000000E+00  0.00000000E+00
  0.00000000E+00  0.00000000E+00  0.00000000E+00
  0.00000000E+00  0.00000000E+00  0.00000000E+00
  0.00000000E+00  0.00000000E+00  0.00000000E+00
  0.00000000E+00  0.00000000E+00  0.00000000E+00
  0.00000000E+00  0.00000000E+00  0.00000000E+00
  0.00000000E+00  0.00000000E+00  0.00000000E+00
  0.00000000E+00  0.00000000E+00  0.00000000E+00
  0.00000000E+00  0.00000000E+00  0.00000000E+00
  0.00000000E+00  0.00000000E+00  0.00000000E+00
  0.00000000E+00  0.00000000E+00  0.00000000E+00
  0.00000000E+00  0.00000000E+00  0.00000000E+00
  0.00000000E+00  0.00000000E+00  0.00000000E+00
  0.00000000E+00  0.00000000E+00  0.00000000E+00
  0.00000000E+00  0.00000000E+00  0.00000000E+00
  0.00000000E+00  0.00000000E+00  0.00000000E+00
  0.00000000E+00  0.00000000E+00  0.00000000E+00
  0.00000000E+00  0.00000000E+00  0.00000000E+00
  0.00000000E+00  0.00000000E+00  0.00000000E+00
  0.00000000E+00  0.00000000E+00  0.00000000E+00
  0.00000000E+00  0.00000000E+00  0.00000000E+00
  0.00000000E+00  0.00000000E+00  0.00000000E+00
  0.00000000E+00  0.00000000E+00  0.00000000E+00
  0.00000000E+00  0.00000000E+00  0.00000000E+00
  0.00000000E+00  0.00000000E+00  0.00000000E+00
  0.00000000E+00  0.00000000E+00  0.00000000E+00
  0.00000000E+00  0.00000000E+00  0.00000000E+00
  0.00000000E+00  0.00000000E+00  0.00000000E+00
  0.00000000E+00  0.00000000E+00  0.00000000E+00
  0.00000000E+00  0.00000000E+00  0.00000000E+00
  0.00000000E+00  0.00000000E+00  0.00000000E+00
  0.00000000E+00  0.00000000E+00  0.00000000E+00
  0.00000000E+00  0.00000000E+00  0.00000000E+00
  0.00000000E+00  0.00000000E+00  0.00000000E+00
  0.00000000E+00  0.00000000E+00  0.00000000E+00
  0.00000000E+00  0.00000000E+00  0.00000000E+00
  0.00000000E+00  0.00000000E+00  0.00000000E+00
  0.00000000E+00  0.00000000E+00  0.00000000E+00
  0.00000000E+00  0.00000000E+00  0.00000000E+00
  0.00000000E+00  0.00000000E+00  0.00000000E+00
  0.00000000E+00  0.00000000E+00  0.00000000E+00
  0.00000000E+00  0.00000000E+00  0.00000000E+00
  0.00000000E+00  0.00000000E+00  0.00000000E+00
  0.00000000E+00  0.00000000E+00  0.00000000E+00
  0.00000000E+00  0.00000000E+00  0.00000000E+00
  0.00000000E+00  0.00000000E+00  0.00000000E+00
  0.00000000E+00  0.00000000E+00  0.00000000E+00
  0.00000000E+00  0.00000000E+00  0.00000000E+00
  0.00000000E+00  0.00000000E+00  0.00000000E+00
  0.00000000E+00  0.00000000E+00  0.00000000E+00
  0.00000000E+00  0.00000000E+00  0.00000000E+00
  0.00000000E+00  0.00000000E+00  0.00000000E+00
  0.00000000E+00  0.00000000E+00  0.00000000E+00
  0.00000000E+00  0.00000000E+00  0.00000000E+00
  0.00000000E+00  0.00000000E+00  0.00000000E+00
  0.00000000E+00  0.00000000E+00  0.00000000E+00
  0.00000000E+00  0.00000000E+00  0.00000000E+00
  0.00000000E+00  0.00000000E+00  0.00000000E+00
  0.00000000E+00  0.00000000E+00  0.00000000E+00
  0.00000000E+00  0.00000000E+00  0.00000000E+00
  0.00000000E+00  0.00000000E+00  0.00000000E+00
  0.00000000E+00  0.00000000E+00  0.00000000E+00
  0.00000000E+00  0.00000000E+00  0.00000000E+00
  0.00000000E+00  0.00000000E+00  0.00000000E+00
  0.00000000E+00  0.00000000E+00  0.00000000E+00
  0.00000000E+00  0.00000000E+00  0.00000000E+00
  0.00000000E+00  0.00000000E+00  0.00000000E+00
  0.00000000E+00  0.00000000E+00  0.00000000E+00
  0.00000000E+00  0.00000000E+00  0.00000000E+00
  0.00000000E+00  0.00000000E+00  0.00000000E+00
  0.00000000E+00  0.00000000E+00  0.00000000E+00
  0.00000000E+00  0.00000000E+00  0.00000000E+00
  0.00000000E+00  0.00000000E+00  0.00000000E+00
  0.00000000E+00  0.00000000E+00  0.00000000E+00
  0.00000000E+00  0.00000000E+00  0.00000000E+00
  0.00000000E+00  0.00000000E+00  0.00000000E+00
  0.00000000E+00  0.00000000E+00  0.00000000E+00
  0.00000000E+00  0.00000000E+00  0.00000000E+00
  0.00000000E+00  0.00000000E+00  0.00000000E+00
  0.00000000E+00  0.00000000E+00  0.00000000E+00
  0.00000000E+00  0.00000000E+00  0.00000000E+00
  0.00000000E+00  0.00000000E+00  0.00000000E+00
  0.00000000E+00  0.00000000E+00  0.00000000E+00
  0.00000000E+00  0.00000000E+00  0.00000000E+00
  0.00000000E+00  0.00000000E+00  0.00000000E+00
  0.00000000E+00  0.00000000E+00  0.00000000E+00
  0.00000000E+00  0.00000000E+00  0.00000000E+00
  0.00000000E+00  0.00000000E+00  0.00000000E+00
  0.00000000E+00  0.00000000E+00  0.00000000E+00
  0.00000000E+00  0.00000000E+00  0.00000000E+00
  0.00000000E+00  0.00000000E+00  0.00000000E+00
  0.00000000E+00  0.00000000E+00  0.00000000E+00
  0.00000000E+00  0.00000000E+00  0.00000000E+00
  0.00000000E+00  0.00000000E+00  0.00000000E+00
  0.00000000E+00  0.00000000E+00  0.00000000E+00
  0.00000000E+00  0.00000000E+00  0.00000000E+00
  0.00000000E+00  0.00000000E+00  0.00000000E+00
  0.00000000E+00  0.00000000E+00  0.00000000E+00
  0.00000000E+00  0.00000000E+00  0.00000000E+00
  0.00000000E+00  0.00000000E+00  0.00000000E+00
  0.00000000E+00  0.00000000E+00  0.00000000E+00
  0.00000000E+00  0.00000000E+00  0.00000000E+00
  0.00000000E+00  0.00000000E+00  0.00000000E+00
  0.00000000E+00  0.00000000E+00  0.00000000E+00
  0.00000000E+00  0.00000000E+00  0.00000000E+00
  0.00000000E+00  0.00000000E+00  0.00000000E+00
  0.00000000E+00  0.00000000E+00  0.00000000E+00
  0.00000000E+00  0.00000000E+00  0.00000000E+00
  0.00000000E+00  0.00000000E+00  0.00000000E+00
  0.00000000E+00  0.00000000E+00  0.00000000E+00
  0.00000000E+00  0.00000000E+00  0.00000000E+00
  0.00000000E+00  0.00000000E+00  0.00000000E+00
