P2 N2 O2
1.0
-2.246523 2.404242 3.497882
2.246523 -2.404242 3.497882
2.246523 2.404242 -3.497882
P N O
2 2 2
direct
0.889390 0.139390 0.750000 P
0.610610 0.360610 0.250000 P
0.250000 0.113628 0.863628 N
0.750000 0.386372 0.636372 N
0.630570 0.750000 0.380570 O
0.869430 0.250000 0.119430 O
