Li5 P2 N1 O6                            
   1.00000000000000     
     0.4978795474544140   -0.6557571025504163    5.0347337038758813
     6.2432733955041995    0.5092681903337424    0.6921218231671324
     0.4658955649917436    4.8626412561610950   -0.8302431179876879
   Li   P    N    O 
     5     2     1     6
Direct
  0.3728895149791482  0.0057998662822486  0.7133724350178666
  0.2175472475999607  0.4316369654988949  0.1759857090859849
  0.5005051127929895  0.7823477218629381  0.2680658036096560
 -0.0679035165043888  0.7805200628941014  0.6712412225173214
 -0.1159542509847831  0.3731366509881995  0.5372881789440906
  0.5066031464744358  0.5133739515570970  0.8578515630117766
 -0.0579279720888907  0.0709854241026468  0.1134397317927479
  0.5768045726313198  0.7083516097543044  0.6871344924480874
  0.1122977860243905  0.1859424030542970  0.3303431121378012
  0.7107766979841821  0.2611112429323106  0.8429402110888402
  0.5716540533795916  0.4882202377139085  0.1909115248980238
  0.1277282503580285 -0.0559040693657099  0.9624678941888535
  0.2012616980341551  0.4768693973834219  0.7530567122868418
  0.7861446593198835 -0.0681264646586596  0.2559584089721058
 
  0.00000000E+00  0.00000000E+00  0.00000000E+00
  0.00000000E+00  0.00000000E+00  0.00000000E+00
  0.00000000E+00  0.00000000E+00  0.00000000E+00
  0.00000000E+00  0.00000000E+00  0.00000000E+00
  0.00000000E+00  0.00000000E+00  0.00000000E+00
  0.00000000E+00  0.00000000E+00  0.00000000E+00
  0.00000000E+00  0.00000000E+00  0.00000000E+00
  0.00000000E+00  0.00000000E+00  0.00000000E+00
  0.00000000E+00  0.00000000E+00  0.00000000E+00
  0.00000000E+00  0.00000000E+00  0.00000000E+00
  0.00000000E+00  0.00000000E+00  0.00000000E+00
  0.00000000E+00  0.00000000E+00  0.00000000E+00
  0.00000000E+00  0.00000000E+00  0.00000000E+00
  0.00000000E+00  0.00000000E+00  0.00000000E+00
