P28 O70
1.0
4.936987 0.000000 0.023070
1.557664 8.595798 0.415402
0.000000 0.000000 53.147410
P O
28 70
direct
0.429995 0.033190 0.059473 P5+
0.736476 0.728659 0.059603 P5+
0.293563 0.549241 0.051447 P5+
0.164574 0.295941 0.025962 P5+
0.846662 0.866524 0.142806 P5+
0.153142 0.561992 0.142936 P5+
0.710230 0.382574 0.134781 P5+
0.581241 0.129274 0.109295 P5+
0.263328 0.699857 0.226139 P5+
0.569809 0.395325 0.226269 P5+
0.126896 0.215908 0.218114 P5+
0.997908 0.962608 0.192628 P5+
0.679995 0.533190 0.309473 P5+
0.986476 0.228659 0.309603 P5+
0.543563 0.049241 0.301447 P5+
0.414574 0.795941 0.275961 P5+
0.096662 0.366524 0.392806 P5+
0.403142 0.061992 0.392936 P5+
0.960230 0.882574 0.384781 P5+
0.831241 0.629274 0.359295 P5+
0.513328 0.199857 0.476139 P5+
0.819809 0.895325 0.476269 P5+
0.376896 0.715908 0.468114 P5+
0.247908 0.462608 0.442628 P5+
0.929995 0.033190 0.559473 P5+
0.236476 0.728659 0.559603 P5+
0.793563 0.549241 0.551447 P5+
0.664574 0.295941 0.525961 P5+
0.184330 0.978887 0.068929 O2-
0.307747 0.875992 0.003631 O2-
0.302145 0.465026 0.075860 O2-
0.898266 0.306519 0.038367 O2-
0.309850 0.445671 0.027164 O2-
0.664016 0.904005 0.047998 O2-
0.600500 0.109620 0.079702 O2-
0.533007 0.642811 0.044082 O2-
0.021909 0.677690 0.045668 O2-
0.403265 0.158074 0.036450 O2-
0.600997 0.812220 0.152263 O2-
0.724413 0.709326 0.086964 O2-
0.718811 0.298360 0.159193 O2-
0.314932 0.139853 0.121701 O2-
0.726516 0.279005 0.110498 O2-
0.080683 0.737338 0.131331 O2-
0.017167 0.942953 0.163036 O2-
0.949674 0.476144 0.127416 O2-
0.438576 0.511023 0.129001 O2-
0.819931 0.991408 0.119784 O2-
0.017664 0.645554 0.235596 O2-
0.141080 0.542659 0.170298 O2-
0.135478 0.131693 0.242526 O2-
0.731599 0.973186 0.205034 O2-
0.143183 0.112338 0.193831 O2-
0.497350 0.570671 0.214664 O2-
0.433833 0.776287 0.246369 O2-
0.366341 0.309477 0.210749 O2-
0.855243 0.344356 0.212334 O2-
0.236598 0.824741 0.203117 O2-
0.434330 0.478887 0.318930 O2-
0.557747 0.375992 0.253631 O2-
0.552145 0.965026 0.325860 O2-
0.148266 0.806519 0.288367 O2-
0.559850 0.945671 0.277164 O2-
0.914016 0.404005 0.297998 O2-
0.850500 0.609620 0.329702 O2-
0.783007 0.142811 0.294082 O2-
0.271909 0.177690 0.295668 O2-
0.653265 0.658074 0.286450 O2-
0.850997 0.312220 0.402263 O2-
0.974413 0.209326 0.336964 O2-
0.968811 0.798360 0.409193 O2-
0.564932 0.639853 0.371701 O2-
0.976516 0.779005 0.360498 O2-
0.330683 0.237338 0.381331 O2-
0.267167 0.442953 0.413036 O2-
0.199674 0.976144 0.377416 O2-
0.688576 0.011023 0.379001 O2-
0.069931 0.491408 0.369784 O2-
0.267664 0.145554 0.485596 O2-
0.391080 0.042659 0.420298 O2-
0.385478 0.631693 0.492526 O2-
0.981599 0.473186 0.455034 O2-
0.393183 0.612338 0.443831 O2-
0.747350 0.070671 0.464664 O2-
0.683833 0.276287 0.496369 O2-
0.616341 0.809477 0.460749 O2-
0.105243 0.844356 0.462334 O2-
0.486598 0.324741 0.453117 O2-
0.684330 0.978887 0.568929 O2-
0.807747 0.875992 0.503631 O2-
0.802145 0.465026 0.575860 O2-
0.398266 0.306519 0.538367 O2-
0.809850 0.445671 0.527164 O2-
0.164016 0.904005 0.547998 O2-
0.100500 0.109620 0.579702 O2-
0.033007 0.642811 0.544082 O2-
0.521909 0.677690 0.545668 O2-
0.903265 0.158074 0.536450 O2-
