(1, 1, 1)                               
   1.00000000000000     
     3.3889239034595176    0.0002440919940035   -3.3921140358621820
     0.0001062393952415    3.3890728116338824   -3.3922517594084156
     0.2553692745077604    0.2528780259925220   61.3133421503091327
   Li
    14
Selective dynamics
Direct
  0.0231798952695041  0.0231002027548903  0.0455308919008093   T   T   T
  0.4945656614851849  0.4945587880575328  0.0129896336101482   T   T   T
  0.0000000000000000  0.0000000000000000  0.0972220000000021   F   F   F
  0.4836940865123747  0.4837059736694613  0.0667189965538798   T   T   T
  0.0000000000000000  0.0000000000000000  0.1527779999999979   F   F   F
  0.5000000000000000  0.5000000000000000  0.1250000000000000   F   F   F
  0.0000000000000000  0.0000000000000000  0.2083330000000032   F   F   F
  0.5000000000000000  0.5000000000000000  0.1805560000000028   F   F   F
  0.0000000000000000  0.0000000000000000  0.2638889999999989   F   F   F
  0.5000000000000000  0.5000000000000000  0.2361110000000011   F   F   F
  0.0162727072587181  0.0162768107622058  0.3221575019295889   T   T   T
  0.5000000000000000  0.5000000000000000  0.2916669999999968   F   F   F
  0.0054013858024327  0.0054262464020234  0.3758969841878724   T   T   T
  0.4767164220681717  0.4767142065680552  0.3433179866164424   T   T   T
 
  0.00000000E+00  0.00000000E+00  0.00000000E+00
  0.00000000E+00  0.00000000E+00  0.00000000E+00
  0.00000000E+00  0.00000000E+00  0.00000000E+00
  0.00000000E+00  0.00000000E+00  0.00000000E+00
  0.00000000E+00  0.00000000E+00  0.00000000E+00
  0.00000000E+00  0.00000000E+00  0.00000000E+00
  0.00000000E+00  0.00000000E+00  0.00000000E+00
  0.00000000E+00  0.00000000E+00  0.00000000E+00
  0.00000000E+00  0.00000000E+00  0.00000000E+00
  0.00000000E+00  0.00000000E+00  0.00000000E+00
  0.00000000E+00  0.00000000E+00  0.00000000E+00
  0.00000000E+00  0.00000000E+00  0.00000000E+00
  0.00000000E+00  0.00000000E+00  0.00000000E+00
  0.00000000E+00  0.00000000E+00  0.00000000E+00
