(1, 1, 1)
1.0
3.426818 0.000000 -3.426818
-0.000000 3.426818 -3.426818
0.000000 0.000000 61.682724
Li
14
Selective dynamics
direct
0.000000 0.000000 0.041667 T T T Li+
0.500000 0.500000 0.013889 T T T Li+
0.000000 0.000000 0.097222 F F F Li+
0.500000 0.500000 0.069444 T T T Li+
0.000000 0.000000 0.152778 F F F Li+
0.500000 0.500000 0.125000 F F F Li+
0.000000 0.000000 0.208333 F F F Li+
0.500000 0.500000 0.180556 F F F Li+
0.000000 0.000000 0.263889 F F F Li+
0.500000 0.500000 0.236111 F F F Li+
0.000000 0.000000 0.319444 T T T Li+
0.500000 0.500000 0.291667 F F F Li+
0.000000 0.000000 0.375000 T T T Li+
0.500000 0.500000 0.347222 T T T Li+
