Li61 P7 N32                             
   1.00000000000000     
    -0.0025009353086489    9.5222948264515210   -0.0018841134586013
     0.0255049288619464   -0.0019188048814844    9.5998661593815413
     9.5235801686345134   -0.0025175267600275    0.0264249557096574
   Li   P    N 
    61     7    32
Direct
  0.4896260515144624  0.0001548630841366  0.5001371422527128
  0.9837797632269225  0.4995416139539948 -0.0007082877157415
  0.4902205449429625 -0.0002511113820425  0.0001547417574220
  0.0003618233127104  0.0000877700954110  0.4998389820418387
  0.5040760331873108  0.5003799100536088  0.0004856222652870
  0.0024440062593434  0.5001294724951587  0.4992611926564633
  0.7392815348682585  0.0002952274364462  0.5006188272313808
  0.2456189618697193 -0.0001811011546756  0.4998370038662066
  0.7726664432923238  0.4997836544111568  0.5018207127732647
  0.2324493159283748  0.4999043748113942  0.5003835647563037
  0.2550687888243674  0.0000030168789850 -0.0000375183877031
  0.7324380462404838 -0.0002030510384679  0.0003044791517780
  0.7464129136612142  0.4990555434590436 -0.0006337571358830
  0.4903499403295021  0.2488372133299177  0.9850576239826684
  0.4906198962390832  0.7511098076132553  0.0150684382147254
  0.9979743353256648  0.4811536324776031  0.2575106946092769
  0.9975930750395761  0.5182859428015119  0.7412796106494431
  0.2293576591033062  0.2070718977642797  0.2181048580168544
  0.2300225642347019  0.7939795509670202  0.7820507800153175
  0.2416603986987236  0.2947417783682398  0.7136177623082289
  0.2430551165006077  0.7066915966078697  0.2856391051358358
  0.7735804682035292  0.3058315248346065  0.3302153372035496
  0.7727253646343721  0.6955678444342963  0.6704574243214667
  0.7112659496908308  0.1804102351560461  0.8178514921130401
  0.7118929228800603  0.8197383700440947  0.1826515242811970
  0.9814828254985004  0.2432216247949380  0.2436424511610004
  0.9816951857927488  0.7562877192368294  0.7561700880538161
  0.2636473566225042  0.2431664973654999  0.4722867840607599
  0.2633976992096527  0.7565364325496352  0.5275214606312050
  0.7636500847762333  0.2052704378336595  0.5713755340388700
  0.7637461007443980  0.7959251544611502  0.4290652573875920
  0.8228301555759402  0.5965485843674212  0.1907809810237549
  0.8215705916351631  0.4039086662747117  0.8062409733001895
  0.2232950461749038  0.4504320726750162  0.2554781751835822
  0.2219056570937157  0.5514199630218006  0.7454894094804978
  0.4895381624079201  0.7574198955617074  0.2570257772598219
  0.4881560107502931  0.2415782205898089  0.7431397536299056
  0.2298453866762975  0.9664458721487204  0.2565207325492718
  0.2301660941928334  0.0341662277824951  0.7430072600126575
  0.2422961735170626  0.2409401386906445  0.9687141481909398
  0.2425115254115815  0.7591638166285696  0.0312328474672604
  0.7501748197479009  0.9436739080385167  0.7412442761477176
  0.7495035803465134  0.0574464062326196  0.2602891186716143
  0.7367752336707055  0.7494889164347965  0.9535200154546297
  0.7361233033411412  0.2498167802120738  0.0472171498729433
  0.0064145792413688  0.2430980999029527  0.7669030363473439
  0.0069598317612036  0.7562502323134531  0.2330460434063706
  0.6626242402798260  0.4350575817591391  0.1946752060764597
  0.6618240419735271  0.5650224848336216  0.8050771641353786
 -0.0152338966522145  0.2615553352538161  0.0156785458796949
 -0.0143444442508658  0.7375792766232905  0.9840404549823392
  0.5047590099220028  0.2355987096245651  0.4838868131952679
  0.5047914600644483  0.7647072009979660  0.5153525120319088
  0.4502647895970829  0.5252115498035677  0.2261101845795667
  0.4477957701989432  0.4739108628942293  0.7758337131379092
  0.9897465893548367  0.9973019971894160  0.2612863082546322
  0.9902397902675151  0.0019468239900333  0.7381602385500029
  0.4733199397383207  0.2655436821316041  0.2387224918922101
  0.4734337364267169  0.7342308368562469  0.7607701135702853
  0.6380951088169514  0.3890647272393936  0.6578006262905628
  0.6441902895895087  0.6102321372643734  0.3427986459345608
  0.4854405191390019  0.5003633253621504  0.4997129066310465
  0.9934519688231137 -0.0003197414638628 -0.0001815968526932
  0.2416974670198850  0.5001115107752510  0.0001613955736042
  0.0023959097533120  0.7508182510915132  0.4957795531496098
  0.0027710094052245  0.2493088810485823  0.5040359366651472
  0.4890700560701975  0.0075241071888594  0.2472406292660637
  0.4891856363029778  0.9921588161076426  0.7530247033149725
  0.5929379003742550  0.5931485105120508  0.6053552639541012
  0.5929836959183269  0.4074686204677682  0.3942638819737775
  0.8896454553999770  0.8967832143692992  0.1012703547595920
  0.8893552287514261  0.1021990385487039  0.8981075257840515
  0.0962237454796499  0.9009316267945348  0.8956671536130622
  0.0959785489532505  0.0987479666438720  0.1040755877172586
  0.3880900833107996  0.6111589360047670  0.4052501034383515
  0.3890952135683192  0.3886802615663510  0.5946853858807535
  0.1003801251750735  0.3468968915147694  0.3940293103432382
  0.1000630710716330  0.6530105408793763  0.6056681976653741
  0.1101439724829178  0.1498572840421307  0.6042186146973471
  0.1098751301059418  0.8501387762687279  0.3956342092658101
  0.8887609178161521  0.1474487991607561  0.4120177959215713
  0.8890042409846057  0.8528614567387207  0.5882050513961359
  0.8562300116814555  0.3844206989678282  0.1445846277355160
  0.8561275380613963  0.6149433057759106  0.8549346843447995
  0.1430627254145484  0.5939158418121789  0.1156839051279056
  0.1436073796731110  0.4062391699561919  0.8839450544326812
  0.3895771572827101  0.8975536386630666  0.1507034981249512
  0.3896623414233030  0.1016956612237840  0.8498735731988760
  0.3811308480037696  0.1041229661986394  0.3497967900115032
  0.3811998745666715  0.8958344313199192  0.6500917369269948
  0.3416562474211047  0.3864612840182344  0.0961105948446314
  0.3416532555893587  0.6139711991322572  0.9043238964798151
  0.6041446319891228  0.0886052125676840  0.6506981238662637
  0.6042390065061982  0.9116736656762037  0.3497647700846501
  0.6218062505277746  0.6318707267621017  0.1364102351332550
  0.6209856119739320  0.3681297454669206  0.8637729914790009
  0.9026324248894857  0.3516063388281972  0.6101801888690740
  0.9015386950685113  0.6486834765464119  0.3897085583876726
  0.5861375513005755  0.1123575362205534  0.1441942663649923
  0.5863248051974022  0.8873295761607868  0.8559288922217700
 
  0.00000000E+00  0.00000000E+00  0.00000000E+00
  0.00000000E+00  0.00000000E+00  0.00000000E+00
  0.00000000E+00  0.00000000E+00  0.00000000E+00
  0.00000000E+00  0.00000000E+00  0.00000000E+00
  0.00000000E+00  0.00000000E+00  0.00000000E+00
  0.00000000E+00  0.00000000E+00  0.00000000E+00
  0.00000000E+00  0.00000000E+00  0.00000000E+00
  0.00000000E+00  0.00000000E+00  0.00000000E+00
  0.00000000E+00  0.00000000E+00  0.00000000E+00
  0.00000000E+00  0.00000000E+00  0.00000000E+00
  0.00000000E+00  0.00000000E+00  0.00000000E+00
  0.00000000E+00  0.00000000E+00  0.00000000E+00
  0.00000000E+00  0.00000000E+00  0.00000000E+00
  0.00000000E+00  0.00000000E+00  0.00000000E+00
  0.00000000E+00  0.00000000E+00  0.00000000E+00
  0.00000000E+00  0.00000000E+00  0.00000000E+00
  0.00000000E+00  0.00000000E+00  0.00000000E+00
  0.00000000E+00  0.00000000E+00  0.00000000E+00
  0.00000000E+00  0.00000000E+00  0.00000000E+00
  0.00000000E+00  0.00000000E+00  0.00000000E+00
  0.00000000E+00  0.00000000E+00  0.00000000E+00
  0.00000000E+00  0.00000000E+00  0.00000000E+00
  0.00000000E+00  0.00000000E+00  0.00000000E+00
  0.00000000E+00  0.00000000E+00  0.00000000E+00
  0.00000000E+00  0.00000000E+00  0.00000000E+00
  0.00000000E+00  0.00000000E+00  0.00000000E+00
  0.00000000E+00  0.00000000E+00  0.00000000E+00
  0.00000000E+00  0.00000000E+00  0.00000000E+00
  0.00000000E+00  0.00000000E+00  0.00000000E+00
  0.00000000E+00  0.00000000E+00  0.00000000E+00
  0.00000000E+00  0.00000000E+00  0.00000000E+00
  0.00000000E+00  0.00000000E+00  0.00000000E+00
  0.00000000E+00  0.00000000E+00  0.00000000E+00
  0.00000000E+00  0.00000000E+00  0.00000000E+00
  0.00000000E+00  0.00000000E+00  0.00000000E+00
  0.00000000E+00  0.00000000E+00  0.00000000E+00
  0.00000000E+00  0.00000000E+00  0.00000000E+00
  0.00000000E+00  0.00000000E+00  0.00000000E+00
  0.00000000E+00  0.00000000E+00  0.00000000E+00
  0.00000000E+00  0.00000000E+00  0.00000000E+00
  0.00000000E+00  0.00000000E+00  0.00000000E+00
  0.00000000E+00  0.00000000E+00  0.00000000E+00
  0.00000000E+00  0.00000000E+00  0.00000000E+00
  0.00000000E+00  0.00000000E+00  0.00000000E+00
  0.00000000E+00  0.00000000E+00  0.00000000E+00
  0.00000000E+00  0.00000000E+00  0.00000000E+00
  0.00000000E+00  0.00000000E+00  0.00000000E+00
  0.00000000E+00  0.00000000E+00  0.00000000E+00
  0.00000000E+00  0.00000000E+00  0.00000000E+00
  0.00000000E+00  0.00000000E+00  0.00000000E+00
  0.00000000E+00  0.00000000E+00  0.00000000E+00
  0.00000000E+00  0.00000000E+00  0.00000000E+00
  0.00000000E+00  0.00000000E+00  0.00000000E+00
  0.00000000E+00  0.00000000E+00  0.00000000E+00
  0.00000000E+00  0.00000000E+00  0.00000000E+00
  0.00000000E+00  0.00000000E+00  0.00000000E+00
  0.00000000E+00  0.00000000E+00  0.00000000E+00
  0.00000000E+00  0.00000000E+00  0.00000000E+00
  0.00000000E+00  0.00000000E+00  0.00000000E+00
  0.00000000E+00  0.00000000E+00  0.00000000E+00
  0.00000000E+00  0.00000000E+00  0.00000000E+00
  0.00000000E+00  0.00000000E+00  0.00000000E+00
  0.00000000E+00  0.00000000E+00  0.00000000E+00
  0.00000000E+00  0.00000000E+00  0.00000000E+00
  0.00000000E+00  0.00000000E+00  0.00000000E+00
  0.00000000E+00  0.00000000E+00  0.00000000E+00
  0.00000000E+00  0.00000000E+00  0.00000000E+00
  0.00000000E+00  0.00000000E+00  0.00000000E+00
  0.00000000E+00  0.00000000E+00  0.00000000E+00
  0.00000000E+00  0.00000000E+00  0.00000000E+00
  0.00000000E+00  0.00000000E+00  0.00000000E+00
  0.00000000E+00  0.00000000E+00  0.00000000E+00
  0.00000000E+00  0.00000000E+00  0.00000000E+00
  0.00000000E+00  0.00000000E+00  0.00000000E+00
  0.00000000E+00  0.00000000E+00  0.00000000E+00
  0.00000000E+00  0.00000000E+00  0.00000000E+00
  0.00000000E+00  0.00000000E+00  0.00000000E+00
  0.00000000E+00  0.00000000E+00  0.00000000E+00
  0.00000000E+00  0.00000000E+00  0.00000000E+00
  0.00000000E+00  0.00000000E+00  0.00000000E+00
  0.00000000E+00  0.00000000E+00  0.00000000E+00
  0.00000000E+00  0.00000000E+00  0.00000000E+00
  0.00000000E+00  0.00000000E+00  0.00000000E+00
  0.00000000E+00  0.00000000E+00  0.00000000E+00
  0.00000000E+00  0.00000000E+00  0.00000000E+00
  0.00000000E+00  0.00000000E+00  0.00000000E+00
  0.00000000E+00  0.00000000E+00  0.00000000E+00
  0.00000000E+00  0.00000000E+00  0.00000000E+00
  0.00000000E+00  0.00000000E+00  0.00000000E+00
  0.00000000E+00  0.00000000E+00  0.00000000E+00
  0.00000000E+00  0.00000000E+00  0.00000000E+00
  0.00000000E+00  0.00000000E+00  0.00000000E+00
  0.00000000E+00  0.00000000E+00  0.00000000E+00
  0.00000000E+00  0.00000000E+00  0.00000000E+00
  0.00000000E+00  0.00000000E+00  0.00000000E+00
  0.00000000E+00  0.00000000E+00  0.00000000E+00
  0.00000000E+00  0.00000000E+00  0.00000000E+00
  0.00000000E+00  0.00000000E+00  0.00000000E+00
  0.00000000E+00  0.00000000E+00  0.00000000E+00
  0.00000000E+00  0.00000000E+00  0.00000000E+00
