Li73 P24 N1 O95                         
   1.00000000000000     
    14.7083450445630710    0.0142680830987719    0.0047376068808958
     0.0102361141396701   10.5653679251008814    0.0030587095024059
     0.0039743158465459    0.0035886527589517   12.3021397250078266
   Li   P    N    O 
    73    24     1    95
Direct
  0.1830784277235979  0.4479016808395702  0.0003734406165515
  0.1697383764597517  0.4190733568318943  0.4994775127958560
  0.1668241394915187  0.9255103533450952  0.0009335551427668
  0.1703140063089428  0.9212696370729597  0.4995930574369080
  0.5028679882331317  0.4236253681159088  0.0002372744156211
  0.5029882203832605  0.4217310300962788  0.5000795313520824
  0.5032896877552818  0.9233798129372287  0.0001639641768716
  0.5038349732048277  0.9226470323559330  0.4998166327437511
  0.8346167179210688  0.4193742493892544  0.0000819846296490
  0.8354909704933479  0.4219269742448881  0.4995823731990066
  0.8390216288321245  0.9235547445607092 -0.0013019315067158
  0.8366343618307454  0.9229017763321723  0.4992942961319570
  0.0043213961849934  0.0791982611381843  0.2466098758231236
  0.0027020735280209  0.0762445354046196  0.7525695553224501
  0.0014367191923237  0.5803114322829187  0.2505125317990346
  0.0016074379200132  0.5777888919009527  0.7494779390024039
  0.3383380096498527  0.0766419404837248  0.2518026252213644
  0.3382927586810311  0.0767879082597327  0.7480541944428662
  0.3378852904583203  0.5788334951582673  0.2496658739058771
  0.3373334884876427  0.5782186104239072  0.7507618906229065
  0.6714820705985269  0.0771146678140262  0.2490154411152782
  0.6697474567324442  0.0768850168820334  0.7499077985443197
  0.6693934032893369  0.5793425481665244  0.2505424469163277
  0.6692769046202631  0.5782328641308254  0.7496189146825347
  0.1703873180645845  0.1529653123430755  0.1383081375014618
  0.1687281220296336  0.1617685984740926  0.6254017857950928
  0.1694205133035783  0.6685838677622968  0.1279678100494158
  0.1694391967767662  0.6600122796232630  0.6265726083376657
  0.5032328906354017  0.1637809209238486  0.1264940257827154
  0.5033235456650532  0.1633315273322639  0.6261009957103895
  0.5056991642769056  0.6650000477717841  0.1268773590228321
  0.5027234226468655  0.6631520242538541  0.6263425047572649
  0.8421020408826003  0.1615589990595734  0.1239724604729315
  0.8360083332104000  0.1624055080076743  0.6261608561611652
  0.8371030235330392  0.6624466895246924  0.1252159210928490
  0.8355965697964093  0.6629771437131412  0.6257095542115459
 -0.0055552223125462  0.3346999590340593  0.1363817375696591
  0.0018218842208986  0.3359999374504330  0.6231426284173710
  0.0039941637401553  0.8396726505276813  0.1220019187265578
  0.0025427891888358  0.8361771341701959  0.6227253986049407
  0.3353762893166533  0.3385267308280067  0.1234268907047772
  0.3368048631935454  0.3354482756331299  0.6251279859139853
  0.3367917972294855  0.8395270452740113  0.1239827187411406
  0.3369997614848928  0.8352668332707586  0.6230956166508308
  0.6703955775715149  0.3362063004847655  0.1242349688345334
  0.6686121452217224  0.3363856164108598  0.6233345973241845
  0.6708828345228416  0.8370416728264155  0.1228095846651325
  0.6697727405312782  0.8366947885440161  0.6231783124564243
  0.0024818667295133  0.3367167931600585  0.3756203914639795
 -0.0052705032609669  0.3347208914832409  0.8685394158118991
  0.0025915018472721  0.8369341433601279  0.3770601662496703
  0.0027154833008399  0.8371304193517013  0.8760170362895341
  0.3369466420498697  0.3358890660017317  0.3749078133475175
  0.3354714442996687  0.3380457115261855  0.8770418852940605
  0.3371824351312924  0.8353994545325907  0.3769073684313247
  0.3365197231999416  0.8394835050865771  0.8762666115244433
  0.6686164778256161  0.3367589682489416  0.3769716003095334
  0.6692016407698288  0.3364233079097744  0.8761918489434217
  0.6699857017868200  0.8369100459197025  0.3763659597947820
  0.6706375103838723  0.8370085632805232  0.8765066198705747
  0.1690370865914257  0.1625022459805670  0.3738678619659668
  0.1723633081662483  0.1530949293999234  0.8646330405154437
  0.1696613530502960  0.6606182044796779  0.3741929582543463
  0.1689553724236598  0.6682779525286349  0.8724766815806320
  0.5036446414448168  0.1633159560854064  0.3735044393608238
  0.5031964109635815  0.1634742110041311  0.8739022831806840
  0.5029665140801126  0.6631941462027516  0.3739773424863994
  0.5055069429250039  0.6649225609566742  0.8729943609377537
  0.8365784125867387  0.1630620712253615  0.3726456456215259
  0.8353524754226722  0.1604248368971908  0.8729804078020332
  0.8356537359390704  0.6636757876415770  0.3745605079992171
  0.8367638474613381  0.6614043292587887  0.8741363471019223
  0.1022486741752131  0.2737331430874525  0.0043377017381129
  0.1664093487210615  0.4138624308068703  0.2465936255833464
  0.1654384017163007  0.4109510685408940  0.7539879812074121
  0.1684322993350046  0.9097375929702630  0.2528204976462668
  0.1678624781194768  0.9099821469204956  0.7476763802155043
  0.5004140715858492  0.4127356689449446  0.2495996166225978
  0.4999966135335481  0.4124962804534787  0.7506177572886762
  0.5013994093076579  0.9123919957801156  0.2501787179750395
  0.5009012176902891  0.9123869677378544  0.7497633913428107
  0.8311539973156998  0.4138964766365417  0.2509103992559147
  0.8316555474183023  0.4120721850341617  0.7488921654319917
  0.8339853785003548  0.9111222950753650  0.2500678141890142
  0.8336790906504568  0.9106627215483551  0.7488723324370603
  0.0013906689984875  0.0894977499310452  0.0047663487136870
  0.0005188601554496  0.0881585726572538  0.5004710570232652
  0.0024964541723534  0.5839661007759970 -0.0005642334401857
  0.0004971559155862  0.5866655115081435  0.5002364034495156
  0.3330326010910102  0.0907810296175104  0.0000003392835095
  0.3343876446303219  0.0875478607161155  0.4999009997331754
  0.3367612617091753  0.5955600664073220 -0.0001448003508419
  0.3336339704651771  0.5851148981199974  0.5003587597872471
  0.6674039614243491  0.0878042099940560 -0.0002377905578440
  0.6672096004956095  0.0879767474832852  0.4997613480444955
  0.6672841385255414  0.5872997858422876 -0.0002329338614554
  0.6664865232616322  0.5876664096099700  0.5002802155310452
  0.0382155443958971  0.1634844355539622  0.1067554717861363
  0.0362887859780967  0.1582634646739892  0.3974141673270376
  0.0384522138082100  0.1594021919943999  0.8952114567350582
  0.0357231591518390  0.6563821889332467  0.3965959988390090
  0.0365255500407130  0.6538418320636500  0.8952415685002907
  0.3699808593891737  0.1567229219054469  0.3961139175314873
  0.3682296867933239  0.1593082741290309  0.8955409562053441
  0.3689097362647569  0.6548823160546581  0.3967096810680177
  0.3732144333275050  0.6609338034656612  0.8951998209758825
  0.7023284242655063  0.1572752304193026  0.3958353916528814
  0.7013730047971110  0.1568068004141535  0.8949896776731796
  0.7018169872546416  0.6571612275719543  0.3965694520201684
  0.7025839180448866  0.6562559966240624  0.8956929010017098
  0.2045785483462073  0.0482676609578368  0.2563454341339465
  0.2029158774142243  0.0493201778380703  0.7451488442966544
  0.2025985249982726  0.5526241596482966  0.2475627715864022
  0.2008983027979611  0.5499267335859899  0.7539296894960632
  0.5345965377748855  0.0525181659841370  0.2502767404204338
  0.5338753970007278  0.0526202487749293  0.7495553516235337
  0.5340680129912808  0.5526590873555193  0.2501380299938392
  0.5338288715085567  0.5523079589207394  0.7499525895676604
  0.8667984189547611  0.0510276686493806  0.2505820867051873
  0.8674931960822949  0.0504414559660103  0.7487279414538167
  0.8658787068581503  0.5534024860401585  0.2506160932656362
  0.8663914004198684  0.5514559013687084  0.7495891009399920
  0.0609162714624920  0.4149461110223166  0.2510664061104789
  0.0597707406899111  0.4096015789528808  0.7501194925112771
  0.0628146805128664  0.9072976597144019  0.2521011170385601
  0.0621552832672072  0.9082951419363469  0.7481202167211146
  0.3944378691619995  0.4102991269059783  0.2489876329309426
  0.3939897325171292  0.4100021522405625  0.7510764545731157
  0.3955022791277736  0.9092217063652214  0.2503297824809423
  0.3949961994788299  0.9091558839444832  0.7496369263186956
  0.7254078122055049  0.4118374622036799  0.2522180426864018
  0.7259394306073855  0.4102225456648294  0.7486569979572550
  0.7279821213115891  0.9077357384779253  0.2497231080544685
  0.7277398729991397  0.9086941706917034  0.7492999179169115
  0.2268956483266902  0.0953630144708806  0.0000060174189652
  0.2285055466710295  0.0907897952401657  0.5000439689651619
  0.2310617053451746  0.6078298461095094 -0.0000243881022655
  0.2276686080432706  0.5862943999427790  0.5004824656894300
  0.5612629739185019  0.0906328408405196  0.0004368208307039
  0.5612744102541944  0.0906839903697590  0.4998930122503475
  0.5613948972931444  0.5907078500379063 -0.0000781656262173
  0.5605761749516224  0.5902466558787254  0.5002577083885826
  0.8942585498791340  0.0880236017394907 -0.0055992422113254
  0.8946161917691683  0.0907930983891118  0.4998470594185579
  0.8966971895059507  0.5839373340787997 -0.0003772394878455
  0.8946262376162187  0.5891357862240444  0.5002480141418646
  0.1992029759902401  0.3469926090286584  0.1389904006326319
  0.2029500472454581  0.3395089338081275  0.6524256095728145
  0.2037978574889366  0.8442032501100700  0.1471318012285943
  0.2030338288388098  0.8387523540383170  0.6447818039382529
  0.5356915668322698  0.3437161087610456  0.1455413716206668
  0.5349014694779523  0.3429064965994433  0.6466989511115873
  0.5369767647760482  0.8439894218581576  0.1460306197038232
  0.5360341023379315  0.8428982904957493  0.6458334787604840
  0.8643543186432168  0.3452321387204431  0.1461396086385442
  0.8677647548396032  0.3427874249959830  0.6454247216228802
  0.8698178224526005  0.8416894865362610  0.1463652798726662
  0.8686532194746222  0.8419119136537900  0.6444070180257008
  0.0352017848902348  0.1567383816397867  0.6051123290510674
  0.0368468467441374  0.6541993936435180  0.1030738508355011
  0.0356017016980314  0.6554385091650599  0.6044574302348305
  0.3683734182047487  0.1594322980512650  0.1040932816975617
  0.3697849995778493  0.1565406905153916  0.6038172770227166
  0.3735245856871706  0.6609678229682726  0.1041330590440000
  0.3685341266281449  0.6545635286166773  0.6043022859689062
  0.7031210774911477  0.1569066217248468  0.1032941714019797
  0.7020984004609232  0.1570005785265250  0.6038970246708321
  0.7027618001281660  0.6564613224772222  0.1034641989461108
  0.7016996658972665  0.6567376221854235  0.6041928527860938
  0.0390897224866072  0.4439463512036232 -0.0009028916633106
  0.0347694506893182  0.4466300923337180  0.5001602720655709
  0.0331367947659416  0.9459154739329274 -0.0039847374832035
  0.0346351178807181  0.9481698856086503  0.5002710323287832
  0.3639336172560255  0.4524860568204657 -0.0001987921089788
  0.3675338875854849  0.4451161547243186  0.5003018197879486
  0.3666340842155726  0.9507266687234092  0.0000163748039129
  0.3680066793377068  0.9473676333964337  0.5000072282795226
  0.7005267718823120  0.4471171929852588 -0.0002359022567913
  0.7001935591736625  0.4476250524920184  0.5003038215827140
  0.7013190450870883  0.9478149997105346 -0.0006115783300268
  0.7010614070532232  0.9479920389621691  0.4997814341637438
  0.2033985763835468  0.3409481836189260  0.3479166149574936
  0.1975061735492904  0.3428359486501285  0.8616261007503951
  0.2035134295488987  0.8378692660638660  0.3556278814236917
  0.2033402211348096  0.8439690439333446  0.8528914052334774
  0.5350648745668933  0.3431562679230584  0.3536781903271374
  0.5350659257560155  0.3435844894363440  0.8548309747957884
  0.5363612750648731  0.8427727490965157  0.3541717783624122
  0.5366196294015582  0.8440970192596139  0.8538999826355738
  0.8679607964163315  0.3439320496281719  0.3538271934165899
  0.8657405372332370  0.3419893526344037  0.8530016334058487
  0.8689684242255327  0.8420351556991071  0.3544958957796330
  0.8689886711818529  0.8401337255745617  0.8521227351137950
 
  0.00000000E+00  0.00000000E+00  0.00000000E+00
  0.00000000E+00  0.00000000E+00  0.00000000E+00
  0.00000000E+00  0.00000000E+00  0.00000000E+00
  0.00000000E+00  0.00000000E+00  0.00000000E+00
  0.00000000E+00  0.00000000E+00  0.00000000E+00
  0.00000000E+00  0.00000000E+00  0.00000000E+00
  0.00000000E+00  0.00000000E+00  0.00000000E+00
  0.00000000E+00  0.00000000E+00  0.00000000E+00
  0.00000000E+00  0.00000000E+00  0.00000000E+00
  0.00000000E+00  0.00000000E+00  0.00000000E+00
  0.00000000E+00  0.00000000E+00  0.00000000E+00
  0.00000000E+00  0.00000000E+00  0.00000000E+00
  0.00000000E+00  0.00000000E+00  0.00000000E+00
  0.00000000E+00  0.00000000E+00  0.00000000E+00
  0.00000000E+00  0.00000000E+00  0.00000000E+00
  0.00000000E+00  0.00000000E+00  0.00000000E+00
  0.00000000E+00  0.00000000E+00  0.00000000E+00
  0.00000000E+00  0.00000000E+00  0.00000000E+00
  0.00000000E+00  0.00000000E+00  0.00000000E+00
  0.00000000E+00  0.00000000E+00  0.00000000E+00
  0.00000000E+00  0.00000000E+00  0.00000000E+00
  0.00000000E+00  0.00000000E+00  0.00000000E+00
  0.00000000E+00  0.00000000E+00  0.00000000E+00
  0.00000000E+00  0.00000000E+00  0.00000000E+00
  0.00000000E+00  0.00000000E+00  0.00000000E+00
  0.00000000E+00  0.00000000E+00  0.00000000E+00
  0.00000000E+00  0.00000000E+00  0.00000000E+00
  0.00000000E+00  0.00000000E+00  0.00000000E+00
  0.00000000E+00  0.00000000E+00  0.00000000E+00
  0.00000000E+00  0.00000000E+00  0.00000000E+00
  0.00000000E+00  0.00000000E+00  0.00000000E+00
  0.00000000E+00  0.00000000E+00  0.00000000E+00
  0.00000000E+00  0.00000000E+00  0.00000000E+00
  0.00000000E+00  0.00000000E+00  0.00000000E+00
  0.00000000E+00  0.00000000E+00  0.00000000E+00
  0.00000000E+00  0.00000000E+00  0.00000000E+00
  0.00000000E+00  0.00000000E+00  0.00000000E+00
  0.00000000E+00  0.00000000E+00  0.00000000E+00
  0.00000000E+00  0.00000000E+00  0.00000000E+00
  0.00000000E+00  0.00000000E+00  0.00000000E+00
  0.00000000E+00  0.00000000E+00  0.00000000E+00
  0.00000000E+00  0.00000000E+00  0.00000000E+00
  0.00000000E+00  0.00000000E+00  0.00000000E+00
  0.00000000E+00  0.00000000E+00  0.00000000E+00
  0.00000000E+00  0.00000000E+00  0.00000000E+00
  0.00000000E+00  0.00000000E+00  0.00000000E+00
  0.00000000E+00  0.00000000E+00  0.00000000E+00
  0.00000000E+00  0.00000000E+00  0.00000000E+00
  0.00000000E+00  0.00000000E+00  0.00000000E+00
  0.00000000E+00  0.00000000E+00  0.00000000E+00
  0.00000000E+00  0.00000000E+00  0.00000000E+00
  0.00000000E+00  0.00000000E+00  0.00000000E+00
  0.00000000E+00  0.00000000E+00  0.00000000E+00
  0.00000000E+00  0.00000000E+00  0.00000000E+00
  0.00000000E+00  0.00000000E+00  0.00000000E+00
  0.00000000E+00  0.00000000E+00  0.00000000E+00
  0.00000000E+00  0.00000000E+00  0.00000000E+00
  0.00000000E+00  0.00000000E+00  0.00000000E+00
  0.00000000E+00  0.00000000E+00  0.00000000E+00
  0.00000000E+00  0.00000000E+00  0.00000000E+00
  0.00000000E+00  0.00000000E+00  0.00000000E+00
  0.00000000E+00  0.00000000E+00  0.00000000E+00
  0.00000000E+00  0.00000000E+00  0.00000000E+00
  0.00000000E+00  0.00000000E+00  0.00000000E+00
  0.00000000E+00  0.00000000E+00  0.00000000E+00
  0.00000000E+00  0.00000000E+00  0.00000000E+00
  0.00000000E+00  0.00000000E+00  0.00000000E+00
  0.00000000E+00  0.00000000E+00  0.00000000E+00
  0.00000000E+00  0.00000000E+00  0.00000000E+00
  0.00000000E+00  0.00000000E+00  0.00000000E+00
  0.00000000E+00  0.00000000E+00  0.00000000E+00
  0.00000000E+00  0.00000000E+00  0.00000000E+00
  0.00000000E+00  0.00000000E+00  0.00000000E+00
  0.00000000E+00  0.00000000E+00  0.00000000E+00
  0.00000000E+00  0.00000000E+00  0.00000000E+00
  0.00000000E+00  0.00000000E+00  0.00000000E+00
  0.00000000E+00  0.00000000E+00  0.00000000E+00
  0.00000000E+00  0.00000000E+00  0.00000000E+00
  0.00000000E+00  0.00000000E+00  0.00000000E+00
  0.00000000E+00  0.00000000E+00  0.00000000E+00
  0.00000000E+00  0.00000000E+00  0.00000000E+00
  0.00000000E+00  0.00000000E+00  0.00000000E+00
  0.00000000E+00  0.00000000E+00  0.00000000E+00
  0.00000000E+00  0.00000000E+00  0.00000000E+00
  0.00000000E+00  0.00000000E+00  0.00000000E+00
  0.00000000E+00  0.00000000E+00  0.00000000E+00
  0.00000000E+00  0.00000000E+00  0.00000000E+00
  0.00000000E+00  0.00000000E+00  0.00000000E+00
  0.00000000E+00  0.00000000E+00  0.00000000E+00
  0.00000000E+00  0.00000000E+00  0.00000000E+00
  0.00000000E+00  0.00000000E+00  0.00000000E+00
  0.00000000E+00  0.00000000E+00  0.00000000E+00
  0.00000000E+00  0.00000000E+00  0.00000000E+00
  0.00000000E+00  0.00000000E+00  0.00000000E+00
  0.00000000E+00  0.00000000E+00  0.00000000E+00
  0.00000000E+00  0.00000000E+00  0.00000000E+00
  0.00000000E+00  0.00000000E+00  0.00000000E+00
  0.00000000E+00  0.00000000E+00  0.00000000E+00
  0.00000000E+00  0.00000000E+00  0.00000000E+00
  0.00000000E+00  0.00000000E+00  0.00000000E+00
  0.00000000E+00  0.00000000E+00  0.00000000E+00
  0.00000000E+00  0.00000000E+00  0.00000000E+00
  0.00000000E+00  0.00000000E+00  0.00000000E+00
  0.00000000E+00  0.00000000E+00  0.00000000E+00
  0.00000000E+00  0.00000000E+00  0.00000000E+00
  0.00000000E+00  0.00000000E+00  0.00000000E+00
  0.00000000E+00  0.00000000E+00  0.00000000E+00
  0.00000000E+00  0.00000000E+00  0.00000000E+00
  0.00000000E+00  0.00000000E+00  0.00000000E+00
  0.00000000E+00  0.00000000E+00  0.00000000E+00
  0.00000000E+00  0.00000000E+00  0.00000000E+00
  0.00000000E+00  0.00000000E+00  0.00000000E+00
  0.00000000E+00  0.00000000E+00  0.00000000E+00
  0.00000000E+00  0.00000000E+00  0.00000000E+00
  0.00000000E+00  0.00000000E+00  0.00000000E+00
  0.00000000E+00  0.00000000E+00  0.00000000E+00
  0.00000000E+00  0.00000000E+00  0.00000000E+00
  0.00000000E+00  0.00000000E+00  0.00000000E+00
  0.00000000E+00  0.00000000E+00  0.00000000E+00
  0.00000000E+00  0.00000000E+00  0.00000000E+00
  0.00000000E+00  0.00000000E+00  0.00000000E+00
  0.00000000E+00  0.00000000E+00  0.00000000E+00
  0.00000000E+00  0.00000000E+00  0.00000000E+00
  0.00000000E+00  0.00000000E+00  0.00000000E+00
  0.00000000E+00  0.00000000E+00  0.00000000E+00
  0.00000000E+00  0.00000000E+00  0.00000000E+00
  0.00000000E+00  0.00000000E+00  0.00000000E+00
  0.00000000E+00  0.00000000E+00  0.00000000E+00
  0.00000000E+00  0.00000000E+00  0.00000000E+00
  0.00000000E+00  0.00000000E+00  0.00000000E+00
  0.00000000E+00  0.00000000E+00  0.00000000E+00
  0.00000000E+00  0.00000000E+00  0.00000000E+00
  0.00000000E+00  0.00000000E+00  0.00000000E+00
  0.00000000E+00  0.00000000E+00  0.00000000E+00
  0.00000000E+00  0.00000000E+00  0.00000000E+00
  0.00000000E+00  0.00000000E+00  0.00000000E+00
  0.00000000E+00  0.00000000E+00  0.00000000E+00
  0.00000000E+00  0.00000000E+00  0.00000000E+00
  0.00000000E+00  0.00000000E+00  0.00000000E+00
  0.00000000E+00  0.00000000E+00  0.00000000E+00
  0.00000000E+00  0.00000000E+00  0.00000000E+00
  0.00000000E+00  0.00000000E+00  0.00000000E+00
  0.00000000E+00  0.00000000E+00  0.00000000E+00
  0.00000000E+00  0.00000000E+00  0.00000000E+00
  0.00000000E+00  0.00000000E+00  0.00000000E+00
  0.00000000E+00  0.00000000E+00  0.00000000E+00
  0.00000000E+00  0.00000000E+00  0.00000000E+00
  0.00000000E+00  0.00000000E+00  0.00000000E+00
  0.00000000E+00  0.00000000E+00  0.00000000E+00
  0.00000000E+00  0.00000000E+00  0.00000000E+00
  0.00000000E+00  0.00000000E+00  0.00000000E+00
  0.00000000E+00  0.00000000E+00  0.00000000E+00
  0.00000000E+00  0.00000000E+00  0.00000000E+00
  0.00000000E+00  0.00000000E+00  0.00000000E+00
  0.00000000E+00  0.00000000E+00  0.00000000E+00
  0.00000000E+00  0.00000000E+00  0.00000000E+00
  0.00000000E+00  0.00000000E+00  0.00000000E+00
  0.00000000E+00  0.00000000E+00  0.00000000E+00
  0.00000000E+00  0.00000000E+00  0.00000000E+00
  0.00000000E+00  0.00000000E+00  0.00000000E+00
  0.00000000E+00  0.00000000E+00  0.00000000E+00
  0.00000000E+00  0.00000000E+00  0.00000000E+00
  0.00000000E+00  0.00000000E+00  0.00000000E+00
  0.00000000E+00  0.00000000E+00  0.00000000E+00
  0.00000000E+00  0.00000000E+00  0.00000000E+00
  0.00000000E+00  0.00000000E+00  0.00000000E+00
  0.00000000E+00  0.00000000E+00  0.00000000E+00
  0.00000000E+00  0.00000000E+00  0.00000000E+00
  0.00000000E+00  0.00000000E+00  0.00000000E+00
  0.00000000E+00  0.00000000E+00  0.00000000E+00
  0.00000000E+00  0.00000000E+00  0.00000000E+00
  0.00000000E+00  0.00000000E+00  0.00000000E+00
  0.00000000E+00  0.00000000E+00  0.00000000E+00
  0.00000000E+00  0.00000000E+00  0.00000000E+00
  0.00000000E+00  0.00000000E+00  0.00000000E+00
  0.00000000E+00  0.00000000E+00  0.00000000E+00
  0.00000000E+00  0.00000000E+00  0.00000000E+00
  0.00000000E+00  0.00000000E+00  0.00000000E+00
  0.00000000E+00  0.00000000E+00  0.00000000E+00
  0.00000000E+00  0.00000000E+00  0.00000000E+00
  0.00000000E+00  0.00000000E+00  0.00000000E+00
  0.00000000E+00  0.00000000E+00  0.00000000E+00
  0.00000000E+00  0.00000000E+00  0.00000000E+00
  0.00000000E+00  0.00000000E+00  0.00000000E+00
  0.00000000E+00  0.00000000E+00  0.00000000E+00
  0.00000000E+00  0.00000000E+00  0.00000000E+00
  0.00000000E+00  0.00000000E+00  0.00000000E+00
  0.00000000E+00  0.00000000E+00  0.00000000E+00
  0.00000000E+00  0.00000000E+00  0.00000000E+00
  0.00000000E+00  0.00000000E+00  0.00000000E+00
  0.00000000E+00  0.00000000E+00  0.00000000E+00
  0.00000000E+00  0.00000000E+00  0.00000000E+00
  0.00000000E+00  0.00000000E+00  0.00000000E+00
