Li21 N7
1.0
3.888635 0.000000 0.000000
0.000000 3.161590 -5.476035
0.000000 0.000000 65.712418
Li N
21 7
Selective dynamics
direct
0.500000 0.000000 0.027778 T T T Li+
0.000000 0.666667 0.027778 T T T Li+
0.000000 0.333333 0.027778 T T T Li+
0.500000 0.000000 0.083333 T T T Li+
0.000000 0.666667 0.083333 T T T Li+
0.000000 0.333333 0.083333 T T T Li+
0.500000 0.000000 0.138889 F F F Li+
0.000000 0.666667 0.138889 F F F Li+
0.000000 0.333333 0.138889 F F F Li+
0.500000 0.000000 0.194444 F F F Li+
0.000000 0.666667 0.194444 F F F Li+
0.000000 0.333333 0.194444 F F F Li+
0.500000 0.000000 0.250000 F F F Li+
0.000000 0.666667 0.250000 F F F Li+
0.000000 0.333333 0.250000 F F F Li+
0.500000 0.000000 0.305556 T T T Li+
0.000000 0.666667 0.305556 T T T Li+
0.000000 0.333333 0.305556 T T T Li+
0.500000 0.000000 0.361111 T T T Li+
0.000000 0.666667 0.361111 T T T Li+
0.000000 0.333333 0.361111 T T T Li+
0.000000 0.000000 0.027778 T T T N3-
0.000000 0.000000 0.083333 T T T N3-
0.000000 0.000000 0.138889 F F F N3-
0.000000 0.000000 0.194444 F F F N3-
0.000000 0.000000 0.250000 F F F N3-
0.000000 0.000000 0.305556 T T T N3-
0.000000 0.000000 0.361111 T T T N3-
