Li42 P14 O56
1.0
4.922448 0.000000 0.000000
-0.000000 6.176136 -5.296402
0.000000 0.000000 63.556824
Li P O
42 14 56
direct
0.490583 0.000000 0.047126 Li+
0.990583 0.500000 0.062880 Li+
0.491637 0.252873 0.028039 Li+
0.991637 0.247127 0.081966 Li+
0.991637 0.752873 0.040778 Li+
0.491637 0.747127 0.069227 Li+
0.490583 0.000000 0.130460 Li+
0.990583 0.500000 0.146213 Li+
0.491637 0.252873 0.111373 Li+
0.991637 0.247127 0.165300 Li+
0.991637 0.752873 0.124112 Li+
0.491637 0.747127 0.152561 Li+
0.490583 0.000000 0.213793 Li+
0.990583 0.500000 0.229546 Li+
0.491637 0.252873 0.194706 Li+
0.991637 0.247127 0.248633 Li+
0.991637 0.752873 0.207445 Li+
0.491637 0.747127 0.235894 Li+
0.490583 0.000000 0.297126 Li+
0.990583 0.500000 0.312880 Li+
0.491637 0.252873 0.278039 Li+
0.991637 0.247127 0.331966 Li+
0.991637 0.752873 0.290778 Li+
0.491637 0.747127 0.319227 Li+
0.490583 0.000000 0.380459 Li+
0.990583 0.500000 0.396213 Li+
0.491637 0.252873 0.361373 Li+
0.991637 0.247127 0.415300 Li+
0.991637 0.752873 0.374112 Li+
0.491637 0.747127 0.402561 Li+
0.490583 0.000000 0.463793 Li+
0.990583 0.500000 0.479546 Li+
0.491637 0.252873 0.444706 Li+
0.991637 0.247127 0.498633 Li+
0.991637 0.752873 0.457445 Li+
0.491637 0.747127 0.485894 Li+
0.490583 0.000000 0.547126 Li+
0.990583 0.500000 0.562879 Li+
0.491637 0.252873 0.528039 Li+
0.991637 0.247127 0.581966 Li+
0.991637 0.752873 0.540778 Li+
0.491637 0.747127 0.569227 Li+
0.498580 0.500000 0.007148 P5+
0.998580 0.000000 0.019525 P5+
0.498580 0.500000 0.090481 P5+
0.998580 0.000000 0.102858 P5+
0.498580 0.500000 0.173814 P5+
0.998580 0.000000 0.186191 P5+
0.498580 0.500000 0.257148 P5+
0.998580 0.000000 0.269525 P5+
0.498580 0.500000 0.340481 P5+
0.998580 0.000000 0.352858 P5+
0.498580 0.500000 0.423814 P5+
0.998580 0.000000 0.436191 P5+
0.498580 0.500000 0.507148 P5+
0.998580 0.000000 0.519525 P5+
0.892990 0.792862 0.074116 O2-
0.397874 0.500000 0.067211 O2-
0.814809 0.500000 0.007636 O2-
0.314809 0.000000 0.019036 O2-
0.392990 0.292862 0.001367 O2-
0.892990 0.207138 0.025305 O2-
0.897874 0.000000 0.042795 O2-
0.392990 0.707138 0.035890 O2-
0.892990 0.792862 0.157449 O2-
0.397874 0.500000 0.150544 O2-
0.814809 0.500000 0.090970 O2-
0.314809 0.000000 0.102369 O2-
0.392990 0.292862 0.084700 O2-
0.892990 0.207138 0.108639 O2-
0.897874 0.000000 0.126129 O2-
0.392990 0.707138 0.119223 O2-
0.892990 0.792862 0.240782 O2-
0.397874 0.500000 0.233877 O2-
0.814809 0.500000 0.174303 O2-
0.314809 0.000000 0.185702 O2-
0.392990 0.292862 0.168034 O2-
0.892990 0.207138 0.191972 O2-
0.897874 0.000000 0.209462 O2-
0.392990 0.707138 0.202557 O2-
0.892990 0.792862 0.324116 O2-
0.397874 0.500000 0.317211 O2-
0.814809 0.500000 0.257636 O2-
0.314809 0.000000 0.269036 O2-
0.392990 0.292862 0.251367 O2-
0.892990 0.207138 0.275305 O2-
0.897874 0.000000 0.292795 O2-
0.392990 0.707138 0.285890 O2-
0.892990 0.792862 0.407449 O2-
0.397874 0.500000 0.400544 O2-
0.814809 0.500000 0.340970 O2-
0.314809 0.000000 0.352369 O2-
0.392990 0.292862 0.334700 O2-
0.892990 0.207138 0.358639 O2-
0.897874 0.000000 0.376128 O2-
0.392990 0.707138 0.369223 O2-
0.892990 0.792862 0.490782 O2-
0.397874 0.500000 0.483877 O2-
0.814809 0.500000 0.424303 O2-
0.314809 0.000000 0.435703 O2-
0.392990 0.292862 0.418034 O2-
0.892990 0.207138 0.441972 O2-
0.897874 0.000000 0.459462 O2-
0.392990 0.707138 0.452557 O2-
0.892990 0.792862 0.574116 O2-
0.397874 0.500000 0.567211 O2-
0.814809 0.500000 0.507637 O2-
0.314809 0.000000 0.519036 O2-
0.392990 0.292862 0.501367 O2-
0.892990 0.207138 0.525305 O2-
0.897874 0.000000 0.542795 O2-
0.392990 0.707138 0.535890 O2-
