(1, 1, 0)                               
   1.00000000000000     
     7.5436135639874804    0.0000008846620439   -0.0000012513409662
     0.0000014818160727    3.6596477864905297   -6.3385118188869720
    -0.0000119365391766   -0.0422067394390489   71.8121095517994945
   Li   P 
    42    14
Selective dynamics
Direct
  0.2499997398465190 -0.0263750624430520  0.0295758298501095   T   T   T
  0.7500010421823650  0.0292040197605951  0.0295621863133338   T   T   T
  0.9262208627328361  0.6712734080821812  0.0320017131882669   T   T   T
  0.4262284605183496  0.3728473735413702  0.0320061535654711   T   T   T
  0.0737745157940586  0.3728413735107037  0.0320058859505538   T   T   T
  0.5737765130702289  0.6712635760046076  0.0319996346886585   T   T   T
  0.2500000000000000  0.0000000000000000  0.0882349999999974   F   F   F
  0.7500000000000000  0.0000000000000000  0.0882349999999974   F   F   F
  0.9158809999999988  0.6666669999999968  0.0882349999999974   F   F   F
  0.4158809999999988  0.3333330000000032  0.0882349999999974   F   F   F
  0.0841190000000012  0.3333330000000032  0.0882349999999974   F   F   F
  0.5841190000000012  0.6666669999999968  0.0882349999999974   F   F   F
  0.2500000000000000  0.0000000000000000  0.1470589999999987   F   F   F
  0.7500000000000000  0.0000000000000000  0.1470589999999987   F   F   F
  0.9158809999999988  0.6666669999999968  0.1470589999999987   F   F   F
  0.4158809999999988  0.3333330000000032  0.1470589999999987   F   F   F
  0.0841190000000012  0.3333330000000032  0.1470589999999987   F   F   F
  0.5841190000000012  0.6666669999999968  0.1470589999999987   F   F   F
  0.2500000000000000  0.0000000000000000  0.2058820000000026   F   F   F
  0.7500000000000000  0.0000000000000000  0.2058820000000026   F   F   F
  0.9158809999999988  0.6666669999999968  0.2058820000000026   F   F   F
  0.4158809999999988  0.3333330000000032  0.2058820000000026   F   F   F
  0.0841190000000012  0.3333330000000032  0.2058820000000026   F   F   F
  0.5841190000000012  0.6666669999999968  0.2058820000000026   F   F   F
  0.2500000000000000  0.0000000000000000  0.2647059999999968   F   F   F
  0.7500000000000000  0.0000000000000000  0.2647059999999968   F   F   F
  0.9158809999999988  0.6666669999999968  0.2647059999999968   F   F   F
  0.4158809999999988  0.3333330000000032  0.2647059999999968   F   F   F
  0.0841190000000012  0.3333330000000032  0.2647059999999968   F   F   F
  0.5841190000000012  0.6666669999999968  0.2647059999999968   F   F   F
  0.2500000000000000  0.0000000000000000  0.3235290000000006   F   F   F
  0.7500000000000000  0.0000000000000000  0.3235290000000006   F   F   F
  0.9158809999999988  0.6666669999999968  0.3235290000000006   F   F   F
  0.4158809999999988  0.3333330000000032  0.3235290000000006   F   F   F
  0.0841190000000012  0.3333330000000032  0.3235290000000006   F   F   F
  0.5841190000000012  0.6666669999999968  0.3235290000000006   F   F   F
  0.2500004712568364 -0.0290551897234137  0.3821922359055825   T   T   T
  0.7499993557119756  0.0264476169567889  0.3822009572795087   T   T   T
  0.9262056743098530  0.6272120152094736  0.3797478192055952   T   T   T
  0.4262233782798688  0.3287343093412809  0.3797687182038595   T   T   T
  0.0737745218893155  0.3287400732500575  0.3797694785123051   T   T   T
  0.5737961644243565  0.6272052941571699  0.3797470765305989   T   T   T
  0.2500014568460227  0.6651355054546566  0.0307823929101753   T   T   T
  0.7500018550994402  0.3580958634416558  0.0307700139287133   T   T   T
  0.2500000000000000  0.6666669999999968  0.0882349999999974   F   F   F
  0.7500000000000000  0.3333330000000032  0.0882349999999974   F   F   F
  0.2500000000000000  0.6666669999999968  0.1470589999999987   F   F   F
  0.7500000000000000  0.3333330000000032  0.1470589999999987   F   F   F
  0.2500000000000000  0.6666669999999968  0.2058820000000026   F   F   F
  0.7500000000000000  0.3333330000000032  0.2058820000000026   F   F   F
  0.2500000000000000  0.6666669999999968  0.2647059999999968   F   F   F
  0.7500000000000000  0.3333330000000032  0.2647059999999968   F   F   F
  0.2500000000000000  0.6666669999999968  0.3235290000000006   F   F   F
  0.7500000000000000  0.3333330000000032  0.3235290000000006   F   F   F
  0.2499997528528499  0.6417869098745445  0.3809765229976946   T   T   T
  0.7500003554546032  0.3347754887330393  0.3809766601772696   T   T   T
 
  0.00000000E+00  0.00000000E+00  0.00000000E+00
  0.00000000E+00  0.00000000E+00  0.00000000E+00
  0.00000000E+00  0.00000000E+00  0.00000000E+00
  0.00000000E+00  0.00000000E+00  0.00000000E+00
  0.00000000E+00  0.00000000E+00  0.00000000E+00
  0.00000000E+00  0.00000000E+00  0.00000000E+00
  0.00000000E+00  0.00000000E+00  0.00000000E+00
  0.00000000E+00  0.00000000E+00  0.00000000E+00
  0.00000000E+00  0.00000000E+00  0.00000000E+00
  0.00000000E+00  0.00000000E+00  0.00000000E+00
  0.00000000E+00  0.00000000E+00  0.00000000E+00
  0.00000000E+00  0.00000000E+00  0.00000000E+00
  0.00000000E+00  0.00000000E+00  0.00000000E+00
  0.00000000E+00  0.00000000E+00  0.00000000E+00
  0.00000000E+00  0.00000000E+00  0.00000000E+00
  0.00000000E+00  0.00000000E+00  0.00000000E+00
  0.00000000E+00  0.00000000E+00  0.00000000E+00
  0.00000000E+00  0.00000000E+00  0.00000000E+00
  0.00000000E+00  0.00000000E+00  0.00000000E+00
  0.00000000E+00  0.00000000E+00  0.00000000E+00
  0.00000000E+00  0.00000000E+00  0.00000000E+00
  0.00000000E+00  0.00000000E+00  0.00000000E+00
  0.00000000E+00  0.00000000E+00  0.00000000E+00
  0.00000000E+00  0.00000000E+00  0.00000000E+00
  0.00000000E+00  0.00000000E+00  0.00000000E+00
  0.00000000E+00  0.00000000E+00  0.00000000E+00
  0.00000000E+00  0.00000000E+00  0.00000000E+00
  0.00000000E+00  0.00000000E+00  0.00000000E+00
  0.00000000E+00  0.00000000E+00  0.00000000E+00
  0.00000000E+00  0.00000000E+00  0.00000000E+00
  0.00000000E+00  0.00000000E+00  0.00000000E+00
  0.00000000E+00  0.00000000E+00  0.00000000E+00
  0.00000000E+00  0.00000000E+00  0.00000000E+00
  0.00000000E+00  0.00000000E+00  0.00000000E+00
  0.00000000E+00  0.00000000E+00  0.00000000E+00
  0.00000000E+00  0.00000000E+00  0.00000000E+00
  0.00000000E+00  0.00000000E+00  0.00000000E+00
  0.00000000E+00  0.00000000E+00  0.00000000E+00
  0.00000000E+00  0.00000000E+00  0.00000000E+00
  0.00000000E+00  0.00000000E+00  0.00000000E+00
  0.00000000E+00  0.00000000E+00  0.00000000E+00
  0.00000000E+00  0.00000000E+00  0.00000000E+00
  0.00000000E+00  0.00000000E+00  0.00000000E+00
  0.00000000E+00  0.00000000E+00  0.00000000E+00
  0.00000000E+00  0.00000000E+00  0.00000000E+00
  0.00000000E+00  0.00000000E+00  0.00000000E+00
  0.00000000E+00  0.00000000E+00  0.00000000E+00
  0.00000000E+00  0.00000000E+00  0.00000000E+00
  0.00000000E+00  0.00000000E+00  0.00000000E+00
  0.00000000E+00  0.00000000E+00  0.00000000E+00
  0.00000000E+00  0.00000000E+00  0.00000000E+00
  0.00000000E+00  0.00000000E+00  0.00000000E+00
  0.00000000E+00  0.00000000E+00  0.00000000E+00
  0.00000000E+00  0.00000000E+00  0.00000000E+00
  0.00000000E+00  0.00000000E+00  0.00000000E+00
  0.00000000E+00  0.00000000E+00  0.00000000E+00
