(1, 1, 0)
1.0
7.570718 0.000000 0.000000
0.000000 3.668361 -6.353787
0.000000 0.000000 72.009589
Li P
42 14
Selective dynamics
direct
0.250000 0.000000 0.029412 T T T Li+
0.750000 0.000000 0.029412 T T T Li+
0.915881 0.666667 0.029412 T T T Li+
0.415881 0.333333 0.029412 T T T Li+
0.084119 0.333333 0.029412 T T T Li+
0.584119 0.666667 0.029412 T T T Li+
0.250000 0.000000 0.088235 F F F Li+
0.750000 0.000000 0.088235 F F F Li+
0.915881 0.666667 0.088235 F F F Li+
0.415881 0.333333 0.088235 F F F Li+
0.084119 0.333333 0.088235 F F F Li+
0.584119 0.666667 0.088235 F F F Li+
0.250000 0.000000 0.147059 F F F Li+
0.750000 0.000000 0.147059 F F F Li+
0.915881 0.666667 0.147059 F F F Li+
0.415881 0.333333 0.147059 F F F Li+
0.084119 0.333333 0.147059 F F F Li+
0.584119 0.666667 0.147059 F F F Li+
0.250000 0.000000 0.205882 F F F Li+
0.750000 0.000000 0.205882 F F F Li+
0.915881 0.666667 0.205882 F F F Li+
0.415881 0.333333 0.205882 F F F Li+
0.084119 0.333333 0.205882 F F F Li+
0.584119 0.666667 0.205882 F F F Li+
0.250000 0.000000 0.264706 F F F Li+
0.750000 0.000000 0.264706 F F F Li+
0.915881 0.666667 0.264706 F F F Li+
0.415881 0.333333 0.264706 F F F Li+
0.084119 0.333333 0.264706 F F F Li+
0.584119 0.666667 0.264706 F F F Li+
0.250000 0.000000 0.323529 F F F Li+
0.750000 0.000000 0.323529 F F F Li+
0.915881 0.666667 0.323529 F F F Li+
0.415881 0.333333 0.323529 F F F Li+
0.084119 0.333333 0.323529 F F F Li+
0.584119 0.666667 0.323529 F F F Li+
0.250000 0.000000 0.382353 T T T Li+
0.750000 0.000000 0.382353 T T T Li+
0.915881 0.666667 0.382353 T T T Li+
0.415881 0.333333 0.382353 T T T Li+
0.084119 0.333333 0.382353 T T T Li+
0.584119 0.666667 0.382353 T T T Li+
0.250000 0.666667 0.029412 T T T P3+
0.750000 0.333333 0.029412 T T T P3+
0.250000 0.666667 0.088235 F F F P3+
0.750000 0.333333 0.088235 F F F P3+
0.250000 0.666667 0.147059 F F F P3+
0.750000 0.333333 0.147059 F F F P3+
0.250000 0.666667 0.205882 F F F P3+
0.750000 0.333333 0.205882 F F F P3+
0.250000 0.666667 0.264706 F F F P3+
0.750000 0.333333 0.264706 F F F P3+
0.250000 0.666667 0.323529 F F F P3+
0.750000 0.333333 0.323529 F F F P3+
0.250000 0.666667 0.382353 T T T P3+
0.750000 0.333333 0.382353 T T T P3+
