Li73 P24 N1 O95                         
   1.00000000000000     
    14.7507553748694225   -0.0005705949222359   -0.0000044441154317
    -0.0002968073912812   10.5608005454970932    0.0000006885738762
    -0.0000036793847130    0.0000008152082586   12.2916314264116853
   Li   P    N    O 
    73    24     1    95
Direct
  0.1543590260233081  0.4517526806003195 -0.0000019406019927
  0.1698873632259132  0.4211006162179105  0.5000021825011525
  0.1717961188834180  0.9315482881308015 -0.0000001686593706
  0.1701041992517370  0.9237342023478615  0.5000002399745677
  0.5032949788809724  0.4221648188169519 -0.0000004958114020
  0.5041203805409169  0.4226878299783990  0.4999998624539075
  0.5019500817950033  0.9248420975026347  0.0000003419169571
  0.5030769470030539  0.9235271841411063  0.5000000781112163
  0.8352856749511715  0.4244310489113461 -0.0000001377432519
  0.8366121244710192  0.4227374219858295  0.5000000016413870
  0.8365454486402919  0.9220302937531341  0.0000001604586551
  0.8366575424110475  0.9233389592480495  0.5000002366780768
  0.0017349137850670  0.0766267867638375  0.2507656304339213
  0.0017358164026140  0.0766268810748792  0.7492342098484918
  0.0025133711725216  0.5780019187447444  0.2496891026036560
  0.0025141814213065  0.5780004699233193  0.7503100967850956
  0.3369384606492853  0.0775046228626422  0.2460263639254458
  0.3369378595041760  0.0775044226601599  0.7539732786788824
  0.3363093902211153  0.5794681390302139  0.2505681618763945
  0.3363101812300191  0.5794682096426601  0.7494317598085395
  0.6701953376203109  0.0774944144313565  0.2500765701992541
  0.6701948968556108  0.0774950311948288  0.7499234686727971
  0.6701982434570374  0.5792221628732674  0.2504652953671096
  0.6701981917781895  0.5792219469549573  0.7495349905457264
  0.1633868598346127  0.1514160531443225  0.1308508876917087
  0.1697902136311960  0.1630361544788289  0.6261115933873524
  0.1686750714328463  0.6689254336806756  0.1272658784743019
  0.1695483674231165  0.6624552187974201  0.6257723405972948
  0.5041417071988284  0.1617655440080645  0.1256039270033147
  0.5035537253688235  0.1634587357844472  0.6266819068104208
  0.5031545506350966  0.6641620191619392  0.1264991331796990
  0.5029315021802153  0.6644529782941920  0.6256274792729136
  0.8361183826252065  0.1635916655804699  0.1265180006310047
  0.8361721884123999  0.1639440923386022  0.6261823331263520
  0.8340061801450694  0.6657213822467209  0.1276157444155958
  0.8364266373471569  0.6638820954246654  0.6258131096656206
 -0.0001067633740397  0.3359129001735079  0.1234347708164195
  0.0028941103585309  0.3370009341405436  0.6248964488823080
  0.0025567395542590  0.8385598017757311  0.1239924618356589
  0.0029763195302914  0.8367015038822315  0.6232135102832920
  0.3492518447521300  0.3348773654080026  0.1320001118366853
  0.3369324896074279  0.3364308476593811  0.6230215346307438
  0.3367741570721806  0.8391373404339851  0.1220271969053229
  0.3360704642898711  0.8375314075864376  0.6234447260899916
  0.6694154373372498  0.3369384870826949  0.1240701265825492
  0.6706772454452936  0.3372539619593549  0.6230140641400489
  0.6691780283463006  0.8376184236114586  0.1236422988349919
  0.6693461318623259  0.8373170417858913  0.6234146026029177
  0.0028944685656070  0.3370017472417088  0.3751019741876607
 -0.0001059717975699  0.3359128677084109  0.8765641108339509
  0.0029760716989608  0.8367017984444691  0.3767870522606928
  0.0025567483904096  0.8385596450334497  0.8760075636287179
  0.3369315036718448  0.3364298337970407  0.3769788089627792
  0.3492478169217457  0.3348778532873922  0.8679978354678431
  0.3360705992627069  0.8375313072005881  0.3765554267673403
  0.3367761519871557  0.8391368879339987  0.8779731932501202
  0.6706773898632391  0.3372540348560514  0.3769862426347686
  0.6694158780555231  0.3369383349690122  0.8759301556537098
  0.6693460972914509  0.8373169127313163  0.3765855711993597
  0.6691785093591501  0.8376190328803681  0.8763572995287948
  0.1697897531499922  0.1630366666753047  0.3738880629137106
  0.1633872309484544  0.1514155619740736  0.8691497822927656
  0.1695479460560335  0.6624550669999256  0.3742276032216720
  0.1686755876330810  0.6689249563058987  0.8727336404013721
  0.5035541237232211  0.1634587793793598  0.3733176419735995
  0.5041403010800056  0.1617662351008922  0.8743959523058069
  0.5029314263818478  0.6644529497860510  0.3743722855729119
  0.5031547864382903  0.6641620339446666  0.8735008558732245
  0.8361719284345377  0.1639444481525370  0.3738179290178278
  0.8361189098584748  0.1635915860189424  0.8734818587843056
  0.8364264176864501  0.6638822733205475  0.3741869189488158
  0.8340064052588589  0.6657213390153968  0.8723838776855963
  0.2399492970399283  0.2827527317241921  0.0000007696013941
  0.1674539803849151  0.4128718665669320  0.2459004151492784
  0.1674544985613655  0.4128710241186628  0.7541004351046577
  0.1672083693188839  0.9112134079392156  0.2522217734884203
  0.1672085459076139  0.9112131666755412  0.7477784767202530
  0.5023209536418939  0.4143676213799927  0.2520352555783152
  0.5023210119546737  0.4143675038503927  0.7479648032883307
  0.5008763964835691  0.9121330322270751  0.2503937521953665
  0.5008764327263270  0.9121333569207548  0.7496061807086121
  0.8333479940892546  0.4132495399267230  0.2499297322414342
  0.8333481588464415  0.4132493778841519  0.7500701843573333
  0.8337251131133615  0.9125447930051979  0.2506316007428127
  0.8337256863795042  0.9125448378660589  0.7493688049573622
 -0.0019114494642172  0.0877364517453464  0.0000001553591542
  0.0005791500116252  0.0888464228350826  0.4999999550702440
 -0.0038927465726655  0.5915125193385115 -0.0000002723737200
  0.0008637579944501  0.5870635414998517  0.4999993613141857
  0.3317449599387766  0.0881577982510796 -0.0000003813979015
  0.3345123196891239  0.0889500751392484  0.4999998732171880
  0.3322897354653961  0.5866472910383209  0.0000000050155911
  0.3336818423900897  0.5873025785670712  0.4999999584938348
  0.6684128617266446  0.0880624272288135 -0.0000000697003462
  0.6676375045497357  0.0884589166963076  0.5000000713872363
  0.6661934450204581  0.5881038660875009  0.0000000044907144
  0.6676675607645147  0.5886313322976743  0.5000000848808210
  0.2256295862647817  0.1011210699398796  0.0000012498778604
  0.0358805610075919  0.1580427383065264  0.3959169532087492
  0.0315951955994679  0.1572762165922126  0.8951661209069184
  0.0359724748705082  0.6560377695658439  0.3958172505552416
  0.0340355145123311  0.6579504435527822  0.8961397902105761
  0.3700289199988219  0.1577217704142685  0.3958559590225871
  0.3750441156830572  0.1581098353592571  0.8961747388836241
  0.3684802454148073  0.6571305434947539  0.3961284242212067
  0.3694163828814638  0.6532448364691404  0.8960371499507326
  0.7030267856050896  0.1576141197441537  0.3959805655886084
  0.7032167307018665  0.1575392770869360  0.8957587961108600
  0.7029558804332084  0.6578947029712948  0.3960566714955219
  0.7013101628830286  0.6573819156940165  0.8959733295787804
  0.2006833876613656  0.0509786559463725  0.2546783537817445
  0.2006832702078949  0.0509785416669935  0.7453219244067163
  0.2007048749687257  0.5528388542373154  0.2477445190776541
  0.2007055554580825  0.5528377943298605  0.7522563245331075
  0.5353350288242503  0.0517798297802471  0.2506437097125866
  0.5353349483742571  0.0517801351549584  0.7493561541950056
  0.5362507561247585  0.5539833029434491  0.2511542889626591
  0.5362507636120526  0.5539832957069627  0.7488457428581521
  0.8671888570086964  0.0526351592897320  0.2508241742924939
  0.8671896383558254  0.0526349692747407  0.7491758774397862
  0.8674008326078988  0.5531653468206303  0.2499751224504212
  0.8674012644817040  0.5531651106599349  0.7500247687549642
  0.0619793833027336  0.4091091966094998  0.2470818796264843
  0.0619801773376297  0.4091089662636349  0.7529179788887759
  0.0614422627698879  0.9088630029849034  0.2508393631502086
  0.0614425670727514  0.9088626010397836  0.7491611971373915
  0.3966539831765976  0.4135492083799449  0.2545850863412153
  0.3966541212375949  0.4135491736100850  0.7454150371709074
  0.3953151164255853  0.9090918420183319  0.2504265687125137
  0.3953151317259091  0.9090920202086487  0.7495731160282680
  0.7278351150296583  0.4107222818463483  0.2504102293557785
  0.7278353728287026  0.4107222867094641  0.7495899480923233
  0.7281816719736787  0.9093203652560704  0.2504480734681627
  0.7281822907378929  0.9093215931041903  0.7495518158846889
  0.2288292606651327  0.0928069760687402  0.4999997935717760
  0.2267586330066809  0.5970201616882999 -0.0000002099908934
  0.2279581875860813  0.5878277039650410  0.5000001335527069
  0.5631410721375532  0.0904720378978829 -0.0000003500815896
  0.5620838898112344  0.0912989416148652  0.4999999345102493
  0.5605484644644068  0.5903021527617039 -0.0000000392943118
  0.5620490382818728  0.5909897300381191  0.4999999706654637
  0.8923975346190282  0.0899481320022888 -0.0000000620809653
  0.8949968956342380  0.0916527068062172  0.5000000465821781
  0.8910147755425588  0.5965910548454150 -0.0000002157162963
  0.8953170370707251  0.5897501914804341  0.5000000391324344
  0.2017823611971105  0.3471436457038600  0.1386999677813054
  0.2039898138266084  0.3415180950060160  0.6520853816528507
  0.2030913332009362  0.8429278306953529  0.1483983559381552
  0.2016489814555475  0.8411833110193727  0.6436892518576708
  0.5348661221671829  0.3449857206958359  0.1467901094409116
  0.5379464755862440  0.3439428428973610  0.6450030278321378
  0.5362013316446664  0.8428599742943088  0.1464281441558858
  0.5359495720704497  0.8429975190771738  0.6452771854971444
  0.8679211793064728  0.3444079308305263  0.1455050499803540
  0.8692325075012198  0.3438074330805154  0.6464143542467300
  0.8691348974393112  0.8436594564012786  0.1466199041085030
  0.8692871255513713  0.8434191712481106  0.6453746599588427
  0.0315951069468722  0.1572762288544381  0.1048341659764187
  0.0358809649400681  0.1580429053465541  0.6040826958956608
  0.0340355733843550  0.6579505922447805  0.1038595055962879
  0.0359729242842383  0.6560367322795106  0.6041825862539556
  0.3750453240077663  0.1581094658005298  0.1038239025597875
  0.3700288562003500  0.1577217398195883  0.6041437667346021
  0.3694161325820893  0.6532449809845096  0.1039630390691845
  0.3684803947593097  0.6571305144632991  0.6038714438177550
  0.7032164787219539  0.1575393374010489  0.1042412907204181
  0.7030269414799046  0.1576141454968214  0.6040195717226479
  0.7013102267147436  0.6573818748768336  0.1040266482073993
  0.7029559125445343  0.6578947364569999  0.6039436136246418
  0.0268279287026529  0.4499138011767779 -0.0000003877489492
  0.0350003814877243  0.4470082227748357  0.4999984716458131
  0.0322206904281752  0.9481242543650006 -0.0000001300822325
  0.0342669873658349  0.9488549046433666  0.4999999894392920
  0.3611946574602118  0.4432520739205876 -0.0000003579379533
  0.3679321640863510  0.4475387195279041  0.4999998521096848
  0.3700515654682074  0.9477991127017816  0.0000000786181620
  0.3675353268129432  0.9485983339763867  0.4999998819366467
  0.6999273750234751  0.4480739914959861 -0.0000000426070056
  0.7018037665692971  0.4488097039379361  0.5000001134834530
  0.7022866487324266  0.9481126864879289 -0.0000000009375040
  0.7014246301951857  0.9484964041662445  0.4999999988494829
  0.2039897656535836  0.3415181041703343  0.3479146630586905
  0.2017821698606162  0.3471396405179726  0.8613002068312218
  0.2016489081179536  0.8411835426293043  0.3563109682424351
  0.2030919851384296  0.8429277017416834  0.8516018176899142
  0.5379466409913689  0.3439428394037907  0.3549968478278667
  0.5348666338072969  0.3449856376890821  0.8532097208917790
  0.5359494606011361  0.8429973833333841  0.3547228809669034
  0.5362013594614756  0.8428603639920614  0.8535718540953086
  0.8692323854411576  0.3438075899160531  0.3535855974362072
  0.8679216261014127  0.3444078113017803  0.8544948174920757
  0.8692870065962135  0.8434192868796225  0.3546256231313580
  0.8691349013313864  0.8436586722755444  0.8533805675343945
 
  0.00000000E+00  0.00000000E+00  0.00000000E+00
  0.00000000E+00  0.00000000E+00  0.00000000E+00
  0.00000000E+00  0.00000000E+00  0.00000000E+00
  0.00000000E+00  0.00000000E+00  0.00000000E+00
  0.00000000E+00  0.00000000E+00  0.00000000E+00
  0.00000000E+00  0.00000000E+00  0.00000000E+00
  0.00000000E+00  0.00000000E+00  0.00000000E+00
  0.00000000E+00  0.00000000E+00  0.00000000E+00
  0.00000000E+00  0.00000000E+00  0.00000000E+00
  0.00000000E+00  0.00000000E+00  0.00000000E+00
  0.00000000E+00  0.00000000E+00  0.00000000E+00
  0.00000000E+00  0.00000000E+00  0.00000000E+00
  0.00000000E+00  0.00000000E+00  0.00000000E+00
  0.00000000E+00  0.00000000E+00  0.00000000E+00
  0.00000000E+00  0.00000000E+00  0.00000000E+00
  0.00000000E+00  0.00000000E+00  0.00000000E+00
  0.00000000E+00  0.00000000E+00  0.00000000E+00
  0.00000000E+00  0.00000000E+00  0.00000000E+00
  0.00000000E+00  0.00000000E+00  0.00000000E+00
  0.00000000E+00  0.00000000E+00  0.00000000E+00
  0.00000000E+00  0.00000000E+00  0.00000000E+00
  0.00000000E+00  0.00000000E+00  0.00000000E+00
  0.00000000E+00  0.00000000E+00  0.00000000E+00
  0.00000000E+00  0.00000000E+00  0.00000000E+00
  0.00000000E+00  0.00000000E+00  0.00000000E+00
  0.00000000E+00  0.00000000E+00  0.00000000E+00
  0.00000000E+00  0.00000000E+00  0.00000000E+00
  0.00000000E+00  0.00000000E+00  0.00000000E+00
  0.00000000E+00  0.00000000E+00  0.00000000E+00
  0.00000000E+00  0.00000000E+00  0.00000000E+00
  0.00000000E+00  0.00000000E+00  0.00000000E+00
  0.00000000E+00  0.00000000E+00  0.00000000E+00
  0.00000000E+00  0.00000000E+00  0.00000000E+00
  0.00000000E+00  0.00000000E+00  0.00000000E+00
  0.00000000E+00  0.00000000E+00  0.00000000E+00
  0.00000000E+00  0.00000000E+00  0.00000000E+00
  0.00000000E+00  0.00000000E+00  0.00000000E+00
  0.00000000E+00  0.00000000E+00  0.00000000E+00
  0.00000000E+00  0.00000000E+00  0.00000000E+00
  0.00000000E+00  0.00000000E+00  0.00000000E+00
  0.00000000E+00  0.00000000E+00  0.00000000E+00
  0.00000000E+00  0.00000000E+00  0.00000000E+00
  0.00000000E+00  0.00000000E+00  0.00000000E+00
  0.00000000E+00  0.00000000E+00  0.00000000E+00
  0.00000000E+00  0.00000000E+00  0.00000000E+00
  0.00000000E+00  0.00000000E+00  0.00000000E+00
  0.00000000E+00  0.00000000E+00  0.00000000E+00
  0.00000000E+00  0.00000000E+00  0.00000000E+00
  0.00000000E+00  0.00000000E+00  0.00000000E+00
  0.00000000E+00  0.00000000E+00  0.00000000E+00
  0.00000000E+00  0.00000000E+00  0.00000000E+00
  0.00000000E+00  0.00000000E+00  0.00000000E+00
  0.00000000E+00  0.00000000E+00  0.00000000E+00
  0.00000000E+00  0.00000000E+00  0.00000000E+00
  0.00000000E+00  0.00000000E+00  0.00000000E+00
  0.00000000E+00  0.00000000E+00  0.00000000E+00
  0.00000000E+00  0.00000000E+00  0.00000000E+00
  0.00000000E+00  0.00000000E+00  0.00000000E+00
  0.00000000E+00  0.00000000E+00  0.00000000E+00
  0.00000000E+00  0.00000000E+00  0.00000000E+00
  0.00000000E+00  0.00000000E+00  0.00000000E+00
  0.00000000E+00  0.00000000E+00  0.00000000E+00
  0.00000000E+00  0.00000000E+00  0.00000000E+00
  0.00000000E+00  0.00000000E+00  0.00000000E+00
  0.00000000E+00  0.00000000E+00  0.00000000E+00
  0.00000000E+00  0.00000000E+00  0.00000000E+00
  0.00000000E+00  0.00000000E+00  0.00000000E+00
  0.00000000E+00  0.00000000E+00  0.00000000E+00
  0.00000000E+00  0.00000000E+00  0.00000000E+00
  0.00000000E+00  0.00000000E+00  0.00000000E+00
  0.00000000E+00  0.00000000E+00  0.00000000E+00
  0.00000000E+00  0.00000000E+00  0.00000000E+00
  0.00000000E+00  0.00000000E+00  0.00000000E+00
  0.00000000E+00  0.00000000E+00  0.00000000E+00
  0.00000000E+00  0.00000000E+00  0.00000000E+00
  0.00000000E+00  0.00000000E+00  0.00000000E+00
  0.00000000E+00  0.00000000E+00  0.00000000E+00
  0.00000000E+00  0.00000000E+00  0.00000000E+00
  0.00000000E+00  0.00000000E+00  0.00000000E+00
  0.00000000E+00  0.00000000E+00  0.00000000E+00
  0.00000000E+00  0.00000000E+00  0.00000000E+00
  0.00000000E+00  0.00000000E+00  0.00000000E+00
  0.00000000E+00  0.00000000E+00  0.00000000E+00
  0.00000000E+00  0.00000000E+00  0.00000000E+00
  0.00000000E+00  0.00000000E+00  0.00000000E+00
  0.00000000E+00  0.00000000E+00  0.00000000E+00
  0.00000000E+00  0.00000000E+00  0.00000000E+00
  0.00000000E+00  0.00000000E+00  0.00000000E+00
  0.00000000E+00  0.00000000E+00  0.00000000E+00
  0.00000000E+00  0.00000000E+00  0.00000000E+00
  0.00000000E+00  0.00000000E+00  0.00000000E+00
  0.00000000E+00  0.00000000E+00  0.00000000E+00
  0.00000000E+00  0.00000000E+00  0.00000000E+00
  0.00000000E+00  0.00000000E+00  0.00000000E+00
  0.00000000E+00  0.00000000E+00  0.00000000E+00
  0.00000000E+00  0.00000000E+00  0.00000000E+00
  0.00000000E+00  0.00000000E+00  0.00000000E+00
  0.00000000E+00  0.00000000E+00  0.00000000E+00
  0.00000000E+00  0.00000000E+00  0.00000000E+00
  0.00000000E+00  0.00000000E+00  0.00000000E+00
  0.00000000E+00  0.00000000E+00  0.00000000E+00
  0.00000000E+00  0.00000000E+00  0.00000000E+00
  0.00000000E+00  0.00000000E+00  0.00000000E+00
  0.00000000E+00  0.00000000E+00  0.00000000E+00
  0.00000000E+00  0.00000000E+00  0.00000000E+00
  0.00000000E+00  0.00000000E+00  0.00000000E+00
  0.00000000E+00  0.00000000E+00  0.00000000E+00
  0.00000000E+00  0.00000000E+00  0.00000000E+00
  0.00000000E+00  0.00000000E+00  0.00000000E+00
  0.00000000E+00  0.00000000E+00  0.00000000E+00
  0.00000000E+00  0.00000000E+00  0.00000000E+00
  0.00000000E+00  0.00000000E+00  0.00000000E+00
  0.00000000E+00  0.00000000E+00  0.00000000E+00
  0.00000000E+00  0.00000000E+00  0.00000000E+00
  0.00000000E+00  0.00000000E+00  0.00000000E+00
  0.00000000E+00  0.00000000E+00  0.00000000E+00
  0.00000000E+00  0.00000000E+00  0.00000000E+00
  0.00000000E+00  0.00000000E+00  0.00000000E+00
  0.00000000E+00  0.00000000E+00  0.00000000E+00
  0.00000000E+00  0.00000000E+00  0.00000000E+00
  0.00000000E+00  0.00000000E+00  0.00000000E+00
  0.00000000E+00  0.00000000E+00  0.00000000E+00
  0.00000000E+00  0.00000000E+00  0.00000000E+00
  0.00000000E+00  0.00000000E+00  0.00000000E+00
  0.00000000E+00  0.00000000E+00  0.00000000E+00
  0.00000000E+00  0.00000000E+00  0.00000000E+00
  0.00000000E+00  0.00000000E+00  0.00000000E+00
  0.00000000E+00  0.00000000E+00  0.00000000E+00
  0.00000000E+00  0.00000000E+00  0.00000000E+00
  0.00000000E+00  0.00000000E+00  0.00000000E+00
  0.00000000E+00  0.00000000E+00  0.00000000E+00
  0.00000000E+00  0.00000000E+00  0.00000000E+00
  0.00000000E+00  0.00000000E+00  0.00000000E+00
  0.00000000E+00  0.00000000E+00  0.00000000E+00
  0.00000000E+00  0.00000000E+00  0.00000000E+00
  0.00000000E+00  0.00000000E+00  0.00000000E+00
  0.00000000E+00  0.00000000E+00  0.00000000E+00
  0.00000000E+00  0.00000000E+00  0.00000000E+00
  0.00000000E+00  0.00000000E+00  0.00000000E+00
  0.00000000E+00  0.00000000E+00  0.00000000E+00
  0.00000000E+00  0.00000000E+00  0.00000000E+00
  0.00000000E+00  0.00000000E+00  0.00000000E+00
  0.00000000E+00  0.00000000E+00  0.00000000E+00
  0.00000000E+00  0.00000000E+00  0.00000000E+00
  0.00000000E+00  0.00000000E+00  0.00000000E+00
  0.00000000E+00  0.00000000E+00  0.00000000E+00
  0.00000000E+00  0.00000000E+00  0.00000000E+00
  0.00000000E+00  0.00000000E+00  0.00000000E+00
  0.00000000E+00  0.00000000E+00  0.00000000E+00
  0.00000000E+00  0.00000000E+00  0.00000000E+00
  0.00000000E+00  0.00000000E+00  0.00000000E+00
  0.00000000E+00  0.00000000E+00  0.00000000E+00
  0.00000000E+00  0.00000000E+00  0.00000000E+00
  0.00000000E+00  0.00000000E+00  0.00000000E+00
  0.00000000E+00  0.00000000E+00  0.00000000E+00
  0.00000000E+00  0.00000000E+00  0.00000000E+00
  0.00000000E+00  0.00000000E+00  0.00000000E+00
  0.00000000E+00  0.00000000E+00  0.00000000E+00
  0.00000000E+00  0.00000000E+00  0.00000000E+00
  0.00000000E+00  0.00000000E+00  0.00000000E+00
  0.00000000E+00  0.00000000E+00  0.00000000E+00
  0.00000000E+00  0.00000000E+00  0.00000000E+00
  0.00000000E+00  0.00000000E+00  0.00000000E+00
  0.00000000E+00  0.00000000E+00  0.00000000E+00
  0.00000000E+00  0.00000000E+00  0.00000000E+00
  0.00000000E+00  0.00000000E+00  0.00000000E+00
  0.00000000E+00  0.00000000E+00  0.00000000E+00
  0.00000000E+00  0.00000000E+00  0.00000000E+00
  0.00000000E+00  0.00000000E+00  0.00000000E+00
  0.00000000E+00  0.00000000E+00  0.00000000E+00
  0.00000000E+00  0.00000000E+00  0.00000000E+00
  0.00000000E+00  0.00000000E+00  0.00000000E+00
  0.00000000E+00  0.00000000E+00  0.00000000E+00
  0.00000000E+00  0.00000000E+00  0.00000000E+00
  0.00000000E+00  0.00000000E+00  0.00000000E+00
  0.00000000E+00  0.00000000E+00  0.00000000E+00
  0.00000000E+00  0.00000000E+00  0.00000000E+00
  0.00000000E+00  0.00000000E+00  0.00000000E+00
  0.00000000E+00  0.00000000E+00  0.00000000E+00
  0.00000000E+00  0.00000000E+00  0.00000000E+00
  0.00000000E+00  0.00000000E+00  0.00000000E+00
  0.00000000E+00  0.00000000E+00  0.00000000E+00
  0.00000000E+00  0.00000000E+00  0.00000000E+00
  0.00000000E+00  0.00000000E+00  0.00000000E+00
  0.00000000E+00  0.00000000E+00  0.00000000E+00
  0.00000000E+00  0.00000000E+00  0.00000000E+00
  0.00000000E+00  0.00000000E+00  0.00000000E+00
  0.00000000E+00  0.00000000E+00  0.00000000E+00
  0.00000000E+00  0.00000000E+00  0.00000000E+00
  0.00000000E+00  0.00000000E+00  0.00000000E+00
  0.00000000E+00  0.00000000E+00  0.00000000E+00
  0.00000000E+00  0.00000000E+00  0.00000000E+00
  0.00000000E+00  0.00000000E+00  0.00000000E+00
