Li140 P140 O420
1.0
5.521558 0.000000 0.000000
0.000000 16.540545 -23.948210
0.000000 0.000000 133.129800
Li P O
140 140 420
direct
0.494607 0.818220 0.067076 Li+
0.505393 0.318220 0.017076 Li+
0.484419 0.934004 0.002419 Li+
0.515581 0.434004 0.052420 Li+
0.505784 0.049457 0.037552 Li+
0.494216 0.549457 0.087552 Li+
0.507224 0.164548 0.072527 Li+
0.492776 0.664548 0.022527 Li+
0.992783 0.241566 0.094969 Li+
0.007217 0.741566 0.044969 Li+
0.521194 0.318286 0.067304 Li+
0.478806 0.818286 0.017304 Li+
0.476313 0.433730 0.002503 Li+
0.523687 0.933730 0.052503 Li+
0.533250 0.550453 0.037766 Li+
0.466750 0.050453 0.087766 Li+
0.477737 0.667016 0.073056 Li+
0.522263 0.167016 0.023056 Li+
0.960889 0.743634 0.095583 Li+
0.039111 0.243634 0.045583 Li+
0.494607 0.818220 0.167076 Li+
0.505393 0.318220 0.117076 Li+
0.484419 0.934004 0.102419 Li+
0.515581 0.434004 0.152420 Li+
0.505784 0.049457 0.137552 Li+
0.494216 0.549457 0.187552 Li+
0.507224 0.164548 0.172527 Li+
0.492776 0.664548 0.122527 Li+
0.992783 0.241566 0.194969 Li+
0.007217 0.741566 0.144969 Li+
0.521194 0.318286 0.167304 Li+
0.478806 0.818286 0.117304 Li+
0.476313 0.433730 0.102503 Li+
0.523687 0.933730 0.152503 Li+
0.533250 0.550453 0.137766 Li+
0.466750 0.050453 0.187766 Li+
0.477737 0.667016 0.173056 Li+
0.522263 0.167016 0.123056 Li+
0.960889 0.743634 0.195583 Li+
0.039111 0.243634 0.145583 Li+
0.494607 0.818220 0.267076 Li+
0.505393 0.318220 0.217076 Li+
0.484419 0.934004 0.202420 Li+
0.515581 0.434004 0.252420 Li+
0.505784 0.049457 0.237552 Li+
0.494216 0.549457 0.287552 Li+
0.507224 0.164548 0.272527 Li+
0.492776 0.664548 0.222527 Li+
0.992783 0.241566 0.294969 Li+
0.007217 0.741566 0.244969 Li+
0.521194 0.318286 0.267304 Li+
0.478806 0.818286 0.217304 Li+
0.476313 0.433730 0.202503 Li+
0.523687 0.933730 0.252503 Li+
0.533250 0.550453 0.237766 Li+
0.466750 0.050453 0.287766 Li+
0.477737 0.667016 0.273056 Li+
0.522263 0.167016 0.223056 Li+
0.960889 0.743634 0.295583 Li+
0.039111 0.243634 0.245583 Li+
0.494607 0.818220 0.367076 Li+
0.505393 0.318220 0.317076 Li+
0.484419 0.934004 0.302420 Li+
0.515581 0.434004 0.352419 Li+
0.505784 0.049457 0.337552 Li+
0.494216 0.549457 0.387552 Li+
0.507224 0.164548 0.372527 Li+
0.492776 0.664548 0.322527 Li+
0.992783 0.241566 0.394969 Li+
0.007217 0.741566 0.344969 Li+
0.521194 0.318286 0.367304 Li+
0.478806 0.818286 0.317304 Li+
0.476313 0.433730 0.302503 Li+
0.523687 0.933730 0.352503 Li+
0.533250 0.550453 0.337766 Li+
0.466750 0.050453 0.387766 Li+
0.477737 0.667016 0.373056 Li+
0.522263 0.167016 0.323056 Li+
0.960889 0.743634 0.395583 Li+
0.039111 0.243634 0.345583 Li+
0.494607 0.818220 0.467076 Li+
0.505393 0.318220 0.417076 Li+
0.484419 0.934004 0.402420 Li+
0.515581 0.434004 0.452420 Li+
0.505784 0.049457 0.437552 Li+
0.494216 0.549457 0.487552 Li+
0.507224 0.164548 0.472527 Li+
0.492776 0.664548 0.422527 Li+
0.992783 0.241566 0.494969 Li+
0.007217 0.741566 0.444969 Li+
0.521194 0.318286 0.467304 Li+
0.478806 0.818286 0.417304 Li+
0.476313 0.433730 0.402503 Li+
0.523687 0.933730 0.452503 Li+
0.533250 0.550453 0.437766 Li+
0.466750 0.050453 0.487766 Li+
0.477737 0.667016 0.473056 Li+
0.522263 0.167016 0.423056 Li+
0.960889 0.743634 0.495583 Li+
0.039111 0.243634 0.445583 Li+
0.494607 0.818220 0.567076 Li+
0.505393 0.318220 0.517076 Li+
0.484419 0.934004 0.502420 Li+
0.515581 0.434004 0.552420 Li+
0.505784 0.049457 0.537552 Li+
0.494216 0.549457 0.587552 Li+
0.507224 0.164548 0.572527 Li+
0.492776 0.664548 0.522527 Li+
0.992783 0.241566 0.594969 Li+
0.007217 0.741566 0.544969 Li+
0.521194 0.318286 0.567304 Li+
0.478806 0.818286 0.517304 Li+
0.476313 0.433730 0.502503 Li+
0.523687 0.933730 0.552503 Li+
0.533250 0.550453 0.537766 Li+
0.466750 0.050453 0.587766 Li+
0.477737 0.667016 0.573056 Li+
0.522263 0.167016 0.523056 Li+
0.960889 0.743634 0.595583 Li+
0.039111 0.243634 0.545583 Li+
0.494607 0.818220 0.667076 Li+
0.505393 0.318220 0.617076 Li+
0.484419 0.934004 0.602419 Li+
0.515581 0.434004 0.652419 Li+
0.505784 0.049457 0.637552 Li+
0.494216 0.549457 0.687552 Li+
0.507224 0.164548 0.672527 Li+
0.492776 0.664548 0.622527 Li+
0.992783 0.241566 0.694969 Li+
0.007217 0.741566 0.644969 Li+
0.521194 0.318286 0.667304 Li+
0.478806 0.818286 0.617304 Li+
0.476313 0.433730 0.602503 Li+
0.523687 0.933730 0.652503 Li+
0.533250 0.550453 0.637766 Li+
0.466750 0.050453 0.687766 Li+
0.477737 0.667016 0.673056 Li+
0.522263 0.167016 0.623056 Li+
0.960889 0.743634 0.695583 Li+
0.039111 0.243634 0.645583 Li+
0.185377 0.000413 0.097866 P5+
0.814623 0.500413 0.047866 P5+
0.843317 0.093280 0.027791 P5+
0.156683 0.593280 0.077791 P5+
0.188444 0.197061 0.057722 P5+
0.811556 0.697061 0.007722 P5+
0.828977 0.308311 0.087894 P5+
0.171023 0.808311 0.037894 P5+
0.159739 0.408249 0.017887 P5+
0.840261 0.908249 0.067887 P5+
0.843930 0.574567 0.021867 P5+
0.156070 0.074567 0.071867 P5+
0.174322 0.674438 0.051891 P5+
0.825678 0.174438 0.001891 P5+
0.812278 0.786455 0.082180 P5+
0.187722 0.286455 0.032180 P5+
0.151901 0.889856 0.012101 P5+
0.848099 0.389856 0.062101 P5+
0.809867 0.982845 0.042029 P5+
0.190133 0.482845 0.092029 P5+
0.185377 0.000413 0.197866 P5+
0.814623 0.500413 0.147866 P5+
0.843317 0.093280 0.127791 P5+
0.156683 0.593280 0.177791 P5+
0.188444 0.197061 0.157722 P5+
0.811556 0.697061 0.107722 P5+
0.828977 0.308311 0.187894 P5+
0.171023 0.808311 0.137894 P5+
0.159739 0.408249 0.117887 P5+
0.840261 0.908249 0.167887 P5+
0.843930 0.574567 0.121867 P5+
0.156070 0.074567 0.171867 P5+
0.174322 0.674438 0.151891 P5+
0.825678 0.174438 0.101891 P5+
0.812278 0.786455 0.182180 P5+
0.187722 0.286455 0.132180 P5+
0.151901 0.889856 0.112101 P5+
0.848099 0.389856 0.162101 P5+
0.809867 0.982845 0.142029 P5+
0.190133 0.482845 0.192029 P5+
0.185377 0.000413 0.297866 P5+
0.814623 0.500413 0.247866 P5+
0.843317 0.093280 0.227791 P5+
0.156683 0.593280 0.277791 P5+
0.188444 0.197061 0.257722 P5+
0.811556 0.697061 0.207722 P5+
0.828977 0.308311 0.287894 P5+
0.171023 0.808311 0.237894 P5+
0.159739 0.408249 0.217887 P5+
0.840261 0.908249 0.267887 P5+
0.843930 0.574567 0.221867 P5+
0.156070 0.074567 0.271867 P5+
0.174322 0.674438 0.251891 P5+
0.825678 0.174438 0.201891 P5+
0.812278 0.786455 0.282180 P5+
0.187722 0.286455 0.232180 P5+
0.151901 0.889856 0.212101 P5+
0.848099 0.389856 0.262101 P5+
0.809867 0.982845 0.242029 P5+
0.190133 0.482845 0.292029 P5+
0.185377 0.000413 0.397865 P5+
0.814623 0.500413 0.347865 P5+
0.843317 0.093280 0.327791 P5+
0.156683 0.593280 0.377791 P5+
0.188444 0.197061 0.357722 P5+
0.811556 0.697061 0.307722 P5+
0.828977 0.308311 0.387894 P5+
0.171023 0.808311 0.337894 P5+
0.159739 0.408249 0.317887 P5+
0.840261 0.908249 0.367887 P5+
0.843930 0.574567 0.321867 P5+
0.156070 0.074567 0.371867 P5+
0.174322 0.674438 0.351891 P5+
0.825678 0.174438 0.301891 P5+
0.812278 0.786455 0.382180 P5+
0.187722 0.286455 0.332180 P5+
0.151901 0.889856 0.312101 P5+
0.848099 0.389856 0.362101 P5+
0.809867 0.982845 0.342029 P5+
0.190133 0.482845 0.392029 P5+
0.185377 0.000413 0.497866 P5+
0.814623 0.500413 0.447866 P5+
0.843317 0.093280 0.427791 P5+
0.156683 0.593280 0.477791 P5+
0.188444 0.197061 0.457722 P5+
0.811556 0.697061 0.407722 P5+
0.828977 0.308311 0.487894 P5+
0.171023 0.808311 0.437894 P5+
0.159739 0.408249 0.417887 P5+
0.840261 0.908249 0.467887 P5+
0.843930 0.574567 0.421867 P5+
0.156070 0.074567 0.471867 P5+
0.174322 0.674438 0.451891 P5+
0.825678 0.174438 0.401891 P5+
0.812278 0.786455 0.482180 P5+
0.187722 0.286455 0.432180 P5+
0.151901 0.889856 0.412101 P5+
0.848099 0.389856 0.462101 P5+
0.809867 0.982845 0.442029 P5+
0.190133 0.482845 0.492029 P5+
0.185377 0.000413 0.597866 P5+
0.814623 0.500413 0.547866 P5+
0.843317 0.093280 0.527791 P5+
0.156683 0.593280 0.577791 P5+
0.188444 0.197061 0.557722 P5+
0.811556 0.697061 0.507722 P5+
0.828977 0.308311 0.587894 P5+
0.171023 0.808311 0.537894 P5+
0.159739 0.408249 0.517887 P5+
0.840261 0.908249 0.567887 P5+
0.843930 0.574567 0.521867 P5+
0.156070 0.074567 0.571867 P5+
0.174322 0.674438 0.551891 P5+
0.825678 0.174438 0.501891 P5+
0.812278 0.786455 0.582180 P5+
0.187722 0.286455 0.532180 P5+
0.151901 0.889856 0.512101 P5+
0.848099 0.389856 0.562101 P5+
0.809867 0.982845 0.542029 P5+
0.190133 0.482845 0.592029 P5+
0.185377 0.000413 0.697866 P5+
0.814623 0.500413 0.647865 P5+
0.843317 0.093280 0.627791 P5+
0.156683 0.593280 0.677791 P5+
0.188444 0.197061 0.657722 P5+
0.811556 0.697061 0.607722 P5+
0.828977 0.308311 0.687894 P5+
0.171023 0.808311 0.637894 P5+
0.159739 0.408249 0.617887 P5+
0.840261 0.908249 0.667887 P5+
0.843930 0.574567 0.621867 P5+
0.156070 0.074567 0.671867 P5+
0.174322 0.674438 0.651891 P5+
0.825678 0.174438 0.601891 P5+
0.812278 0.786455 0.682180 P5+
0.187722 0.286455 0.632180 P5+
0.151901 0.889856 0.612101 P5+
0.848099 0.389856 0.662101 P5+
0.809867 0.982845 0.642029 P5+
0.190133 0.482845 0.692029 P5+
0.069000 0.035413 0.014442 O2-
0.931000 0.535413 0.064442 O2-
0.951087 0.140628 0.045983 O2-
0.048913 0.640628 0.095983 O2-
0.080018 0.275856 0.077353 O2-
0.919982 0.775856 0.027353 O2-
0.926681 0.392259 0.007818 O2-
0.073319 0.892259 0.057818 O2-
0.942022 0.978148 0.087702 O2-
0.057978 0.478148 0.037702 O2-
0.076781 0.590622 0.031958 O2-
0.923219 0.090622 0.081958 O2-
0.921841 0.709404 0.062520 O2-
0.078159 0.209404 0.012520 O2-
0.049265 0.843555 0.093938 O2-
0.950735 0.343555 0.043937 O2-
0.918787 0.943480 0.024793 O2-
0.081213 0.443480 0.074793 O2-
0.944691 0.504327 0.001972 O2-
0.055309 0.004327 0.051972 O2-
0.322795 0.926111 0.087596 O2-
0.677205 0.426111 0.037596 O2-
0.313918 0.066074 0.004000 O2-
0.686082 0.566074 0.054000 O2-
0.643576 0.041349 0.022500 O2-
0.356424 0.541349 0.072500 O2-
0.795305 0.153257 0.030333 O2-
0.204695 0.653257 0.080333 O2-
0.351974 0.154647 0.057333 O2-
0.648026 0.654647 0.007333 O2-
0.281781 0.224590 0.052619 O2-
0.718219 0.724590 0.002619 O2-
0.751546 0.252705 0.086240 O2-
0.248454 0.752705 0.036240 O2-
0.656290 0.330648 0.083719 O2-
0.343710 0.830648 0.033719 O2-
0.215121 0.332841 0.010245 O2-
0.784879 0.832841 0.060245 O2-
0.355777 0.446708 0.018683 O2-
0.644223 0.946708 0.068683 O2-
0.649890 0.536665 0.021330 O2-
0.350110 0.036665 0.071330 O2-
0.785996 0.649394 0.029350 O2-
0.214004 0.149394 0.079350 O2-
0.340793 0.651785 0.056221 O2-
0.659207 0.151785 0.006221 O2-
0.258044 0.728542 0.053225 O2-
0.741956 0.228542 0.003225 O2-
0.725734 0.758375 0.087268 O2-
0.274266 0.258375 0.037268 O2-
0.642950 0.828801 0.082770 O2-
0.357050 0.328801 0.032770 O2-
0.205272 0.829973 0.009537 O2-
0.794728 0.329973 0.059537 O2-
0.347295 0.944360 0.018038 O2-
0.652705 0.444360 0.068038 O2-
0.677470 0.919559 0.036576 O2-
0.322530 0.419559 0.086576 O2-
0.678914 0.057634 0.052135 O2-
0.321086 0.557634 0.002134 O2-
0.069000 0.035413 0.114442 O2-
0.931000 0.535413 0.164442 O2-
0.951087 0.140628 0.145983 O2-
0.048913 0.640628 0.195983 O2-
0.080018 0.275856 0.177353 O2-
0.919982 0.775856 0.127353 O2-
0.926681 0.392259 0.107818 O2-
0.073319 0.892259 0.157818 O2-
0.942022 0.978148 0.187702 O2-
0.057978 0.478148 0.137702 O2-
0.076781 0.590622 0.131958 O2-
0.923219 0.090622 0.181958 O2-
0.921841 0.709404 0.162520 O2-
0.078159 0.209404 0.112520 O2-
0.049265 0.843555 0.193938 O2-
0.950735 0.343555 0.143937 O2-
0.918787 0.943480 0.124793 O2-
0.081213 0.443480 0.174793 O2-
0.944691 0.504327 0.101972 O2-
0.055309 0.004327 0.151972 O2-
0.322795 0.926111 0.187596 O2-
0.677205 0.426111 0.137596 O2-
0.313918 0.066074 0.104000 O2-
0.686082 0.566074 0.154000 O2-
0.643576 0.041349 0.122500 O2-
0.356424 0.541349 0.172500 O2-
0.795305 0.153257 0.130333 O2-
0.204695 0.653257 0.180333 O2-
0.351974 0.154647 0.157333 O2-
0.648026 0.654647 0.107333 O2-
0.281781 0.224590 0.152619 O2-
0.718219 0.724590 0.102619 O2-
0.751546 0.252705 0.186240 O2-
0.248454 0.752705 0.136240 O2-
0.656290 0.330648 0.183719 O2-
0.343710 0.830648 0.133719 O2-
0.215121 0.332841 0.110245 O2-
0.784879 0.832841 0.160245 O2-
0.355777 0.446708 0.118683 O2-
0.644223 0.946708 0.168683 O2-
0.649890 0.536665 0.121330 O2-
0.350110 0.036665 0.171330 O2-
0.785996 0.649394 0.129350 O2-
0.214004 0.149394 0.179350 O2-
0.340793 0.651785 0.156221 O2-
0.659207 0.151785 0.106221 O2-
0.258044 0.728542 0.153225 O2-
0.741956 0.228542 0.103225 O2-
0.725734 0.758375 0.187268 O2-
0.274266 0.258375 0.137268 O2-
0.642950 0.828801 0.182770 O2-
0.357050 0.328801 0.132770 O2-
0.205272 0.829973 0.109537 O2-
0.794728 0.329973 0.159537 O2-
0.347295 0.944360 0.118038 O2-
0.652705 0.444360 0.168038 O2-
0.677470 0.919559 0.136576 O2-
0.322530 0.419559 0.186576 O2-
0.678914 0.057634 0.152135 O2-
0.321086 0.557634 0.102135 O2-
0.069000 0.035413 0.214442 O2-
0.931000 0.535413 0.264442 O2-
0.951087 0.140628 0.245983 O2-
0.048913 0.640628 0.295983 O2-
0.080018 0.275856 0.277353 O2-
0.919982 0.775856 0.227353 O2-
0.926681 0.392259 0.207818 O2-
0.073319 0.892259 0.257818 O2-
0.942022 0.978148 0.287702 O2-
0.057978 0.478148 0.237702 O2-
0.076781 0.590622 0.231958 O2-
0.923219 0.090622 0.281958 O2-
0.921841 0.709404 0.262520 O2-
0.078159 0.209404 0.212520 O2-
0.049265 0.843555 0.293938 O2-
0.950735 0.343555 0.243938 O2-
0.918787 0.943480 0.224793 O2-
0.081213 0.443480 0.274793 O2-
0.944691 0.504327 0.201972 O2-
0.055309 0.004327 0.251972 O2-
0.322795 0.926111 0.287596 O2-
0.677205 0.426111 0.237596 O2-
0.313918 0.066074 0.204000 O2-
0.686082 0.566074 0.254000 O2-
0.643576 0.041349 0.222500 O2-
0.356424 0.541349 0.272500 O2-
0.795305 0.153257 0.230333 O2-
0.204695 0.653257 0.280333 O2-
0.351974 0.154647 0.257333 O2-
0.648026 0.654647 0.207333 O2-
0.281781 0.224590 0.252619 O2-
0.718219 0.724590 0.202619 O2-
0.751546 0.252705 0.286240 O2-
0.248454 0.752705 0.236240 O2-
0.656290 0.330648 0.283719 O2-
0.343710 0.830648 0.233719 O2-
0.215121 0.332841 0.210245 O2-
0.784879 0.832841 0.260245 O2-
0.355777 0.446708 0.218683 O2-
0.644223 0.946708 0.268683 O2-
0.649890 0.536665 0.221330 O2-
0.350110 0.036665 0.271330 O2-
0.785996 0.649394 0.229350 O2-
0.214004 0.149394 0.279350 O2-
0.340793 0.651785 0.256221 O2-
0.659207 0.151785 0.206221 O2-
0.258044 0.728542 0.253225 O2-
0.741956 0.228542 0.203225 O2-
0.725734 0.758375 0.287268 O2-
0.274266 0.258375 0.237268 O2-
0.642950 0.828801 0.282770 O2-
0.357050 0.328801 0.232770 O2-
0.205272 0.829973 0.209537 O2-
0.794728 0.329973 0.259537 O2-
0.347295 0.944360 0.218038 O2-
0.652705 0.444360 0.268039 O2-
0.677470 0.919559 0.236576 O2-
0.322530 0.419559 0.286576 O2-
0.678914 0.057634 0.252135 O2-
0.321086 0.557634 0.202134 O2-
0.069000 0.035413 0.314442 O2-
0.931000 0.535413 0.364442 O2-
0.951087 0.140628 0.345983 O2-
0.048913 0.640628 0.395983 O2-
0.080018 0.275856 0.377353 O2-
0.919982 0.775856 0.327353 O2-
0.926681 0.392259 0.307818 O2-
0.073319 0.892259 0.357818 O2-
0.942022 0.978148 0.387702 O2-
0.057978 0.478148 0.337702 O2-
0.076781 0.590622 0.331958 O2-
0.923219 0.090622 0.381958 O2-
0.921841 0.709404 0.362520 O2-
0.078159 0.209404 0.312520 O2-
0.049265 0.843555 0.393937 O2-
0.950735 0.343555 0.343938 O2-
0.918787 0.943480 0.324793 O2-
0.081213 0.443480 0.374793 O2-
0.944691 0.504327 0.301972 O2-
0.055309 0.004327 0.351972 O2-
0.322795 0.926111 0.387596 O2-
0.677205 0.426111 0.337596 O2-
0.313918 0.066074 0.304000 O2-
0.686082 0.566074 0.354000 O2-
0.643576 0.041349 0.322499 O2-
0.356424 0.541349 0.372499 O2-
0.795305 0.153257 0.330333 O2-
0.204695 0.653257 0.380333 O2-
0.351974 0.154647 0.357333 O2-
0.648026 0.654647 0.307333 O2-
0.281781 0.224590 0.352619 O2-
0.718219 0.724590 0.302619 O2-
0.751546 0.252705 0.386240 O2-
0.248454 0.752705 0.336240 O2-
0.656290 0.330648 0.383719 O2-
0.343710 0.830648 0.333719 O2-
0.215121 0.332841 0.310245 O2-
0.784879 0.832841 0.360245 O2-
0.355777 0.446708 0.318683 O2-
0.644223 0.946708 0.368683 O2-
0.649890 0.536665 0.321329 O2-
0.350110 0.036665 0.371329 O2-
0.785996 0.649394 0.329350 O2-
0.214004 0.149394 0.379350 O2-
0.340793 0.651785 0.356221 O2-
0.659207 0.151785 0.306221 O2-
0.258044 0.728542 0.353225 O2-
0.741956 0.228542 0.303225 O2-
0.725734 0.758375 0.387268 O2-
0.274266 0.258375 0.337268 O2-
0.642950 0.828801 0.382770 O2-
0.357050 0.328801 0.332770 O2-
0.205272 0.829973 0.309537 O2-
0.794728 0.329973 0.359537 O2-
0.347295 0.944360 0.318038 O2-
0.652705 0.444360 0.368038 O2-
0.677470 0.919559 0.336576 O2-
0.322530 0.419559 0.386576 O2-
0.678914 0.057634 0.352135 O2-
0.321086 0.557634 0.302134 O2-
0.069000 0.035413 0.414442 O2-
0.931000 0.535413 0.464442 O2-
0.951087 0.140628 0.445983 O2-
0.048913 0.640628 0.495983 O2-
0.080018 0.275856 0.477353 O2-
0.919982 0.775856 0.427353 O2-
0.926681 0.392259 0.407818 O2-
0.073319 0.892259 0.457818 O2-
0.942022 0.978148 0.487702 O2-
0.057978 0.478148 0.437702 O2-
0.076781 0.590622 0.431958 O2-
0.923219 0.090622 0.481958 O2-
0.921841 0.709404 0.462520 O2-
0.078159 0.209404 0.412520 O2-
0.049265 0.843555 0.493938 O2-
0.950735 0.343555 0.443938 O2-
0.918787 0.943480 0.424793 O2-
0.081213 0.443480 0.474793 O2-
0.944691 0.504327 0.401972 O2-
0.055309 0.004327 0.451972 O2-
0.322795 0.926111 0.487596 O2-
0.677205 0.426111 0.437596 O2-
0.313918 0.066074 0.404000 O2-
0.686082 0.566074 0.454000 O2-
0.643576 0.041349 0.422500 O2-
0.356424 0.541349 0.472500 O2-
0.795305 0.153257 0.430333 O2-
0.204695 0.653257 0.480333 O2-
0.351974 0.154647 0.457333 O2-
0.648026 0.654647 0.407333 O2-
0.281781 0.224590 0.452619 O2-
0.718219 0.724590 0.402619 O2-
0.751546 0.252705 0.486240 O2-
0.248454 0.752705 0.436240 O2-
0.656290 0.330648 0.483719 O2-
0.343710 0.830648 0.433719 O2-
0.215121 0.332841 0.410245 O2-
0.784879 0.832841 0.460245 O2-
0.355777 0.446708 0.418683 O2-
0.644223 0.946708 0.468683 O2-
0.649890 0.536665 0.421330 O2-
0.350110 0.036665 0.471330 O2-
0.785996 0.649394 0.429350 O2-
0.214004 0.149394 0.479350 O2-
0.340793 0.651785 0.456221 O2-
0.659207 0.151785 0.406221 O2-
0.258044 0.728542 0.453225 O2-
0.741956 0.228542 0.403225 O2-
0.725734 0.758375 0.487268 O2-
0.274266 0.258375 0.437268 O2-
0.642950 0.828801 0.482770 O2-
0.357050 0.328801 0.432770 O2-
0.205272 0.829973 0.409537 O2-
0.794728 0.329973 0.459537 O2-
0.347295 0.944360 0.418038 O2-
0.652705 0.444360 0.468039 O2-
0.677470 0.919559 0.436576 O2-
0.322530 0.419559 0.486576 O2-
0.678914 0.057634 0.452135 O2-
0.321086 0.557634 0.402135 O2-
0.069000 0.035413 0.514442 O2-
0.931000 0.535413 0.564442 O2-
0.951087 0.140628 0.545983 O2-
0.048913 0.640628 0.595983 O2-
0.080018 0.275856 0.577353 O2-
0.919982 0.775856 0.527353 O2-
0.926681 0.392259 0.507818 O2-
0.073319 0.892259 0.557818 O2-
0.942022 0.978148 0.587702 O2-
0.057978 0.478148 0.537702 O2-
0.076781 0.590622 0.531958 O2-
0.923219 0.090622 0.581958 O2-
0.921841 0.709404 0.562520 O2-
0.078159 0.209404 0.512520 O2-
0.049265 0.843555 0.593938 O2-
0.950735 0.343555 0.543937 O2-
0.918787 0.943480 0.524793 O2-
0.081213 0.443480 0.574793 O2-
0.944691 0.504327 0.501972 O2-
0.055309 0.004327 0.551972 O2-
0.322795 0.926111 0.587596 O2-
0.677205 0.426111 0.537596 O2-
0.313918 0.066074 0.504000 O2-
0.686082 0.566074 0.554000 O2-
0.643576 0.041349 0.522500 O2-
0.356424 0.541349 0.572500 O2-
0.795305 0.153257 0.530333 O2-
0.204695 0.653257 0.580333 O2-
0.351974 0.154647 0.557333 O2-
0.648026 0.654647 0.507333 O2-
0.281781 0.224590 0.552619 O2-
0.718219 0.724590 0.502619 O2-
0.751546 0.252705 0.586240 O2-
0.248454 0.752705 0.536240 O2-
0.656290 0.330648 0.583719 O2-
0.343710 0.830648 0.533719 O2-
0.215121 0.332841 0.510245 O2-
0.784879 0.832841 0.560245 O2-
0.355777 0.446708 0.518683 O2-
0.644223 0.946708 0.568683 O2-
0.649890 0.536665 0.521330 O2-
0.350110 0.036665 0.571330 O2-
0.785996 0.649394 0.529350 O2-
0.214004 0.149394 0.579350 O2-
0.340793 0.651785 0.556221 O2-
0.659207 0.151785 0.506221 O2-
0.258044 0.728542 0.553225 O2-
0.741956 0.228542 0.503225 O2-
0.725734 0.758375 0.587268 O2-
0.274266 0.258375 0.537268 O2-
0.642950 0.828801 0.582770 O2-
0.357050 0.328801 0.532770 O2-
0.205272 0.829973 0.509537 O2-
0.794728 0.329973 0.559537 O2-
0.347295 0.944360 0.518038 O2-
0.652705 0.444360 0.568039 O2-
0.677470 0.919559 0.536576 O2-
0.322530 0.419559 0.586576 O2-
0.678914 0.057634 0.552134 O2-
0.321086 0.557634 0.502135 O2-
0.069000 0.035413 0.614442 O2-
0.931000 0.535413 0.664442 O2-
0.951087 0.140628 0.645983 O2-
0.048913 0.640628 0.695983 O2-
0.080018 0.275856 0.677353 O2-
0.919982 0.775856 0.627353 O2-
0.926681 0.392259 0.607818 O2-
0.073319 0.892259 0.657818 O2-
0.942022 0.978148 0.687702 O2-
0.057978 0.478148 0.637702 O2-
0.076781 0.590622 0.631958 O2-
0.923219 0.090622 0.681958 O2-
0.921841 0.709404 0.662520 O2-
0.078159 0.209404 0.612520 O2-
0.049265 0.843555 0.693937 O2-
0.950735 0.343555 0.643937 O2-
0.918787 0.943480 0.624793 O2-
0.081213 0.443480 0.674793 O2-
0.944691 0.504327 0.601972 O2-
0.055309 0.004327 0.651972 O2-
0.322795 0.926111 0.687596 O2-
0.677205 0.426111 0.637596 O2-
0.313918 0.066074 0.604000 O2-
0.686082 0.566074 0.654000 O2-
0.643576 0.041349 0.622499 O2-
0.356424 0.541349 0.672500 O2-
0.795305 0.153257 0.630333 O2-
0.204695 0.653257 0.680333 O2-
0.351974 0.154647 0.657333 O2-
0.648026 0.654647 0.607333 O2-
0.281781 0.224590 0.652619 O2-
0.718219 0.724590 0.602619 O2-
0.751546 0.252705 0.686240 O2-
0.248454 0.752705 0.636240 O2-
0.656290 0.330648 0.683719 O2-
0.343710 0.830648 0.633719 O2-
0.215121 0.332841 0.610245 O2-
0.784879 0.832841 0.660245 O2-
0.355777 0.446708 0.618683 O2-
0.644223 0.946708 0.668683 O2-
0.649890 0.536665 0.621329 O2-
0.350110 0.036665 0.671330 O2-
0.785996 0.649394 0.629350 O2-
0.214004 0.149394 0.679350 O2-
0.340793 0.651785 0.656221 O2-
0.659207 0.151785 0.606221 O2-
0.258044 0.728542 0.653225 O2-
0.741956 0.228542 0.603225 O2-
0.725734 0.758375 0.687268 O2-
0.274266 0.258375 0.637268 O2-
0.642950 0.828801 0.682770 O2-
0.357050 0.328801 0.632770 O2-
0.205272 0.829973 0.609537 O2-
0.794728 0.329973 0.659537 O2-
0.347295 0.944360 0.618038 O2-
0.652705 0.444360 0.668038 O2-
0.677470 0.919559 0.636576 O2-
0.322530 0.419559 0.686576 O2-
0.678914 0.057634 0.652134 O2-
0.321086 0.557634 0.602135 O2-
