Li73 P24 N1 O95                         
   1.00000000000000     
    14.6835880853194549    0.0146403617515214   -0.0091518483179023
     0.0105023765402763   10.5834846524066748    0.0069863187649775
    -0.0076740035374644    0.0081279670468454   12.3403965327752623
   Li   P    N    O 
    73    24     1    95
Direct
  0.1647258617934804  0.4178173321522202 -0.0050112525631901
  0.1687282992666794  0.4234038431308026  0.5025777055858325
  0.1700555539312035  0.9242678993250409  0.0070708968133227
  0.1700459197954021  0.9245309739234154  0.4929612189366769
  0.5057115238273273  0.4229405551493212 -0.0028328656804682
  0.5025441001364648  0.4232376794474128  0.5011205752303876
  0.5037993081489334  0.9215582130096315 -0.0008311048575870
  0.5037402588668610  0.9241036917658659  0.4992283379318673
  0.8349702141634925  0.4209208162802536 -0.0003099338128002
  0.8358444045497170  0.4211621296643355  0.4998508524690485
  0.8382250093866489  0.9230024398015685  0.0004835256929667
  0.8377975671763753  0.9229363225270752  0.4992662024109385
  0.0285234579760583  0.0736556299329462  0.2503767100632265
  0.0025602186717918  0.0758745756193689  0.7497056978279507
  0.0003766940920670  0.5802540170918982  0.2504374230000179
  0.0023105665634856  0.5770242500432753  0.7495931984691026
  0.3285314800332664  0.0725468323361774  0.2520686928811693
  0.3368094100291894  0.0774103642437927  0.7487470455460494
  0.3535674457035882  0.6056642469629928  0.2661812715930303
  0.3350865660451833  0.5760462295636126  0.7481444756739758
  0.6713510280365628  0.0764163651140700  0.2505408195632735
  0.6710679256623375  0.0768281798853885  0.7492056483612943
  0.6698624012350490  0.5791603133102654  0.2500667714733447
  0.6704324827298780  0.5775260407086257  0.7493634240092654
  0.1713417542158065  0.1612713549134281  0.1270384538222058
  0.1684786119908983  0.1624278064446923  0.6273645199582601
  0.1631945299296731  0.6711149119659319  0.1273933224027142
  0.1688264130962133  0.6647964541384762  0.6262453906008366
  0.5061012113321540  0.1580702437618530  0.1264553304208081
  0.5038175669026976  0.1630136152545337  0.6260069050525120
  0.5056255696520938  0.6671414205208013  0.1239734695270967
  0.5029975353340025  0.6638865804177235  0.6273740411081508
  0.8383944535318525  0.1615117592060424  0.1279443331889039
  0.8362424592171146  0.1628658103288006  0.6264300902385191
  0.8357680433470390  0.6637447788778306  0.1258303206875185
  0.8369310737743424  0.6632767449775947  0.6261971264963919
  0.0001885027767266  0.3356619511287195  0.1236223495127017
  0.0022060208130738  0.3349161869951743  0.6242974570194707
  0.0025908814797441  0.8366118002751037  0.1244576186634284
  0.0037025824437945  0.8369065891425100  0.6228243717555246
  0.3509603815199921  0.3134144454592587  0.1210075162838258
  0.3366122116669221  0.3362720020907320  0.6239022529126584
  0.3324535156482584  0.8406749956739231  0.1243667696057654
  0.3358975477326929  0.8386662394405847  0.6230209459258158
  0.6688925189572311  0.3362532207204413  0.1234802756370858
  0.6697075037662023  0.3363186132372767  0.6235232855577818
  0.6716610528535136  0.8378926163296700  0.1236222653065054
  0.6705718653949463  0.8369064562030175  0.6227249972844464
  0.0014124019714393  0.3356520024836306  0.3771988556560515
  0.0011278495213655  0.3347862952737985  0.8752432235557365
  0.0035721893193957  0.8355382192502757  0.3758285021931977
  0.0035275775577124  0.8373100458439356  0.8769393477753931
  0.3352421991340025  0.3383195479988781  0.3776151898907457
  0.3361005131418332  0.3331134470991284  0.8744881635656917
  0.3328828059662851  0.8435748785284493  0.3781292937862448
  0.3351891047793076  0.8384974334593723  0.8726415852888992
  0.6683699799553898  0.3366198178347914  0.3759988827673962
  0.6701847313541536  0.3360093786562168  0.8756102891028228
  0.6719805732058760  0.8379834406801402  0.3763555777928365
  0.6707113984110973  0.8373817083173797  0.8763147893210860
  0.1703013068921745  0.1615383034677807  0.3744979424935153
  0.1686979081690993  0.1607951413617643  0.8726521169946657
  0.1681707135038215  0.6663316717392520  0.3742432712613119
  0.1676565176706908  0.6639670127374980  0.8739135454049476
  0.5014067010099762  0.1627977331388743  0.3731086545570700
  0.5047095517961826  0.1618863761403935  0.8723899713635214
  0.5071417825973950  0.6681447624447130  0.3783142147932565
  0.5059079177324058  0.6647675046016218  0.8703044718373242
  0.8389070228754685  0.1616393085740759  0.3720405885961533
  0.8364590143099109  0.1625312101616217  0.8730950101758650
  0.8360417053068723  0.6635556679871040  0.3738871920847971
  0.8361622185885554  0.6633302119536127  0.8728049712717817
  0.2856540525639852  0.4917351399148749  0.1449318352835503
  0.1656862913128549  0.4116485861148730  0.2541492312978754
  0.1665464138332802  0.4119754761802126  0.7504184055191636
  0.1675802733764487  0.9148032054530600  0.2503146394518967
  0.1670682077975901  0.9112205404358990  0.7499129047020298
  0.4963345961743667  0.4166230997852512  0.2481526371145435
  0.5006545567875864  0.4120049113771189  0.7499768942282339
  0.5018182492940569  0.9117460340928608  0.2501503458216529
  0.5014461977841268  0.9123308001798554  0.7489361942291728
  0.8316648883819623  0.4125326928802582  0.2498853707802523
  0.8329871651300779  0.4120427822089425  0.7498038352111320
  0.8345857078584020  0.9121616164291991  0.2499267949899138
  0.8338768313848092  0.9114619217911161  0.7498128909862407
  0.0002298052033820  0.0889391624195153 -0.0014082488209338
 -0.0002420423236179  0.0882872906185269  0.5013832434861205
 -0.0015165028219971  0.5859182728595177 -0.0006496544442055
 -0.0005830662421135  0.5859400450441035  0.5005296121871751
  0.3354929859860550  0.0833190264954258 -0.0027448041820488
  0.3343061773029278  0.0903725060659154  0.5015593551206562
  0.3360818692289029  0.5901574414536530 -0.0056839952121570
  0.3343193543533957  0.5899647701666076  0.5042431080815206
  0.6679264269687860  0.0875430556464792 -0.0004274133876118
  0.6674988598175609  0.0887120481709576  0.4994146045677718
  0.6663585225611751  0.5878132694254892 -0.0006628061947918
  0.6670938015912204  0.5871440644296252  0.5004758528363953
  0.1947440391173303  0.0575194577536078  0.2506338115219812
  0.0346884490136613  0.1601047512440562  0.3996937237158803
  0.0346868852210630  0.1560151067043528  0.8932306596412223
  0.0346144101425659  0.6535063592506021  0.3964765544653572
  0.0345886634312783  0.6553534628589656  0.8962624540774590
  0.3694914418573105  0.1603850382060428  0.3982791446639371
  0.3717469804040582  0.1547777865207428  0.8949862368383221
  0.3731688684298723  0.6641468420779099  0.4049180003215775
  0.3700319571762786  0.6576494246601309  0.8918033976818565
  0.7024345674753079  0.1580587780478813  0.3956816269157070
  0.7026716393463631  0.1569138542540251  0.8958024978522626
  0.7012071026356189  0.6561956507912347  0.3962609012970691
  0.7019332345358787  0.6564342245052704  0.8958022925393909
  0.2011269716222659  0.0508691797612855  0.7505259516228465
  0.2025210371108777  0.5518123047568491  0.2499522231641814
  0.2000414363992138  0.5519108863109913  0.7514012483315508
  0.5348774717318122  0.0518244716111708  0.2504209271195172
  0.5357596736059242  0.0516760188938188  0.7489755734112454
  0.5300942379859386  0.5562035903509756  0.2493608357196891
  0.5346590124549662  0.5515852352157697  0.7499174997853071
  0.8682297570455439  0.0511489424970552  0.2498377459406302
  0.8668533377245656  0.0514542862343457  0.7499309172238714
  0.8650384134668074  0.5524215533989661  0.2496681677790133
  0.8668324593787529  0.5516867225013923  0.7499206264771074
  0.0606187684307556  0.4097303667910283  0.2494904931302094
  0.0606100188429787  0.4090066078287914  0.7504273605130759
  0.0600613846528737  0.8940893850974286  0.2499159335779306
  0.0610018352045171  0.9083655045848753  0.7499953053646053
  0.3887328284626725  0.4191625735356419  0.2449700885367300
  0.3944974739436546  0.4096405651880788  0.7507206387419051
  0.3960484307725374  0.9055979420586159  0.2504887166826279
  0.3954075566849887  0.9101718130710376  0.7487821935201977
  0.7253060352463426  0.4098982295488873  0.2498075378442605
  0.7268722976823989  0.4096912680023402  0.7495870178058170
  0.7280744695875169  0.9094634586624829  0.2498191647404861
  0.7277380009795660  0.9083417619612693  0.7495980251031699
  0.2299702878039279  0.0915765968186289 -0.0025773890281773
  0.2286465486964230  0.0928169717722312  0.5038714468487959
  0.2296808403026760  0.5875759062361789  0.0018508413481503
  0.2285472669299008  0.5919121017995334  0.5006472266236793
  0.5617844175467559  0.0892671306337714 -0.0009961728428865
  0.5613541327362634  0.0918651015903179  0.4991723426391018
  0.5600356832839039  0.5915036786141916 -0.0014327480504755
  0.5609616816895983  0.5900935321753416  0.5017022802381922
  0.8940273041806009  0.0914857735687673 -0.0007890716939475
  0.8935282393118357  0.0907278387336055  0.5012538417384614
  0.8925207016786886  0.5887145310867765 -0.0010917361095338
  0.8933134478195105  0.5890136660806502  0.5003871184635843
  0.2070687004321028  0.3483635585957477  0.1489806475494433
  0.2024553513157105  0.3435848182904810  0.6469666700937973
  0.2027738647609252  0.8377154870638774  0.1460653135227343
  0.2023705605909644  0.8428853069510820  0.6460240408996413
  0.5301684948395609  0.3455122976526596  0.1449756020697053
  0.5355743424525886  0.3430708056379607  0.6463179622912321
  0.5374650614273726  0.8438896795315310  0.1458543617963950
  0.5365084561418568  0.8428429858134437  0.6454010683954956
  0.8667446388600223  0.3436959866804658  0.1461524581213407
  0.8682377112942922  0.3428431369944960  0.6463940482734766
  0.8682844367787573  0.8419799550890595  0.1458666306136578
  0.8692665609987975  0.8426052907665805  0.6461896969344707
  0.0360621351491070  0.1611598301301499  0.0997323657293013
  0.0345192336489176  0.1556399408818626  0.6064381891829129
  0.0332581878794612  0.6539325613690833  0.1033483854275413
  0.0348466012282358  0.6555160560707708  0.6039325014114069
  0.3742269403583321  0.1466071251469761  0.1018503141795952
  0.3706431054390882  0.1584445029270433  0.6055190183786219
  0.3695041957884122  0.6546910811790948  0.1016699436412749
  0.3680624416837039  0.6561411484309454  0.6096406620105570
  0.7018497415803659  0.1572343498909425  0.1035991919600446
  0.7023846618627249  0.1574276564018147  0.6034352066356417
  0.7010094421012607  0.6563430301290596  0.1033515033161085
  0.7030565909659848  0.6560737177104011  0.6036528993655477
  0.0325239959698087  0.4459143645099222 -0.0008404356903929
  0.0331565972419672  0.4460026007760638  0.5013450880817643
  0.0338872501553223  0.9490267445502123 -0.0000834811256139
  0.0336593870934379  0.9485129669988722  0.5002188654237845
  0.3674884693886522  0.4483374047032702  0.0006171701279020
  0.3683657165466461  0.4502816621807668  0.5007850609677393
  0.3675086578618418  0.9428554180032155 -0.0040943772626283
  0.3688760581076425  0.9506678703378904  0.5007084765280987
  0.6987885611863434  0.4473127558781376 -0.0001387006340456
  0.6999853637612531  0.4469051577517520  0.4996768276297140
  0.7023770879150993  0.9481064355381574 -0.0002895933631882
  0.7014117667091372  0.9489187271908947  0.4997801412088057
  0.2006871719836982  0.3460213135031422  0.3581468045453599
  0.2022337294792182  0.3423200579470536  0.8541373854776692
  0.2030941318211441  0.8367505882395915  0.3537330850920190
  0.2021885444732584  0.8414363282544524  0.8537645871116497
  0.5293537707074213  0.3463282687204858  0.3517328687908237
  0.5360013661344240  0.3427836570513230  0.8538304825581811
  0.5386600500943005  0.8437001753953278  0.3537872868506471
  0.5366588221061325  0.8430220491868843  0.8528681661116901
  0.8673345744354056  0.3437769869656007  0.3534938554218770
  0.8677660084309409  0.3427877813372496  0.8537923421378841
  0.8684684160445488  0.8418020565534891  0.3539980735096457
  0.8691795317161176  0.8424976673757112  0.8537516340862086
 
  0.00000000E+00  0.00000000E+00  0.00000000E+00
  0.00000000E+00  0.00000000E+00  0.00000000E+00
  0.00000000E+00  0.00000000E+00  0.00000000E+00
  0.00000000E+00  0.00000000E+00  0.00000000E+00
  0.00000000E+00  0.00000000E+00  0.00000000E+00
  0.00000000E+00  0.00000000E+00  0.00000000E+00
  0.00000000E+00  0.00000000E+00  0.00000000E+00
  0.00000000E+00  0.00000000E+00  0.00000000E+00
  0.00000000E+00  0.00000000E+00  0.00000000E+00
  0.00000000E+00  0.00000000E+00  0.00000000E+00
  0.00000000E+00  0.00000000E+00  0.00000000E+00
  0.00000000E+00  0.00000000E+00  0.00000000E+00
  0.00000000E+00  0.00000000E+00  0.00000000E+00
  0.00000000E+00  0.00000000E+00  0.00000000E+00
  0.00000000E+00  0.00000000E+00  0.00000000E+00
  0.00000000E+00  0.00000000E+00  0.00000000E+00
  0.00000000E+00  0.00000000E+00  0.00000000E+00
  0.00000000E+00  0.00000000E+00  0.00000000E+00
  0.00000000E+00  0.00000000E+00  0.00000000E+00
  0.00000000E+00  0.00000000E+00  0.00000000E+00
  0.00000000E+00  0.00000000E+00  0.00000000E+00
  0.00000000E+00  0.00000000E+00  0.00000000E+00
  0.00000000E+00  0.00000000E+00  0.00000000E+00
  0.00000000E+00  0.00000000E+00  0.00000000E+00
  0.00000000E+00  0.00000000E+00  0.00000000E+00
  0.00000000E+00  0.00000000E+00  0.00000000E+00
  0.00000000E+00  0.00000000E+00  0.00000000E+00
  0.00000000E+00  0.00000000E+00  0.00000000E+00
  0.00000000E+00  0.00000000E+00  0.00000000E+00
  0.00000000E+00  0.00000000E+00  0.00000000E+00
  0.00000000E+00  0.00000000E+00  0.00000000E+00
  0.00000000E+00  0.00000000E+00  0.00000000E+00
  0.00000000E+00  0.00000000E+00  0.00000000E+00
  0.00000000E+00  0.00000000E+00  0.00000000E+00
  0.00000000E+00  0.00000000E+00  0.00000000E+00
  0.00000000E+00  0.00000000E+00  0.00000000E+00
  0.00000000E+00  0.00000000E+00  0.00000000E+00
  0.00000000E+00  0.00000000E+00  0.00000000E+00
  0.00000000E+00  0.00000000E+00  0.00000000E+00
  0.00000000E+00  0.00000000E+00  0.00000000E+00
  0.00000000E+00  0.00000000E+00  0.00000000E+00
  0.00000000E+00  0.00000000E+00  0.00000000E+00
  0.00000000E+00  0.00000000E+00  0.00000000E+00
  0.00000000E+00  0.00000000E+00  0.00000000E+00
  0.00000000E+00  0.00000000E+00  0.00000000E+00
  0.00000000E+00  0.00000000E+00  0.00000000E+00
  0.00000000E+00  0.00000000E+00  0.00000000E+00
  0.00000000E+00  0.00000000E+00  0.00000000E+00
  0.00000000E+00  0.00000000E+00  0.00000000E+00
  0.00000000E+00  0.00000000E+00  0.00000000E+00
  0.00000000E+00  0.00000000E+00  0.00000000E+00
  0.00000000E+00  0.00000000E+00  0.00000000E+00
  0.00000000E+00  0.00000000E+00  0.00000000E+00
  0.00000000E+00  0.00000000E+00  0.00000000E+00
  0.00000000E+00  0.00000000E+00  0.00000000E+00
  0.00000000E+00  0.00000000E+00  0.00000000E+00
  0.00000000E+00  0.00000000E+00  0.00000000E+00
  0.00000000E+00  0.00000000E+00  0.00000000E+00
  0.00000000E+00  0.00000000E+00  0.00000000E+00
  0.00000000E+00  0.00000000E+00  0.00000000E+00
  0.00000000E+00  0.00000000E+00  0.00000000E+00
  0.00000000E+00  0.00000000E+00  0.00000000E+00
  0.00000000E+00  0.00000000E+00  0.00000000E+00
  0.00000000E+00  0.00000000E+00  0.00000000E+00
  0.00000000E+00  0.00000000E+00  0.00000000E+00
  0.00000000E+00  0.00000000E+00  0.00000000E+00
  0.00000000E+00  0.00000000E+00  0.00000000E+00
  0.00000000E+00  0.00000000E+00  0.00000000E+00
  0.00000000E+00  0.00000000E+00  0.00000000E+00
  0.00000000E+00  0.00000000E+00  0.00000000E+00
  0.00000000E+00  0.00000000E+00  0.00000000E+00
  0.00000000E+00  0.00000000E+00  0.00000000E+00
  0.00000000E+00  0.00000000E+00  0.00000000E+00
  0.00000000E+00  0.00000000E+00  0.00000000E+00
  0.00000000E+00  0.00000000E+00  0.00000000E+00
  0.00000000E+00  0.00000000E+00  0.00000000E+00
  0.00000000E+00  0.00000000E+00  0.00000000E+00
  0.00000000E+00  0.00000000E+00  0.00000000E+00
  0.00000000E+00  0.00000000E+00  0.00000000E+00
  0.00000000E+00  0.00000000E+00  0.00000000E+00
  0.00000000E+00  0.00000000E+00  0.00000000E+00
  0.00000000E+00  0.00000000E+00  0.00000000E+00
  0.00000000E+00  0.00000000E+00  0.00000000E+00
  0.00000000E+00  0.00000000E+00  0.00000000E+00
  0.00000000E+00  0.00000000E+00  0.00000000E+00
  0.00000000E+00  0.00000000E+00  0.00000000E+00
  0.00000000E+00  0.00000000E+00  0.00000000E+00
  0.00000000E+00  0.00000000E+00  0.00000000E+00
  0.00000000E+00  0.00000000E+00  0.00000000E+00
  0.00000000E+00  0.00000000E+00  0.00000000E+00
  0.00000000E+00  0.00000000E+00  0.00000000E+00
  0.00000000E+00  0.00000000E+00  0.00000000E+00
  0.00000000E+00  0.00000000E+00  0.00000000E+00
  0.00000000E+00  0.00000000E+00  0.00000000E+00
  0.00000000E+00  0.00000000E+00  0.00000000E+00
  0.00000000E+00  0.00000000E+00  0.00000000E+00
  0.00000000E+00  0.00000000E+00  0.00000000E+00
  0.00000000E+00  0.00000000E+00  0.00000000E+00
  0.00000000E+00  0.00000000E+00  0.00000000E+00
  0.00000000E+00  0.00000000E+00  0.00000000E+00
  0.00000000E+00  0.00000000E+00  0.00000000E+00
  0.00000000E+00  0.00000000E+00  0.00000000E+00
  0.00000000E+00  0.00000000E+00  0.00000000E+00
  0.00000000E+00  0.00000000E+00  0.00000000E+00
  0.00000000E+00  0.00000000E+00  0.00000000E+00
  0.00000000E+00  0.00000000E+00  0.00000000E+00
  0.00000000E+00  0.00000000E+00  0.00000000E+00
  0.00000000E+00  0.00000000E+00  0.00000000E+00
  0.00000000E+00  0.00000000E+00  0.00000000E+00
  0.00000000E+00  0.00000000E+00  0.00000000E+00
  0.00000000E+00  0.00000000E+00  0.00000000E+00
  0.00000000E+00  0.00000000E+00  0.00000000E+00
  0.00000000E+00  0.00000000E+00  0.00000000E+00
  0.00000000E+00  0.00000000E+00  0.00000000E+00
  0.00000000E+00  0.00000000E+00  0.00000000E+00
  0.00000000E+00  0.00000000E+00  0.00000000E+00
  0.00000000E+00  0.00000000E+00  0.00000000E+00
  0.00000000E+00  0.00000000E+00  0.00000000E+00
  0.00000000E+00  0.00000000E+00  0.00000000E+00
  0.00000000E+00  0.00000000E+00  0.00000000E+00
  0.00000000E+00  0.00000000E+00  0.00000000E+00
  0.00000000E+00  0.00000000E+00  0.00000000E+00
  0.00000000E+00  0.00000000E+00  0.00000000E+00
  0.00000000E+00  0.00000000E+00  0.00000000E+00
  0.00000000E+00  0.00000000E+00  0.00000000E+00
  0.00000000E+00  0.00000000E+00  0.00000000E+00
  0.00000000E+00  0.00000000E+00  0.00000000E+00
  0.00000000E+00  0.00000000E+00  0.00000000E+00
  0.00000000E+00  0.00000000E+00  0.00000000E+00
  0.00000000E+00  0.00000000E+00  0.00000000E+00
  0.00000000E+00  0.00000000E+00  0.00000000E+00
  0.00000000E+00  0.00000000E+00  0.00000000E+00
  0.00000000E+00  0.00000000E+00  0.00000000E+00
  0.00000000E+00  0.00000000E+00  0.00000000E+00
  0.00000000E+00  0.00000000E+00  0.00000000E+00
  0.00000000E+00  0.00000000E+00  0.00000000E+00
  0.00000000E+00  0.00000000E+00  0.00000000E+00
  0.00000000E+00  0.00000000E+00  0.00000000E+00
  0.00000000E+00  0.00000000E+00  0.00000000E+00
  0.00000000E+00  0.00000000E+00  0.00000000E+00
  0.00000000E+00  0.00000000E+00  0.00000000E+00
  0.00000000E+00  0.00000000E+00  0.00000000E+00
  0.00000000E+00  0.00000000E+00  0.00000000E+00
  0.00000000E+00  0.00000000E+00  0.00000000E+00
  0.00000000E+00  0.00000000E+00  0.00000000E+00
  0.00000000E+00  0.00000000E+00  0.00000000E+00
  0.00000000E+00  0.00000000E+00  0.00000000E+00
  0.00000000E+00  0.00000000E+00  0.00000000E+00
  0.00000000E+00  0.00000000E+00  0.00000000E+00
  0.00000000E+00  0.00000000E+00  0.00000000E+00
  0.00000000E+00  0.00000000E+00  0.00000000E+00
  0.00000000E+00  0.00000000E+00  0.00000000E+00
  0.00000000E+00  0.00000000E+00  0.00000000E+00
  0.00000000E+00  0.00000000E+00  0.00000000E+00
  0.00000000E+00  0.00000000E+00  0.00000000E+00
  0.00000000E+00  0.00000000E+00  0.00000000E+00
  0.00000000E+00  0.00000000E+00  0.00000000E+00
  0.00000000E+00  0.00000000E+00  0.00000000E+00
  0.00000000E+00  0.00000000E+00  0.00000000E+00
  0.00000000E+00  0.00000000E+00  0.00000000E+00
  0.00000000E+00  0.00000000E+00  0.00000000E+00
  0.00000000E+00  0.00000000E+00  0.00000000E+00
  0.00000000E+00  0.00000000E+00  0.00000000E+00
  0.00000000E+00  0.00000000E+00  0.00000000E+00
  0.00000000E+00  0.00000000E+00  0.00000000E+00
  0.00000000E+00  0.00000000E+00  0.00000000E+00
  0.00000000E+00  0.00000000E+00  0.00000000E+00
  0.00000000E+00  0.00000000E+00  0.00000000E+00
  0.00000000E+00  0.00000000E+00  0.00000000E+00
  0.00000000E+00  0.00000000E+00  0.00000000E+00
  0.00000000E+00  0.00000000E+00  0.00000000E+00
  0.00000000E+00  0.00000000E+00  0.00000000E+00
  0.00000000E+00  0.00000000E+00  0.00000000E+00
  0.00000000E+00  0.00000000E+00  0.00000000E+00
  0.00000000E+00  0.00000000E+00  0.00000000E+00
  0.00000000E+00  0.00000000E+00  0.00000000E+00
  0.00000000E+00  0.00000000E+00  0.00000000E+00
  0.00000000E+00  0.00000000E+00  0.00000000E+00
  0.00000000E+00  0.00000000E+00  0.00000000E+00
  0.00000000E+00  0.00000000E+00  0.00000000E+00
  0.00000000E+00  0.00000000E+00  0.00000000E+00
  0.00000000E+00  0.00000000E+00  0.00000000E+00
  0.00000000E+00  0.00000000E+00  0.00000000E+00
  0.00000000E+00  0.00000000E+00  0.00000000E+00
  0.00000000E+00  0.00000000E+00  0.00000000E+00
  0.00000000E+00  0.00000000E+00  0.00000000E+00
  0.00000000E+00  0.00000000E+00  0.00000000E+00
  0.00000000E+00  0.00000000E+00  0.00000000E+00
  0.00000000E+00  0.00000000E+00  0.00000000E+00
  0.00000000E+00  0.00000000E+00  0.00000000E+00
  0.00000000E+00  0.00000000E+00  0.00000000E+00
  0.00000000E+00  0.00000000E+00  0.00000000E+00
  0.00000000E+00  0.00000000E+00  0.00000000E+00
