Li28 O14
1.0
3.294299 0.000000 0.000000
0.000000 3.294299 0.000000
0.000000 0.000000 55.906104
Li O
28 14
Selective dynamics
direct
0.000000 0.500000 0.989583 T T T Li+
0.500000 0.000000 0.989583 T T T Li+
0.500000 0.000000 0.947917 T T T Li+
1.000000 0.500000 0.947917 T T T Li+
0.000000 0.500000 0.906250 F F F Li+
0.500000 0.000000 0.906250 F F F Li+
0.500000 0.000000 0.864583 F F F Li+
0.000000 0.500000 0.864583 F F F Li+
0.000000 0.500000 0.822917 F F F Li+
0.500000 0.000000 0.822917 F F F Li+
0.500000 1.000000 0.781250 F F F Li+
0.000000 0.500000 0.781250 F F F Li+
0.000000 0.500000 0.739583 F F F Li+
0.500000 0.000000 0.739583 F F F Li+
0.500000 0.000000 0.697917 F F F Li+
1.000000 0.500000 0.697917 F F F Li+
0.000000 0.500000 0.656250 F F F Li+
0.500000 1.000000 0.656250 F F F Li+
0.500000 0.000000 0.614583 F F F Li+
1.000000 0.500000 0.614583 F F F Li+
1.000000 0.500000 0.572917 F F F Li+
0.500000 0.000000 0.572917 F F F Li+
0.500000 0.000000 0.531250 F F F Li+
0.000000 0.500000 0.531250 F F F Li+
0.000000 0.500000 0.489583 T T T Li+
0.500000 0.000000 0.489583 T T T Li+
0.500000 0.000000 0.447917 T T T Li+
1.000000 0.500000 0.447917 T T T Li+
1.000000 0.000000 0.927083 T T T O2-
0.500000 0.500000 0.968750 T T T O2-
0.000000 1.000000 0.843750 F F F O2-
0.500000 0.500000 0.885417 F F F O2-
0.000000 0.000000 0.760417 F F F O2-
0.500000 0.500000 0.802083 F F F O2-
0.000000 0.000000 0.677083 F F F O2-
0.500000 0.500000 0.718750 F F F O2-
0.000000 0.000000 0.593750 F F F O2-
0.500000 0.500000 0.635417 F F F O2-
0.000000 0.000000 0.510417 F F F O2-
0.500000 0.500000 0.552083 F F F O2-
0.000000 1.000000 0.427083 T T T O2-
0.500000 0.500000 0.468750 T T T O2-
