Li5 P2 N1 O6                            
   1.00000000000000     
    -0.3592674773276477    0.5400600545773124    4.9233508092801026
     6.4922428520751909    0.5389027753106751   -0.4559197798690895
     0.4434453672023690    5.0495749612673233    0.5415381141734666
   Li   P    N    O 
     5     2     1     6
Direct
  0.5233369817307810  0.0435385059842881  0.8896303210265010
 -0.2389380124998434  0.3368465535064296  0.2756984845081273
  0.4126059585458487  0.7268893357145957  0.3165996327991100
  0.0415704707426845  0.7431314708044334  0.7559273527808541
  0.0940581902210109  0.2467223132534311  0.6176823182573411
  0.5414612844675910  0.4711635556301391  0.8098424643242660
 -0.0154045256631819  0.0015426455831777  0.1871823092276176
  0.7010997682611168  0.3163690708530371  0.6789520712569462
  0.1124699582116389  0.2196556567678780  0.2392419476334252
  0.0400611473285086  0.8121740457675182  0.3814458476428995
  0.6256809462749972  0.5748451723789685  0.0371113362260308
  0.1293987523834823 -0.0077860495893250  0.8855101825171413
  0.3102913885401662  0.5593790125186807  0.6972184283409812
  0.6647346914552241 -0.0044822891732531  0.2150323034587623
 
  0.00000000E+00  0.00000000E+00  0.00000000E+00
  0.00000000E+00  0.00000000E+00  0.00000000E+00
  0.00000000E+00  0.00000000E+00  0.00000000E+00
  0.00000000E+00  0.00000000E+00  0.00000000E+00
  0.00000000E+00  0.00000000E+00  0.00000000E+00
  0.00000000E+00  0.00000000E+00  0.00000000E+00
  0.00000000E+00  0.00000000E+00  0.00000000E+00
  0.00000000E+00  0.00000000E+00  0.00000000E+00
  0.00000000E+00  0.00000000E+00  0.00000000E+00
  0.00000000E+00  0.00000000E+00  0.00000000E+00
  0.00000000E+00  0.00000000E+00  0.00000000E+00
  0.00000000E+00  0.00000000E+00  0.00000000E+00
  0.00000000E+00  0.00000000E+00  0.00000000E+00
  0.00000000E+00  0.00000000E+00  0.00000000E+00
