Li71 P24 N1 O94                         
   1.00000000000000     
    14.7423177048247478    0.0037373593621669    0.0008469912614866
     0.0026852106684087   10.5642970461947883    0.0063251424148263
     0.0007039500823129    0.0074000903943054   12.3306623662203396
   Li   P    N    O 
    71    24     1    94
Direct
  0.2012954181217586  0.4149754877385167  0.0008608144881664
  0.1694110970583706  0.4225518783563534  0.4999885114476079
  0.1709855178487008  0.9245011501043927  0.0024279152945504
  0.1704890122866109  0.9235547749492092  0.4977981901466705
  0.5014790289405721  0.4213304801155776  0.0002573322801677
  0.5028260131647586  0.4213250709093088  0.5000365675061179
  0.5028130481904958  0.9227338614500493  0.0003779017631603
  0.5036975730004634  0.9232798768658722  0.4997581370566974
  0.8330663810949357  0.4196277699036915  0.0010414959403232
  0.8362758100943708  0.4222320896658495  0.5000388228100078
  0.8358277189593101  0.9255465143029132  0.0006942765055622
  0.8373305470150411  0.9257665580980630  0.4985360523034437
  0.0009042999658470  0.0689720864102525  0.7453582957268052
  0.0024064592646636  0.5816620683070696  0.2529502596096547
  0.0011813008296327  0.5789720063434440  0.7470949675851827
  0.3404122152777276  0.0766578095428826  0.2514153816882818
  0.3366242184262863  0.0762168840968308  0.7493271902657022
  0.3363739588361085  0.5794336757379277  0.2512032231446401
  0.3370438119158252  0.5782195718286025  0.7489994212736215
  0.6756845191798520  0.0743764524495011  0.2507915311414485
  0.6696158020753489  0.0757265210415169  0.7491422153233932
  0.6691976780459628  0.5792428624448667  0.2511460467239320
  0.6683359313373933  0.5774651118287234  0.7492445681371629
  0.1657246419786950  0.1675552736983844  0.1273360828699166
  0.1686596122388254  0.1615679992946255  0.6260532285836283
  0.1699229646028465  0.6651894671498406  0.1263407974444680
  0.1696065247275786  0.6633302311745858  0.6255590552394292
  0.5051900832822375  0.1623025199948500  0.1271831067595556
  0.5025291009198253  0.1628410623774895  0.6261174609299166
  0.5038067454232520  0.6633243344345719  0.1265991773760274
  0.5026659399147673  0.6630996096259165  0.6256577048093226
  0.8351734872817957  0.1612142651576557  0.1256321525400350
  0.8364084041898538  0.1633470350624135  0.6257082047292409
  0.8328231397593300  0.6668367522857317  0.1289521235168816
  0.8350514505769178  0.6640308337647930  0.6255172923314930
 -0.0059314260750551  0.3051473763085591  0.1585849438521328
  0.0039898274170856  0.3356780854495969  0.6233415533675779
 -0.0012354553009223  0.8533062627877003  0.1277751486962529
  0.0032653530083299  0.8378019244822347  0.6214642092151980
  0.3391051000407156  0.3339934469753889  0.1280984855043179
  0.3355433093237440  0.3362417840580251  0.6233393032185965
  0.3387031366283262  0.8385152003289341  0.1249215556323345
  0.3369871812010909  0.8367684057104094  0.6228602541575980
  0.6686453447764175  0.3366389155650193  0.1245036749017407
  0.6691881307788564  0.3354373790040443  0.6240906823618604
  0.6681600685681063  0.8353160498691803  0.1221672442316721
  0.6692272850122583  0.8359520748931275  0.6230641273584705
  0.0039419276526400  0.3391707156996334  0.3799670571479234
 -0.0034741952151295  0.3170801073929839  0.8554129594980038
  0.0007223350875717  0.8439131389174261  0.3753728606285199
  0.0024251812154108  0.8434935926169781  0.8753889189413282
  0.3366147762714431  0.3365175941688319  0.3767237489552143
  0.3386808812695491  0.3340357803530239  0.8729997489341531
  0.3380569467201998  0.8377704122097366  0.3763186203154905
  0.3368551507322073  0.8377699544459949  0.8766367759534955
  0.6699266751046983  0.3361144769844418  0.3767984890830136
  0.6677843047768504  0.3359356477760570  0.8758552546278228
  0.6690440736523495  0.8347031809960557  0.3784550202363698
  0.6684143325481872  0.8365626262648866  0.8766460636299807
  0.1658431981360373  0.1688163277363685  0.3717980399623286
  0.1688321783145677  0.1602831656191654  0.8721603949984784
  0.1682172166781371  0.6638593775360493  0.3755559654410102
  0.1712843042506763  0.6648027752078147  0.8727748506956525
  0.5052974066431170  0.1626423019078784  0.3735696635278490
  0.5026450464162943  0.1624261175992429  0.8728841119612484
  0.5031919329986890  0.6629824690304907  0.3744353890007391
  0.5032249573367492  0.6632812543530389  0.8731392531997442
  0.8404247030969075  0.1623937786100333  0.3717714997036307
  0.8336523114411265  0.1621390769931917  0.8724046873040797
  0.8362010728127213  0.6658011869243012  0.3747063619404171
  0.8322636684471436  0.6651221808945750  0.8708467541560139
  0.1677805932608288  0.4157502117266230  0.2498389584745677
  0.1670328381227476  0.4128993961611133  0.7513130334257470
  0.1689096622231987  0.9034647917464400  0.2505430449584196
  0.1681731678795079  0.9104578217185550  0.7494066320421544
  0.5007866193445512  0.4130970858385332  0.2505777502994178
  0.4999553641438594  0.4122635307453917  0.7496232661044060
  0.5026798169661862  0.9113401355454359  0.2504285596953263
  0.5004353856114259  0.9116484305565307  0.7498193012974231
  0.8329222484123924  0.4144312517633428  0.2503452267130646
  0.8327177341346719  0.4133772485581839  0.7502694983127725
  0.8289036522413440  0.9127693582202545  0.2497025462728764
  0.8326200638973026  0.9111293811316816  0.7496128725626366
  0.0010768921307694  0.0917020027871116 -0.0078299930976208
  0.0019252487881507  0.0921374148793973  0.5035016853613807
 -0.0026634821123752  0.5969059971735917 -0.0009369256960798
 -0.0002418900549866  0.5885552144550367  0.5013512498888510
  0.3347730421182432  0.0887004784329718  0.0002321143773504
  0.3347371299503535  0.0888460405376588  0.4995875449567707
  0.3336561392254250  0.5891618444854191 -0.0001433206867968
  0.3340369041271865  0.5870907256750308  0.5002956851968794
  0.6661341344298188  0.0880883618319011 -0.0011415821500566
  0.6676838213774908  0.0881198138168939  0.5007851024017933
  0.6657234249455327  0.5863607471310844 -0.0005638868412836
  0.6669781480321636  0.5861857836154081  0.5007889812347249
  0.2060698124119885  0.0486854234249564  0.2478861304291995
  0.0399968008941545  0.1702101423819249  0.4085852286331080
  0.0326816894622113  0.1495229552784490  0.8812113459350351
  0.0345434633624657  0.6576346067758002  0.3978837036272372
  0.0349464190137277  0.6588857472140109  0.8938489771277284
  0.3721827149541236  0.1584666523336559  0.3972516276239106
  0.3692557729598289  0.1566254443483912  0.8951825621677763
  0.3697944590746370  0.6559880132982976  0.3967691755915201
  0.3696280512662028  0.6562184279822864  0.8958455008970388
  0.7029942114731460  0.1577830149705927  0.3976226315864265
  0.7009937496386087  0.1567124529529849  0.8944306849792675
  0.7025035891459089  0.6552463580781168  0.3973150668612191
  0.7006443605721251  0.6558427530291634  0.8955517400873672
  0.2017222766447925  0.0504259650254468  0.7493039213958999
  0.2002952971325742  0.5560600206891805  0.2495430313705099
  0.2012460108741140  0.5523674335910398  0.7509654284840152
  0.5370175827215627  0.0510606302834493  0.2503178231125690
  0.5340990932656793  0.0516229366612542  0.7496843405258725
  0.5346314346435849  0.5529556197253763  0.2503067193211667
  0.5336745190901181  0.5521831720783688  0.7496947659575528
  0.8516950149568977  0.0548391022728830  0.2484583296545058
  0.8647972833965720  0.0515143442631508  0.7495411308387070
  0.8664624847600437  0.5545355588884494  0.2493003118743134
  0.8661942601366381  0.5534352088075868  0.7505629844206063
  0.0618301681637849  0.4123298660082164  0.2491734211486044
  0.0610450566814072  0.4120633678792672  0.7530511193158544
  0.0654938464075339  0.8845142142301048  0.2506089718053445
  0.0625177490586488  0.9052906643647887  0.7489422226582190
  0.3950967110585210  0.4110124574195277  0.2512781304127111
  0.3942458520603735  0.4098770516560909  0.7489476898215789
  0.3972951852345332  0.9087966282083879  0.2505659486877181
  0.3948094495058365  0.9087075151643934  0.7498831233867451
  0.7274627005963348  0.4106714200778800  0.2504579861776088
  0.7273091929297848  0.4093942844455000  0.7504560790039587
  0.7233801256126873  0.8981666802935142  0.2499341729720381
  0.7270506549434359  0.9062050554885100  0.7501162560909960
  0.2290562922454381  0.0932318685883171  0.0011513048782870
  0.2290263625492598  0.0924013019808471  0.4978025293803443
  0.2277107118558845  0.5939019700910609 -0.0002681694839182
  0.2283481341144139  0.5894944093358269  0.5005738454552736
  0.5605151345455642  0.0902378030103885  0.9989829062077045
  0.5619262525891177  0.0907788505507677  0.5009114105725667
  0.5600866790548235  0.5888692468746608  0.9995461237948695
  0.5613073906935738  0.5889952715061293  0.5005023875610803
  0.8953065810909413  0.0935387038093281 -0.0025732506233872
  0.8958917323832464  0.0927771932660864  0.5007901045509576
  0.8921421347820081  0.5919551912494099  0.9991339922142681
  0.8940373824429657  0.5903354118526999  0.5011796009318107
  0.2040689127383624  0.3472021861476128  0.1463333950782896
  0.2007876299415878  0.3428675974255715  0.6477281988747667
  0.2074447614753987  0.8400469467618465  0.1445075081661892
  0.2038674642527989  0.8415327711489206  0.6459566641022504
  0.5349618192335120  0.3440619434661287  0.1461847692218643
  0.5356720425923706  0.3426454054617418  0.6465759459519235
  0.5365384091885658  0.8421406779587881  0.1459095236343563
  0.5357239721273253  0.8424424794238154  0.6461777217380359
  0.8679204330507942  0.3446826073988154  0.1461699267662080
  0.8693582671728709  0.3439645037177235  0.6476921958642438
  0.8666543221547927  0.8452499956129640  0.1455477955691202
  0.8687841724053129  0.8427093920508272  0.6461130506045313
  0.0414308148305104  0.1735486467161701  0.0831088941705195
  0.0337691292017287  0.1546804232790171  0.6126881841201371
  0.0349538478912501  0.6584750333868274  0.1035589754046312
  0.0349079702095858  0.6576380097418397  0.6051859603844333
  0.3720156846626705  0.1577270506750932  0.1027578325679990
  0.3686446515888245  0.1572283643770056  0.6045878178338588
  0.3703763789649677  0.6557769291576467  0.1033288761517532
  0.3691844677059569  0.6562816666388881  0.6040844553890491
  0.7011886633157349  0.1582019115457152  0.1018276505186233
  0.7025805841354135  0.1565409288233264  0.6051550257380661
  0.7010905801204523  0.6553876410106760  0.1028497892305308
  0.7017543402614622  0.6556271719793531  0.6046165321406004
  0.0342293468198484  0.4488642243050222  0.5023355191028586
  0.0347966440939114  0.9515519074702234  0.9992457131144065
  0.0356389637286786  0.9516563562427208  0.5004255218719199
  0.3621694361899592  0.4461006313280534  0.9996730494225999
  0.3676591199416866  0.4469413593634193  0.5006733026621495
  0.3678792848106857  0.9483569033634343 -0.0001268165757074
  0.3685878044997180  0.9488357926665881  0.5003735486294832
  0.6998169179832184  0.4464782637827284  0.9993804875615209
  0.7009267766519937  0.4462478490989137  0.5011549458850965
  0.7004208224653080  0.9483095374578502  0.9992467343110374
  0.7012816048381975  0.9479866922591111  0.5007588488173743
  0.2029300549249182  0.3474528236898765  0.3536686894553653
  0.2021628557948631  0.3428766138001136  0.8551011499371813
  0.2069831941293980  0.8386602449398666  0.3560893268744548
  0.2032092086894113  0.8425937620430377  0.8541037070998063
  0.5364747382852276  0.3434825784634551  0.3537971494540861
  0.5341706929728892  0.3433448068861537  0.8541338452143525
  0.5370180637828141  0.8417755310419864  0.3545307416828119
  0.5354758655947505  0.8426706702913411  0.8539324334085120
  0.8699158009034809  0.3456591944951162  0.3531947237485836
  0.8682800120356343  0.3446118735840276  0.8548665454819026
  0.8672868765008983  0.8456309765286119  0.3532926822223746
  0.8687694058997277  0.8429595505692605  0.8538978692347938
 
  0.00000000E+00  0.00000000E+00  0.00000000E+00
  0.00000000E+00  0.00000000E+00  0.00000000E+00
  0.00000000E+00  0.00000000E+00  0.00000000E+00
  0.00000000E+00  0.00000000E+00  0.00000000E+00
  0.00000000E+00  0.00000000E+00  0.00000000E+00
  0.00000000E+00  0.00000000E+00  0.00000000E+00
  0.00000000E+00  0.00000000E+00  0.00000000E+00
  0.00000000E+00  0.00000000E+00  0.00000000E+00
  0.00000000E+00  0.00000000E+00  0.00000000E+00
  0.00000000E+00  0.00000000E+00  0.00000000E+00
  0.00000000E+00  0.00000000E+00  0.00000000E+00
  0.00000000E+00  0.00000000E+00  0.00000000E+00
  0.00000000E+00  0.00000000E+00  0.00000000E+00
  0.00000000E+00  0.00000000E+00  0.00000000E+00
  0.00000000E+00  0.00000000E+00  0.00000000E+00
  0.00000000E+00  0.00000000E+00  0.00000000E+00
  0.00000000E+00  0.00000000E+00  0.00000000E+00
  0.00000000E+00  0.00000000E+00  0.00000000E+00
  0.00000000E+00  0.00000000E+00  0.00000000E+00
  0.00000000E+00  0.00000000E+00  0.00000000E+00
  0.00000000E+00  0.00000000E+00  0.00000000E+00
  0.00000000E+00  0.00000000E+00  0.00000000E+00
  0.00000000E+00  0.00000000E+00  0.00000000E+00
  0.00000000E+00  0.00000000E+00  0.00000000E+00
  0.00000000E+00  0.00000000E+00  0.00000000E+00
  0.00000000E+00  0.00000000E+00  0.00000000E+00
  0.00000000E+00  0.00000000E+00  0.00000000E+00
  0.00000000E+00  0.00000000E+00  0.00000000E+00
  0.00000000E+00  0.00000000E+00  0.00000000E+00
  0.00000000E+00  0.00000000E+00  0.00000000E+00
  0.00000000E+00  0.00000000E+00  0.00000000E+00
  0.00000000E+00  0.00000000E+00  0.00000000E+00
  0.00000000E+00  0.00000000E+00  0.00000000E+00
  0.00000000E+00  0.00000000E+00  0.00000000E+00
  0.00000000E+00  0.00000000E+00  0.00000000E+00
  0.00000000E+00  0.00000000E+00  0.00000000E+00
  0.00000000E+00  0.00000000E+00  0.00000000E+00
  0.00000000E+00  0.00000000E+00  0.00000000E+00
  0.00000000E+00  0.00000000E+00  0.00000000E+00
  0.00000000E+00  0.00000000E+00  0.00000000E+00
  0.00000000E+00  0.00000000E+00  0.00000000E+00
  0.00000000E+00  0.00000000E+00  0.00000000E+00
  0.00000000E+00  0.00000000E+00  0.00000000E+00
  0.00000000E+00  0.00000000E+00  0.00000000E+00
  0.00000000E+00  0.00000000E+00  0.00000000E+00
  0.00000000E+00  0.00000000E+00  0.00000000E+00
  0.00000000E+00  0.00000000E+00  0.00000000E+00
  0.00000000E+00  0.00000000E+00  0.00000000E+00
  0.00000000E+00  0.00000000E+00  0.00000000E+00
  0.00000000E+00  0.00000000E+00  0.00000000E+00
  0.00000000E+00  0.00000000E+00  0.00000000E+00
  0.00000000E+00  0.00000000E+00  0.00000000E+00
  0.00000000E+00  0.00000000E+00  0.00000000E+00
  0.00000000E+00  0.00000000E+00  0.00000000E+00
  0.00000000E+00  0.00000000E+00  0.00000000E+00
  0.00000000E+00  0.00000000E+00  0.00000000E+00
  0.00000000E+00  0.00000000E+00  0.00000000E+00
  0.00000000E+00  0.00000000E+00  0.00000000E+00
  0.00000000E+00  0.00000000E+00  0.00000000E+00
  0.00000000E+00  0.00000000E+00  0.00000000E+00
  0.00000000E+00  0.00000000E+00  0.00000000E+00
  0.00000000E+00  0.00000000E+00  0.00000000E+00
  0.00000000E+00  0.00000000E+00  0.00000000E+00
  0.00000000E+00  0.00000000E+00  0.00000000E+00
  0.00000000E+00  0.00000000E+00  0.00000000E+00
  0.00000000E+00  0.00000000E+00  0.00000000E+00
  0.00000000E+00  0.00000000E+00  0.00000000E+00
  0.00000000E+00  0.00000000E+00  0.00000000E+00
  0.00000000E+00  0.00000000E+00  0.00000000E+00
  0.00000000E+00  0.00000000E+00  0.00000000E+00
  0.00000000E+00  0.00000000E+00  0.00000000E+00
  0.00000000E+00  0.00000000E+00  0.00000000E+00
  0.00000000E+00  0.00000000E+00  0.00000000E+00
  0.00000000E+00  0.00000000E+00  0.00000000E+00
  0.00000000E+00  0.00000000E+00  0.00000000E+00
  0.00000000E+00  0.00000000E+00  0.00000000E+00
  0.00000000E+00  0.00000000E+00  0.00000000E+00
  0.00000000E+00  0.00000000E+00  0.00000000E+00
  0.00000000E+00  0.00000000E+00  0.00000000E+00
  0.00000000E+00  0.00000000E+00  0.00000000E+00
  0.00000000E+00  0.00000000E+00  0.00000000E+00
  0.00000000E+00  0.00000000E+00  0.00000000E+00
  0.00000000E+00  0.00000000E+00  0.00000000E+00
  0.00000000E+00  0.00000000E+00  0.00000000E+00
  0.00000000E+00  0.00000000E+00  0.00000000E+00
  0.00000000E+00  0.00000000E+00  0.00000000E+00
  0.00000000E+00  0.00000000E+00  0.00000000E+00
  0.00000000E+00  0.00000000E+00  0.00000000E+00
  0.00000000E+00  0.00000000E+00  0.00000000E+00
  0.00000000E+00  0.00000000E+00  0.00000000E+00
  0.00000000E+00  0.00000000E+00  0.00000000E+00
  0.00000000E+00  0.00000000E+00  0.00000000E+00
  0.00000000E+00  0.00000000E+00  0.00000000E+00
  0.00000000E+00  0.00000000E+00  0.00000000E+00
  0.00000000E+00  0.00000000E+00  0.00000000E+00
  0.00000000E+00  0.00000000E+00  0.00000000E+00
  0.00000000E+00  0.00000000E+00  0.00000000E+00
  0.00000000E+00  0.00000000E+00  0.00000000E+00
  0.00000000E+00  0.00000000E+00  0.00000000E+00
  0.00000000E+00  0.00000000E+00  0.00000000E+00
  0.00000000E+00  0.00000000E+00  0.00000000E+00
  0.00000000E+00  0.00000000E+00  0.00000000E+00
  0.00000000E+00  0.00000000E+00  0.00000000E+00
  0.00000000E+00  0.00000000E+00  0.00000000E+00
  0.00000000E+00  0.00000000E+00  0.00000000E+00
  0.00000000E+00  0.00000000E+00  0.00000000E+00
  0.00000000E+00  0.00000000E+00  0.00000000E+00
  0.00000000E+00  0.00000000E+00  0.00000000E+00
  0.00000000E+00  0.00000000E+00  0.00000000E+00
  0.00000000E+00  0.00000000E+00  0.00000000E+00
  0.00000000E+00  0.00000000E+00  0.00000000E+00
  0.00000000E+00  0.00000000E+00  0.00000000E+00
  0.00000000E+00  0.00000000E+00  0.00000000E+00
  0.00000000E+00  0.00000000E+00  0.00000000E+00
  0.00000000E+00  0.00000000E+00  0.00000000E+00
  0.00000000E+00  0.00000000E+00  0.00000000E+00
  0.00000000E+00  0.00000000E+00  0.00000000E+00
  0.00000000E+00  0.00000000E+00  0.00000000E+00
  0.00000000E+00  0.00000000E+00  0.00000000E+00
  0.00000000E+00  0.00000000E+00  0.00000000E+00
  0.00000000E+00  0.00000000E+00  0.00000000E+00
  0.00000000E+00  0.00000000E+00  0.00000000E+00
  0.00000000E+00  0.00000000E+00  0.00000000E+00
  0.00000000E+00  0.00000000E+00  0.00000000E+00
  0.00000000E+00  0.00000000E+00  0.00000000E+00
  0.00000000E+00  0.00000000E+00  0.00000000E+00
  0.00000000E+00  0.00000000E+00  0.00000000E+00
  0.00000000E+00  0.00000000E+00  0.00000000E+00
  0.00000000E+00  0.00000000E+00  0.00000000E+00
  0.00000000E+00  0.00000000E+00  0.00000000E+00
  0.00000000E+00  0.00000000E+00  0.00000000E+00
  0.00000000E+00  0.00000000E+00  0.00000000E+00
  0.00000000E+00  0.00000000E+00  0.00000000E+00
  0.00000000E+00  0.00000000E+00  0.00000000E+00
  0.00000000E+00  0.00000000E+00  0.00000000E+00
  0.00000000E+00  0.00000000E+00  0.00000000E+00
  0.00000000E+00  0.00000000E+00  0.00000000E+00
  0.00000000E+00  0.00000000E+00  0.00000000E+00
  0.00000000E+00  0.00000000E+00  0.00000000E+00
  0.00000000E+00  0.00000000E+00  0.00000000E+00
  0.00000000E+00  0.00000000E+00  0.00000000E+00
  0.00000000E+00  0.00000000E+00  0.00000000E+00
  0.00000000E+00  0.00000000E+00  0.00000000E+00
  0.00000000E+00  0.00000000E+00  0.00000000E+00
  0.00000000E+00  0.00000000E+00  0.00000000E+00
  0.00000000E+00  0.00000000E+00  0.00000000E+00
  0.00000000E+00  0.00000000E+00  0.00000000E+00
  0.00000000E+00  0.00000000E+00  0.00000000E+00
  0.00000000E+00  0.00000000E+00  0.00000000E+00
  0.00000000E+00  0.00000000E+00  0.00000000E+00
  0.00000000E+00  0.00000000E+00  0.00000000E+00
  0.00000000E+00  0.00000000E+00  0.00000000E+00
  0.00000000E+00  0.00000000E+00  0.00000000E+00
  0.00000000E+00  0.00000000E+00  0.00000000E+00
  0.00000000E+00  0.00000000E+00  0.00000000E+00
  0.00000000E+00  0.00000000E+00  0.00000000E+00
  0.00000000E+00  0.00000000E+00  0.00000000E+00
  0.00000000E+00  0.00000000E+00  0.00000000E+00
  0.00000000E+00  0.00000000E+00  0.00000000E+00
  0.00000000E+00  0.00000000E+00  0.00000000E+00
  0.00000000E+00  0.00000000E+00  0.00000000E+00
  0.00000000E+00  0.00000000E+00  0.00000000E+00
  0.00000000E+00  0.00000000E+00  0.00000000E+00
  0.00000000E+00  0.00000000E+00  0.00000000E+00
  0.00000000E+00  0.00000000E+00  0.00000000E+00
  0.00000000E+00  0.00000000E+00  0.00000000E+00
  0.00000000E+00  0.00000000E+00  0.00000000E+00
  0.00000000E+00  0.00000000E+00  0.00000000E+00
  0.00000000E+00  0.00000000E+00  0.00000000E+00
  0.00000000E+00  0.00000000E+00  0.00000000E+00
  0.00000000E+00  0.00000000E+00  0.00000000E+00
  0.00000000E+00  0.00000000E+00  0.00000000E+00
  0.00000000E+00  0.00000000E+00  0.00000000E+00
  0.00000000E+00  0.00000000E+00  0.00000000E+00
  0.00000000E+00  0.00000000E+00  0.00000000E+00
  0.00000000E+00  0.00000000E+00  0.00000000E+00
  0.00000000E+00  0.00000000E+00  0.00000000E+00
  0.00000000E+00  0.00000000E+00  0.00000000E+00
  0.00000000E+00  0.00000000E+00  0.00000000E+00
  0.00000000E+00  0.00000000E+00  0.00000000E+00
  0.00000000E+00  0.00000000E+00  0.00000000E+00
  0.00000000E+00  0.00000000E+00  0.00000000E+00
  0.00000000E+00  0.00000000E+00  0.00000000E+00
  0.00000000E+00  0.00000000E+00  0.00000000E+00
  0.00000000E+00  0.00000000E+00  0.00000000E+00
  0.00000000E+00  0.00000000E+00  0.00000000E+00
  0.00000000E+00  0.00000000E+00  0.00000000E+00
  0.00000000E+00  0.00000000E+00  0.00000000E+00
  0.00000000E+00  0.00000000E+00  0.00000000E+00
  0.00000000E+00  0.00000000E+00  0.00000000E+00
