(2, 1, 2)
1.0
7.336722 0.000000 -8.471716
-0.000000 7.570718 -4.235858
0.000000 0.000000 50.830298
Li P
48 16
Selective dynamics
direct
0.000000 0.750000 0.020833 T T T Li+
0.500000 0.750000 0.062500 T T T Li+
0.000000 0.250000 0.062500 T T T Li+
0.500000 0.250000 0.020833 T T T Li+
0.166667 0.084119 0.034788 T T T Li+
0.666667 0.084119 0.076454 F F F Li+
0.333333 0.584119 0.062565 T T T Li+
0.833333 0.584119 0.020899 T T T Li+
0.333333 0.915881 0.006879 T T T Li+
0.833333 0.915881 0.048546 T T T Li+
0.166667 0.415881 0.062435 T T T Li+
0.666667 0.415881 0.020768 T T T Li+
0.000000 0.750000 0.104167 F F F Li+
0.500000 0.750000 0.145833 F F F Li+
0.000000 0.250000 0.145833 F F F Li+
0.500000 0.250000 0.104167 F F F Li+
0.166667 0.084119 0.118121 F F F Li+
0.666667 0.084119 0.159788 F F F Li+
0.333333 0.584119 0.145899 F F F Li+
0.833333 0.584119 0.104232 F F F Li+
0.333333 0.915881 0.090212 F F F Li+
0.833333 0.915881 0.131879 F F F Li+
0.166667 0.415881 0.145768 F F F Li+
0.666667 0.415881 0.104101 F F F Li+
0.000000 0.750000 0.187500 F F F Li+
0.500000 0.750000 0.229167 F F F Li+
0.000000 0.250000 0.229167 F F F Li+
0.500000 0.250000 0.187500 F F F Li+
0.166667 0.084119 0.201454 F F F Li+
0.666667 0.084119 0.243121 F F F Li+
0.333333 0.584119 0.229232 F F F Li+
0.833333 0.584119 0.187565 F F F Li+
0.333333 0.915881 0.173546 F F F Li+
0.833333 0.915881 0.215212 F F F Li+
0.166667 0.415881 0.229101 F F F Li+
0.666667 0.415881 0.187435 F F F Li+
0.000000 0.750000 0.270833 T T T Li+
0.500000 0.750000 0.312500 T T T Li+
0.000000 0.250000 0.312500 T T T Li+
0.500000 0.250000 0.270833 T T T Li+
0.166667 0.084119 0.284788 T T T Li+
0.666667 0.084119 0.326454 T T T Li+
0.333333 0.584119 0.312565 T T T Li+
0.833333 0.584119 0.270899 T T T Li+
0.333333 0.915881 0.256879 F F F Li+
0.833333 0.915881 0.298546 T T T Li+
0.166667 0.415881 0.312435 T T T Li+
0.666667 0.415881 0.270768 T T T Li+
0.166667 0.750000 0.006944 T T T P3+
0.666667 0.750000 0.048611 T T T P3+
0.333333 0.250000 0.034722 T T T P3+
0.833333 0.250000 0.076389 T T T P3+
0.166667 0.750000 0.090278 F F F P3+
0.666667 0.750000 0.131944 F F F P3+
0.333333 0.250000 0.118056 F F F P3+
0.833333 0.250000 0.159722 F F F P3+
0.166667 0.750000 0.173611 F F F P3+
0.666667 0.750000 0.215278 F F F P3+
0.333333 0.250000 0.201389 F F F P3+
0.833333 0.250000 0.243056 F F F P3+
0.166667 0.750000 0.256944 T T T P3+
0.666667 0.750000 0.298611 T T T P3+
0.333333 0.250000 0.284722 T T T P3+
0.833333 0.250000 0.326389 T T T P3+
