Li73 P24 N1 O95                         
   1.00000000000000     
    14.7296870109669644    0.0179814659237708   -0.0009042077590063
     0.0128007293820595   10.5718876178568397   -0.0011851175838784
    -0.0007033881042789   -0.0014199066511190   12.3014829761314619
   Li   P    N    O 
    73    24     1    95
Direct
  0.2129016101990122  0.4399537438627393  0.0007930460422573
  0.1694551140628063  0.4202785591966224  0.4990236322108743
  0.1725332806981339  0.9230758509305916  0.0076409957036969
  0.1710480558367739  0.9235115436775019  0.4924226423540819
  0.5022788840580179  0.4241847579767521  0.0006936075785544
  0.5023228785432533  0.4229906813524718  0.5000554943206708
  0.5017105267470018  0.9234054199985139  0.0013600117384559
  0.5028996791089384  0.9234332060594570  0.4998024062843420
  0.8324977618867465  0.4203794913403199  0.0007316888839572
  0.8347961641289127  0.4214488472979112  0.5002534094790991
  0.8366570232505808  0.9233138502787508  0.0021366400169199
  0.8371039885549404  0.9229945399503326  0.4995492360600742
  0.0410812124770390  0.0754220897318805  0.2542062485912840
  0.0023092634212620  0.0749010709565759  0.7486392588315329
  0.0019379912569541  0.5795848340884791  0.2515769381408794
  0.0006076995298414  0.5775343882971642  0.7495355848168772
  0.3286232541925759  0.0749603780623077  0.2553246522299808
  0.3381477849684351  0.0761745164146980  0.7476561982797681
  0.3355890769406530  0.5815590467547764  0.2506441489903766
  0.3363149607403672  0.5798810710561306  0.7502001220257724
  0.6710967034481741  0.0757466937989010  0.2512273797638850
  0.6691132021548256  0.0765289515255106  0.7501587217312534
  0.6689792574844480  0.5796797265825633  0.2514187502800234
  0.6684557929079051  0.5786821122315003  0.7493503844878040
  0.1803772252904198  0.1575335416756289  0.1345927197142457
  0.1682645792268262  0.1612622568127015  0.6270289337651974
  0.1665996443521192  0.6685287222234562  0.1279213035840150
  0.1687949493979506  0.6606693215020701  0.6261992595643427
  0.5024282193375121  0.1632938345723842  0.1281501769020130
  0.5034536179194038  0.1635681383819038  0.6265927266794536
  0.5058304385291641  0.6664475018685008  0.1279203861600815
  0.5017577751681718  0.6642832119349018  0.6259677006214024
  0.8351006568303092  0.1615364748627380  0.1290444566449772
  0.8353461732285886  0.1622916089865503  0.6270082915276397
  0.8354338965294081  0.6626561101590467  0.1262953500602517
  0.8352608513126083  0.6633809905698855  0.6265927411530078
 -0.0078286906788776  0.3386594955111565  0.1341113744097617
  0.0014194372957364  0.3351952917878856  0.6236483707553795
  0.0023673470484955  0.8340377932233766  0.1258750546423697
  0.0037735094291284  0.8359849580761994  0.6228267779116886
  0.3384296450127542  0.3369173337177145  0.1270893349388453
  0.3366209675419345  0.3359350654343581  0.6249223871689454
  0.3337331932959336  0.8413032744225013  0.1271345807360840
  0.3356407118322398  0.8365824018514830  0.6226893516026716
  0.6683612122926865  0.3370722649243521  0.1248684402888166
  0.6678638965656556  0.3361654094630737  0.6232037068726841
  0.6695916428545928  0.8371627701718219  0.1240813783270428
  0.6696639610174898  0.8369560889376431  0.6240290583344300
  0.0018780643338499  0.3364616314785558  0.3774562576627753
 -0.0081001201121696  0.3387813918884979  0.8673118142581188
  0.0027763162456907  0.8355514611345540  0.3761556616019976
  0.0032359074226711  0.8351144275139605  0.8777636537523439
  0.3369128335558729  0.3366812727895084  0.3758173952963464
  0.3386452726016327  0.3364250641126825  0.8741158902480133
  0.3336236097258673  0.8376497082138280  0.3757295651271446
  0.3359162302743550  0.8398342478508787  0.8761903847746575
  0.6682444035318245  0.3360291601889043  0.3777531369479459
  0.6676649634704575  0.3369309248842953  0.8761506774932601
  0.6696670085952727  0.8366794561438262  0.3770883742998741
  0.6695124370272205  0.8373564510439362  0.8773426170807476
  0.1726910178639827  0.1641449305402695  0.3763161484514738
  0.1745181028749087  0.1544984989428368  0.8639149873796229
  0.1684904662862590  0.6621126678178125  0.3731393789117239
  0.1665991718627506  0.6671545925424953  0.8744378819782465
  0.5025648208936121  0.1633451612851881  0.3741393872211021
  0.5030908013635217  0.1636099851792610  0.8735398029319537
  0.5019359889746081  0.6647192107119082  0.3745550228330756
  0.5055345967861522  0.6659002680135567  0.8729420523847830
  0.8382561997215483  0.1613282672830639  0.3727674717943714
  0.8329188061174118  0.1624243905545873  0.8739966484410406
  0.8358579613528065  0.6638008132827803  0.3749531498468366
  0.8349222920643620  0.6626159694957335  0.8746812779629621
  0.1059439560045365  0.2896896250072174  0.0010897344088768
  0.1658449910504938  0.4128526783894717  0.2460280170346445
  0.1650500660602051  0.4113197338741477  0.7552890265589715
  0.1679112915496002  0.9117132558554507  0.2521490800747989
  0.1672298212963761  0.9093910562552118  0.7490529996960114
  0.5000152644240420  0.4141385955973543  0.2503525242200701
  0.4996406093293547  0.4137662845437766  0.7502835944371500
  0.5011040010733931  0.9135992118088768  0.2508653872278218
  0.5006978108605404  0.9126178720437749  0.7501773251067110
  0.8306496760966867  0.4128620469409389  0.2517155584918327
  0.8303121904210834  0.4121366769056237  0.7493584240637493
  0.8331955975263211  0.9117367084260883  0.2502290588730329
  0.8340789946612995  0.9113608682274555  0.7513294999442313
  0.0013698030416567  0.0903513231217121 -0.0005279799966547
  0.0002992664396760  0.0883978099291856  0.5021273774854683
 -0.0014101559525325  0.5811245174026732 -0.0001801417383688
 -0.0003379085916022  0.5855421471973210  0.5013856391454785
  0.3331743844156713  0.0915670168111263 -0.0013528018175977
  0.3348417257305405  0.0891323247865427  0.5022885300821369
  0.3364185840738935  0.5991034906051779  0.0002223509726683
  0.3329936984387987  0.5863010598619426  0.5005802677838199
  0.6660280950676102  0.0882923631777680  0.0005266250138331
  0.6673545361244820  0.0877833644713266  0.5007577123878438
  0.6659406772671955  0.5875692493873248  0.0000877596799249
  0.6663172615035419  0.5879164457610457  0.5006982199269777
  0.1939956567019790  0.0551519666313234  0.2553656882562106
  0.0361542044790923  0.1612109759494151  0.4011634795329652
  0.0386295106994632  0.1628704743915047  0.8963314645266911
  0.0344505380540891  0.6537766578211087  0.3974301745932354
  0.0342350706233178  0.6505040308189538  0.8961805038916905
  0.3703690973393329  0.1590125261735997  0.3991382383093937
  0.3686756481652688  0.1587391436076093  0.8936269557041285
  0.3684367868217932  0.6557030988378221  0.3971451170491400
  0.3740186199089707  0.6614162382636134  0.8953233443314633
  0.7028578771614248  0.1570869364814637  0.3972144355534472
  0.7006029227101666  0.1573112365392652  0.8960520165463175
  0.7019947550097816  0.6567556271150826  0.3970257791828659
  0.7011861093287178  0.6565162295000430  0.8960411260416166
  0.2020970310716620  0.0486906655256696  0.7468976224654540
  0.2002497110278708  0.5517225324765547  0.2451908976948028
  0.2001651684127302  0.5499948464814230  0.7554305373856087
  0.5355397038769438  0.0531089158214898  0.2511827448004419
  0.5340365067881897  0.0525789497536862  0.7501094412898315
  0.5344081791269263  0.5534316649239617  0.2507889462891472
  0.5338033778465731  0.5531604482762063  0.7498741090774254
  0.8642747676763294  0.0516970690934178  0.2495594929054663
  0.8676062532567634  0.0514202302811670  0.7519474539715174
  0.8655834178576360  0.5520064904572594  0.2504629771183327
  0.8652432140553002  0.5512353571245969  0.7507185243778425
  0.0602457635159487  0.4095428663442054  0.2499243985358488
  0.0595792728503903  0.4091502349833419  0.7511972606373556
  0.0605113929087698  0.8927225126580985  0.2504136514842553
  0.0613447305501381  0.9082145852967650  0.7507646972552121
  0.3941758078661244  0.4129831510302042  0.2503386938809365
  0.3937830233188972  0.4122168576974614  0.7503314477225940
  0.3956979777199513  0.9112638165360591  0.2510192738034028
  0.3949615699630488  0.9091711413103026  0.7499126049458573
  0.7250818131179431  0.4110362074948991  0.2522973672437617
  0.7248238766216312  0.4103710785730372  0.7488386765151225
  0.7271118449028664  0.9062782295977047  0.2503059643343218
  0.7283617643966483  0.9087926175853139  0.7510647623586605
  0.2270224381408475  0.0975413581595899 -0.0030797679525799
  0.2294105211275791  0.0931922351821669  0.5046295432491884
  0.2310475530111874  0.6115041448025585 -0.0000071225359754
  0.2271957076082940  0.5864689218132981  0.5007388776436708
  0.5602941612008286  0.0907821243942188  0.0005652963667094
  0.5616238788280731  0.0908221188767437  0.5005216638216673
  0.5602104388936692  0.5909105265737362  0.0000805829814094
  0.5605674842086665  0.5910000328887799  0.5005256064274165
  0.8961950552583445  0.0944103895146914 -0.0001794059389089
  0.8944620059777382  0.0907058285459868  0.5016829036652511
  0.8929062612185236  0.5854044349438049 -0.0003654020210066
  0.8938794293590194  0.5881840214930821  0.5016942915318601
  0.1981137973001344  0.3459070456826005  0.1372428131250016
  0.2029910227912100  0.3391807702619771  0.6547134395272912
  0.2034181581829211  0.8383438567694033  0.1466996284701815
  0.2016316689803282  0.8388882943373775  0.6457572220433502
  0.5339849480585152  0.3449313220603725  0.1455309112015108
  0.5347622589700969  0.3436489099545622  0.6468977352362542
  0.5366332346505842  0.8451453591302953  0.1463968977501804
  0.5361901445169296  0.8431705899608237  0.6464867671417208
  0.8640830006464311  0.3426685650620609  0.1471025789032853
  0.8671252821053341  0.3426582683837887  0.6464416825941326
  0.8682438783158324  0.8420034049949274  0.1457674275085864
  0.8696530853073180  0.8424905477497271  0.6474147675948110
  0.0400285434523950  0.1669986477254187  0.0983933693888924
  0.0344908474833672  0.1557345693314968  0.6080167334229283
  0.0340427216292853  0.6495396714660863  0.1032778905559392
  0.0348257899280547  0.6546359684549817  0.6055661872652709
  0.3685578281243367  0.1611900394964478  0.1018642815792916
  0.3711154114267977  0.1572017925635690  0.6065859069815214
  0.3746330865224980  0.6615515828972629  0.1044101001093008
  0.3676231062310023  0.6561040252213688  0.6046807632154378
  0.7013217243760753  0.1577078389080311  0.1041672879151580
  0.7019529304645007  0.1567223332386807  0.6053217093087311
  0.7013878476869789  0.6563862717582463  0.1039183294618195
  0.7017030050389472  0.6570152094482479  0.6046528811149665
  0.0298461942665775  0.4389415422592489 -0.0008379861889197
  0.0340773748108069  0.4455919377456712  0.5017393832323493
  0.0352188644910865  0.9515378658167604  0.0003298443455488
  0.0343855840244562  0.9486960747052606  0.5007188244860684
  0.3583190913816841  0.4529923275239957 -0.0000710579193893
  0.3673943343123828  0.4464831040978602  0.5010392180113121
  0.3653086126867293  0.9511731586915559 -0.0003544590323906
  0.3680428553519781  0.9487974468996123  0.5011858147893424
  0.6989162631093299  0.4472480689853980 -0.0000536536366243
  0.6997078332584400  0.4477395812218589  0.5009021143875027
  0.7010171401543058  0.9489015447797847  0.0003037009618400
  0.7013486462510071  0.9479239383573493  0.5010267714770562
  0.2040155817457417  0.3440127281650655  0.3480351590261398
  0.1971255703590372  0.3431763808776403  0.8636072224588129
  0.2028783056187777  0.8333230425985222  0.3550194808715677
  0.2024137624099974  0.8430931564741182  0.8542754757116224
  0.5348888402187661  0.3438358174720984  0.3538305534524862
  0.5336531245123430  0.3448023554067949  0.8551422539522160
  0.5363643466830426  0.8434593534930038  0.3545551164072104
  0.5362554041526950  0.8447508044109210  0.8546489066903160
  0.8673989391188748  0.3435783399531033  0.3547402738162770
  0.8638666441354664  0.3417208623833020  0.8537512070755466
  0.8683152906702145  0.8424623850851395  0.3544584838137441
  0.8693527555458640  0.8424466373206804  0.8556996145920875
 
  0.00000000E+00  0.00000000E+00  0.00000000E+00
  0.00000000E+00  0.00000000E+00  0.00000000E+00
  0.00000000E+00  0.00000000E+00  0.00000000E+00
  0.00000000E+00  0.00000000E+00  0.00000000E+00
  0.00000000E+00  0.00000000E+00  0.00000000E+00
  0.00000000E+00  0.00000000E+00  0.00000000E+00
  0.00000000E+00  0.00000000E+00  0.00000000E+00
  0.00000000E+00  0.00000000E+00  0.00000000E+00
  0.00000000E+00  0.00000000E+00  0.00000000E+00
  0.00000000E+00  0.00000000E+00  0.00000000E+00
  0.00000000E+00  0.00000000E+00  0.00000000E+00
  0.00000000E+00  0.00000000E+00  0.00000000E+00
  0.00000000E+00  0.00000000E+00  0.00000000E+00
  0.00000000E+00  0.00000000E+00  0.00000000E+00
  0.00000000E+00  0.00000000E+00  0.00000000E+00
  0.00000000E+00  0.00000000E+00  0.00000000E+00
  0.00000000E+00  0.00000000E+00  0.00000000E+00
  0.00000000E+00  0.00000000E+00  0.00000000E+00
  0.00000000E+00  0.00000000E+00  0.00000000E+00
  0.00000000E+00  0.00000000E+00  0.00000000E+00
  0.00000000E+00  0.00000000E+00  0.00000000E+00
  0.00000000E+00  0.00000000E+00  0.00000000E+00
  0.00000000E+00  0.00000000E+00  0.00000000E+00
  0.00000000E+00  0.00000000E+00  0.00000000E+00
  0.00000000E+00  0.00000000E+00  0.00000000E+00
  0.00000000E+00  0.00000000E+00  0.00000000E+00
  0.00000000E+00  0.00000000E+00  0.00000000E+00
  0.00000000E+00  0.00000000E+00  0.00000000E+00
  0.00000000E+00  0.00000000E+00  0.00000000E+00
  0.00000000E+00  0.00000000E+00  0.00000000E+00
  0.00000000E+00  0.00000000E+00  0.00000000E+00
  0.00000000E+00  0.00000000E+00  0.00000000E+00
  0.00000000E+00  0.00000000E+00  0.00000000E+00
  0.00000000E+00  0.00000000E+00  0.00000000E+00
  0.00000000E+00  0.00000000E+00  0.00000000E+00
  0.00000000E+00  0.00000000E+00  0.00000000E+00
  0.00000000E+00  0.00000000E+00  0.00000000E+00
  0.00000000E+00  0.00000000E+00  0.00000000E+00
  0.00000000E+00  0.00000000E+00  0.00000000E+00
  0.00000000E+00  0.00000000E+00  0.00000000E+00
  0.00000000E+00  0.00000000E+00  0.00000000E+00
  0.00000000E+00  0.00000000E+00  0.00000000E+00
  0.00000000E+00  0.00000000E+00  0.00000000E+00
  0.00000000E+00  0.00000000E+00  0.00000000E+00
  0.00000000E+00  0.00000000E+00  0.00000000E+00
  0.00000000E+00  0.00000000E+00  0.00000000E+00
  0.00000000E+00  0.00000000E+00  0.00000000E+00
  0.00000000E+00  0.00000000E+00  0.00000000E+00
  0.00000000E+00  0.00000000E+00  0.00000000E+00
  0.00000000E+00  0.00000000E+00  0.00000000E+00
  0.00000000E+00  0.00000000E+00  0.00000000E+00
  0.00000000E+00  0.00000000E+00  0.00000000E+00
  0.00000000E+00  0.00000000E+00  0.00000000E+00
  0.00000000E+00  0.00000000E+00  0.00000000E+00
  0.00000000E+00  0.00000000E+00  0.00000000E+00
  0.00000000E+00  0.00000000E+00  0.00000000E+00
  0.00000000E+00  0.00000000E+00  0.00000000E+00
  0.00000000E+00  0.00000000E+00  0.00000000E+00
  0.00000000E+00  0.00000000E+00  0.00000000E+00
  0.00000000E+00  0.00000000E+00  0.00000000E+00
  0.00000000E+00  0.00000000E+00  0.00000000E+00
  0.00000000E+00  0.00000000E+00  0.00000000E+00
  0.00000000E+00  0.00000000E+00  0.00000000E+00
  0.00000000E+00  0.00000000E+00  0.00000000E+00
  0.00000000E+00  0.00000000E+00  0.00000000E+00
  0.00000000E+00  0.00000000E+00  0.00000000E+00
  0.00000000E+00  0.00000000E+00  0.00000000E+00
  0.00000000E+00  0.00000000E+00  0.00000000E+00
  0.00000000E+00  0.00000000E+00  0.00000000E+00
  0.00000000E+00  0.00000000E+00  0.00000000E+00
  0.00000000E+00  0.00000000E+00  0.00000000E+00
  0.00000000E+00  0.00000000E+00  0.00000000E+00
  0.00000000E+00  0.00000000E+00  0.00000000E+00
  0.00000000E+00  0.00000000E+00  0.00000000E+00
  0.00000000E+00  0.00000000E+00  0.00000000E+00
  0.00000000E+00  0.00000000E+00  0.00000000E+00
  0.00000000E+00  0.00000000E+00  0.00000000E+00
  0.00000000E+00  0.00000000E+00  0.00000000E+00
  0.00000000E+00  0.00000000E+00  0.00000000E+00
  0.00000000E+00  0.00000000E+00  0.00000000E+00
  0.00000000E+00  0.00000000E+00  0.00000000E+00
  0.00000000E+00  0.00000000E+00  0.00000000E+00
  0.00000000E+00  0.00000000E+00  0.00000000E+00
  0.00000000E+00  0.00000000E+00  0.00000000E+00
  0.00000000E+00  0.00000000E+00  0.00000000E+00
  0.00000000E+00  0.00000000E+00  0.00000000E+00
  0.00000000E+00  0.00000000E+00  0.00000000E+00
  0.00000000E+00  0.00000000E+00  0.00000000E+00
  0.00000000E+00  0.00000000E+00  0.00000000E+00
  0.00000000E+00  0.00000000E+00  0.00000000E+00
  0.00000000E+00  0.00000000E+00  0.00000000E+00
  0.00000000E+00  0.00000000E+00  0.00000000E+00
  0.00000000E+00  0.00000000E+00  0.00000000E+00
  0.00000000E+00  0.00000000E+00  0.00000000E+00
  0.00000000E+00  0.00000000E+00  0.00000000E+00
  0.00000000E+00  0.00000000E+00  0.00000000E+00
  0.00000000E+00  0.00000000E+00  0.00000000E+00
  0.00000000E+00  0.00000000E+00  0.00000000E+00
  0.00000000E+00  0.00000000E+00  0.00000000E+00
  0.00000000E+00  0.00000000E+00  0.00000000E+00
  0.00000000E+00  0.00000000E+00  0.00000000E+00
  0.00000000E+00  0.00000000E+00  0.00000000E+00
  0.00000000E+00  0.00000000E+00  0.00000000E+00
  0.00000000E+00  0.00000000E+00  0.00000000E+00
  0.00000000E+00  0.00000000E+00  0.00000000E+00
  0.00000000E+00  0.00000000E+00  0.00000000E+00
  0.00000000E+00  0.00000000E+00  0.00000000E+00
  0.00000000E+00  0.00000000E+00  0.00000000E+00
  0.00000000E+00  0.00000000E+00  0.00000000E+00
  0.00000000E+00  0.00000000E+00  0.00000000E+00
  0.00000000E+00  0.00000000E+00  0.00000000E+00
  0.00000000E+00  0.00000000E+00  0.00000000E+00
  0.00000000E+00  0.00000000E+00  0.00000000E+00
  0.00000000E+00  0.00000000E+00  0.00000000E+00
  0.00000000E+00  0.00000000E+00  0.00000000E+00
  0.00000000E+00  0.00000000E+00  0.00000000E+00
  0.00000000E+00  0.00000000E+00  0.00000000E+00
  0.00000000E+00  0.00000000E+00  0.00000000E+00
  0.00000000E+00  0.00000000E+00  0.00000000E+00
  0.00000000E+00  0.00000000E+00  0.00000000E+00
  0.00000000E+00  0.00000000E+00  0.00000000E+00
  0.00000000E+00  0.00000000E+00  0.00000000E+00
  0.00000000E+00  0.00000000E+00  0.00000000E+00
  0.00000000E+00  0.00000000E+00  0.00000000E+00
  0.00000000E+00  0.00000000E+00  0.00000000E+00
  0.00000000E+00  0.00000000E+00  0.00000000E+00
  0.00000000E+00  0.00000000E+00  0.00000000E+00
  0.00000000E+00  0.00000000E+00  0.00000000E+00
  0.00000000E+00  0.00000000E+00  0.00000000E+00
  0.00000000E+00  0.00000000E+00  0.00000000E+00
  0.00000000E+00  0.00000000E+00  0.00000000E+00
  0.00000000E+00  0.00000000E+00  0.00000000E+00
  0.00000000E+00  0.00000000E+00  0.00000000E+00
  0.00000000E+00  0.00000000E+00  0.00000000E+00
  0.00000000E+00  0.00000000E+00  0.00000000E+00
  0.00000000E+00  0.00000000E+00  0.00000000E+00
  0.00000000E+00  0.00000000E+00  0.00000000E+00
  0.00000000E+00  0.00000000E+00  0.00000000E+00
  0.00000000E+00  0.00000000E+00  0.00000000E+00
  0.00000000E+00  0.00000000E+00  0.00000000E+00
  0.00000000E+00  0.00000000E+00  0.00000000E+00
  0.00000000E+00  0.00000000E+00  0.00000000E+00
  0.00000000E+00  0.00000000E+00  0.00000000E+00
  0.00000000E+00  0.00000000E+00  0.00000000E+00
  0.00000000E+00  0.00000000E+00  0.00000000E+00
  0.00000000E+00  0.00000000E+00  0.00000000E+00
  0.00000000E+00  0.00000000E+00  0.00000000E+00
  0.00000000E+00  0.00000000E+00  0.00000000E+00
  0.00000000E+00  0.00000000E+00  0.00000000E+00
  0.00000000E+00  0.00000000E+00  0.00000000E+00
  0.00000000E+00  0.00000000E+00  0.00000000E+00
  0.00000000E+00  0.00000000E+00  0.00000000E+00
  0.00000000E+00  0.00000000E+00  0.00000000E+00
  0.00000000E+00  0.00000000E+00  0.00000000E+00
  0.00000000E+00  0.00000000E+00  0.00000000E+00
  0.00000000E+00  0.00000000E+00  0.00000000E+00
  0.00000000E+00  0.00000000E+00  0.00000000E+00
  0.00000000E+00  0.00000000E+00  0.00000000E+00
  0.00000000E+00  0.00000000E+00  0.00000000E+00
  0.00000000E+00  0.00000000E+00  0.00000000E+00
  0.00000000E+00  0.00000000E+00  0.00000000E+00
  0.00000000E+00  0.00000000E+00  0.00000000E+00
  0.00000000E+00  0.00000000E+00  0.00000000E+00
  0.00000000E+00  0.00000000E+00  0.00000000E+00
  0.00000000E+00  0.00000000E+00  0.00000000E+00
  0.00000000E+00  0.00000000E+00  0.00000000E+00
  0.00000000E+00  0.00000000E+00  0.00000000E+00
  0.00000000E+00  0.00000000E+00  0.00000000E+00
  0.00000000E+00  0.00000000E+00  0.00000000E+00
  0.00000000E+00  0.00000000E+00  0.00000000E+00
  0.00000000E+00  0.00000000E+00  0.00000000E+00
  0.00000000E+00  0.00000000E+00  0.00000000E+00
  0.00000000E+00  0.00000000E+00  0.00000000E+00
  0.00000000E+00  0.00000000E+00  0.00000000E+00
  0.00000000E+00  0.00000000E+00  0.00000000E+00
  0.00000000E+00  0.00000000E+00  0.00000000E+00
  0.00000000E+00  0.00000000E+00  0.00000000E+00
  0.00000000E+00  0.00000000E+00  0.00000000E+00
  0.00000000E+00  0.00000000E+00  0.00000000E+00
  0.00000000E+00  0.00000000E+00  0.00000000E+00
  0.00000000E+00  0.00000000E+00  0.00000000E+00
  0.00000000E+00  0.00000000E+00  0.00000000E+00
  0.00000000E+00  0.00000000E+00  0.00000000E+00
  0.00000000E+00  0.00000000E+00  0.00000000E+00
  0.00000000E+00  0.00000000E+00  0.00000000E+00
  0.00000000E+00  0.00000000E+00  0.00000000E+00
  0.00000000E+00  0.00000000E+00  0.00000000E+00
  0.00000000E+00  0.00000000E+00  0.00000000E+00
  0.00000000E+00  0.00000000E+00  0.00000000E+00
  0.00000000E+00  0.00000000E+00  0.00000000E+00
  0.00000000E+00  0.00000000E+00  0.00000000E+00
  0.00000000E+00  0.00000000E+00  0.00000000E+00
  0.00000000E+00  0.00000000E+00  0.00000000E+00
