Li140 P140 O420
1.0
13.312980 0.000000 0.000000
-10.635230 16.540545 -5.521558
0.000000 0.000000 60.737138
Li P O
140 140 420
direct
0.126478 0.181780 0.068484 Li+
0.126478 0.681780 0.022049 Li+
0.888830 0.065996 0.058885 Li+
0.888830 0.565996 0.010597 Li+
0.652957 0.950543 0.046447 Li+
0.652957 0.450543 0.002044 Li+
0.418297 0.835452 0.035853 Li+
0.418297 0.335452 0.082621 Li+
0.270894 0.758434 0.075619 Li+
0.270894 0.258434 0.028852 Li+
0.624263 0.681714 0.020607 Li+
0.624263 0.181714 0.069915 Li+
0.387725 0.566270 0.014192 Li+
0.387725 0.066270 0.055340 Li+
0.151818 0.449547 0.089314 Li+
0.151818 0.949547 0.049905 Li+
0.915480 0.332984 0.083764 Li+
0.915480 0.832984 0.034261 Li+
0.766829 0.256366 0.032876 Li+
0.766829 0.756366 0.071219 Li+
0.126478 0.181780 0.159393 Li+
0.126478 0.681780 0.112958 Li+
0.888830 0.065996 0.149794 Li+
0.888830 0.565996 0.101506 Li+
0.652957 0.950543 0.137356 Li+
0.652957 0.450543 0.092953 Li+
0.418297 0.835452 0.126762 Li+
0.418297 0.335452 0.173530 Li+
0.270894 0.758434 0.166528 Li+
0.270894 0.258434 0.119761 Li+
0.624263 0.681714 0.111516 Li+
0.624263 0.181714 0.160824 Li+
0.387725 0.566270 0.105101 Li+
0.387725 0.066270 0.146249 Li+
0.151818 0.449547 0.180223 Li+
0.151818 0.949547 0.140814 Li+
0.915480 0.332984 0.174673 Li+
0.915480 0.832984 0.125171 Li+
0.766829 0.256366 0.123785 Li+
0.766829 0.756366 0.162128 Li+
0.126478 0.181780 0.250303 Li+
0.126478 0.681780 0.203867 Li+
0.888830 0.065996 0.240703 Li+
0.888830 0.565996 0.192415 Li+
0.652957 0.950543 0.228265 Li+
0.652957 0.450543 0.183862 Li+
0.418297 0.835452 0.217671 Li+
0.418297 0.335452 0.264439 Li+
0.270894 0.758434 0.257437 Li+
0.270894 0.258434 0.210670 Li+
0.624263 0.681714 0.202425 Li+
0.624263 0.181714 0.251733 Li+
0.387725 0.566270 0.196010 Li+
0.387725 0.066270 0.237158 Li+
0.151818 0.449547 0.271132 Li+
0.151818 0.949547 0.231723 Li+
0.915480 0.332984 0.265582 Li+
0.915480 0.832984 0.216080 Li+
0.766829 0.256366 0.214694 Li+
0.766829 0.756366 0.253037 Li+
0.126478 0.181780 0.341212 Li+
0.126478 0.681780 0.294777 Li+
0.888830 0.065996 0.331612 Li+
0.888830 0.565996 0.283325 Li+
0.652957 0.950543 0.319174 Li+
0.652957 0.450543 0.274771 Li+
0.418297 0.835452 0.308580 Li+
0.418297 0.335452 0.355348 Li+
0.270894 0.758434 0.348346 Li+
0.270894 0.258434 0.301579 Li+
0.624263 0.681714 0.293334 Li+
0.624263 0.181714 0.342642 Li+
0.387725 0.566270 0.286919 Li+
0.387725 0.066270 0.328067 Li+
0.151818 0.449547 0.362041 Li+
0.151818 0.949547 0.322632 Li+
0.915480 0.332984 0.356491 Li+
0.915480 0.832984 0.306989 Li+
0.766829 0.256366 0.305603 Li+
0.766829 0.756366 0.343946 Li+
0.126478 0.181780 0.432121 Li+
0.126478 0.681780 0.385686 Li+
0.888830 0.065996 0.422521 Li+
0.888830 0.565996 0.374234 Li+
0.652957 0.950543 0.410083 Li+
0.652957 0.450543 0.365680 Li+
0.418297 0.835452 0.399489 Li+
0.418297 0.335452 0.446257 Li+
0.270894 0.758434 0.439255 Li+
0.270894 0.258434 0.392488 Li+
0.624263 0.681714 0.384243 Li+
0.624263 0.181714 0.433551 Li+
0.387725 0.566270 0.377828 Li+
0.387725 0.066270 0.418976 Li+
0.151818 0.449547 0.452950 Li+
0.151818 0.949547 0.413541 Li+
0.915480 0.332984 0.447400 Li+
0.915480 0.832984 0.397898 Li+
0.766829 0.256366 0.396512 Li+
0.766829 0.756366 0.434855 Li+
0.126478 0.181780 0.523030 Li+
0.126478 0.681780 0.476595 Li+
0.888830 0.065996 0.513430 Li+
0.888830 0.565996 0.465143 Li+
0.652957 0.950543 0.500992 Li+
0.652957 0.450543 0.456589 Li+
0.418297 0.835452 0.490398 Li+
0.418297 0.335452 0.537166 Li+
0.270894 0.758434 0.530164 Li+
0.270894 0.258434 0.483397 Li+
0.624263 0.681714 0.475152 Li+
0.624263 0.181714 0.524460 Li+
0.387725 0.566270 0.468737 Li+
0.387725 0.066270 0.509885 Li+
0.151818 0.449547 0.543859 Li+
0.151818 0.949547 0.504450 Li+
0.915480 0.332984 0.538309 Li+
0.915480 0.832984 0.488807 Li+
0.766829 0.256366 0.487421 Li+
0.766829 0.756366 0.525765 Li+
0.126478 0.181780 0.613939 Li+
0.126478 0.681780 0.567504 Li+
0.888830 0.065996 0.604339 Li+
0.888830 0.565996 0.556052 Li+
0.652957 0.950543 0.591901 Li+
0.652957 0.450543 0.547498 Li+
0.418297 0.835452 0.581308 Li+
0.418297 0.335452 0.628076 Li+
0.270894 0.758434 0.621073 Li+
0.270894 0.258434 0.574307 Li+
0.624263 0.681714 0.566061 Li+
0.624263 0.181714 0.615369 Li+
0.387725 0.566270 0.559647 Li+
0.387725 0.066270 0.600794 Li+
0.151818 0.449547 0.634768 Li+
0.151818 0.949547 0.595359 Li+
0.915480 0.332984 0.629218 Li+
0.915480 0.832984 0.579716 Li+
0.766829 0.256366 0.578330 Li+
0.766829 0.756366 0.616674 Li+
0.000779 0.999587 0.080033 P5+
0.000779 0.499587 0.068284 P5+
0.794387 0.906720 0.011778 P5+
0.794387 0.406720 0.028745 P5+
0.598863 0.802939 0.061877 P5+
0.598863 0.302939 0.050685 P5+
0.408395 0.691689 0.084442 P5+
0.408395 0.191689 0.007893 P5+
0.208401 0.591751 0.045288 P5+
0.208401 0.091751 0.028877 P5+
0.334920 0.425433 0.058878 P5+
0.334920 0.925433 0.075956 P5+
0.134548 0.325562 0.019763 P5+
0.134548 0.825562 0.006004 P5+
0.943677 0.213545 0.042493 P5+
0.943677 0.713545 0.053816 P5+
0.747866 0.110144 0.002218 P5+
0.747866 0.610144 0.075291 P5+
0.541580 0.017155 0.024858 P5+
0.541580 0.517155 0.035743 P5+
0.000779 0.999587 0.170942 P5+
0.000779 0.499587 0.159193 P5+
0.794387 0.906720 0.102687 P5+
0.794387 0.406720 0.119654 P5+
0.598863 0.802939 0.152786 P5+
0.598863 0.302939 0.141594 P5+
0.408395 0.691689 0.175352 P5+
0.408395 0.191689 0.098802 P5+
0.208401 0.591751 0.136197 P5+
0.208401 0.091751 0.119786 P5+
0.334920 0.425433 0.149787 P5+
0.334920 0.925433 0.166865 P5+
0.134548 0.325562 0.110672 P5+
0.134548 0.825562 0.096913 P5+
0.943677 0.213545 0.133402 P5+
0.943677 0.713545 0.144725 P5+
0.747866 0.110144 0.093127 P5+
0.747866 0.610144 0.166200 P5+
0.541580 0.017155 0.115768 P5+
0.541580 0.517155 0.126652 P5+
0.000779 0.999587 0.261851 P5+
0.000779 0.499587 0.250102 P5+
0.794387 0.906720 0.193596 P5+
0.794387 0.406720 0.210563 P5+
0.598863 0.802939 0.243695 P5+
0.598863 0.302939 0.232503 P5+
0.408395 0.691689 0.266261 P5+
0.408395 0.191689 0.189711 P5+
0.208401 0.591751 0.227106 P5+
0.208401 0.091751 0.210695 P5+
0.334920 0.425433 0.240696 P5+
0.334920 0.925433 0.257774 P5+
0.134548 0.325562 0.201581 P5+
0.134548 0.825562 0.187822 P5+
0.943677 0.213545 0.224311 P5+
0.943677 0.713545 0.235634 P5+
0.747866 0.110144 0.184036 P5+
0.747866 0.610144 0.257109 P5+
0.541580 0.017155 0.206677 P5+
0.541580 0.517155 0.217562 P5+
0.000779 0.999587 0.352760 P5+
0.000779 0.499587 0.341011 P5+
0.794387 0.906720 0.284505 P5+
0.794387 0.406720 0.301472 P5+
0.598863 0.802939 0.334605 P5+
0.598863 0.302939 0.323413 P5+
0.408395 0.691689 0.357170 P5+
0.408395 0.191689 0.280620 P5+
0.208401 0.591751 0.318015 P5+
0.208401 0.091751 0.301604 P5+
0.334920 0.425433 0.331605 P5+
0.334920 0.925433 0.348683 P5+
0.134548 0.325562 0.292490 P5+
0.134548 0.825562 0.278731 P5+
0.943677 0.213545 0.315220 P5+
0.943677 0.713545 0.326543 P5+
0.747866 0.110144 0.274945 P5+
0.747866 0.610144 0.348018 P5+
0.541580 0.017155 0.297586 P5+
0.541580 0.517155 0.308471 P5+
0.000779 0.999587 0.443670 P5+
0.000779 0.499587 0.431920 P5+
0.794387 0.906720 0.375414 P5+
0.794387 0.406720 0.392381 P5+
0.598863 0.802939 0.425514 P5+
0.598863 0.302939 0.414322 P5+
0.408395 0.691689 0.448079 P5+
0.408395 0.191689 0.371529 P5+
0.208401 0.591751 0.408924 P5+
0.208401 0.091751 0.392513 P5+
0.334920 0.425433 0.422514 P5+
0.334920 0.925433 0.439593 P5+
0.134548 0.325562 0.383400 P5+
0.134548 0.825562 0.369640 P5+
0.943677 0.213545 0.406129 P5+
0.943677 0.713545 0.417453 P5+
0.747866 0.110144 0.365854 P5+
0.747866 0.610144 0.438927 P5+
0.541580 0.017155 0.388495 P5+
0.541580 0.517155 0.399380 P5+
0.000779 0.999587 0.534579 P5+
0.000779 0.499587 0.522829 P5+
0.794387 0.906720 0.466323 P5+
0.794387 0.406720 0.483290 P5+
0.598863 0.802939 0.516423 P5+
0.598863 0.302939 0.505231 P5+
0.408395 0.691689 0.538988 P5+
0.408395 0.191689 0.462438 P5+
0.208401 0.591751 0.499833 P5+
0.208401 0.091751 0.483422 P5+
0.334920 0.425433 0.513423 P5+
0.334920 0.925433 0.530502 P5+
0.134548 0.325562 0.474309 P5+
0.134548 0.825562 0.460549 P5+
0.943677 0.213545 0.497038 P5+
0.943677 0.713545 0.508362 P5+
0.747866 0.110144 0.456763 P5+
0.747866 0.610144 0.529836 P5+
0.541580 0.017155 0.479404 P5+
0.541580 0.517155 0.490289 P5+
0.000779 0.999587 0.625488 P5+
0.000779 0.499587 0.613738 P5+
0.794387 0.906720 0.557233 P5+
0.794387 0.406720 0.574199 P5+
0.598863 0.802939 0.607332 P5+
0.598863 0.302939 0.596140 P5+
0.408395 0.691689 0.629897 P5+
0.408395 0.191689 0.553347 P5+
0.208401 0.591751 0.590742 P5+
0.208401 0.091751 0.574331 P5+
0.334920 0.425433 0.604333 P5+
0.334920 0.925433 0.621411 P5+
0.134548 0.325562 0.565218 P5+
0.134548 0.825562 0.551458 P5+
0.943677 0.213545 0.587947 P5+
0.943677 0.713545 0.599271 P5+
0.747866 0.110144 0.547673 P5+
0.747866 0.610144 0.620745 P5+
0.541580 0.017155 0.570313 P5+
0.541580 0.517155 0.581198 P5+
0.870015 0.964587 0.087431 O2-
0.870015 0.464587 0.054522 O2-
0.659821 0.859372 0.088585 O2-
0.659821 0.359372 0.034238 O2-
0.481350 0.724144 0.064571 O2-
0.481350 0.224144 0.033665 O2-
0.293096 0.607741 0.067929 O2-
0.293096 0.107741 0.009143 O2-
0.080152 0.021852 0.013271 O2-
0.080152 0.521852 0.048184 O2-
0.250064 0.409378 0.036250 O2-
0.250064 0.909378 0.004756 O2-
0.063226 0.290596 0.039537 O2-
0.063226 0.790596 0.070781 O2-
0.883201 0.156445 0.015758 O2-
0.883201 0.656445 0.070170 O2-
0.674568 0.056520 0.018535 O2-
0.674568 0.556520 0.049224 O2-
0.463629 0.495673 0.056103 O2-
0.463629 0.995673 0.000593 O2-
0.029173 0.073889 0.074295 O2-
0.029173 0.573889 0.087531 O2-
0.005091 0.933926 0.062378 O2-
0.005091 0.433926 0.074000 O2-
0.795375 0.958651 0.034657 O2-
0.795375 0.458651 0.015307 O2-
0.828944 0.846743 0.010690 O2-
0.828944 0.346743 0.018928 O2-
0.560342 0.845353 0.050867 O2-
0.560342 0.345353 0.069407 O2-
0.677417 0.775410 0.050889 O2-
0.677417 0.275410 0.056668 O2-
0.369330 0.747295 0.005628 O2-
0.369330 0.247295 0.005909 O2-
0.472480 0.669352 0.007202 O2-
0.472480 0.169352 0.081072 O2-
0.209416 0.667159 0.047108 O2-
0.209416 0.167159 0.040767 O2-
0.238895 0.553292 0.023970 O2-
0.238895 0.053292 0.043202 O2-
0.302391 0.463335 0.079964 O2-
0.302391 0.963335 0.061762 O2-
0.334913 0.350606 0.057342 O2-
0.334913 0.850606 0.063887 O2-
0.068594 0.348215 0.006689 O2-
0.068594 0.848215 0.023197 O2-
0.175312 0.271458 0.007234 O2-
0.175312 0.771458 0.008696 O2-
0.864720 0.241625 0.052913 O2-
0.864720 0.741625 0.048501 O2-
0.980120 0.171199 0.054037 O2-
0.980120 0.671199 0.034573 O2-
0.713620 0.170027 0.002810 O2-
0.713620 0.670027 0.085587 O2-
0.742996 0.055640 0.070409 O2-
0.742996 0.555640 0.088099 O2-
0.532819 0.080441 0.042648 O2-
0.532819 0.580441 0.029461 O2-
0.515310 0.942366 0.029964 O2-
0.515310 0.442366 0.017040 O2-
0.870015 0.964587 0.178340 O2-
0.870015 0.464587 0.145431 O2-
0.659821 0.859372 0.179495 O2-
0.659821 0.359372 0.125147 O2-
0.481350 0.724144 0.155480 O2-
0.481350 0.224144 0.124574 O2-
0.293096 0.607741 0.158838 O2-
0.293096 0.107741 0.100052 O2-
0.080152 0.021852 0.104180 O2-
0.080152 0.521852 0.139094 O2-
0.250064 0.409378 0.127159 O2-
0.250064 0.909378 0.095665 O2-
0.063226 0.290596 0.130446 O2-
0.063226 0.790596 0.161690 O2-
0.883201 0.156445 0.106667 O2-
0.883201 0.656445 0.161079 O2-
0.674568 0.056520 0.109444 O2-
0.674568 0.556520 0.140133 O2-
0.463629 0.495673 0.147012 O2-
0.463629 0.995673 0.091502 O2-
0.029173 0.073889 0.165204 O2-
0.029173 0.573889 0.178440 O2-
0.005091 0.933926 0.153288 O2-
0.005091 0.433926 0.164909 O2-
0.795375 0.958651 0.125566 O2-
0.795375 0.458651 0.106217 O2-
0.828944 0.846743 0.101599 O2-
0.828944 0.346743 0.109837 O2-
0.560342 0.845353 0.141776 O2-
0.560342 0.345353 0.160317 O2-
0.677417 0.775410 0.141799 O2-
0.677417 0.275410 0.147577 O2-
0.369330 0.747295 0.096537 O2-
0.369330 0.247295 0.096818 O2-
0.472480 0.669352 0.098111 O2-
0.472480 0.169352 0.171982 O2-
0.209416 0.667159 0.138018 O2-
0.209416 0.167159 0.131676 O2-
0.238895 0.553292 0.114879 O2-
0.238895 0.053292 0.134111 O2-
0.302391 0.463335 0.170873 O2-
0.302391 0.963335 0.152671 O2-
0.334913 0.350606 0.148251 O2-
0.334913 0.850606 0.154796 O2-
0.068594 0.348215 0.097598 O2-
0.068594 0.848215 0.114106 O2-
0.175312 0.271458 0.098143 O2-
0.175312 0.771458 0.099605 O2-
0.864720 0.241625 0.143822 O2-
0.864720 0.741625 0.139410 O2-
0.980120 0.171199 0.144946 O2-
0.980120 0.671199 0.125482 O2-
0.713620 0.170027 0.093719 O2-
0.713620 0.670027 0.176496 O2-
0.742996 0.055640 0.161318 O2-
0.742996 0.555640 0.179008 O2-
0.532819 0.080441 0.133557 O2-
0.532819 0.580441 0.120370 O2-
0.515310 0.942366 0.120873 O2-
0.515310 0.442366 0.107949 O2-
0.870015 0.964587 0.269249 O2-
0.870015 0.464587 0.236340 O2-
0.659821 0.859372 0.270404 O2-
0.659821 0.359372 0.216056 O2-
0.481350 0.724144 0.246389 O2-
0.481350 0.224144 0.215483 O2-
0.293096 0.607741 0.249747 O2-
0.293096 0.107741 0.190962 O2-
0.080152 0.021852 0.195090 O2-
0.080152 0.521852 0.230003 O2-
0.250064 0.409378 0.218068 O2-
0.250064 0.909378 0.186574 O2-
0.063226 0.290596 0.221355 O2-
0.063226 0.790596 0.252599 O2-
0.883201 0.156445 0.197576 O2-
0.883201 0.656445 0.251988 O2-
0.674568 0.056520 0.200353 O2-
0.674568 0.556520 0.231042 O2-
0.463629 0.495673 0.237922 O2-
0.463629 0.995673 0.182411 O2-
0.029173 0.073889 0.256114 O2-
0.029173 0.573889 0.269349 O2-
0.005091 0.933926 0.244197 O2-
0.005091 0.433926 0.255818 O2-
0.795375 0.958651 0.216475 O2-
0.795375 0.458651 0.197126 O2-
0.828944 0.846743 0.192508 O2-
0.828944 0.346743 0.200746 O2-
0.560342 0.845353 0.232685 O2-
0.560342 0.345353 0.251226 O2-
0.677417 0.775410 0.232708 O2-
0.677417 0.275410 0.238486 O2-
0.369330 0.747295 0.187446 O2-
0.369330 0.247295 0.187727 O2-
0.472480 0.669352 0.189020 O2-
0.472480 0.169352 0.262891 O2-
0.209416 0.667159 0.228927 O2-
0.209416 0.167159 0.222585 O2-
0.238895 0.553292 0.205788 O2-
0.238895 0.053292 0.225020 O2-
0.302391 0.463335 0.261782 O2-
0.302391 0.963335 0.243580 O2-
0.334913 0.350606 0.239160 O2-
0.334913 0.850606 0.245705 O2-
0.068594 0.348215 0.188507 O2-
0.068594 0.848215 0.205015 O2-
0.175312 0.271458 0.189052 O2-
0.175312 0.771458 0.190514 O2-
0.864720 0.241625 0.234731 O2-
0.864720 0.741625 0.230319 O2-
0.980120 0.171199 0.235855 O2-
0.980120 0.671199 0.216391 O2-
0.713620 0.170027 0.184628 O2-
0.713620 0.670027 0.267405 O2-
0.742996 0.055640 0.252227 O2-
0.742996 0.555640 0.269917 O2-
0.532819 0.080441 0.224466 O2-
0.532819 0.580441 0.211279 O2-
0.515310 0.942366 0.211782 O2-
0.515310 0.442366 0.198858 O2-
0.870015 0.964587 0.360158 O2-
0.870015 0.464587 0.327249 O2-
0.659821 0.859372 0.361313 O2-
0.659821 0.359372 0.306965 O2-
0.481350 0.724144 0.337298 O2-
0.481350 0.224144 0.306392 O2-
0.293096 0.607741 0.340656 O2-
0.293096 0.107741 0.281871 O2-
0.080152 0.021852 0.285999 O2-
0.080152 0.521852 0.320912 O2-
0.250064 0.409378 0.308977 O2-
0.250064 0.909378 0.277483 O2-
0.063226 0.290596 0.312265 O2-
0.063226 0.790596 0.343508 O2-
0.883201 0.156445 0.288485 O2-
0.883201 0.656445 0.342897 O2-
0.674568 0.056520 0.291263 O2-
0.674568 0.556520 0.321951 O2-
0.463629 0.495673 0.328831 O2-
0.463629 0.995673 0.273320 O2-
0.029173 0.073889 0.347023 O2-
0.029173 0.573889 0.360258 O2-
0.005091 0.933926 0.335106 O2-
0.005091 0.433926 0.346727 O2-
0.795375 0.958651 0.307385 O2-
0.795375 0.458651 0.288035 O2-
0.828944 0.846743 0.283418 O2-
0.828944 0.346743 0.291655 O2-
0.560342 0.845353 0.323594 O2-
0.560342 0.345353 0.342135 O2-
0.677417 0.775410 0.323617 O2-
0.677417 0.275410 0.329395 O2-
0.369330 0.747295 0.278355 O2-
0.369330 0.247295 0.278636 O2-
0.472480 0.669352 0.279929 O2-
0.472480 0.169352 0.353800 O2-
0.209416 0.667159 0.319836 O2-
0.209416 0.167159 0.313494 O2-
0.238895 0.553292 0.296697 O2-
0.238895 0.053292 0.315929 O2-
0.302391 0.463335 0.352691 O2-
0.302391 0.963335 0.334489 O2-
0.334913 0.350606 0.330070 O2-
0.334913 0.850606 0.336614 O2-
0.068594 0.348215 0.279416 O2-
0.068594 0.848215 0.295924 O2-
0.175312 0.271458 0.279961 O2-
0.175312 0.771458 0.281423 O2-
0.864720 0.241625 0.325641 O2-
0.864720 0.741625 0.321229 O2-
0.980120 0.171199 0.326764 O2-
0.980120 0.671199 0.307300 O2-
0.713620 0.170027 0.275537 O2-
0.713620 0.670027 0.358314 O2-
0.742996 0.055640 0.343136 O2-
0.742996 0.555640 0.360826 O2-
0.532819 0.080441 0.315375 O2-
0.532819 0.580441 0.302188 O2-
0.515310 0.942366 0.302692 O2-
0.515310 0.442366 0.289767 O2-
0.870015 0.964587 0.451067 O2-
0.870015 0.464587 0.418158 O2-
0.659821 0.859372 0.452222 O2-
0.659821 0.359372 0.397874 O2-
0.481350 0.724144 0.428207 O2-
0.481350 0.224144 0.397302 O2-
0.293096 0.607741 0.431565 O2-
0.293096 0.107741 0.372780 O2-
0.080152 0.021852 0.376908 O2-
0.080152 0.521852 0.411821 O2-
0.250064 0.409378 0.399887 O2-
0.250064 0.909378 0.368392 O2-
0.063226 0.290596 0.403174 O2-
0.063226 0.790596 0.434417 O2-
0.883201 0.156445 0.379394 O2-
0.883201 0.656445 0.433806 O2-
0.674568 0.056520 0.382172 O2-
0.674568 0.556520 0.412860 O2-
0.463629 0.495673 0.419740 O2-
0.463629 0.995673 0.364229 O2-
0.029173 0.073889 0.437932 O2-
0.029173 0.573889 0.451167 O2-
0.005091 0.933926 0.426015 O2-
0.005091 0.433926 0.437636 O2-
0.795375 0.958651 0.398294 O2-
0.795375 0.458651 0.378944 O2-
0.828944 0.846743 0.374327 O2-
0.828944 0.346743 0.382564 O2-
0.560342 0.845353 0.414503 O2-
0.560342 0.345353 0.433044 O2-
0.677417 0.775410 0.414526 O2-
0.677417 0.275410 0.420304 O2-
0.369330 0.747295 0.369264 O2-
0.369330 0.247295 0.369545 O2-
0.472480 0.669352 0.370838 O2-
0.472480 0.169352 0.444709 O2-
0.209416 0.667159 0.410745 O2-
0.209416 0.167159 0.404403 O2-
0.238895 0.553292 0.387606 O2-
0.238895 0.053292 0.406839 O2-
0.302391 0.463335 0.443600 O2-
0.302391 0.963335 0.425398 O2-
0.334913 0.350606 0.420979 O2-
0.334913 0.850606 0.427523 O2-
0.068594 0.348215 0.370325 O2-
0.068594 0.848215 0.386833 O2-
0.175312 0.271458 0.370870 O2-
0.175312 0.771458 0.372332 O2-
0.864720 0.241625 0.416550 O2-
0.864720 0.741625 0.412138 O2-
0.980120 0.171199 0.417673 O2-
0.980120 0.671199 0.398209 O2-
0.713620 0.170027 0.366446 O2-
0.713620 0.670027 0.449223 O2-
0.742996 0.055640 0.434045 O2-
0.742996 0.555640 0.451735 O2-
0.532819 0.080441 0.406284 O2-
0.532819 0.580441 0.393097 O2-
0.515310 0.942366 0.393601 O2-
0.515310 0.442366 0.380676 O2-
0.870015 0.964587 0.541977 O2-
0.870015 0.464587 0.509067 O2-
0.659821 0.859372 0.543131 O2-
0.659821 0.359372 0.488783 O2-
0.481350 0.724144 0.519116 O2-
0.481350 0.224144 0.488211 O2-
0.293096 0.607741 0.522474 O2-
0.293096 0.107741 0.463689 O2-
0.080152 0.021852 0.467817 O2-
0.080152 0.521852 0.502730 O2-
0.250064 0.409378 0.490796 O2-
0.250064 0.909378 0.459301 O2-
0.063226 0.290596 0.494083 O2-
0.063226 0.790596 0.525327 O2-
0.883201 0.156445 0.470303 O2-
0.883201 0.656445 0.524715 O2-
0.674568 0.056520 0.473081 O2-
0.674568 0.556520 0.503769 O2-
0.463629 0.495673 0.510649 O2-
0.463629 0.995673 0.455138 O2-
0.029173 0.073889 0.528841 O2-
0.029173 0.573889 0.542076 O2-
0.005091 0.933926 0.516924 O2-
0.005091 0.433926 0.528545 O2-
0.795375 0.958651 0.489203 O2-
0.795375 0.458651 0.469853 O2-
0.828944 0.846743 0.465236 O2-
0.828944 0.346743 0.473473 O2-
0.560342 0.845353 0.505412 O2-
0.560342 0.345353 0.523953 O2-
0.677417 0.775410 0.505435 O2-
0.677417 0.275410 0.511213 O2-
0.369330 0.747295 0.460173 O2-
0.369330 0.247295 0.460454 O2-
0.472480 0.669352 0.461747 O2-
0.472480 0.169352 0.535618 O2-
0.209416 0.667159 0.501654 O2-
0.209416 0.167159 0.495312 O2-
0.238895 0.553292 0.478515 O2-
0.238895 0.053292 0.497748 O2-
0.302391 0.463335 0.534509 O2-
0.302391 0.963335 0.516307 O2-
0.334913 0.350606 0.511888 O2-
0.334913 0.850606 0.518432 O2-
0.068594 0.348215 0.461234 O2-
0.068594 0.848215 0.477742 O2-
0.175312 0.271458 0.461779 O2-
0.175312 0.771458 0.463242 O2-
0.864720 0.241625 0.507459 O2-
0.864720 0.741625 0.503047 O2-
0.980120 0.171199 0.508582 O2-
0.980120 0.671199 0.489119 O2-
0.713620 0.170027 0.457355 O2-
0.713620 0.670027 0.540132 O2-
0.742996 0.055640 0.524955 O2-
0.742996 0.555640 0.542645 O2-
0.532819 0.080441 0.497193 O2-
0.532819 0.580441 0.484006 O2-
0.515310 0.942366 0.484510 O2-
0.515310 0.442366 0.471585 O2-
0.870015 0.964587 0.632886 O2-
0.870015 0.464587 0.599977 O2-
0.659821 0.859372 0.634040 O2-
0.659821 0.359372 0.579692 O2-
0.481350 0.724144 0.610026 O2-
0.481350 0.224144 0.579120 O2-
0.293096 0.607741 0.613383 O2-
0.293096 0.107741 0.554598 O2-
0.080152 0.021852 0.558726 O2-
0.080152 0.521852 0.593639 O2-
0.250064 0.409378 0.581705 O2-
0.250064 0.909378 0.550210 O2-
0.063226 0.290596 0.584992 O2-
0.063226 0.790596 0.616236 O2-
0.883201 0.156445 0.561212 O2-
0.883201 0.656445 0.615624 O2-
0.674568 0.056520 0.563990 O2-
0.674568 0.556520 0.594678 O2-
0.463629 0.495673 0.601558 O2-
0.463629 0.995673 0.546047 O2-
0.029173 0.073889 0.619750 O2-
0.029173 0.573889 0.632985 O2-
0.005091 0.933926 0.607833 O2-
0.005091 0.433926 0.619454 O2-
0.795375 0.958651 0.580112 O2-
0.795375 0.458651 0.560762 O2-
0.828944 0.846743 0.556145 O2-
0.828944 0.346743 0.564382 O2-
0.560342 0.845353 0.596321 O2-
0.560342 0.345353 0.614862 O2-
0.677417 0.775410 0.596344 O2-
0.677417 0.275410 0.602122 O2-
0.369330 0.747295 0.551082 O2-
0.369330 0.247295 0.551363 O2-
0.472480 0.669352 0.552656 O2-
0.472480 0.169352 0.626527 O2-
0.209416 0.667159 0.592563 O2-
0.209416 0.167159 0.586221 O2-
0.238895 0.553292 0.569425 O2-
0.238895 0.053292 0.588657 O2-
0.302391 0.463335 0.625418 O2-
0.302391 0.963335 0.607216 O2-
0.334913 0.350606 0.602797 O2-
0.334913 0.850606 0.609342 O2-
0.068594 0.348215 0.552143 O2-
0.068594 0.848215 0.568651 O2-
0.175312 0.271458 0.552688 O2-
0.175312 0.771458 0.554151 O2-
0.864720 0.241625 0.598368 O2-
0.864720 0.741625 0.593956 O2-
0.980120 0.171199 0.599491 O2-
0.980120 0.671199 0.580028 O2-
0.713620 0.170027 0.548265 O2-
0.713620 0.670027 0.631041 O2-
0.742996 0.055640 0.615864 O2-
0.742996 0.555640 0.633554 O2-
0.532819 0.080441 0.588102 O2-
0.532819 0.580441 0.574915 O2-
0.515310 0.942366 0.575419 O2-
0.515310 0.442366 0.562494 O2-
