Li1
1.0
-1.701909 1.701909 1.701909
1.701909 -1.701909 1.701909
1.701909 1.701909 -1.701909
Li
1
direct
0.000000 0.000000 0.000000 Li
