P4 O10                                  
   1.00000000000000     
     0.0000000000000000    4.0838543134557490    8.2946412901297819
     2.7753771848092743    0.0000000000000000    8.2946412901297819
     2.7753771848092743    4.0838543134557490    0.0000000000000000
   P    O 
     4    10
Direct
  0.6014542974102632  0.5506861675002109  0.2448343743147937
  0.6030261607747296  0.2448343743147937  0.5506861675002109
  0.0051656256852063  0.6469738392252704  0.6485457025897368
  0.6993138324997891  0.6485457025897368  0.6469738392252704
  0.2731242512203608  0.8436217857024679  0.3936731079719543
  0.4895808551052099  0.3936731079719543  0.8436217857024679
  0.8563268920280457  0.7604191448947901  0.9768757487796392
  0.4063782142975320  0.9768757487796392  0.7604191448947901
  0.9907627100929318  0.5092372899070682  0.5092372899070682
  0.7407627100929318  0.2592372899070681  0.2592372899070681
  0.7877613636621839  0.4812611518661238  0.3706871227373843
  0.3602903617343081  0.3706871227373843  0.4812611518661238
  0.8793128772626158  0.8897096382656919  0.4622386363378161
  0.7687388481338763  0.4622386363378161  0.8897096382656919
 
  0.00000000E+00  0.00000000E+00  0.00000000E+00
  0.00000000E+00  0.00000000E+00  0.00000000E+00
  0.00000000E+00  0.00000000E+00  0.00000000E+00
  0.00000000E+00  0.00000000E+00  0.00000000E+00
  0.00000000E+00  0.00000000E+00  0.00000000E+00
  0.00000000E+00  0.00000000E+00  0.00000000E+00
  0.00000000E+00  0.00000000E+00  0.00000000E+00
  0.00000000E+00  0.00000000E+00  0.00000000E+00
  0.00000000E+00  0.00000000E+00  0.00000000E+00
  0.00000000E+00  0.00000000E+00  0.00000000E+00
  0.00000000E+00  0.00000000E+00  0.00000000E+00
  0.00000000E+00  0.00000000E+00  0.00000000E+00
  0.00000000E+00  0.00000000E+00  0.00000000E+00
  0.00000000E+00  0.00000000E+00  0.00000000E+00
