Li56 P28 O98
1.0
4.907295 0.000000 -1.895193
-0.730671 8.419349 -9.115751
0.000000 0.000000 86.585765
Li P O
56 28 98
Selective dynamics
direct
0.744463 0.987971 0.028583 T T T Li+
0.255537 0.012029 0.054751 F F F Li+
0.395677 0.751653 0.055244 T T T Li+
0.604323 0.248347 0.028090 T T T Li+
0.027769 0.791276 0.080295 T T T Li+
0.972231 0.208724 0.003039 T T T Li+
0.056952 0.450796 0.059076 T T T Li+
0.943048 0.549204 0.024258 T T T Li+
0.744463 0.987971 0.111916 F F F Li+
0.255537 0.012029 0.138084 F F F Li+
0.395677 0.751653 0.138577 F F F Li+
0.604323 0.248347 0.111423 F F F Li+
0.027769 0.791276 0.163628 F F F Li+
0.972231 0.208724 0.086372 F F F Li+
0.056952 0.450796 0.142409 F F F Li+
0.943048 0.549204 0.107591 F F F Li+
0.744463 0.987971 0.195249 F F F Li+
0.255537 0.012029 0.221417 F F F Li+
0.395677 0.751653 0.221910 F F F Li+
0.604323 0.248347 0.194756 F F F Li+
0.027769 0.791276 0.246962 F F F Li+
0.972231 0.208724 0.169705 F F F Li+
0.056952 0.450796 0.225742 F F F Li+
0.943048 0.549204 0.190924 F F F Li+
0.744463 0.987971 0.278583 F F F Li+
0.255537 0.012029 0.304750 F F F Li+
0.395677 0.751653 0.305244 F F F Li+
0.604323 0.248347 0.278089 F F F Li+
0.027769 0.791276 0.330295 F F F Li+
0.972231 0.208724 0.253038 F F F Li+
0.056952 0.450796 0.309076 F F F Li+
0.943048 0.549204 0.274257 F F F Li+
0.744463 0.987971 0.361916 F F F Li+
0.255537 0.012029 0.388084 F F F Li+
0.395677 0.751653 0.388577 F F F Li+
0.604323 0.248347 0.361423 F F F Li+
0.027769 0.791276 0.413628 F F F Li+
0.972231 0.208724 0.336372 F F F Li+
0.056952 0.450796 0.392409 F F F Li+
0.943048 0.549204 0.357591 F F F Li+
0.744463 0.987971 0.445250 F F F Li+
0.255537 0.012029 0.471417 F F F Li+
0.395677 0.751653 0.471911 F F F Li+
0.604323 0.248347 0.444756 F F F Li+
0.027769 0.791276 0.496962 F F F Li+
0.972231 0.208724 0.419705 F F F Li+
0.056952 0.450796 0.475743 F F F Li+
0.943048 0.549204 0.440924 F F F Li+
0.744463 0.987971 0.528583 F F F Li+
0.255537 0.012029 0.554751 T T T Li+
0.395677 0.751653 0.555244 T T T Li+
0.604323 0.248347 0.528089 T T T Li+
0.027769 0.791276 0.580295 T T T Li+
0.972231 0.208724 0.503039 T T T Li+
0.056952 0.450796 0.559076 T T T Li+
0.943048 0.549204 0.524258 T T T Li+
0.573990 0.631956 0.076555 T T T P5+
0.426010 0.368044 0.006778 T T T P5+
0.784272 0.845502 0.047188 T T T P5+
0.215728 0.154498 0.036145 T T T P5+
0.573990 0.631956 0.159888 F F F P5+
0.426010 0.368044 0.090112 F F F P5+
0.784272 0.845502 0.130522 F F F P5+
0.215728 0.154498 0.119478 F F F P5+
0.573990 0.631956 0.243221 F F F P5+
0.426010 0.368044 0.173445 F F F P5+
0.784272 0.845502 0.213855 F F F P5+
0.215728 0.154498 0.202812 F F F P5+
0.573990 0.631956 0.326555 F F F P5+
0.426010 0.368044 0.256778 F F F P5+
0.784272 0.845502 0.297188 F F F P5+
0.215728 0.154498 0.286145 F F F P5+
0.573990 0.631956 0.409888 F F F P5+
0.426010 0.368044 0.340112 F F F P5+
0.784272 0.845502 0.380522 F F F P5+
0.215728 0.154498 0.369478 F F F P5+
0.573990 0.631956 0.493222 F F F P5+
0.426010 0.368044 0.423445 F F F P5+
0.784272 0.845502 0.463855 F F F P5+
0.215728 0.154498 0.452812 F F F P5+
0.573990 0.631956 0.576555 T T T P5+
0.426010 0.368044 0.506779 T T T P5+
0.784272 0.845502 0.547188 T T T P5+
0.215728 0.154498 0.536145 T T T P5+
0.519912 0.874340 0.052715 T T T O2-
0.006130 0.790684 0.057080 T T T O2-
0.993870 0.209316 0.026253 T T T O2-
0.882911 0.981976 0.052782 T T T O2-
0.732561 0.376455 0.011092 T T T O2-
0.267439 0.623545 0.072241 T T T O2-
0.314844 0.526190 0.024500 T T T O2-
0.685156 0.473810 0.058833 T T T O2-
0.338222 0.236504 0.002842 T T T O2-
0.661778 0.763496 0.080492 T T T O2-
0.733069 0.683894 0.018459 T T T O2-
0.266931 0.316106 0.064874 T T T O2-
0.117089 0.018024 0.030551 T T T O2-
0.480088 0.125660 0.030618 T T T O2-
0.519912 0.874340 0.136048 F F F O2-
0.006130 0.790684 0.140414 F F F O2-
0.993870 0.209316 0.109586 F F F O2-
0.882911 0.981976 0.136115 F F F O2-
0.732561 0.376455 0.094425 F F F O2-
0.267439 0.623545 0.155575 F F F O2-
0.314844 0.526190 0.107833 F F F O2-
0.685156 0.473810 0.142167 F F F O2-
0.338222 0.236504 0.086175 F F F O2-
0.661778 0.763496 0.163825 F F F O2-
0.733069 0.683894 0.101792 F F F O2-
0.266931 0.316106 0.148207 F F F O2-
0.117089 0.018024 0.113885 F F F O2-
0.480088 0.125660 0.113952 F F F O2-
0.519912 0.874340 0.219382 F F F O2-
0.006130 0.790684 0.223747 F F F O2-
0.993870 0.209316 0.192920 F F F O2-
0.882911 0.981976 0.219449 F F F O2-
0.732561 0.376455 0.177759 F F F O2-
0.267439 0.623545 0.238908 F F F O2-
0.314844 0.526190 0.191167 F F F O2-
0.685156 0.473810 0.225500 F F F O2-
0.338222 0.236504 0.169508 F F F O2-
0.661778 0.763496 0.247158 F F F O2-
0.733069 0.683894 0.185126 F F F O2-
0.266931 0.316106 0.231541 F F F O2-
0.117089 0.018024 0.197218 F F F O2-
0.480088 0.125660 0.197285 F F F O2-
0.519912 0.874340 0.302715 F F F O2-
0.006130 0.790684 0.307080 F F F O2-
0.993870 0.209316 0.276253 F F F O2-
0.882911 0.981976 0.302782 F F F O2-
0.732561 0.376455 0.261092 F F F O2-
0.267439 0.623545 0.322241 F F F O2-
0.314844 0.526190 0.274500 F F F O2-
0.685156 0.473810 0.308833 F F F O2-
0.338222 0.236504 0.252842 F F F O2-
0.661778 0.763496 0.330492 F F F O2-
0.733069 0.683894 0.268459 F F F O2-
0.266931 0.316106 0.314874 F F F O2-
0.117089 0.018024 0.280551 F F F O2-
0.480088 0.125660 0.280618 F F F O2-
0.519912 0.874340 0.386048 F F F O2-
0.006130 0.790684 0.390414 F F F O2-
0.993870 0.209316 0.359586 F F F O2-
0.882911 0.981976 0.386115 F F F O2-
0.732561 0.376455 0.344425 F F F O2-
0.267439 0.623545 0.405575 F F F O2-
0.314844 0.526190 0.357833 F F F O2-
0.685156 0.473810 0.392167 F F F O2-
0.338222 0.236504 0.336175 F F F O2-
0.661778 0.763496 0.413825 F F F O2-
0.733069 0.683894 0.351792 F F F O2-
0.266931 0.316106 0.398207 F F F O2-
0.117089 0.018024 0.363885 F F F O2-
0.480088 0.125660 0.363952 F F F O2-
0.519912 0.874340 0.469382 F F F O2-
0.006130 0.790684 0.473747 F F F O2-
0.993870 0.209316 0.442920 F F F O2-
0.882911 0.981976 0.469449 F F F O2-
0.732561 0.376455 0.427759 F F F O2-
0.267439 0.623545 0.488908 F F F O2-
0.314844 0.526190 0.441167 F F F O2-
0.685156 0.473810 0.475500 F F F O2-
0.338222 0.236504 0.419508 F F F O2-
0.661778 0.763496 0.497158 F F F O2-
0.733069 0.683894 0.435126 F F F O2-
0.266931 0.316106 0.481541 T T T O2-
0.117089 0.018024 0.447218 T T T O2-
0.480088 0.125660 0.447285 F F F O2-
0.519912 0.874340 0.552715 F F F O2-
0.006130 0.790684 0.557080 T T T O2-
0.993870 0.209316 0.526253 T T T O2-
0.882911 0.981976 0.552782 T T T O2-
0.732561 0.376455 0.511092 T T T O2-
0.267439 0.623545 0.572241 T T T O2-
0.314844 0.526190 0.524500 T T T O2-
0.685156 0.473810 0.558833 T T T O2-
0.338222 0.236504 0.502842 T T T O2-
0.661778 0.763496 0.580492 T T T O2-
0.733069 0.683894 0.518459 T T T O2-
0.266931 0.316106 0.564874 T T T O2-
0.117089 0.018024 0.530551 T T T O2-
0.480088 0.125660 0.530618 T T T O2-
