Li71 P24 N1 O94                         
   1.00000000000000     
    14.7212559812870758    0.0026116369108825    0.0012570226303253
     0.0018688617497368   10.5601491681210646   -0.0119852917695523
     0.0010534496763204   -0.0139674399167224   12.3126012550476140
   Li   P    N    O 
    71    24     1    94
Direct
  0.1713033733183227  0.4210451680967727  0.0010367335853733
  0.1717308609311131  0.4220853457135233  0.4989948972638124
  0.1737961669491381  0.9266548341403740  0.0050431559934786
  0.1708836747125760  0.9232058568602876  0.4990609358171275
  0.5018932888476807  0.4222786806504191  0.0002055269405969
  0.5033214134974797  0.4228420904466784  0.4999419144219488
  0.5019692962721033  0.9223018600769050  0.0000879105257628
  0.5017646015877384  0.9223704915553285  0.4995888902077294
  0.8344449258346831  0.4234881175613887 -0.0015094922916141
  0.8356636826374781  0.4225129527319223  0.5002050806618823
  0.8339574767600113  0.9181258035374786  0.0003628713428951
  0.8366342805922655  0.9214920324559132  0.5006250908935672
  0.0034212480886967  0.0672465370114791  0.2690334527034732
  0.0035256542963166  0.0756840651734654  0.7456355627328423
  0.0023160645834668  0.5805998641305428  0.2474913433907109
  0.0037136518080635  0.5768976737988254  0.7483727940809428
  0.3313323497177383  0.0798154519490737  0.2451830356174798
  0.3366935498935905  0.0776992288694386  0.7506310820763435
  0.3383427684847827  0.5785420745999487  0.2509828057969239
  0.3365628957983545  0.5777760360017224  0.7503075202581342
  0.6677990803917545  0.0781590157105608  0.2504104762849738
  0.6684822633900506  0.0774555040112309  0.7497919460904667
  0.6687447148578330  0.5775137191737220  0.2500078368265729
  0.6690411724976154  0.5777685559747141  0.7498195747863119
  0.1704618367746072  0.1635823927658207  0.6260211819098049
  0.1714461652886839  0.6622697605408308  0.1288461874918502
  0.1700407771577293  0.6631918428632553  0.6262889719585795
  0.5012086951778693  0.1627037782157370  0.1258077407545356
  0.5019709695989051  0.1630575266482898  0.6262143649483486
  0.5024454787796234  0.6636098693525184  0.1262711528438407
  0.5025629924692816  0.6635048384858039  0.6265078941064682
  0.8326123889732128  0.1626190082316266  0.1281424068766648
  0.8356986456786676  0.1634182270660544  0.6265807145545370
  0.8355315791854064  0.6627493957256869  0.1261816753435370
  0.8362864282643089  0.6632216518503069  0.6261609421786215
 -0.0050357281781291  0.3555417528153242  0.1229124407237221
  0.0036335757025851  0.3367443287261203  0.6228347315936669
  0.0041608528805181  0.8352576726431417  0.1251441040540187
  0.0038636840174829  0.8346521645721034  0.6238456269711700
  0.3343625158030135  0.3327706933827538  0.1227445040744464
  0.3365006966045143  0.3366066325130881  0.6234048187252688
  0.3361844227731792  0.8376214558583649  0.1233352724551569
  0.3357711240895216  0.8371298128504751  0.6234747469392465
  0.6683650738032653  0.3367802673769590  0.1229384314615706
  0.6690249925916051  0.3369531099615334  0.6234469971015630
  0.6687305805632917  0.8373804770678845  0.1243601945058346
  0.6692324807862844  0.8369588390503218  0.6237180727954086
 -0.0005014447716740  0.3300744265466277  0.3764988416706498
  0.0027995558557078  0.3401019376539852  0.8736258867545189
  0.0050529548594693  0.8337852340331495  0.3772599014323782
  0.0035375088314145  0.8326644165988540  0.8732286916408610
  0.3396005162929420  0.3373011964053491  0.3769340879121220
  0.3368968035196500  0.3354720382249165  0.8765481401873236
  0.3345931644630926  0.8369695298238620  0.3757461722459459
  0.3362170583907526  0.8372055713759050  0.8768705889247672
  0.6688119240426088  0.3364806084091719  0.3764644895933308
  0.6684649049348126  0.3373181628540418  0.8759305132456416
  0.6692953282820953  0.8373902720349783  0.3759055841181831
  0.6686081492397845  0.8367387283835963  0.8759584994251710
  0.1716994300976507  0.1668238891347438  0.3689406764691155
  0.1734231066025754  0.1639434782196902  0.8752801936884884
  0.1699418027451401  0.6626216741555070  0.3761734348251225
  0.1705377238071261  0.6635489763362195  0.8741277215778118
  0.5018887291083771  0.1627552314254989  0.3733359013834941
  0.5022749896448587  0.1631866661209400  0.8737535657309004
  0.5028637647371705  0.6638899353360689  0.3739283109157466
  0.5021292229679033  0.6634135072263155  0.8737817094137370
  0.8349360622821733  0.1623739881965156  0.3751306219109973
  0.8334092383636568  0.1658404973556212  0.8712438131882305
  0.8362718182364819  0.6629258673147692  0.3735913770542214
  0.8359171545509969  0.6632112865250535  0.8734163225577442
  0.1717762559504432  0.4163620495714077  0.2519494045064873
  0.1674086550662068  0.4126618085700989  0.7493243377423610
  0.1677103276468913  0.9113965383779653  0.2523578299680119
  0.1670926635408608  0.9122707951883271  0.7501179889728934
  0.5007003644551827  0.4118556349481033  0.2493647378964957
  0.5004585001826385  0.4122676619006582  0.7499199017997372
  0.5000546925229845  0.9125788003292215  0.2500046225695740
  0.5003981736788513  0.9120638504634979  0.7497213170904500
  0.8322881788664771  0.4113086070029187  0.2501133048420163
  0.8337820012513389  0.4125940134952541  0.7495441680364727
  0.8350501305233506  0.9123221688080831  0.2496400880060589
  0.8342022589585986  0.9124400818892598  0.7506715032540223
 -0.0011408869483958  0.0851440904190534 -0.0066362359233725
  0.0003859285357273  0.0864892010423810  0.5026976058901977
  0.0002482088899481  0.5883997722353268 -0.0013796683777355
  0.0000623028943367  0.5859163060347770  0.4988400809103388
  0.3334668112598673  0.0871109860170433 -0.0015251196737318
  0.3333217203591474  0.0882608229564222  0.4995792742186382
  0.3338139319738092  0.5877933510991071  0.0000199862266990
  0.3346448252205919  0.5883000805373120  0.5011187709181025
  0.6667846827126954  0.0875974595859531  0.0000169560164742
  0.6670356315834489  0.0874917658306708  0.5001962393753219
  0.6669329285090773  0.5883402833643951 -0.0000627369507742
  0.6673853295838815  0.5883476414907455  0.4999781042526490
  0.0617264193867772  0.4067384415743971  0.2495006677501226
  0.0361290589562283  0.1557285831801374  0.3994860801765446
  0.0356428356967875  0.1584218978565522  0.8935566634057299
  0.0348944526886732  0.6551039796714880  0.3950575376161349
  0.0352641464734154  0.6560347971368760  0.8942822333862862
  0.3694537002965155  0.1570734160890067  0.3962721593230628
  0.3708938567008911  0.1564800162379437  0.8948538678571482
  0.3701258854386851  0.6577893127095402  0.3976897810084963
  0.3690150534332937  0.6567288018950065  0.8959256098497137
  0.7023856468099593  0.1565018563104779  0.3962520274152571
  0.7023262504952404  0.1570817408760313  0.8963547715770729
  0.7028023911962207  0.6573830034267185  0.3960819540029084
  0.7025909372835168  0.6573468177547450  0.8961729044117335
  0.2016869496762491  0.0484608537975579  0.2567953949706666
  0.2001610318303092  0.0524135027502599  0.7494282964562742
  0.2052828218460167  0.5572900166769578  0.2552781521396894
  0.2006575957391725  0.5528172864069919  0.7498255409316611
  0.5343933169123753  0.0524126272353568  0.2498909956680990
  0.5343865663034881  0.0520691913311057  0.7497758703734956
  0.5343561084787510  0.5521379888426389  0.2498843205632230
  0.5343972041354073  0.5523059156817997  0.7499270097635079
  0.8704876729846016  0.0522932040430225  0.2495677318335235
  0.8682327013509490  0.0525450314605652  0.7510849795622928
  0.8664082568732455  0.5510253539927196  0.2492216457995683
  0.8677534611211041  0.5524637329697912  0.7499085075987834
  0.0613866694743544  0.4097877685951707  0.7488212434436788
  0.0608887838695012  0.9085238130006416  0.2503074179719934
  0.0608842635158028  0.9092801418240121  0.7503422138632848
  0.3951616288657520  0.4088677436384792  0.2489365148073026
  0.3947579194782922  0.4094983321235727  0.7499635340706160
  0.3945008469218798  0.9097867735393690  0.2501245549799834
  0.3947129649714566  0.9091169426226993  0.7496794942721023
  0.7266896175633925  0.4089077732985790  0.2493893009759250
  0.7280682760246535  0.4095778348991879  0.7498573952908705
  0.7293921043424130  0.9115401187220825  0.2498280458089245
  0.7285292210088030  0.9098684913286156  0.7506061585618664
  0.2292553519683686  0.0873833504292292 -0.0053337778755979
  0.2275852764562561  0.0920087878088639  0.4996066275739431
  0.2280318976228337  0.5913754445073169  0.0000443365708959
  0.2288812542096981  0.5903087406800753  0.5016154698511012
  0.5613518941129741  0.0901643044654503 -0.0001706951438630
  0.5613692374228533  0.0902282121619555  0.5000385652308458
  0.5612933795502376  0.5909245650402271 -0.0001546770950190
  0.5617048003765910  0.5912356535281010  0.5000385925690711
  0.8934690597437563  0.0918426453108965  0.0000052787864899
  0.8944932053783529  0.0898537565315031  0.5012303579979936
  0.8943651948400486  0.5908423184827832 -0.0003704559319592
  0.8942062156716336  0.5895958053013174  0.4997188134981390
  0.2030817714357047  0.3540474736875894  0.1445888991243767
  0.2024411076381968  0.3435510035670385  0.6452170834162921
  0.2022541758093719  0.8419397836588487  0.1478445906228806
  0.2016121257428997  0.8429624804007387  0.6457893905009211
  0.5363954661726313  0.3428023890630163  0.1454408336102192
  0.5359446690276787  0.3429076141197851  0.6459771202713768
  0.5359119589046258  0.8431127753279566  0.1461945021283949
  0.5359835833140401  0.8430746427102551  0.6456594175319949
  0.8673120202399118  0.3410405348712857  0.1455955439968524
  0.8692395794017204  0.3431097936001891  0.6458002100068482
  0.8697271640828748  0.8429781830929548  0.1453256013627848
  0.8698589052459235  0.8429916345937375  0.6470302648549723
  0.0352324757204727  0.1559726856877961  0.6064326885689875
  0.0358638839514822  0.6578032583169968  0.1020186981199505
  0.0357635329729467  0.6547962649113639  0.6028544581989189
  0.3698981929103388  0.1564096758620109  0.1020127747552663
  0.3687776080715774  0.1567789376413068  0.6041047816039283
  0.3695827819946552  0.6571100227754185  0.1037154474242203
  0.3694407677042244  0.6575950796501056  0.6053848809576208
  0.7021664331955730  0.1566001691093335  0.1041611023946311
  0.7024726908049824  0.1569270278453322  0.6041231884454813
  0.7023991042266932  0.6574893933866507  0.1039844023992756
  0.7029041722371557  0.6573880725051373  0.6040132201363256
  0.0332366229214144  0.4476839170398182 -0.0016256703853629
  0.0336622192004373  0.4457091391418941  0.4977288922233535
  0.0344268469589208  0.9473000811320150 -0.0003630527641117
  0.0337340687839872  0.9464655199293452  0.5015417385175266
  0.3673937683415013  0.4476571958185916 -0.0003484196785805
  0.3691332961519511  0.4485643930702101  0.5010567426223800
  0.3692421985916899  0.9470504644481961 -0.0005879516951329
  0.3665411605220387  0.9477635358288422  0.4997839419262831
  0.7008859497277945  0.4482478946890387 -0.0002925105152734
  0.7010339882082390  0.4481437255722363  0.4998571512130515
  0.7011813295946107  0.9477041385616057 -0.0000962890533187
  0.7014118515321768  0.9476373483886988  0.5001160526765882
  0.2088561125032974  0.3467827465955587  0.3550709488090634
  0.2023536645324975  0.3435917178713194  0.8530495695663275
  0.1998362348236291  0.8380892142798939  0.3560474552893813
  0.2019219509789931  0.8430720894203810  0.8538172797531909
  0.5358950761517877  0.3428723959551717  0.3534744976003876
  0.5358981562768734  0.3433663523148205  0.8537844627584341
  0.5359853784614608  0.8436180849516773  0.3537693485721009
  0.5359781248703819  0.8428630176537899  0.8533986616535635
  0.8667276414304962  0.3416291561546337  0.3538566210332474
  0.8690843582828148  0.3434013356970542  0.8535653061147978
  0.8703744384907863  0.8432279689394949  0.3533009666435033
  0.8696522375218644  0.8437646327679992  0.8548725153569731
 
  0.00000000E+00  0.00000000E+00  0.00000000E+00
  0.00000000E+00  0.00000000E+00  0.00000000E+00
  0.00000000E+00  0.00000000E+00  0.00000000E+00
  0.00000000E+00  0.00000000E+00  0.00000000E+00
  0.00000000E+00  0.00000000E+00  0.00000000E+00
  0.00000000E+00  0.00000000E+00  0.00000000E+00
  0.00000000E+00  0.00000000E+00  0.00000000E+00
  0.00000000E+00  0.00000000E+00  0.00000000E+00
  0.00000000E+00  0.00000000E+00  0.00000000E+00
  0.00000000E+00  0.00000000E+00  0.00000000E+00
  0.00000000E+00  0.00000000E+00  0.00000000E+00
  0.00000000E+00  0.00000000E+00  0.00000000E+00
  0.00000000E+00  0.00000000E+00  0.00000000E+00
  0.00000000E+00  0.00000000E+00  0.00000000E+00
  0.00000000E+00  0.00000000E+00  0.00000000E+00
  0.00000000E+00  0.00000000E+00  0.00000000E+00
  0.00000000E+00  0.00000000E+00  0.00000000E+00
  0.00000000E+00  0.00000000E+00  0.00000000E+00
  0.00000000E+00  0.00000000E+00  0.00000000E+00
  0.00000000E+00  0.00000000E+00  0.00000000E+00
  0.00000000E+00  0.00000000E+00  0.00000000E+00
  0.00000000E+00  0.00000000E+00  0.00000000E+00
  0.00000000E+00  0.00000000E+00  0.00000000E+00
  0.00000000E+00  0.00000000E+00  0.00000000E+00
  0.00000000E+00  0.00000000E+00  0.00000000E+00
  0.00000000E+00  0.00000000E+00  0.00000000E+00
  0.00000000E+00  0.00000000E+00  0.00000000E+00
  0.00000000E+00  0.00000000E+00  0.00000000E+00
  0.00000000E+00  0.00000000E+00  0.00000000E+00
  0.00000000E+00  0.00000000E+00  0.00000000E+00
  0.00000000E+00  0.00000000E+00  0.00000000E+00
  0.00000000E+00  0.00000000E+00  0.00000000E+00
  0.00000000E+00  0.00000000E+00  0.00000000E+00
  0.00000000E+00  0.00000000E+00  0.00000000E+00
  0.00000000E+00  0.00000000E+00  0.00000000E+00
  0.00000000E+00  0.00000000E+00  0.00000000E+00
  0.00000000E+00  0.00000000E+00  0.00000000E+00
  0.00000000E+00  0.00000000E+00  0.00000000E+00
  0.00000000E+00  0.00000000E+00  0.00000000E+00
  0.00000000E+00  0.00000000E+00  0.00000000E+00
  0.00000000E+00  0.00000000E+00  0.00000000E+00
  0.00000000E+00  0.00000000E+00  0.00000000E+00
  0.00000000E+00  0.00000000E+00  0.00000000E+00
  0.00000000E+00  0.00000000E+00  0.00000000E+00
  0.00000000E+00  0.00000000E+00  0.00000000E+00
  0.00000000E+00  0.00000000E+00  0.00000000E+00
  0.00000000E+00  0.00000000E+00  0.00000000E+00
  0.00000000E+00  0.00000000E+00  0.00000000E+00
  0.00000000E+00  0.00000000E+00  0.00000000E+00
  0.00000000E+00  0.00000000E+00  0.00000000E+00
  0.00000000E+00  0.00000000E+00  0.00000000E+00
  0.00000000E+00  0.00000000E+00  0.00000000E+00
  0.00000000E+00  0.00000000E+00  0.00000000E+00
  0.00000000E+00  0.00000000E+00  0.00000000E+00
  0.00000000E+00  0.00000000E+00  0.00000000E+00
  0.00000000E+00  0.00000000E+00  0.00000000E+00
  0.00000000E+00  0.00000000E+00  0.00000000E+00
  0.00000000E+00  0.00000000E+00  0.00000000E+00
  0.00000000E+00  0.00000000E+00  0.00000000E+00
  0.00000000E+00  0.00000000E+00  0.00000000E+00
  0.00000000E+00  0.00000000E+00  0.00000000E+00
  0.00000000E+00  0.00000000E+00  0.00000000E+00
  0.00000000E+00  0.00000000E+00  0.00000000E+00
  0.00000000E+00  0.00000000E+00  0.00000000E+00
  0.00000000E+00  0.00000000E+00  0.00000000E+00
  0.00000000E+00  0.00000000E+00  0.00000000E+00
  0.00000000E+00  0.00000000E+00  0.00000000E+00
  0.00000000E+00  0.00000000E+00  0.00000000E+00
  0.00000000E+00  0.00000000E+00  0.00000000E+00
  0.00000000E+00  0.00000000E+00  0.00000000E+00
  0.00000000E+00  0.00000000E+00  0.00000000E+00
  0.00000000E+00  0.00000000E+00  0.00000000E+00
  0.00000000E+00  0.00000000E+00  0.00000000E+00
  0.00000000E+00  0.00000000E+00  0.00000000E+00
  0.00000000E+00  0.00000000E+00  0.00000000E+00
  0.00000000E+00  0.00000000E+00  0.00000000E+00
  0.00000000E+00  0.00000000E+00  0.00000000E+00
  0.00000000E+00  0.00000000E+00  0.00000000E+00
  0.00000000E+00  0.00000000E+00  0.00000000E+00
  0.00000000E+00  0.00000000E+00  0.00000000E+00
  0.00000000E+00  0.00000000E+00  0.00000000E+00
  0.00000000E+00  0.00000000E+00  0.00000000E+00
  0.00000000E+00  0.00000000E+00  0.00000000E+00
  0.00000000E+00  0.00000000E+00  0.00000000E+00
  0.00000000E+00  0.00000000E+00  0.00000000E+00
  0.00000000E+00  0.00000000E+00  0.00000000E+00
  0.00000000E+00  0.00000000E+00  0.00000000E+00
  0.00000000E+00  0.00000000E+00  0.00000000E+00
  0.00000000E+00  0.00000000E+00  0.00000000E+00
  0.00000000E+00  0.00000000E+00  0.00000000E+00
  0.00000000E+00  0.00000000E+00  0.00000000E+00
  0.00000000E+00  0.00000000E+00  0.00000000E+00
  0.00000000E+00  0.00000000E+00  0.00000000E+00
  0.00000000E+00  0.00000000E+00  0.00000000E+00
  0.00000000E+00  0.00000000E+00  0.00000000E+00
  0.00000000E+00  0.00000000E+00  0.00000000E+00
  0.00000000E+00  0.00000000E+00  0.00000000E+00
  0.00000000E+00  0.00000000E+00  0.00000000E+00
  0.00000000E+00  0.00000000E+00  0.00000000E+00
  0.00000000E+00  0.00000000E+00  0.00000000E+00
  0.00000000E+00  0.00000000E+00  0.00000000E+00
  0.00000000E+00  0.00000000E+00  0.00000000E+00
  0.00000000E+00  0.00000000E+00  0.00000000E+00
  0.00000000E+00  0.00000000E+00  0.00000000E+00
  0.00000000E+00  0.00000000E+00  0.00000000E+00
  0.00000000E+00  0.00000000E+00  0.00000000E+00
  0.00000000E+00  0.00000000E+00  0.00000000E+00
  0.00000000E+00  0.00000000E+00  0.00000000E+00
  0.00000000E+00  0.00000000E+00  0.00000000E+00
  0.00000000E+00  0.00000000E+00  0.00000000E+00
  0.00000000E+00  0.00000000E+00  0.00000000E+00
  0.00000000E+00  0.00000000E+00  0.00000000E+00
  0.00000000E+00  0.00000000E+00  0.00000000E+00
  0.00000000E+00  0.00000000E+00  0.00000000E+00
  0.00000000E+00  0.00000000E+00  0.00000000E+00
  0.00000000E+00  0.00000000E+00  0.00000000E+00
  0.00000000E+00  0.00000000E+00  0.00000000E+00
  0.00000000E+00  0.00000000E+00  0.00000000E+00
  0.00000000E+00  0.00000000E+00  0.00000000E+00
  0.00000000E+00  0.00000000E+00  0.00000000E+00
  0.00000000E+00  0.00000000E+00  0.00000000E+00
  0.00000000E+00  0.00000000E+00  0.00000000E+00
  0.00000000E+00  0.00000000E+00  0.00000000E+00
  0.00000000E+00  0.00000000E+00  0.00000000E+00
  0.00000000E+00  0.00000000E+00  0.00000000E+00
  0.00000000E+00  0.00000000E+00  0.00000000E+00
  0.00000000E+00  0.00000000E+00  0.00000000E+00
  0.00000000E+00  0.00000000E+00  0.00000000E+00
  0.00000000E+00  0.00000000E+00  0.00000000E+00
  0.00000000E+00  0.00000000E+00  0.00000000E+00
  0.00000000E+00  0.00000000E+00  0.00000000E+00
  0.00000000E+00  0.00000000E+00  0.00000000E+00
  0.00000000E+00  0.00000000E+00  0.00000000E+00
  0.00000000E+00  0.00000000E+00  0.00000000E+00
  0.00000000E+00  0.00000000E+00  0.00000000E+00
  0.00000000E+00  0.00000000E+00  0.00000000E+00
  0.00000000E+00  0.00000000E+00  0.00000000E+00
  0.00000000E+00  0.00000000E+00  0.00000000E+00
  0.00000000E+00  0.00000000E+00  0.00000000E+00
  0.00000000E+00  0.00000000E+00  0.00000000E+00
  0.00000000E+00  0.00000000E+00  0.00000000E+00
  0.00000000E+00  0.00000000E+00  0.00000000E+00
  0.00000000E+00  0.00000000E+00  0.00000000E+00
  0.00000000E+00  0.00000000E+00  0.00000000E+00
  0.00000000E+00  0.00000000E+00  0.00000000E+00
  0.00000000E+00  0.00000000E+00  0.00000000E+00
  0.00000000E+00  0.00000000E+00  0.00000000E+00
  0.00000000E+00  0.00000000E+00  0.00000000E+00
  0.00000000E+00  0.00000000E+00  0.00000000E+00
  0.00000000E+00  0.00000000E+00  0.00000000E+00
  0.00000000E+00  0.00000000E+00  0.00000000E+00
  0.00000000E+00  0.00000000E+00  0.00000000E+00
  0.00000000E+00  0.00000000E+00  0.00000000E+00
  0.00000000E+00  0.00000000E+00  0.00000000E+00
  0.00000000E+00  0.00000000E+00  0.00000000E+00
  0.00000000E+00  0.00000000E+00  0.00000000E+00
  0.00000000E+00  0.00000000E+00  0.00000000E+00
  0.00000000E+00  0.00000000E+00  0.00000000E+00
  0.00000000E+00  0.00000000E+00  0.00000000E+00
  0.00000000E+00  0.00000000E+00  0.00000000E+00
  0.00000000E+00  0.00000000E+00  0.00000000E+00
  0.00000000E+00  0.00000000E+00  0.00000000E+00
  0.00000000E+00  0.00000000E+00  0.00000000E+00
  0.00000000E+00  0.00000000E+00  0.00000000E+00
  0.00000000E+00  0.00000000E+00  0.00000000E+00
  0.00000000E+00  0.00000000E+00  0.00000000E+00
  0.00000000E+00  0.00000000E+00  0.00000000E+00
  0.00000000E+00  0.00000000E+00  0.00000000E+00
  0.00000000E+00  0.00000000E+00  0.00000000E+00
  0.00000000E+00  0.00000000E+00  0.00000000E+00
  0.00000000E+00  0.00000000E+00  0.00000000E+00
  0.00000000E+00  0.00000000E+00  0.00000000E+00
  0.00000000E+00  0.00000000E+00  0.00000000E+00
  0.00000000E+00  0.00000000E+00  0.00000000E+00
  0.00000000E+00  0.00000000E+00  0.00000000E+00
  0.00000000E+00  0.00000000E+00  0.00000000E+00
  0.00000000E+00  0.00000000E+00  0.00000000E+00
  0.00000000E+00  0.00000000E+00  0.00000000E+00
  0.00000000E+00  0.00000000E+00  0.00000000E+00
  0.00000000E+00  0.00000000E+00  0.00000000E+00
  0.00000000E+00  0.00000000E+00  0.00000000E+00
  0.00000000E+00  0.00000000E+00  0.00000000E+00
  0.00000000E+00  0.00000000E+00  0.00000000E+00
  0.00000000E+00  0.00000000E+00  0.00000000E+00
  0.00000000E+00  0.00000000E+00  0.00000000E+00
  0.00000000E+00  0.00000000E+00  0.00000000E+00
  0.00000000E+00  0.00000000E+00  0.00000000E+00
  0.00000000E+00  0.00000000E+00  0.00000000E+00
  0.00000000E+00  0.00000000E+00  0.00000000E+00
  0.00000000E+00  0.00000000E+00  0.00000000E+00
