Li73 P24 N1 O95                         
   1.00000000000000     
    14.6920513050629413   -0.0081177122739617   -0.0096922317863711
    -0.0058295709399873   10.5871560301937713    0.0039002823137666
    -0.0081224100860677    0.0045290107614686   12.3371784039952868
   Li   P    N    O 
    73    24     1    95
Direct
  0.1548637758744288  0.4172669917441049 -0.0104507355597951
  0.1684923912398401  0.4234500659084964  0.5038700604859984
  0.1675539465390302  0.9211524833739981 -0.0005949418589683
  0.1683663590516426  0.9217550539844549  0.5008936088543795
  0.5093246148731591  0.4236371324590058 -0.0034170469667479
  0.5035159940165826  0.4242057817444061  0.5014710313933500
  0.5045640817187080  0.9208012992555675 -0.0014813674463894
  0.5036425828612852  0.9233860573011892  0.5003208382725726
  0.8655515410429017  0.4246541268295922 -0.0005102283735908
  0.8353717625203382  0.4242532474635264  0.5002248071618466
  0.8380872498702023  0.9213062929036039 -0.0003443045983006
  0.8364438683273980  0.9233582834837636  0.5000998285199423
  0.0023443782501912  0.0767282720447111  0.2494556150886004
  0.0026951668036225  0.0770279355808473  0.7507498449438148
  0.0006287175845416  0.5756465085496080  0.2432245620367915
  0.0032428401049005  0.5753358644713839  0.7576710854622933
  0.3366057372108576  0.0734927473406789  0.2513345193290742
  0.3366322211398411  0.0775541834083881  0.7492905522650574
  0.3563621556388187  0.5960701342335031  0.2628323195409814
  0.3355944388874288  0.5755084278582911  0.7481324804711679
  0.6699810568115988  0.0778962450087378  0.2503329511043929
  0.6706673615668390  0.0788707000147266  0.7494255225421207
  0.6712199531649100  0.5785926332732942  0.2493242340210670
  0.6717812119231317  0.5774432669906153  0.7500447854820652
  0.1696499087062628  0.1613640072767427  0.1265042460800287
  0.1693089588213824  0.1630599821787430  0.6266879314772700
  0.1607021031496068  0.6697938554418980  0.1237382667486063
  0.1683728799439197  0.6634805523885372  0.6278308223249727
  0.5075987252962212  0.1582343930479189  0.1261440886661677
  0.5032407512539072  0.1634589217586186  0.6261190550515559
  0.5077035262985479  0.6658183579171051  0.1242373972950849
  0.5036298819440647  0.6640282301359725  0.6276953177515235
  0.8356869888295467  0.1630773427150732  0.1261971919678424
  0.8361173392189221  0.1648116896653571  0.6256411936582846
  0.8359520101819272  0.6648376443371882  0.1252718585480070
  0.8377455178893440  0.6637991345570341  0.6268521519180136
  0.0019979680016589  0.3346602264446309  0.1231680538302521
  0.0013420607221143  0.3364904685104919  0.6231752617380737
  0.0005174346314055  0.8354297659183073  0.1228668334804704
  0.0023541645596104  0.8360919180575784  0.6245013165606816
  0.3578562091596135  0.3169408639708383  0.1195778765489042
  0.3372651950278035  0.3367350068095746  0.6238424584074159
  0.3358681181658309  0.8372935561004893  0.1227124620964606
  0.3360872183831463  0.8376628424988911  0.6240034931352177
  0.6730387025303345  0.3377716628977724  0.1215511696930470
  0.6695379768328994  0.3371157153590124  0.6232049720963893
  0.6714247024177845  0.8374485733012696  0.1233001726662250
  0.6702709504334472  0.8375048416126462  0.6230930017581248
 -0.0005621369775128  0.3356739326161146  0.3792901093568776
  0.0023689964804188  0.3353032699019725  0.8761445599549204
  0.0019905710855817  0.8356176695001593  0.3757836066769309
  0.0017213582265538  0.8348952610507171  0.8774758901846216
  0.3359071113126513  0.3380478449698003  0.3781427545169355
  0.3359041101524278  0.3342076059166853  0.8749611093488949
  0.3357316559319408  0.8398076164819901  0.3789530686348314
  0.3358527760854460  0.8376326603131964  0.8723791332590426
  0.6685705675120539  0.3375204808766729  0.3766431629871947
  0.6740815726289239  0.3376584605028583  0.8768890990001663
  0.6705464986346764  0.8378764150710897  0.3767892123507567
  0.6715109096645333  0.8374449344877596  0.8756430309896324
  0.1685498939695740  0.1607597969141500  0.3754072342012336
  0.1690647965176173  0.1615331305298169  0.8739371674788707
  0.1683548409141422  0.6634942319901299  0.3742203015193948
  0.1652354652351501  0.6619660724191688  0.8750715429821668
  0.5020631919498992  0.1631080645375139  0.3738907932327165
  0.5047288564838963  0.1628474989366392  0.8727254492582370
  0.5072376839364959  0.6669276570343965  0.3774875045988576
  0.5078982822647676  0.6647249770982515  0.8702610886988167
  0.8352843130598099  0.1644072889085194  0.3740119743281136
  0.8369426814622557  0.1632018649364076  0.8737157453357679
  0.8363373194068116  0.6636436059667999  0.3731763131622283
  0.8368087512309894  0.6649025548257025  0.8734792498907503
  0.2750104545744002  0.4888832434422611  0.1360043628697677
  0.1653354202070343  0.4076121145766966  0.2570357082507528
  0.1675127748181733  0.4106376637739469  0.7489716562442735
  0.1671342979297924  0.9116094193459773  0.2504354608669326
  0.1671448332194691  0.9115937817909404  0.7502392311501846
  0.4974835237478105  0.4147087205484184  0.2489011395678613
  0.5012899726919144  0.4118866291847259  0.7499062228612022
  0.5008477855075426  0.9115723368289855  0.2503043489567134
  0.5011569290596211  0.9131057161472313  0.7490177395691475
  0.8313806669541138  0.4116777778137728  0.2515874758226205
  0.8330785008012281  0.4118367528710914  0.7479925962175578
  0.8326307658330424  0.9136920787676922  0.2508313366520278
  0.8332024952531376  0.9140423393961740  0.7488719790146888
  0.0007854905489425  0.0868016863723294  0.0003269441547397
 -0.0001202350137052  0.0873094782375808  0.4999530190928150
 -0.0009848004490904  0.5851884003253957  0.0003501250364312
  0.0000611681789623  0.5880021847632839  0.4998873428429427
  0.3351000129443688  0.0824562001243577 -0.0009566155936814
  0.3335579918299800  0.0882201896355060  0.5001732578709132
  0.3382788322729968  0.5903789212932963 -0.0051829427634024
  0.3344853487220127  0.5896931990580675  0.5031155027376205
  0.6673580316487547  0.0870854107975431 -0.0006167307321599
  0.6662347390330888  0.0887732930754336  0.4995832739981350
  0.6669762623451908  0.5881087975834142 -0.0006927438253422
  0.6669972680788845  0.5886368986079120  0.5003970600009255
  0.0249239772519317  0.4416918155826851  0.0004361069728003
  0.0351700439181949  0.1561896545399350  0.3960633980720040
  0.0364724490252870  0.1537792908742598  0.8959495615665599
  0.0355525170786642  0.6559013381049026  0.3954839988207419
  0.0358090822902129  0.6620761728938358  0.8973590694923397
  0.3681473422763018  0.1574418967393653  0.3958960310953237
  0.3704396539055782  0.1551573755215299  0.8972877713840033
  0.3722923719589419  0.6624442490527189  0.4021664415166796
  0.3716329646702541  0.6577611844202564  0.8919403336395442
  0.7005678025938537  0.1581151786467836  0.3955537530295513
  0.7025371953540895  0.1564798468011827  0.8960855360470182
  0.7010110763547109  0.6575388085181499  0.3959775933034587
  0.7015506438223517  0.6577678530028461  0.8955925405626529
  0.2017121528913015  0.0511679494717201  0.2507965735696527
  0.2017838114009574  0.0511984639973642  0.7504521576149836
  0.2023076050294782  0.5479200563487928  0.2504602763174459
  0.2012235580059082  0.5507848033049472  0.7509535311152848
  0.5332080723604515  0.0519377671401646  0.2508211466525687
  0.5347558117913381  0.0528233209053618  0.7489616469575751
  0.5305098432986012  0.5546601701741460  0.2498596781895120
  0.5352603958507589  0.5515019482784105  0.7494126454014682
  0.8663540522074448  0.0534597609806328  0.2513484711941324
  0.8668724773375557  0.0538364777667704  0.7484606610282111
  0.8649881574703749  0.5514620411744966  0.2503659566930612
  0.8671236433291901  0.5514313534416815  0.7493382090165561
  0.0607587243178085  0.4051930545324430  0.2545283320396983
  0.0620276639632390  0.4067823972102202  0.7471004806607005
  0.0614012294501373  0.9090880054193449  0.2502074177991225
  0.0613620212194792  0.9095239173877415  0.7500658290545776
  0.3900687740002552  0.4156764881103511  0.2464380558061244
  0.3951035893077153  0.4093228282628548  0.7510114796560374
  0.3946834487382702  0.9057156998095242  0.2503409133624154
  0.3950929377884664  0.9105542550194514  0.7489086601817438
  0.7249815691076847  0.4097089396875238  0.2510588460224844
  0.7268608872351832  0.4100495133310615  0.7479255664717347
  0.7264909531015618  0.9110132442813712  0.2508752547007058
  0.7270498230881292  0.9112845809604359  0.7485424570590076
  0.2293794193219788  0.0883791861441711  0.0007175520269076
  0.2276658902145975  0.0892534655080840  0.5006400166149044
  0.2318858260929532  0.5873517482630534  0.0032329954087472
  0.2287193421702438  0.5923918212948848  0.5003228905339316
  0.5611399563917592  0.0885981179077582 -0.0014441079294006
  0.5600988344784628  0.0912741908300197  0.4997168873309358
  0.5602498297418806  0.5926284018732711 -0.0015135593429790
  0.5608292821287053  0.5915718588374373  0.5015732553880703
  0.8946986742738975  0.0909550428386501  0.0005776951626141
  0.8939126758566185  0.0909199925177123  0.4998488841054984
  0.8917251167531077  0.6057252242254840 -0.0003672095081609
  0.8940489204613615  0.5915981054246994  0.4995872423907291
  0.2066025933602490  0.3408888062037949  0.1537661834646726
  0.2043604944211765  0.3431349190338376  0.6451732007661648
  0.2031117329046214  0.8427265554638167  0.1467841479695724
  0.2024818711350097  0.8428778320357224  0.6463014654494100
  0.5305605295287722  0.3439163432104073  0.1453102871222771
  0.5351521342204111  0.3429935437781370  0.6456461536624877
  0.5364185040016285  0.8440027340082586  0.1462843380611785
  0.5359603208799905  0.8437221570917326  0.6453993621323896
  0.8665640047455545  0.3398059794018440  0.1502953813729807
  0.8675170588191287  0.3444321859287465  0.6429409030190300
  0.8672130505358896  0.8454370792186923  0.1471344171980940
  0.8683038510304151  0.8446115042922054  0.6453025481112427
  0.0370009597848465  0.1538638910117547  0.1046322201259157
  0.0356358001004252  0.1563293740006633  0.6035063737056454
  0.0337133194790259  0.6619242757120194  0.1048942516470589
  0.0356042737247431  0.6570646199776198  0.6034814197802385
  0.3731284445595706  0.1459205056075644  0.1043713056242350
  0.3691024969926184  0.1577076080501930  0.6034919523241843
  0.3715390164791964  0.6557142107935363  0.1020496879672182
  0.3688194438087743  0.6567385455892735  0.6078728086361698
  0.7005944248216226  0.1565484822185963  0.1039172010018672
  0.7015821866536873  0.1579586145001871  0.6030291334469540
  0.7003323293612662  0.6575552703261067  0.1039026269604219
  0.7030674755419721  0.6576509739095544  0.6035129555921275
  0.0334927872381695  0.4480472524385325  0.5004154425245152
  0.0333958769314496  0.9465555623063366  0.0004292792307571
  0.0333405842477263  0.9473857965704844  0.4999046594955643
  0.3694088493419723  0.4486724034182799  0.0011996988475352
  0.3685735663299096  0.4503264585258280  0.5003357917518195
  0.3677447773781409  0.9425439222946234 -0.0030555142421331
  0.3682576736774983  0.9489611069860120  0.5002124545422237
  0.6981027628000850  0.4482376524007700 -0.0001341196778689
  0.6993718364918138  0.4485164721365829  0.4996801708233960
  0.7015026380893784  0.9477500637869004 -0.0001042005577571
  0.7000634703414169  0.9492335350680426  0.4995757267225086
  0.2013924328641347  0.3422924467654829  0.3611785676546011
  0.2035848108923413  0.3405820012580562  0.8521346406120597
  0.2027176875159245  0.8421802047700002  0.3541289606630453
  0.2029678749332200  0.8418762311014282  0.8536571967243844
  0.5306782247600551  0.3451204607172711  0.3526761654033898
  0.5369695271705919  0.3425910550866167  0.8532604996380742
  0.5367160539459915  0.8436258864926799  0.3541368329450572
  0.5365566639103545  0.8440004087282277  0.8526510964162977
  0.8658933782931587  0.3444807319725526  0.3568670770096255
  0.8677849980171826  0.3396928546707572  0.8496154569948466
  0.8677585397934998  0.8440345320210838  0.3544919989720408
  0.8679882801400011  0.8456686734819983  0.8526393996331965
 
  0.00000000E+00  0.00000000E+00  0.00000000E+00
  0.00000000E+00  0.00000000E+00  0.00000000E+00
  0.00000000E+00  0.00000000E+00  0.00000000E+00
  0.00000000E+00  0.00000000E+00  0.00000000E+00
  0.00000000E+00  0.00000000E+00  0.00000000E+00
  0.00000000E+00  0.00000000E+00  0.00000000E+00
  0.00000000E+00  0.00000000E+00  0.00000000E+00
  0.00000000E+00  0.00000000E+00  0.00000000E+00
  0.00000000E+00  0.00000000E+00  0.00000000E+00
  0.00000000E+00  0.00000000E+00  0.00000000E+00
  0.00000000E+00  0.00000000E+00  0.00000000E+00
  0.00000000E+00  0.00000000E+00  0.00000000E+00
  0.00000000E+00  0.00000000E+00  0.00000000E+00
  0.00000000E+00  0.00000000E+00  0.00000000E+00
  0.00000000E+00  0.00000000E+00  0.00000000E+00
  0.00000000E+00  0.00000000E+00  0.00000000E+00
  0.00000000E+00  0.00000000E+00  0.00000000E+00
  0.00000000E+00  0.00000000E+00  0.00000000E+00
  0.00000000E+00  0.00000000E+00  0.00000000E+00
  0.00000000E+00  0.00000000E+00  0.00000000E+00
  0.00000000E+00  0.00000000E+00  0.00000000E+00
  0.00000000E+00  0.00000000E+00  0.00000000E+00
  0.00000000E+00  0.00000000E+00  0.00000000E+00
  0.00000000E+00  0.00000000E+00  0.00000000E+00
  0.00000000E+00  0.00000000E+00  0.00000000E+00
  0.00000000E+00  0.00000000E+00  0.00000000E+00
  0.00000000E+00  0.00000000E+00  0.00000000E+00
  0.00000000E+00  0.00000000E+00  0.00000000E+00
  0.00000000E+00  0.00000000E+00  0.00000000E+00
  0.00000000E+00  0.00000000E+00  0.00000000E+00
  0.00000000E+00  0.00000000E+00  0.00000000E+00
  0.00000000E+00  0.00000000E+00  0.00000000E+00
  0.00000000E+00  0.00000000E+00  0.00000000E+00
  0.00000000E+00  0.00000000E+00  0.00000000E+00
  0.00000000E+00  0.00000000E+00  0.00000000E+00
  0.00000000E+00  0.00000000E+00  0.00000000E+00
  0.00000000E+00  0.00000000E+00  0.00000000E+00
  0.00000000E+00  0.00000000E+00  0.00000000E+00
  0.00000000E+00  0.00000000E+00  0.00000000E+00
  0.00000000E+00  0.00000000E+00  0.00000000E+00
  0.00000000E+00  0.00000000E+00  0.00000000E+00
  0.00000000E+00  0.00000000E+00  0.00000000E+00
  0.00000000E+00  0.00000000E+00  0.00000000E+00
  0.00000000E+00  0.00000000E+00  0.00000000E+00
  0.00000000E+00  0.00000000E+00  0.00000000E+00
  0.00000000E+00  0.00000000E+00  0.00000000E+00
  0.00000000E+00  0.00000000E+00  0.00000000E+00
  0.00000000E+00  0.00000000E+00  0.00000000E+00
  0.00000000E+00  0.00000000E+00  0.00000000E+00
  0.00000000E+00  0.00000000E+00  0.00000000E+00
  0.00000000E+00  0.00000000E+00  0.00000000E+00
  0.00000000E+00  0.00000000E+00  0.00000000E+00
  0.00000000E+00  0.00000000E+00  0.00000000E+00
  0.00000000E+00  0.00000000E+00  0.00000000E+00
  0.00000000E+00  0.00000000E+00  0.00000000E+00
  0.00000000E+00  0.00000000E+00  0.00000000E+00
  0.00000000E+00  0.00000000E+00  0.00000000E+00
  0.00000000E+00  0.00000000E+00  0.00000000E+00
  0.00000000E+00  0.00000000E+00  0.00000000E+00
  0.00000000E+00  0.00000000E+00  0.00000000E+00
  0.00000000E+00  0.00000000E+00  0.00000000E+00
  0.00000000E+00  0.00000000E+00  0.00000000E+00
  0.00000000E+00  0.00000000E+00  0.00000000E+00
  0.00000000E+00  0.00000000E+00  0.00000000E+00
  0.00000000E+00  0.00000000E+00  0.00000000E+00
  0.00000000E+00  0.00000000E+00  0.00000000E+00
  0.00000000E+00  0.00000000E+00  0.00000000E+00
  0.00000000E+00  0.00000000E+00  0.00000000E+00
  0.00000000E+00  0.00000000E+00  0.00000000E+00
  0.00000000E+00  0.00000000E+00  0.00000000E+00
  0.00000000E+00  0.00000000E+00  0.00000000E+00
  0.00000000E+00  0.00000000E+00  0.00000000E+00
  0.00000000E+00  0.00000000E+00  0.00000000E+00
  0.00000000E+00  0.00000000E+00  0.00000000E+00
  0.00000000E+00  0.00000000E+00  0.00000000E+00
  0.00000000E+00  0.00000000E+00  0.00000000E+00
  0.00000000E+00  0.00000000E+00  0.00000000E+00
  0.00000000E+00  0.00000000E+00  0.00000000E+00
  0.00000000E+00  0.00000000E+00  0.00000000E+00
  0.00000000E+00  0.00000000E+00  0.00000000E+00
  0.00000000E+00  0.00000000E+00  0.00000000E+00
  0.00000000E+00  0.00000000E+00  0.00000000E+00
  0.00000000E+00  0.00000000E+00  0.00000000E+00
  0.00000000E+00  0.00000000E+00  0.00000000E+00
  0.00000000E+00  0.00000000E+00  0.00000000E+00
  0.00000000E+00  0.00000000E+00  0.00000000E+00
  0.00000000E+00  0.00000000E+00  0.00000000E+00
  0.00000000E+00  0.00000000E+00  0.00000000E+00
  0.00000000E+00  0.00000000E+00  0.00000000E+00
  0.00000000E+00  0.00000000E+00  0.00000000E+00
  0.00000000E+00  0.00000000E+00  0.00000000E+00
  0.00000000E+00  0.00000000E+00  0.00000000E+00
  0.00000000E+00  0.00000000E+00  0.00000000E+00
  0.00000000E+00  0.00000000E+00  0.00000000E+00
  0.00000000E+00  0.00000000E+00  0.00000000E+00
  0.00000000E+00  0.00000000E+00  0.00000000E+00
  0.00000000E+00  0.00000000E+00  0.00000000E+00
  0.00000000E+00  0.00000000E+00  0.00000000E+00
  0.00000000E+00  0.00000000E+00  0.00000000E+00
  0.00000000E+00  0.00000000E+00  0.00000000E+00
  0.00000000E+00  0.00000000E+00  0.00000000E+00
  0.00000000E+00  0.00000000E+00  0.00000000E+00
  0.00000000E+00  0.00000000E+00  0.00000000E+00
  0.00000000E+00  0.00000000E+00  0.00000000E+00
  0.00000000E+00  0.00000000E+00  0.00000000E+00
  0.00000000E+00  0.00000000E+00  0.00000000E+00
  0.00000000E+00  0.00000000E+00  0.00000000E+00
  0.00000000E+00  0.00000000E+00  0.00000000E+00
  0.00000000E+00  0.00000000E+00  0.00000000E+00
  0.00000000E+00  0.00000000E+00  0.00000000E+00
  0.00000000E+00  0.00000000E+00  0.00000000E+00
  0.00000000E+00  0.00000000E+00  0.00000000E+00
  0.00000000E+00  0.00000000E+00  0.00000000E+00
  0.00000000E+00  0.00000000E+00  0.00000000E+00
  0.00000000E+00  0.00000000E+00  0.00000000E+00
  0.00000000E+00  0.00000000E+00  0.00000000E+00
  0.00000000E+00  0.00000000E+00  0.00000000E+00
  0.00000000E+00  0.00000000E+00  0.00000000E+00
  0.00000000E+00  0.00000000E+00  0.00000000E+00
  0.00000000E+00  0.00000000E+00  0.00000000E+00
  0.00000000E+00  0.00000000E+00  0.00000000E+00
  0.00000000E+00  0.00000000E+00  0.00000000E+00
  0.00000000E+00  0.00000000E+00  0.00000000E+00
  0.00000000E+00  0.00000000E+00  0.00000000E+00
  0.00000000E+00  0.00000000E+00  0.00000000E+00
  0.00000000E+00  0.00000000E+00  0.00000000E+00
  0.00000000E+00  0.00000000E+00  0.00000000E+00
  0.00000000E+00  0.00000000E+00  0.00000000E+00
  0.00000000E+00  0.00000000E+00  0.00000000E+00
  0.00000000E+00  0.00000000E+00  0.00000000E+00
  0.00000000E+00  0.00000000E+00  0.00000000E+00
  0.00000000E+00  0.00000000E+00  0.00000000E+00
  0.00000000E+00  0.00000000E+00  0.00000000E+00
  0.00000000E+00  0.00000000E+00  0.00000000E+00
  0.00000000E+00  0.00000000E+00  0.00000000E+00
  0.00000000E+00  0.00000000E+00  0.00000000E+00
  0.00000000E+00  0.00000000E+00  0.00000000E+00
  0.00000000E+00  0.00000000E+00  0.00000000E+00
  0.00000000E+00  0.00000000E+00  0.00000000E+00
  0.00000000E+00  0.00000000E+00  0.00000000E+00
  0.00000000E+00  0.00000000E+00  0.00000000E+00
  0.00000000E+00  0.00000000E+00  0.00000000E+00
  0.00000000E+00  0.00000000E+00  0.00000000E+00
  0.00000000E+00  0.00000000E+00  0.00000000E+00
  0.00000000E+00  0.00000000E+00  0.00000000E+00
  0.00000000E+00  0.00000000E+00  0.00000000E+00
  0.00000000E+00  0.00000000E+00  0.00000000E+00
  0.00000000E+00  0.00000000E+00  0.00000000E+00
  0.00000000E+00  0.00000000E+00  0.00000000E+00
  0.00000000E+00  0.00000000E+00  0.00000000E+00
  0.00000000E+00  0.00000000E+00  0.00000000E+00
  0.00000000E+00  0.00000000E+00  0.00000000E+00
  0.00000000E+00  0.00000000E+00  0.00000000E+00
  0.00000000E+00  0.00000000E+00  0.00000000E+00
  0.00000000E+00  0.00000000E+00  0.00000000E+00
  0.00000000E+00  0.00000000E+00  0.00000000E+00
  0.00000000E+00  0.00000000E+00  0.00000000E+00
  0.00000000E+00  0.00000000E+00  0.00000000E+00
  0.00000000E+00  0.00000000E+00  0.00000000E+00
  0.00000000E+00  0.00000000E+00  0.00000000E+00
  0.00000000E+00  0.00000000E+00  0.00000000E+00
  0.00000000E+00  0.00000000E+00  0.00000000E+00
  0.00000000E+00  0.00000000E+00  0.00000000E+00
  0.00000000E+00  0.00000000E+00  0.00000000E+00
  0.00000000E+00  0.00000000E+00  0.00000000E+00
  0.00000000E+00  0.00000000E+00  0.00000000E+00
  0.00000000E+00  0.00000000E+00  0.00000000E+00
  0.00000000E+00  0.00000000E+00  0.00000000E+00
  0.00000000E+00  0.00000000E+00  0.00000000E+00
  0.00000000E+00  0.00000000E+00  0.00000000E+00
  0.00000000E+00  0.00000000E+00  0.00000000E+00
  0.00000000E+00  0.00000000E+00  0.00000000E+00
  0.00000000E+00  0.00000000E+00  0.00000000E+00
  0.00000000E+00  0.00000000E+00  0.00000000E+00
  0.00000000E+00  0.00000000E+00  0.00000000E+00
  0.00000000E+00  0.00000000E+00  0.00000000E+00
  0.00000000E+00  0.00000000E+00  0.00000000E+00
  0.00000000E+00  0.00000000E+00  0.00000000E+00
  0.00000000E+00  0.00000000E+00  0.00000000E+00
  0.00000000E+00  0.00000000E+00  0.00000000E+00
  0.00000000E+00  0.00000000E+00  0.00000000E+00
  0.00000000E+00  0.00000000E+00  0.00000000E+00
  0.00000000E+00  0.00000000E+00  0.00000000E+00
  0.00000000E+00  0.00000000E+00  0.00000000E+00
  0.00000000E+00  0.00000000E+00  0.00000000E+00
  0.00000000E+00  0.00000000E+00  0.00000000E+00
  0.00000000E+00  0.00000000E+00  0.00000000E+00
  0.00000000E+00  0.00000000E+00  0.00000000E+00
  0.00000000E+00  0.00000000E+00  0.00000000E+00
  0.00000000E+00  0.00000000E+00  0.00000000E+00
  0.00000000E+00  0.00000000E+00  0.00000000E+00
  0.00000000E+00  0.00000000E+00  0.00000000E+00
  0.00000000E+00  0.00000000E+00  0.00000000E+00
