Li42 P14 O56
1.0
4.922448 0.000000 0.000000
0.000000 5.296402 0.000000
0.000000 0.000000 67.937496
Li P O
42 14 56
direct
0.509417 0.844520 0.081494 Li+
0.009417 0.155480 0.036039 Li+
0.508363 0.326434 0.058505 Li+
0.008363 0.673566 0.059028 Li+
0.008363 0.673566 0.013051 Li+
0.508363 0.326434 0.013573 Li+
0.509417 0.844520 0.172403 Li+
0.009417 0.155480 0.126948 Li+
0.508363 0.326434 0.149414 Li+
0.008363 0.673566 0.149937 Li+
0.008363 0.673566 0.103960 Li+
0.508363 0.326434 0.104482 Li+
0.509417 0.844520 0.263312 Li+
0.009417 0.155480 0.217857 Li+
0.508363 0.326434 0.240323 Li+
0.008363 0.673566 0.240846 Li+
0.008363 0.673566 0.194869 Li+
0.508363 0.326434 0.195391 Li+
0.509417 0.844520 0.354221 Li+
0.009417 0.155480 0.308766 Li+
0.508363 0.326434 0.331233 Li+
0.008363 0.673566 0.331755 Li+
0.008363 0.673566 0.285778 Li+
0.508363 0.326434 0.286300 Li+
0.509417 0.844520 0.445130 Li+
0.009417 0.155480 0.399676 Li+
0.508363 0.326434 0.422142 Li+
0.008363 0.673566 0.422664 Li+
0.008363 0.673566 0.376687 Li+
0.508363 0.326434 0.377209 Li+
0.509417 0.844520 0.536039 Li+
0.009417 0.155480 0.490585 Li+
0.508363 0.326434 0.513051 Li+
0.008363 0.673566 0.513573 Li+
0.008363 0.673566 0.467596 Li+
0.508363 0.326434 0.468119 Li+
0.509417 0.844520 0.626948 Li+
0.009417 0.155480 0.581494 Li+
0.508363 0.326434 0.603960 Li+
0.008363 0.673566 0.604482 Li+
0.008363 0.673566 0.558505 Li+
0.508363 0.326434 0.559028 Li+
0.501420 0.824261 0.036039 P5+
0.001420 0.175739 0.081494 P5+
0.501420 0.824261 0.126948 P5+
0.001420 0.175739 0.172403 P5+
0.501420 0.824261 0.217857 P5+
0.001420 0.175739 0.263312 P5+
0.501420 0.824261 0.308766 P5+
0.001420 0.175739 0.354221 P5+
0.501420 0.824261 0.399676 P5+
0.001420 0.175739 0.445130 P5+
0.501420 0.824261 0.490585 P5+
0.001420 0.175739 0.536039 P5+
0.501420 0.824261 0.581494 P5+
0.001420 0.175739 0.626948 P5+
0.107010 0.313509 0.009415 O2-
0.602126 0.103508 0.036039 O2-
0.185191 0.818396 0.036039 O2-
0.685191 0.181604 0.081494 O2-
0.607010 0.686491 0.054870 O2-
0.107010 0.313509 0.062663 O2-
0.102126 0.896492 0.081494 O2-
0.607010 0.686491 0.017208 O2-
0.107010 0.313509 0.100324 O2-
0.602126 0.103508 0.126948 O2-
0.185191 0.818396 0.126948 O2-
0.685191 0.181604 0.172403 O2-
0.607010 0.686491 0.145779 O2-
0.107010 0.313509 0.153572 O2-
0.102126 0.896492 0.172403 O2-
0.607010 0.686491 0.108118 O2-
0.107010 0.313509 0.191234 O2-
0.602126 0.103508 0.217857 O2-
0.185191 0.818396 0.217857 O2-
0.685191 0.181604 0.263312 O2-
0.607010 0.686491 0.236688 O2-
0.107010 0.313509 0.244481 O2-
0.102126 0.896492 0.263312 O2-
0.607010 0.686491 0.199027 O2-
0.107010 0.313509 0.282143 O2-
0.602126 0.103508 0.308766 O2-
0.185191 0.818396 0.308766 O2-
0.685191 0.181604 0.354221 O2-
0.607010 0.686491 0.327597 O2-
0.107010 0.313509 0.335390 O2-
0.102126 0.896492 0.354221 O2-
0.607010 0.686491 0.289936 O2-
0.107010 0.313509 0.373052 O2-
0.602126 0.103508 0.399676 O2-
0.185191 0.818396 0.399676 O2-
0.685191 0.181604 0.445130 O2-
0.607010 0.686491 0.418506 O2-
0.107010 0.313509 0.426299 O2-
0.102126 0.896492 0.445130 O2-
0.607010 0.686491 0.380845 O2-
0.107010 0.313509 0.463961 O2-
0.602126 0.103508 0.490585 O2-
0.185191 0.818396 0.490585 O2-
0.685191 0.181604 0.536039 O2-
0.607010 0.686491 0.509415 O2-
0.107010 0.313509 0.517208 O2-
0.102126 0.896492 0.536039 O2-
0.607010 0.686491 0.471754 O2-
0.107010 0.313509 0.554870 O2-
0.602126 0.103508 0.581494 O2-
0.185191 0.818396 0.581494 O2-
0.685191 0.181604 0.626948 O2-
0.607010 0.686491 0.600324 O2-
0.107010 0.313509 0.608118 O2-
0.102126 0.896492 0.626948 O2-
0.607010 0.686491 0.562663 O2-
