Li1
1.0
-1.730375 1.730375 1.730375
1.730375 -1.730375 1.730375
1.730375 1.730375 -1.730375
Li
1
direct
0.000000 0.000000 0.000000 Li
