Li71 P24 N1 O94                         
   1.00000000000000     
    14.7492271740032912    0.0097489628788959    0.0095583290138523
     0.0069844511980450   10.5673851738538218    0.0051094179810432
     0.0079958213877688    0.0059355242809158   12.2905788704142775
   Li   P    N    O 
    71    24     1    94
Direct
  0.1692196546116874  0.4179096560214199  0.0027142825832998
  0.1712506243266569  0.4261379947465757  0.5019904512321083
  0.1669654847055792  0.9294281724013000  0.0004751594113629
  0.1686385046850968  0.9234817748629600  0.5029773319277392
  0.5031718677502522  0.4222316662196385 -0.0004511603566146
  0.5041805054523214  0.4232675923699810  0.5009461115555713
  0.5045472842509310  0.9227633566762363 -0.0010942715163117
  0.5029322277840382  0.9223501167197906  0.5008053520976471
  0.8365868835095664  0.4231444793719655 -0.0003949849197892
  0.8354547400373628  0.4223812438562350  0.4998327356999127
  0.8350606197216068  0.9206067842667133 -0.0019086848485280
  0.8354639592753663  0.9223020876730519  0.5004815493375748
  0.0013997207107998  0.0818758889835325  0.2468910596018387
  0.0031788543467648  0.0776315683796158  0.7518785041806066
 -0.0006993334787141  0.5803880864525423  0.2458255115356402
  0.0031226417333549  0.5762090888278859  0.7498864329989257
  0.3626816430892973  0.0840978252950029  0.2463844942638498
  0.3357796622606335  0.0780009293810632  0.7518086321006910
  0.3395828892456645  0.5779997319926863  0.2505239324514956
  0.3364292997197817  0.5768505244729517  0.7510104662806238
  0.6695210683407828  0.0780170968389207  0.2489965737094748
  0.6693637577017844  0.0774817118706088  0.7497626827155373
  0.6692966765742338  0.5778610739114630  0.2496201555328109
  0.6696792770608834  0.5772310316023216  0.7501158727600291
  0.1701488539638454  0.1629141020756629  0.6277234152359330
  0.1695002779188655  0.6561071011349431  0.1264232813413356
  0.1696888284827631  0.6635381337029745  0.6280185100147070
  0.5049519235663095  0.1652375292165299  0.1225285992948524
  0.5017498647845988  0.1636348187471890  0.6266859995099598
  0.5031801619338504  0.6625159083490437  0.1254378855338442
  0.5031579762854488  0.6637962194341143  0.6272009580078477
  0.8384134300349901  0.1622604437433926  0.1238958023495744
  0.8359908096380657  0.1635414756285608  0.6260402438534908
  0.8347524675427818  0.6630165538677626  0.1258304056145611
  0.8360308171617229  0.6628535177449384  0.6258978467920764
  0.0002362135337637  0.3330381848287353  0.1230588435937842
  0.0032094745250614  0.3363356013184760  0.6233243839118454
 -0.0000540153090385  0.8373898047535878  0.1203094418717076
  0.0023990184761610  0.8351976894878151  0.6247708854612372
  0.3345347880219557  0.3335804562549272  0.1225376435947678
  0.3360985590857104  0.3373827749182715  0.6240613278836888
  0.3387627222715457  0.8357384471182290  0.1208652769190820
  0.3360384995850349  0.8368731926716783  0.6246813852136057
  0.6706978269791484  0.3363445942338352  0.1227628841763913
  0.6693447150795665  0.3367345695696107  0.6240236576816498
  0.6698943829144571  0.8364466179075880  0.1231853387048977
  0.6692282562634965  0.8366316597527429  0.6239976706954262
 -0.0030532521050592  0.3318208159505326  0.3753139346554169
  0.0028815525966655  0.3359387373668090  0.8770983113472860
 -0.0005802057506497  0.8358262654065480  0.3788590224301450
  0.0026384954202537  0.8370833477708784  0.8764767029582600
  0.3400752346180260  0.3390200474248165  0.3774377086742175
  0.3362302684398098  0.3346427738141061  0.8768931285555644
  0.3381790154665469  0.8349791380722545  0.3770813745373627
  0.3362907050028801  0.8372438730740726  0.8771735919792492
  0.6694715088873276  0.3372158041198306  0.3766039973048201
  0.6697789956255112  0.3367379695836153  0.8760885341754907
  0.6695392717636960  0.8366211981070011  0.3769080908492614
  0.6694525548319811  0.8366152060695408  0.8753420917824978
  0.1640426221332029  0.1842908329424815  0.3850569982676081
  0.1682993523526269  0.1626157085594987  0.8805613881069932
  0.1691426840423322  0.6600369063021488  0.3778029181270966
  0.1695361326780999  0.6627120486733357  0.8743867354630516
  0.5056867242413122  0.1646700835870864  0.3752487214281330
  0.5030888017790974  0.1631837587791199  0.8733779848232447
  0.5039760711062834  0.6627826336121095  0.3741655895529623
  0.5023993373798529  0.6633620147894735  0.8732505247343733
  0.8342902751394378  0.1627117950122091  0.3732922189768605
  0.8355277406373937  0.1629004867380639  0.8712683215619494
  0.8349227267322994  0.6627561699013769  0.3736917301478397
  0.8363134972817600  0.6629924931857606  0.8729011547781186
  0.1722300268736192  0.4188309912660726  0.2533480065663223
  0.1671688665240367  0.4112273799176259  0.7503372734546701
  0.1656459994117075  0.9039688450759157  0.2505440958980958
  0.1669013614931217  0.9122285795344073  0.7505155751832487
  0.5013428100081625  0.4118770157486055  0.2494916732452875
  0.5006282686617261  0.4119104951333702  0.7501439889171950
  0.5005402692283205  0.9106711684497779  0.2498985558189775
  0.5003846330492042  0.9125106368219156  0.7496338852103750
  0.8314252777629139  0.4125284867001647  0.2495910879829072
  0.8339220132280266  0.4121946845649962  0.7495273424533753
  0.8325349815729415  0.9119904676058702  0.2502641492162566
  0.8336669427925372  0.9117031231694664  0.7488237306251108
 -0.0037757192452560  0.0874852347791558  0.0006896842662538
  0.0001010369171255  0.0864138303514712  0.5002818750101158
  0.0002753789340297  0.5883655939267305 -0.0006413257501265
  0.0001956805459076  0.5870316297929054  0.4989772924097026
  0.3348592512752970  0.0857610639585585 -0.0007055719774401
  0.3333715248754170  0.0877450413895167  0.4977672969056703
  0.3341657328482824  0.5867346541121559 -0.0003974370664514
  0.3354067030979887  0.5888342576134301  0.5017689161653633
  0.6676586594311148  0.0873300185063205 -0.0009167209510370
  0.6665724315051996  0.0876703559654635  0.5003278579434453
  0.6670069271514932  0.5878709998656704 -0.0007227654405307
  0.6669753823635274  0.5880418909775690  0.5004378872292422
  0.0624131213562797  0.4123564127046901  0.2529089758493132
  0.0359733667993910  0.1547937890937224  0.3957004759459231
  0.0337833861688701  0.1569858445464564  0.8974175913583536
  0.0352907288794303  0.6578053153661673  0.3953976401751130
  0.0353825124894245  0.6564165537766319  0.8946338512959288
  0.3700205672997193  0.1560877086024956  0.3936902075907053
  0.3712309318134364  0.1562308299652919  0.8955945127558511
  0.3709834269151653  0.6578077654777663  0.3977477135716047
  0.3690758344522638  0.6564477535492861  0.8954459516492416
  0.7007960424193576  0.1564873412654258  0.3955180037957426
  0.7025199108592068  0.1567029534489654  0.8949478370878122
  0.7018365804579965  0.6571465853063848  0.3961293589075084
  0.7024634649183885  0.6571570945752169  0.8953188679655928
  0.2003005672716706  0.0522087260733809  0.7501635478433522
  0.2070372678548760  0.5593825370525354  0.2563108652665902
  0.2007701591138202  0.5512181430405321  0.7502777731376868
  0.5305011631919127  0.0526918804377894  0.2495295356809808
  0.5341875572177098  0.0523292958195827  0.7493903207288440
  0.5341429276071487  0.5522398614476814  0.2499020178522507
  0.5343203808228227  0.5518109096074724  0.7498762926835979
  0.8661018906148935  0.0516735895328949  0.2505772687722638
  0.8676461351664101  0.0513674603461754  0.7479553962213865
  0.8646165368711788  0.5526773566520617  0.2500909087670077
  0.8675756960823945  0.5520663452444738  0.7492569442863442
  0.0615078448219915  0.4084054639041964  0.7497217248503777
  0.0605231429955501  0.9084529688065806  0.2505555825919417
  0.0612393599746089  0.9091675687825423  0.7499634254259411
  0.3959216852028241  0.4080370018172978  0.2489215036064579
  0.3950498486083732  0.4088350622841044  0.7503015616419739
  0.3946585208775815  0.9064522831457733  0.2497130088864161
  0.3948037996518777  0.9100515926699149  0.7498281607241361
  0.7257907625676012  0.4100183095220066  0.2499747636879049
  0.7282907072744924  0.4094979638562848  0.7494836675453882
  0.7269073364397226  0.9092723934690184  0.2501946018032405
  0.7280246325882226  0.9097166065973954  0.7492564544781536
  0.2309293160816404  0.0849799276227058 -0.0018806281608745
  0.2274218330152203  0.0914259640656600  0.4949913002511576
  0.2286076025686013  0.5893554501532630 -0.0000799986674647
  0.2297705643380035  0.5921951484340577  0.5024708701625930
  0.5620906079188728  0.0903899918930641 -0.0009857133419832
  0.5609100116062402  0.0902253652626767  0.5010536037314111
  0.5614107912410689  0.5904361256249301 -0.0008018684686123
  0.5614205672900595  0.5909960614949873  0.5007391243370528
  0.8902508640055534  0.0856685389318548 -0.0057278579661197
  0.8946505044347985  0.0905258833589187  0.4996489076875247
  0.8945768386094034  0.5917460598008719 -0.0000058773186146
  0.8946302081356756  0.5897934801407835  0.4993399147733438
  0.2051195820828875  0.3548535332546199  0.1477250205330500
  0.2024742294101144  0.3428038206339926  0.6455725617480970
  0.2033997674094293  0.8411850086762421  0.1457845043293911
  0.2022897302190668  0.8435301648977807  0.6459036413883537
  0.5375756466417423  0.3431406269400418  0.1458016157592806
  0.5358353807367136  0.3426082475799292  0.6459593603892507
  0.5367283901457534  0.8424847723775947  0.1463452881128858
  0.5355488903255228  0.8434347806308266  0.6453527150381000
  0.8661757229169436  0.3440056551900668  0.1452842897903482
  0.8692881515806513  0.3429702174194797  0.6454001804412883
  0.8679035860648651  0.8424477727995249  0.1464893412650608
  0.8686349071959714  0.8421946114119478  0.6446410119009075
  0.0230534563249277  0.1562659734330500  0.1062295165391065
  0.0360455605327577  0.1560490573143850  0.6034420381927869
  0.0357788465169598  0.6595687940715717  0.1023372278790803
  0.0358229057269036  0.6551741709016390  0.6032897158871461
  0.3716967692300555  0.1558367226197316  0.1029205658472283
  0.3672703738312141  0.1571500862722700  0.6019101181881371
  0.3698292103376258  0.6563284047134026  0.1032907970920689
  0.3702725203958329  0.6578124119113782  0.6058242023536259
  0.7026134127443944  0.1559137972964788  0.1034156807386585
  0.7023420571088064  0.1572111021227895  0.6036402014844362
  0.7017927673637046  0.6570438001285634  0.1034325283398209
  0.7024226399852773  0.6570884036066762  0.6042420809598793
  0.0334930168271274  0.4483098245571178  0.0005784159289240
  0.0343192264814244  0.4470078760905229  0.4975479134785517
  0.0321547331351364  0.9478533896913589  0.0004177398618803
  0.0335247830467974  0.9463318013120263  0.5002886692754932
  0.3684269477233417  0.4471165963812124 -0.0005464586314415
  0.3693174791247886  0.4490037561962343  0.5016508865515853
  0.3718799449369223  0.9465086760791439  0.0000888502950197
  0.3665913329833034  0.9477418159048739  0.4991096869765945
  0.7010948141045591  0.4481140878404450 -0.0007362784907929
  0.7005708214702202  0.4480220239410514  0.5003762594300111
  0.7004992023775580  0.9469355728034706 -0.0009202132189309
  0.7004515612436073  0.9478355120605371  0.5002644541830819
  0.2092871134267432  0.3495173134935927  0.3579005629181211
  0.2023978817350923  0.3417650753978798  0.8539586689026331
  0.2027804360493237  0.8422353225264817  0.3566476767829557
  0.2020629734223379  0.8426049737492103  0.8541598420612765
  0.5361017099781484  0.3431958634983456  0.3542569943067166
  0.5363663104766269  0.3429356692457679  0.8539863005481969
  0.5359891445791243  0.8435108068781844  0.3545059266250670
  0.5360922958275716  0.8428982722476748  0.8531908309977057
  0.8657377848184689  0.3424867291935762  0.3539059415035198
  0.8690400737981023  0.3432136401858170  0.8536257283196305
  0.8676374748831323  0.8426703613090063  0.3545190487899499
  0.8688490090678139  0.8418994049156677  0.8524802508302932
 
  0.00000000E+00  0.00000000E+00  0.00000000E+00
  0.00000000E+00  0.00000000E+00  0.00000000E+00
  0.00000000E+00  0.00000000E+00  0.00000000E+00
  0.00000000E+00  0.00000000E+00  0.00000000E+00
  0.00000000E+00  0.00000000E+00  0.00000000E+00
  0.00000000E+00  0.00000000E+00  0.00000000E+00
  0.00000000E+00  0.00000000E+00  0.00000000E+00
  0.00000000E+00  0.00000000E+00  0.00000000E+00
  0.00000000E+00  0.00000000E+00  0.00000000E+00
  0.00000000E+00  0.00000000E+00  0.00000000E+00
  0.00000000E+00  0.00000000E+00  0.00000000E+00
  0.00000000E+00  0.00000000E+00  0.00000000E+00
  0.00000000E+00  0.00000000E+00  0.00000000E+00
  0.00000000E+00  0.00000000E+00  0.00000000E+00
  0.00000000E+00  0.00000000E+00  0.00000000E+00
  0.00000000E+00  0.00000000E+00  0.00000000E+00
  0.00000000E+00  0.00000000E+00  0.00000000E+00
  0.00000000E+00  0.00000000E+00  0.00000000E+00
  0.00000000E+00  0.00000000E+00  0.00000000E+00
  0.00000000E+00  0.00000000E+00  0.00000000E+00
  0.00000000E+00  0.00000000E+00  0.00000000E+00
  0.00000000E+00  0.00000000E+00  0.00000000E+00
  0.00000000E+00  0.00000000E+00  0.00000000E+00
  0.00000000E+00  0.00000000E+00  0.00000000E+00
  0.00000000E+00  0.00000000E+00  0.00000000E+00
  0.00000000E+00  0.00000000E+00  0.00000000E+00
  0.00000000E+00  0.00000000E+00  0.00000000E+00
  0.00000000E+00  0.00000000E+00  0.00000000E+00
  0.00000000E+00  0.00000000E+00  0.00000000E+00
  0.00000000E+00  0.00000000E+00  0.00000000E+00
  0.00000000E+00  0.00000000E+00  0.00000000E+00
  0.00000000E+00  0.00000000E+00  0.00000000E+00
  0.00000000E+00  0.00000000E+00  0.00000000E+00
  0.00000000E+00  0.00000000E+00  0.00000000E+00
  0.00000000E+00  0.00000000E+00  0.00000000E+00
  0.00000000E+00  0.00000000E+00  0.00000000E+00
  0.00000000E+00  0.00000000E+00  0.00000000E+00
  0.00000000E+00  0.00000000E+00  0.00000000E+00
  0.00000000E+00  0.00000000E+00  0.00000000E+00
  0.00000000E+00  0.00000000E+00  0.00000000E+00
  0.00000000E+00  0.00000000E+00  0.00000000E+00
  0.00000000E+00  0.00000000E+00  0.00000000E+00
  0.00000000E+00  0.00000000E+00  0.00000000E+00
  0.00000000E+00  0.00000000E+00  0.00000000E+00
  0.00000000E+00  0.00000000E+00  0.00000000E+00
  0.00000000E+00  0.00000000E+00  0.00000000E+00
  0.00000000E+00  0.00000000E+00  0.00000000E+00
  0.00000000E+00  0.00000000E+00  0.00000000E+00
  0.00000000E+00  0.00000000E+00  0.00000000E+00
  0.00000000E+00  0.00000000E+00  0.00000000E+00
  0.00000000E+00  0.00000000E+00  0.00000000E+00
  0.00000000E+00  0.00000000E+00  0.00000000E+00
  0.00000000E+00  0.00000000E+00  0.00000000E+00
  0.00000000E+00  0.00000000E+00  0.00000000E+00
  0.00000000E+00  0.00000000E+00  0.00000000E+00
  0.00000000E+00  0.00000000E+00  0.00000000E+00
  0.00000000E+00  0.00000000E+00  0.00000000E+00
  0.00000000E+00  0.00000000E+00  0.00000000E+00
  0.00000000E+00  0.00000000E+00  0.00000000E+00
  0.00000000E+00  0.00000000E+00  0.00000000E+00
  0.00000000E+00  0.00000000E+00  0.00000000E+00
  0.00000000E+00  0.00000000E+00  0.00000000E+00
  0.00000000E+00  0.00000000E+00  0.00000000E+00
  0.00000000E+00  0.00000000E+00  0.00000000E+00
  0.00000000E+00  0.00000000E+00  0.00000000E+00
  0.00000000E+00  0.00000000E+00  0.00000000E+00
  0.00000000E+00  0.00000000E+00  0.00000000E+00
  0.00000000E+00  0.00000000E+00  0.00000000E+00
  0.00000000E+00  0.00000000E+00  0.00000000E+00
  0.00000000E+00  0.00000000E+00  0.00000000E+00
  0.00000000E+00  0.00000000E+00  0.00000000E+00
  0.00000000E+00  0.00000000E+00  0.00000000E+00
  0.00000000E+00  0.00000000E+00  0.00000000E+00
  0.00000000E+00  0.00000000E+00  0.00000000E+00
  0.00000000E+00  0.00000000E+00  0.00000000E+00
  0.00000000E+00  0.00000000E+00  0.00000000E+00
  0.00000000E+00  0.00000000E+00  0.00000000E+00
  0.00000000E+00  0.00000000E+00  0.00000000E+00
  0.00000000E+00  0.00000000E+00  0.00000000E+00
  0.00000000E+00  0.00000000E+00  0.00000000E+00
  0.00000000E+00  0.00000000E+00  0.00000000E+00
  0.00000000E+00  0.00000000E+00  0.00000000E+00
  0.00000000E+00  0.00000000E+00  0.00000000E+00
  0.00000000E+00  0.00000000E+00  0.00000000E+00
  0.00000000E+00  0.00000000E+00  0.00000000E+00
  0.00000000E+00  0.00000000E+00  0.00000000E+00
  0.00000000E+00  0.00000000E+00  0.00000000E+00
  0.00000000E+00  0.00000000E+00  0.00000000E+00
  0.00000000E+00  0.00000000E+00  0.00000000E+00
  0.00000000E+00  0.00000000E+00  0.00000000E+00
  0.00000000E+00  0.00000000E+00  0.00000000E+00
  0.00000000E+00  0.00000000E+00  0.00000000E+00
  0.00000000E+00  0.00000000E+00  0.00000000E+00
  0.00000000E+00  0.00000000E+00  0.00000000E+00
  0.00000000E+00  0.00000000E+00  0.00000000E+00
  0.00000000E+00  0.00000000E+00  0.00000000E+00
  0.00000000E+00  0.00000000E+00  0.00000000E+00
  0.00000000E+00  0.00000000E+00  0.00000000E+00
  0.00000000E+00  0.00000000E+00  0.00000000E+00
  0.00000000E+00  0.00000000E+00  0.00000000E+00
  0.00000000E+00  0.00000000E+00  0.00000000E+00
  0.00000000E+00  0.00000000E+00  0.00000000E+00
  0.00000000E+00  0.00000000E+00  0.00000000E+00
  0.00000000E+00  0.00000000E+00  0.00000000E+00
  0.00000000E+00  0.00000000E+00  0.00000000E+00
  0.00000000E+00  0.00000000E+00  0.00000000E+00
  0.00000000E+00  0.00000000E+00  0.00000000E+00
  0.00000000E+00  0.00000000E+00  0.00000000E+00
  0.00000000E+00  0.00000000E+00  0.00000000E+00
  0.00000000E+00  0.00000000E+00  0.00000000E+00
  0.00000000E+00  0.00000000E+00  0.00000000E+00
  0.00000000E+00  0.00000000E+00  0.00000000E+00
  0.00000000E+00  0.00000000E+00  0.00000000E+00
  0.00000000E+00  0.00000000E+00  0.00000000E+00
  0.00000000E+00  0.00000000E+00  0.00000000E+00
  0.00000000E+00  0.00000000E+00  0.00000000E+00
  0.00000000E+00  0.00000000E+00  0.00000000E+00
  0.00000000E+00  0.00000000E+00  0.00000000E+00
  0.00000000E+00  0.00000000E+00  0.00000000E+00
  0.00000000E+00  0.00000000E+00  0.00000000E+00
  0.00000000E+00  0.00000000E+00  0.00000000E+00
  0.00000000E+00  0.00000000E+00  0.00000000E+00
  0.00000000E+00  0.00000000E+00  0.00000000E+00
  0.00000000E+00  0.00000000E+00  0.00000000E+00
  0.00000000E+00  0.00000000E+00  0.00000000E+00
  0.00000000E+00  0.00000000E+00  0.00000000E+00
  0.00000000E+00  0.00000000E+00  0.00000000E+00
  0.00000000E+00  0.00000000E+00  0.00000000E+00
  0.00000000E+00  0.00000000E+00  0.00000000E+00
  0.00000000E+00  0.00000000E+00  0.00000000E+00
  0.00000000E+00  0.00000000E+00  0.00000000E+00
  0.00000000E+00  0.00000000E+00  0.00000000E+00
  0.00000000E+00  0.00000000E+00  0.00000000E+00
  0.00000000E+00  0.00000000E+00  0.00000000E+00
  0.00000000E+00  0.00000000E+00  0.00000000E+00
  0.00000000E+00  0.00000000E+00  0.00000000E+00
  0.00000000E+00  0.00000000E+00  0.00000000E+00
  0.00000000E+00  0.00000000E+00  0.00000000E+00
  0.00000000E+00  0.00000000E+00  0.00000000E+00
  0.00000000E+00  0.00000000E+00  0.00000000E+00
  0.00000000E+00  0.00000000E+00  0.00000000E+00
  0.00000000E+00  0.00000000E+00  0.00000000E+00
  0.00000000E+00  0.00000000E+00  0.00000000E+00
  0.00000000E+00  0.00000000E+00  0.00000000E+00
  0.00000000E+00  0.00000000E+00  0.00000000E+00
  0.00000000E+00  0.00000000E+00  0.00000000E+00
  0.00000000E+00  0.00000000E+00  0.00000000E+00
  0.00000000E+00  0.00000000E+00  0.00000000E+00
  0.00000000E+00  0.00000000E+00  0.00000000E+00
  0.00000000E+00  0.00000000E+00  0.00000000E+00
  0.00000000E+00  0.00000000E+00  0.00000000E+00
  0.00000000E+00  0.00000000E+00  0.00000000E+00
  0.00000000E+00  0.00000000E+00  0.00000000E+00
  0.00000000E+00  0.00000000E+00  0.00000000E+00
  0.00000000E+00  0.00000000E+00  0.00000000E+00
  0.00000000E+00  0.00000000E+00  0.00000000E+00
  0.00000000E+00  0.00000000E+00  0.00000000E+00
  0.00000000E+00  0.00000000E+00  0.00000000E+00
  0.00000000E+00  0.00000000E+00  0.00000000E+00
  0.00000000E+00  0.00000000E+00  0.00000000E+00
  0.00000000E+00  0.00000000E+00  0.00000000E+00
  0.00000000E+00  0.00000000E+00  0.00000000E+00
  0.00000000E+00  0.00000000E+00  0.00000000E+00
  0.00000000E+00  0.00000000E+00  0.00000000E+00
  0.00000000E+00  0.00000000E+00  0.00000000E+00
  0.00000000E+00  0.00000000E+00  0.00000000E+00
  0.00000000E+00  0.00000000E+00  0.00000000E+00
  0.00000000E+00  0.00000000E+00  0.00000000E+00
  0.00000000E+00  0.00000000E+00  0.00000000E+00
  0.00000000E+00  0.00000000E+00  0.00000000E+00
  0.00000000E+00  0.00000000E+00  0.00000000E+00
  0.00000000E+00  0.00000000E+00  0.00000000E+00
  0.00000000E+00  0.00000000E+00  0.00000000E+00
  0.00000000E+00  0.00000000E+00  0.00000000E+00
  0.00000000E+00  0.00000000E+00  0.00000000E+00
  0.00000000E+00  0.00000000E+00  0.00000000E+00
  0.00000000E+00  0.00000000E+00  0.00000000E+00
  0.00000000E+00  0.00000000E+00  0.00000000E+00
  0.00000000E+00  0.00000000E+00  0.00000000E+00
  0.00000000E+00  0.00000000E+00  0.00000000E+00
  0.00000000E+00  0.00000000E+00  0.00000000E+00
  0.00000000E+00  0.00000000E+00  0.00000000E+00
  0.00000000E+00  0.00000000E+00  0.00000000E+00
  0.00000000E+00  0.00000000E+00  0.00000000E+00
  0.00000000E+00  0.00000000E+00  0.00000000E+00
  0.00000000E+00  0.00000000E+00  0.00000000E+00
  0.00000000E+00  0.00000000E+00  0.00000000E+00
  0.00000000E+00  0.00000000E+00  0.00000000E+00
  0.00000000E+00  0.00000000E+00  0.00000000E+00
  0.00000000E+00  0.00000000E+00  0.00000000E+00
