Li1
1.0
-1.418776 1.713409 1.713409
1.418776 -1.713409 1.713409
2.008042 1.713409 -1.713409
Li
1
direct
0.000000 0.000000 0.000000 Li
