Li140 P140 O420
1.0
19.664632 0.000000 0.000000
7.200064 11.197969 5.521558
0.000000 0.000000 66.258696
Li P O
140 140 420
direct
0.181780 0.873522 0.059710 Li+
0.681780 0.873522 0.058812 Li+
0.065996 0.111170 0.040755 Li+
0.565996 0.111170 0.038159 Li+
0.950543 0.347043 0.019319 Li+
0.450543 0.347043 0.020283 Li+
0.835452 0.581703 0.082977 Li+
0.335452 0.581703 0.000848 Li+
0.758434 0.729106 0.030230 Li+
0.258434 0.729106 0.029028 Li+
0.681714 0.375737 0.015644 Li+
0.181714 0.375737 0.019176 Li+
0.566270 0.612275 0.083006 Li+
0.066270 0.612275 0.079058 Li+
0.449547 0.848182 0.058602 Li+
0.949547 0.848182 0.064144 Li+
0.332984 0.084520 0.043533 Li+
0.832984 0.084520 0.039823 Li+
0.256366 0.233171 0.074216 Li+
0.756366 0.233171 0.067698 Li+
0.181780 0.873522 0.143044 Li+
0.681780 0.873522 0.142145 Li+
0.065996 0.111170 0.124089 Li+
0.565996 0.111170 0.121492 Li+
0.950543 0.347043 0.102652 Li+
0.450543 0.347043 0.103616 Li+
0.835452 0.581703 0.166311 Li+
0.335452 0.581703 0.084181 Li+
0.758434 0.729106 0.113564 Li+
0.258434 0.729106 0.112361 Li+
0.681714 0.375737 0.098977 Li+
0.181714 0.375737 0.102509 Li+
0.566270 0.612275 0.166339 Li+
0.066270 0.612275 0.162391 Li+
0.449547 0.848182 0.141935 Li+
0.949547 0.848182 0.147477 Li+
0.332984 0.084520 0.126866 Li+
0.832984 0.084520 0.123156 Li+
0.256366 0.233171 0.157550 Li+
0.756366 0.233171 0.151031 Li+
0.181780 0.873522 0.226377 Li+
0.681780 0.873522 0.225478 Li+
0.065996 0.111170 0.207422 Li+
0.565996 0.111170 0.204825 Li+
0.950543 0.347043 0.185986 Li+
0.450543 0.347043 0.186950 Li+
0.835452 0.581703 0.249644 Li+
0.335452 0.581703 0.167515 Li+
0.758434 0.729106 0.196897 Li+
0.258434 0.729106 0.195694 Li+
0.681714 0.375737 0.182310 Li+
0.181714 0.375737 0.185843 Li+
0.566270 0.612275 0.249672 Li+
0.066270 0.612275 0.245724 Li+
0.449547 0.848182 0.225269 Li+
0.949547 0.848182 0.230810 Li+
0.332984 0.084520 0.210200 Li+
0.832984 0.084520 0.206489 Li+
0.256366 0.233171 0.240883 Li+
0.756366 0.233171 0.234364 Li+
0.181780 0.873522 0.309710 Li+
0.681780 0.873522 0.308812 Li+
0.065996 0.111170 0.290755 Li+
0.565996 0.111170 0.288159 Li+
0.950543 0.347043 0.269319 Li+
0.450543 0.347043 0.270283 Li+
0.835452 0.581703 0.332977 Li+
0.335452 0.581703 0.250848 Li+
0.758434 0.729106 0.280230 Li+
0.258434 0.729106 0.279028 Li+
0.681714 0.375737 0.265644 Li+
0.181714 0.375737 0.269176 Li+
0.566270 0.612275 0.333006 Li+
0.066270 0.612275 0.329058 Li+
0.449547 0.848182 0.308602 Li+
0.949547 0.848182 0.314144 Li+
0.332984 0.084520 0.293533 Li+
0.832984 0.084520 0.289823 Li+
0.256366 0.233171 0.324216 Li+
0.756366 0.233171 0.317698 Li+
0.181780 0.873522 0.393044 Li+
0.681780 0.873522 0.392145 Li+
0.065996 0.111170 0.374089 Li+
0.565996 0.111170 0.371492 Li+
0.950543 0.347043 0.352652 Li+
0.450543 0.347043 0.353616 Li+
0.835452 0.581703 0.416311 Li+
0.335452 0.581703 0.334181 Li+
0.758434 0.729106 0.363564 Li+
0.258434 0.729106 0.362361 Li+
0.681714 0.375737 0.348977 Li+
0.181714 0.375737 0.352509 Li+
0.566270 0.612275 0.416339 Li+
0.066270 0.612275 0.412391 Li+
0.449547 0.848182 0.391935 Li+
0.949547 0.848182 0.397477 Li+
0.332984 0.084520 0.376866 Li+
0.832984 0.084520 0.373156 Li+
0.256366 0.233171 0.407550 Li+
0.756366 0.233171 0.401031 Li+
0.181780 0.873522 0.476377 Li+
0.681780 0.873522 0.475478 Li+
0.065996 0.111170 0.457422 Li+
0.565996 0.111170 0.454825 Li+
0.950543 0.347043 0.435986 Li+
0.450543 0.347043 0.436950 Li+
0.835452 0.581703 0.499644 Li+
0.335452 0.581703 0.417515 Li+
0.758434 0.729106 0.446897 Li+
0.258434 0.729106 0.445694 Li+
0.681714 0.375737 0.432310 Li+
0.181714 0.375737 0.435843 Li+
0.566270 0.612275 0.499672 Li+
0.066270 0.612275 0.495724 Li+
0.449547 0.848182 0.475269 Li+
0.949547 0.848182 0.480810 Li+
0.332984 0.084520 0.460200 Li+
0.832984 0.084520 0.456489 Li+
0.256366 0.233171 0.490883 Li+
0.756366 0.233171 0.484364 Li+
0.181780 0.873522 0.559710 Li+
0.681780 0.873522 0.558812 Li+
0.065996 0.111170 0.540755 Li+
0.565996 0.111170 0.538159 Li+
0.950543 0.347043 0.519319 Li+
0.450543 0.347043 0.520283 Li+
0.835452 0.581703 0.582977 Li+
0.335452 0.581703 0.500848 Li+
0.758434 0.729106 0.530230 Li+
0.258434 0.729106 0.529028 Li+
0.681714 0.375737 0.515644 Li+
0.181714 0.375737 0.519176 Li+
0.566270 0.612275 0.583006 Li+
0.066270 0.612275 0.579058 Li+
0.449547 0.848182 0.558602 Li+
0.949547 0.848182 0.564144 Li+
0.332984 0.084520 0.543533 Li+
0.832984 0.084520 0.539823 Li+
0.256366 0.233171 0.574216 Li+
0.756366 0.233171 0.567698 Li+
0.999587 0.999221 0.075005 P5+
0.499587 0.999221 0.022568 P5+
0.906720 0.205613 0.002977 P5+
0.406720 0.205613 0.060197 P5+
0.802939 0.401137 0.041256 P5+
0.302939 0.401137 0.072663 P5+
0.691689 0.591605 0.055339 P5+
0.191689 0.591605 0.026836 P5+
0.591751 0.791599 0.011110 P5+
0.091751 0.791599 0.037733 P5+
0.425433 0.665080 0.047970 P5+
0.925433 0.665080 0.021959 P5+
0.325562 0.865452 0.003740 P5+
0.825562 0.865452 0.032794 P5+
0.213545 0.056323 0.018004 P5+
0.713545 0.056323 0.070051 P5+
0.110144 0.252134 0.056718 P5+
0.610144 0.252134 0.082035 P5+
0.017155 0.458420 0.068031 P5+
0.517155 0.458420 0.036342 P5+
0.999587 0.999221 0.158338 P5+
0.499587 0.999221 0.105901 P5+
0.906720 0.205613 0.086310 P5+
0.406720 0.205613 0.143530 P5+
0.802939 0.401137 0.124589 P5+
0.302939 0.401137 0.155997 P5+
0.691689 0.591605 0.138673 P5+
0.191689 0.591605 0.110169 P5+
0.591751 0.791599 0.094443 P5+
0.091751 0.791599 0.121066 P5+
0.425433 0.665080 0.131304 P5+
0.925433 0.665080 0.105292 P5+
0.325562 0.865452 0.087073 P5+
0.825562 0.865452 0.116127 P5+
0.213545 0.056323 0.101338 P5+
0.713545 0.056323 0.153384 P5+
0.110144 0.252134 0.140052 P5+
0.610144 0.252134 0.165368 P5+
0.017155 0.458420 0.151364 P5+
0.517155 0.458420 0.119675 P5+
0.999587 0.999221 0.241671 P5+
0.499587 0.999221 0.189234 P5+
0.906720 0.205613 0.169644 P5+
0.406720 0.205613 0.226863 P5+
0.802939 0.401137 0.207923 P5+
0.302939 0.401137 0.239330 P5+
0.691689 0.591605 0.222006 P5+
0.191689 0.591605 0.193502 P5+
0.591751 0.791599 0.177776 P5+
0.091751 0.791599 0.204400 P5+
0.425433 0.665080 0.214637 P5+
0.925433 0.665080 0.188625 P5+
0.325562 0.865452 0.170407 P5+
0.825562 0.865452 0.199460 P5+
0.213545 0.056323 0.184671 P5+
0.713545 0.056323 0.236717 P5+
0.110144 0.252134 0.223385 P5+
0.610144 0.252134 0.248702 P5+
0.017155 0.458420 0.234697 P5+
0.517155 0.458420 0.203008 P5+
0.999587 0.999221 0.325005 P5+
0.499587 0.999221 0.272568 P5+
0.906720 0.205613 0.252977 P5+
0.406720 0.205613 0.310197 P5+
0.802939 0.401137 0.291256 P5+
0.302939 0.401137 0.322663 P5+
0.691689 0.591605 0.305339 P5+
0.191689 0.591605 0.276836 P5+
0.591751 0.791599 0.261110 P5+
0.091751 0.791599 0.287733 P5+
0.425433 0.665080 0.297970 P5+
0.925433 0.665080 0.271959 P5+
0.325562 0.865452 0.253740 P5+
0.825562 0.865452 0.282794 P5+
0.213545 0.056323 0.268004 P5+
0.713545 0.056323 0.320051 P5+
0.110144 0.252134 0.306718 P5+
0.610144 0.252134 0.332035 P5+
0.017155 0.458420 0.318031 P5+
0.517155 0.458420 0.286342 P5+
0.999587 0.999221 0.408338 P5+
0.499587 0.999221 0.355901 P5+
0.906720 0.205613 0.336310 P5+
0.406720 0.205613 0.393530 P5+
0.802939 0.401137 0.374589 P5+
0.302939 0.401137 0.405997 P5+
0.691689 0.591605 0.388673 P5+
0.191689 0.591605 0.360169 P5+
0.591751 0.791599 0.344443 P5+
0.091751 0.791599 0.371066 P5+
0.425433 0.665080 0.381304 P5+
0.925433 0.665080 0.355292 P5+
0.325562 0.865452 0.337073 P5+
0.825562 0.865452 0.366127 P5+
0.213545 0.056323 0.351338 P5+
0.713545 0.056323 0.403384 P5+
0.110144 0.252134 0.390052 P5+
0.610144 0.252134 0.415368 P5+
0.017155 0.458420 0.401364 P5+
0.517155 0.458420 0.369675 P5+
0.999587 0.999221 0.491671 P5+
0.499587 0.999221 0.439234 P5+
0.906720 0.205613 0.419644 P5+
0.406720 0.205613 0.476863 P5+
0.802939 0.401137 0.457923 P5+
0.302939 0.401137 0.489330 P5+
0.691689 0.591605 0.472006 P5+
0.191689 0.591605 0.443502 P5+
0.591751 0.791599 0.427776 P5+
0.091751 0.791599 0.454400 P5+
0.425433 0.665080 0.464637 P5+
0.925433 0.665080 0.438625 P5+
0.325562 0.865452 0.420407 P5+
0.825562 0.865452 0.449460 P5+
0.213545 0.056323 0.434671 P5+
0.713545 0.056323 0.486717 P5+
0.110144 0.252134 0.473385 P5+
0.610144 0.252134 0.498702 P5+
0.017155 0.458420 0.484697 P5+
0.517155 0.458420 0.453008 P5+
0.999587 0.999221 0.575005 P5+
0.499587 0.999221 0.522568 P5+
0.906720 0.205613 0.502977 P5+
0.406720 0.205613 0.560197 P5+
0.802939 0.401137 0.541256 P5+
0.302939 0.401137 0.572663 P5+
0.691689 0.591605 0.555339 P5+
0.191689 0.591605 0.526836 P5+
0.591751 0.791599 0.511110 P5+
0.091751 0.791599 0.537733 P5+
0.425433 0.665080 0.547970 P5+
0.925433 0.665080 0.521959 P5+
0.325562 0.865452 0.503740 P5+
0.825562 0.865452 0.532794 P5+
0.213545 0.056323 0.518004 P5+
0.713545 0.056323 0.570051 P5+
0.110144 0.252134 0.556718 P5+
0.610144 0.252134 0.582035 P5+
0.017155 0.458420 0.568031 P5+
0.517155 0.458420 0.536342 P5+
0.964587 0.129985 0.073806 O2-
0.464587 0.129985 0.001972 O2-
0.859372 0.340179 0.066116 O2-
0.359372 0.340179 0.057964 O2-
0.724144 0.518650 0.040499 O2-
0.224144 0.518650 0.053835 O2-
0.607741 0.706904 0.037589 O2-
0.107741 0.706904 0.025369 O2-
0.021852 0.919848 0.018565 O2-
0.521852 0.919848 0.008902 O2-
0.409378 0.749936 0.021495 O2-
0.909378 0.749936 0.034292 O2-
0.290596 0.936774 0.018837 O2-
0.790596 0.936774 0.005810 O2-
0.156445 0.116799 0.076549 O2-
0.656445 0.116799 0.001427 O2-
0.056520 0.325432 0.070036 O2-
0.556520 0.325432 0.056501 O2-
0.495673 0.536371 0.050299 O2-
0.995673 0.536371 0.041081 O2-
0.073889 0.970827 0.065919 O2-
0.573889 0.970827 0.036385 O2-
0.933926 0.994909 0.064652 O2-
0.433926 0.994909 0.033639 O2-
0.958651 0.204625 0.019704 O2-
0.458651 0.204625 0.043634 O2-
0.846743 0.171056 0.009858 O2-
0.346743 0.171056 0.059075 O2-
0.845353 0.439658 0.024419 O2-
0.345353 0.439658 0.083081 O2-
0.775410 0.322583 0.040024 O2-
0.275410 0.322583 0.003654 O2-
0.747295 0.630670 0.058537 O2-
0.247295 0.630670 0.017128 O2-
0.669352 0.527520 0.075070 O2-
0.169352 0.527520 0.017785 O2-
0.667159 0.790584 0.006579 O2-
0.167159 0.790584 0.042433 O2-
0.553292 0.761105 0.080648 O2-
0.053292 0.761105 0.056611 O2-
0.463335 0.697609 0.061430 O2-
0.963335 0.697609 0.003078 O2-
0.350606 0.665087 0.052798 O2-
0.850606 0.665087 0.017130 O2-
0.348215 0.931406 0.067705 O2-
0.848215 0.931406 0.041170 O2-
0.271458 0.824688 0.000160 O2-
0.771458 0.824688 0.043168 O2-
0.241625 0.135280 0.018637 O2-
0.741625 0.135280 0.056259 O2-
0.171199 0.019880 0.035152 O2-
0.671199 0.019880 0.058977 O2-
0.170027 0.286380 0.049417 O2-
0.670027 0.286380 0.000296 O2-
0.055640 0.257004 0.040030 O2-
0.555640 0.257004 0.014579 O2-
0.080441 0.467181 0.078334 O2-
0.580441 0.467181 0.024579 O2-
0.942366 0.484690 0.076754 O2-
0.442366 0.484690 0.023240 O2-
0.964587 0.129985 0.157139 O2-
0.464587 0.129985 0.085306 O2-
0.859372 0.340179 0.149449 O2-
0.359372 0.340179 0.141297 O2-
0.724144 0.518650 0.123832 O2-
0.224144 0.518650 0.137169 O2-
0.607741 0.706904 0.120922 O2-
0.107741 0.706904 0.108703 O2-
0.021852 0.919848 0.101899 O2-
0.521852 0.919848 0.092236 O2-
0.409378 0.749936 0.104828 O2-
0.909378 0.749936 0.117625 O2-
0.290596 0.936774 0.102170 O2-
0.790596 0.936774 0.089143 O2-
0.156445 0.116799 0.159883 O2-
0.656445 0.116799 0.084760 O2-
0.056520 0.325432 0.153370 O2-
0.556520 0.325432 0.139834 O2-
0.495673 0.536371 0.133633 O2-
0.995673 0.536371 0.124415 O2-
0.073889 0.970827 0.149253 O2-
0.573889 0.970827 0.119719 O2-
0.933926 0.994909 0.147986 O2-
0.433926 0.994909 0.116972 O2-
0.958651 0.204625 0.103038 O2-
0.458651 0.204625 0.126967 O2-
0.846743 0.171056 0.093191 O2-
0.346743 0.171056 0.142409 O2-
0.845353 0.439658 0.107752 O2-
0.345353 0.439658 0.166414 O2-
0.775410 0.322583 0.123358 O2-
0.275410 0.322583 0.086988 O2-
0.747295 0.630670 0.141870 O2-
0.247295 0.630670 0.100461 O2-
0.669352 0.527520 0.158404 O2-
0.169352 0.527520 0.101119 O2-
0.667159 0.790584 0.089912 O2-
0.167159 0.790584 0.125766 O2-
0.553292 0.761105 0.163981 O2-
0.053292 0.761105 0.139944 O2-
0.463335 0.697609 0.144763 O2-
0.963335 0.697609 0.086411 O2-
0.350606 0.665087 0.136131 O2-
0.850606 0.665087 0.100464 O2-
0.348215 0.931406 0.151038 O2-
0.848215 0.931406 0.124503 O2-
0.271458 0.824688 0.083494 O2-
0.771458 0.824688 0.126501 O2-
0.241625 0.135280 0.101970 O2-
0.741625 0.135280 0.139592 O2-
0.171199 0.019880 0.118485 O2-
0.671199 0.019880 0.142310 O2-
0.170027 0.286380 0.132750 O2-
0.670027 0.286380 0.083629 O2-
0.055640 0.257004 0.123363 O2-
0.555640 0.257004 0.097912 O2-
0.080441 0.467181 0.161667 O2-
0.580441 0.467181 0.107912 O2-
0.942366 0.484690 0.160088 O2-
0.442366 0.484690 0.106573 O2-
0.964587 0.129985 0.240472 O2-
0.464587 0.129985 0.168639 O2-
0.859372 0.340179 0.232782 O2-
0.359372 0.340179 0.224630 O2-
0.724144 0.518650 0.207166 O2-
0.224144 0.518650 0.220502 O2-
0.607741 0.706904 0.204256 O2-
0.107741 0.706904 0.192036 O2-
0.021852 0.919848 0.185232 O2-
0.521852 0.919848 0.175569 O2-
0.409378 0.749936 0.188161 O2-
0.909378 0.749936 0.200958 O2-
0.290596 0.936774 0.185503 O2-
0.790596 0.936774 0.172477 O2-
0.156445 0.116799 0.243216 O2-
0.656445 0.116799 0.168093 O2-
0.056520 0.325432 0.236703 O2-
0.556520 0.325432 0.223167 O2-
0.495673 0.536371 0.216966 O2-
0.995673 0.536371 0.207748 O2-
0.073889 0.970827 0.232586 O2-
0.573889 0.970827 0.203052 O2-
0.933926 0.994909 0.231319 O2-
0.433926 0.994909 0.200305 O2-
0.958651 0.204625 0.186371 O2-
0.458651 0.204625 0.210300 O2-
0.846743 0.171056 0.176524 O2-
0.346743 0.171056 0.225742 O2-
0.845353 0.439658 0.191085 O2-
0.345353 0.439658 0.249748 O2-
0.775410 0.322583 0.206691 O2-
0.275410 0.322583 0.170321 O2-
0.747295 0.630670 0.225203 O2-
0.247295 0.630670 0.183794 O2-
0.669352 0.527520 0.241737 O2-
0.169352 0.527520 0.184452 O2-
0.667159 0.790584 0.173246 O2-
0.167159 0.790584 0.209099 O2-
0.553292 0.761105 0.247314 O2-
0.053292 0.761105 0.223277 O2-
0.463335 0.697609 0.228096 O2-
0.963335 0.697609 0.169745 O2-
0.350606 0.665087 0.219464 O2-
0.850606 0.665087 0.183797 O2-
0.348215 0.931406 0.234371 O2-
0.848215 0.931406 0.207837 O2-
0.271458 0.824688 0.166827 O2-
0.771458 0.824688 0.209834 O2-
0.241625 0.135280 0.185303 O2-
0.741625 0.135280 0.222926 O2-
0.171199 0.019880 0.201819 O2-
0.671199 0.019880 0.225644 O2-
0.170027 0.286380 0.216084 O2-
0.670027 0.286380 0.166962 O2-
0.055640 0.257004 0.206696 O2-
0.555640 0.257004 0.181245 O2-
0.080441 0.467181 0.245000 O2-
0.580441 0.467181 0.191245 O2-
0.942366 0.484690 0.243421 O2-
0.442366 0.484690 0.189907 O2-
0.964587 0.129985 0.323806 O2-
0.464587 0.129985 0.251972 O2-
0.859372 0.340179 0.316116 O2-
0.359372 0.340179 0.307964 O2-
0.724144 0.518650 0.290499 O2-
0.224144 0.518650 0.303835 O2-
0.607741 0.706904 0.287589 O2-
0.107741 0.706904 0.275369 O2-
0.021852 0.919848 0.268565 O2-
0.521852 0.919848 0.258902 O2-
0.409378 0.749936 0.271495 O2-
0.909378 0.749936 0.284292 O2-
0.290596 0.936774 0.268837 O2-
0.790596 0.936774 0.255810 O2-
0.156445 0.116799 0.326549 O2-
0.656445 0.116799 0.251427 O2-
0.056520 0.325432 0.320036 O2-
0.556520 0.325432 0.306501 O2-
0.495673 0.536371 0.300299 O2-
0.995673 0.536371 0.291081 O2-
0.073889 0.970827 0.315919 O2-
0.573889 0.970827 0.286385 O2-
0.933926 0.994909 0.314652 O2-
0.433926 0.994909 0.283639 O2-
0.958651 0.204625 0.269704 O2-
0.458651 0.204625 0.293634 O2-
0.846743 0.171056 0.259858 O2-
0.346743 0.171056 0.309075 O2-
0.845353 0.439658 0.274419 O2-
0.345353 0.439658 0.333081 O2-
0.775410 0.322583 0.290024 O2-
0.275410 0.322583 0.253654 O2-
0.747295 0.630670 0.308537 O2-
0.247295 0.630670 0.267128 O2-
0.669352 0.527520 0.325070 O2-
0.169352 0.527520 0.267785 O2-
0.667159 0.790584 0.256579 O2-
0.167159 0.790584 0.292433 O2-
0.553292 0.761105 0.330648 O2-
0.053292 0.761105 0.306611 O2-
0.463335 0.697609 0.311430 O2-
0.963335 0.697609 0.253078 O2-
0.350606 0.665087 0.302798 O2-
0.850606 0.665087 0.267130 O2-
0.348215 0.931406 0.317705 O2-
0.848215 0.931406 0.291170 O2-
0.271458 0.824688 0.250160 O2-
0.771458 0.824688 0.293168 O2-
0.241625 0.135280 0.268637 O2-
0.741625 0.135280 0.306259 O2-
0.171199 0.019880 0.285152 O2-
0.671199 0.019880 0.308977 O2-
0.170027 0.286380 0.299417 O2-
0.670027 0.286380 0.250296 O2-
0.055640 0.257004 0.290030 O2-
0.555640 0.257004 0.264579 O2-
0.080441 0.467181 0.328334 O2-
0.580441 0.467181 0.274579 O2-
0.942366 0.484690 0.326754 O2-
0.442366 0.484690 0.273240 O2-
0.964587 0.129985 0.407139 O2-
0.464587 0.129985 0.335306 O2-
0.859372 0.340179 0.399449 O2-
0.359372 0.340179 0.391297 O2-
0.724144 0.518650 0.373832 O2-
0.224144 0.518650 0.387169 O2-
0.607741 0.706904 0.370922 O2-
0.107741 0.706904 0.358703 O2-
0.021852 0.919848 0.351899 O2-
0.521852 0.919848 0.342236 O2-
0.409378 0.749936 0.354828 O2-
0.909378 0.749936 0.367625 O2-
0.290596 0.936774 0.352170 O2-
0.790596 0.936774 0.339143 O2-
0.156445 0.116799 0.409883 O2-
0.656445 0.116799 0.334760 O2-
0.056520 0.325432 0.403370 O2-
0.556520 0.325432 0.389834 O2-
0.495673 0.536371 0.383633 O2-
0.995673 0.536371 0.374415 O2-
0.073889 0.970827 0.399253 O2-
0.573889 0.970827 0.369719 O2-
0.933926 0.994909 0.397986 O2-
0.433926 0.994909 0.366972 O2-
0.958651 0.204625 0.353038 O2-
0.458651 0.204625 0.376967 O2-
0.846743 0.171056 0.343191 O2-
0.346743 0.171056 0.392409 O2-
0.845353 0.439658 0.357752 O2-
0.345353 0.439658 0.416414 O2-
0.775410 0.322583 0.373358 O2-
0.275410 0.322583 0.336988 O2-
0.747295 0.630670 0.391870 O2-
0.247295 0.630670 0.350461 O2-
0.669352 0.527520 0.408404 O2-
0.169352 0.527520 0.351119 O2-
0.667159 0.790584 0.339912 O2-
0.167159 0.790584 0.375766 O2-
0.553292 0.761105 0.413981 O2-
0.053292 0.761105 0.389944 O2-
0.463335 0.697609 0.394763 O2-
0.963335 0.697609 0.336411 O2-
0.350606 0.665087 0.386131 O2-
0.850606 0.665087 0.350464 O2-
0.348215 0.931406 0.401038 O2-
0.848215 0.931406 0.374503 O2-
0.271458 0.824688 0.333494 O2-
0.771458 0.824688 0.376501 O2-
0.241625 0.135280 0.351970 O2-
0.741625 0.135280 0.389592 O2-
0.171199 0.019880 0.368485 O2-
0.671199 0.019880 0.392310 O2-
0.170027 0.286380 0.382750 O2-
0.670027 0.286380 0.333629 O2-
0.055640 0.257004 0.373363 O2-
0.555640 0.257004 0.347912 O2-
0.080441 0.467181 0.411667 O2-
0.580441 0.467181 0.357912 O2-
0.942366 0.484690 0.410088 O2-
0.442366 0.484690 0.356573 O2-
0.964587 0.129985 0.490472 O2-
0.464587 0.129985 0.418639 O2-
0.859372 0.340179 0.482782 O2-
0.359372 0.340179 0.474630 O2-
0.724144 0.518650 0.457166 O2-
0.224144 0.518650 0.470502 O2-
0.607741 0.706904 0.454256 O2-
0.107741 0.706904 0.442036 O2-
0.021852 0.919848 0.435232 O2-
0.521852 0.919848 0.425569 O2-
0.409378 0.749936 0.438161 O2-
0.909378 0.749936 0.450958 O2-
0.290596 0.936774 0.435503 O2-
0.790596 0.936774 0.422477 O2-
0.156445 0.116799 0.493216 O2-
0.656445 0.116799 0.418093 O2-
0.056520 0.325432 0.486703 O2-
0.556520 0.325432 0.473167 O2-
0.495673 0.536371 0.466966 O2-
0.995673 0.536371 0.457748 O2-
0.073889 0.970827 0.482586 O2-
0.573889 0.970827 0.453052 O2-
0.933926 0.994909 0.481319 O2-
0.433926 0.994909 0.450305 O2-
0.958651 0.204625 0.436371 O2-
0.458651 0.204625 0.460300 O2-
0.846743 0.171056 0.426524 O2-
0.346743 0.171056 0.475742 O2-
0.845353 0.439658 0.441085 O2-
0.345353 0.439658 0.499748 O2-
0.775410 0.322583 0.456691 O2-
0.275410 0.322583 0.420321 O2-
0.747295 0.630670 0.475203 O2-
0.247295 0.630670 0.433794 O2-
0.669352 0.527520 0.491737 O2-
0.169352 0.527520 0.434452 O2-
0.667159 0.790584 0.423246 O2-
0.167159 0.790584 0.459099 O2-
0.553292 0.761105 0.497314 O2-
0.053292 0.761105 0.473277 O2-
0.463335 0.697609 0.478096 O2-
0.963335 0.697609 0.419745 O2-
0.350606 0.665087 0.469464 O2-
0.850606 0.665087 0.433797 O2-
0.348215 0.931406 0.484371 O2-
0.848215 0.931406 0.457837 O2-
0.271458 0.824688 0.416827 O2-
0.771458 0.824688 0.459834 O2-
0.241625 0.135280 0.435303 O2-
0.741625 0.135280 0.472926 O2-
0.171199 0.019880 0.451819 O2-
0.671199 0.019880 0.475644 O2-
0.170027 0.286380 0.466084 O2-
0.670027 0.286380 0.416962 O2-
0.055640 0.257004 0.456696 O2-
0.555640 0.257004 0.431245 O2-
0.080441 0.467181 0.495000 O2-
0.580441 0.467181 0.441245 O2-
0.942366 0.484690 0.493421 O2-
0.442366 0.484690 0.439907 O2-
0.964587 0.129985 0.573806 O2-
0.464587 0.129985 0.501972 O2-
0.859372 0.340179 0.566116 O2-
0.359372 0.340179 0.557964 O2-
0.724144 0.518650 0.540499 O2-
0.224144 0.518650 0.553835 O2-
0.607741 0.706904 0.537589 O2-
0.107741 0.706904 0.525369 O2-
0.021852 0.919848 0.518565 O2-
0.521852 0.919848 0.508902 O2-
0.409378 0.749936 0.521495 O2-
0.909378 0.749936 0.534292 O2-
0.290596 0.936774 0.518837 O2-
0.790596 0.936774 0.505810 O2-
0.156445 0.116799 0.576549 O2-
0.656445 0.116799 0.501427 O2-
0.056520 0.325432 0.570036 O2-
0.556520 0.325432 0.556501 O2-
0.495673 0.536371 0.550299 O2-
0.995673 0.536371 0.541081 O2-
0.073889 0.970827 0.565919 O2-
0.573889 0.970827 0.536385 O2-
0.933926 0.994909 0.564652 O2-
0.433926 0.994909 0.533639 O2-
0.958651 0.204625 0.519704 O2-
0.458651 0.204625 0.543634 O2-
0.846743 0.171056 0.509858 O2-
0.346743 0.171056 0.559075 O2-
0.845353 0.439658 0.524419 O2-
0.345353 0.439658 0.583081 O2-
0.775410 0.322583 0.540024 O2-
0.275410 0.322583 0.503654 O2-
0.747295 0.630670 0.558537 O2-
0.247295 0.630670 0.517128 O2-
0.669352 0.527520 0.575070 O2-
0.169352 0.527520 0.517785 O2-
0.667159 0.790584 0.506579 O2-
0.167159 0.790584 0.542433 O2-
0.553292 0.761105 0.580648 O2-
0.053292 0.761105 0.556611 O2-
0.463335 0.697609 0.561430 O2-
0.963335 0.697609 0.503078 O2-
0.350606 0.665087 0.552798 O2-
0.850606 0.665087 0.517130 O2-
0.348215 0.931406 0.567705 O2-
0.848215 0.931406 0.541170 O2-
0.271458 0.824688 0.500160 O2-
0.771458 0.824688 0.543168 O2-
0.241625 0.135280 0.518637 O2-
0.741625 0.135280 0.556259 O2-
0.171199 0.019880 0.535152 O2-
0.671199 0.019880 0.558977 O2-
0.170027 0.286380 0.549417 O2-
0.670027 0.286380 0.500296 O2-
0.055640 0.257004 0.540030 O2-
0.555640 0.257004 0.514579 O2-
0.080441 0.467181 0.578334 O2-
0.580441 0.467181 0.524579 O2-
0.942366 0.484690 0.576754 O2-
0.442366 0.484690 0.523240 O2-
