Li1 N3
1.0
1.709679 2.897283 0.000382
-1.709679 2.897283 0.000382
0.000000 1.510013 4.856933
Li N
1 3
direct
-0.000000 -0.000000 -0.000000 Li
0.605876 0.605876 0.256533 N
0.394124 0.394124 0.743467 N
0.500000 0.500000 0.500000 N
