Li28 P14 N14 O28
1.0
5.326139 0.000000 0.213140
2.513782 6.660749 0.530285
0.000000 0.000000 43.506175
Li P N O
28 14 14 28
Selective dynamics
direct
0.800983 0.124753 0.935730 T T T Li+
0.208790 0.277681 0.961218 T T T Li+
0.848075 0.694110 0.947290 T T T Li+
0.671038 0.002720 0.998725 T T T Li+
0.570214 0.663215 0.858807 F F F Li+
0.978021 0.816142 0.884295 F F F Li+
0.617306 0.232571 0.870366 T T T Li+
0.440269 0.541182 0.921802 T T T Li+
0.339445 0.201676 0.781884 F F F Li+
0.747252 0.354604 0.807372 F F F Li+
0.386537 0.771033 0.793443 F F F Li+
0.209499 0.079644 0.844878 T T T Li+
0.108676 0.740138 0.704961 F F F Li+
0.516482 0.893065 0.730449 F F F Li+
0.155768 0.309494 0.716520 F F F Li+
0.978730 0.618105 0.767955 F F F Li+
0.877906 0.278599 0.628038 F F F Li+
0.285713 0.431527 0.653526 F F F Li+
0.924999 0.847956 0.639597 F F F Li+
0.747961 0.156567 0.691032 F F F Li+
0.647137 0.817061 0.551115 T T T Li+
0.054944 0.969988 0.576603 T T T Li+
0.694229 0.386417 0.562674 F F F Li+
0.517192 0.695028 0.614109 F F F Li+
0.416368 0.355522 0.474192 T T T Li+
0.824175 0.508450 0.499680 T T T Li+
0.463460 0.924879 0.485751 T T T Li+
0.286423 0.233490 0.537186 F F F Li+
0.616578 0.432984 0.987609 T T T P5+
0.264655 0.844138 0.972802 T T T P5+
0.385809 0.971446 0.910686 F F F P5+
0.033886 0.382599 0.895879 T T T P5+
0.155040 0.509907 0.833763 F F F P5+
0.803117 0.921061 0.818956 F F F P5+
0.924271 0.048369 0.756840 F F F P5+
0.572347 0.459523 0.742032 F F F P5+
0.693501 0.586830 0.679917 F F F P5+
0.341578 0.997984 0.665109 T T T P5+
0.462732 0.125292 0.602994 F F F P5+
0.110809 0.536446 0.588186 T T T P5+
0.231963 0.663753 0.526071 T T T P5+
0.880040 0.074907 0.511263 T T T P5+
0.216925 0.009842 0.943308 T T T N3-
0.506156 0.636304 0.964385 T T T N3-
0.986156 0.548304 0.866385 F F F N3-
0.275386 0.174765 0.887462 T T T N3-
0.755386 0.086765 0.789462 F F F N3-
0.044617 0.713227 0.810539 F F F N3-
0.524617 0.625227 0.712539 F F F N3-
0.813848 0.251688 0.733616 F F F N3-
0.293848 0.163688 0.635616 F F F N3-
0.583079 0.790150 0.656693 F F F N3-
0.063079 0.702150 0.558693 T T T N3-
0.352309 0.328611 0.579770 F F F N3-
0.832309 0.240611 0.481770 T T T N3-
0.121540 0.867073 0.502847 T T T N3-
0.580461 0.256034 0.971353 T T T O2-
0.922731 0.384385 0.992745 T T T O2-
0.106654 0.474031 0.924352 T T T O2-
0.995154 0.807219 0.979884 T T T O2-
0.349692 0.794495 0.894430 F F F O2-
0.691961 0.922847 0.915821 F F F O2-
0.875885 0.012493 0.847429 T T T O2-
0.764384 0.345680 0.902960 T T T O2-
0.118923 0.332957 0.817507 F F F O2-
0.461192 0.461308 0.838898 F F F O2-
0.645115 0.550954 0.770506 F F F O2-
0.533615 0.884142 0.826037 F F F O2-
0.888153 0.871419 0.740583 F F F O2-
0.230423 0.999770 0.761975 F F F O2-
0.414346 0.089416 0.693583 F F F O2-
0.302846 0.422603 0.749114 F F F O2-
0.657384 0.409880 0.663660 F F F O2-
0.999654 0.538231 0.685052 F F F O2-
0.183577 0.627877 0.616660 F F F O2-
0.072077 0.961065 0.672191 F F F O2-
0.426615 0.948342 0.586737 T T T O2-
0.768885 0.076693 0.608129 F F F O2-
0.952808 0.166339 0.539737 F F F O2-
0.841307 0.499526 0.595268 F F F O2-
0.195846 0.486803 0.509814 T T T O2-
0.538115 0.615154 0.531206 T T T O2-
0.722038 0.704800 0.462814 T T T O2-
0.610538 0.037988 0.518345 F F F O2-
