Li140 P140 O420
1.0
5.521558 0.000000 0.000000
0.000000 16.540545 2.677750
0.000000 0.000000 119.816820
Li P O
140 140 420
direct
0.494607 0.818220 0.108723 Li+
0.505393 0.318220 0.053167 Li+
0.484419 0.934004 0.011152 Li+
0.515581 0.434004 0.066707 Li+
0.505784 0.049457 0.024532 Li+
0.494216 0.549457 0.080087 Li+
0.507224 0.164548 0.037817 Li+
0.492776 0.664548 0.093373 Li+
0.992783 0.241566 0.045638 Li+
0.007217 0.741566 0.101194 Li+
0.521194 0.318286 0.108961 Li+
0.478806 0.818286 0.053406 Li+
0.476313 0.433730 0.011305 Li+
0.523687 0.933730 0.066861 Li+
0.533250 0.550453 0.024548 Li+
0.466750 0.050453 0.080103 Li+
0.477737 0.667016 0.037856 Li+
0.522263 0.167016 0.093412 Li+
0.960889 0.743634 0.045860 Li+
0.039111 0.243634 0.101415 Li+
0.494607 0.818220 0.219834 Li+
0.505393 0.318220 0.164278 Li+
0.484419 0.934004 0.122263 Li+
0.515581 0.434004 0.177819 Li+
0.505784 0.049457 0.135643 Li+
0.494216 0.549457 0.191199 Li+
0.507224 0.164548 0.148928 Li+
0.492776 0.664548 0.204484 Li+
0.992783 0.241566 0.156749 Li+
0.007217 0.741566 0.212305 Li+
0.521194 0.318286 0.220073 Li+
0.478806 0.818286 0.164517 Li+
0.476313 0.433730 0.122416 Li+
0.523687 0.933730 0.177972 Li+
0.533250 0.550453 0.135659 Li+
0.466750 0.050453 0.191214 Li+
0.477737 0.667016 0.148967 Li+
0.522263 0.167016 0.204523 Li+
0.960889 0.743634 0.156971 Li+
0.039111 0.243634 0.212526 Li+
0.494607 0.818220 0.330945 Li+
0.505393 0.318220 0.275389 Li+
0.484419 0.934004 0.233374 Li+
0.515581 0.434004 0.288930 Li+
0.505784 0.049457 0.246754 Li+
0.494216 0.549457 0.302310 Li+
0.507224 0.164548 0.260040 Li+
0.492776 0.664548 0.315595 Li+
0.992783 0.241566 0.267860 Li+
0.007217 0.741566 0.323416 Li+
0.521194 0.318286 0.331184 Li+
0.478806 0.818286 0.275628 Li+
0.476313 0.433730 0.233527 Li+
0.523687 0.933730 0.289083 Li+
0.533250 0.550453 0.246770 Li+
0.466750 0.050453 0.302326 Li+
0.477737 0.667016 0.260078 Li+
0.522263 0.167016 0.315634 Li+
0.960889 0.743634 0.268082 Li+
0.039111 0.243634 0.323638 Li+
0.494607 0.818220 0.442056 Li+
0.505393 0.318220 0.386500 Li+
0.484419 0.934004 0.344485 Li+
0.515581 0.434004 0.400041 Li+
0.505784 0.049457 0.357865 Li+
0.494216 0.549457 0.413421 Li+
0.507224 0.164548 0.371151 Li+
0.492776 0.664548 0.426706 Li+
0.992783 0.241566 0.378971 Li+
0.007217 0.741566 0.434527 Li+
0.521194 0.318286 0.442295 Li+
0.478806 0.818286 0.386739 Li+
0.476313 0.433730 0.344639 Li+
0.523687 0.933730 0.400194 Li+
0.533250 0.550453 0.357881 Li+
0.466750 0.050453 0.413437 Li+
0.477737 0.667016 0.371189 Li+
0.522263 0.167016 0.426745 Li+
0.960889 0.743634 0.379193 Li+
0.039111 0.243634 0.434749 Li+
0.494607 0.818220 0.553167 Li+
0.505393 0.318220 0.497611 Li+
0.484419 0.934004 0.455596 Li+
0.515581 0.434004 0.511152 Li+
0.505784 0.049457 0.468976 Li+
0.494216 0.549457 0.524532 Li+
0.507224 0.164548 0.482262 Li+
0.492776 0.664548 0.537817 Li+
0.992783 0.241566 0.490082 Li+
0.007217 0.741566 0.545638 Li+
0.521194 0.318286 0.553406 Li+
0.478806 0.818286 0.497850 Li+
0.476313 0.433730 0.455750 Li+
0.523687 0.933730 0.511305 Li+
0.533250 0.550453 0.468992 Li+
0.466750 0.050453 0.524548 Li+
0.477737 0.667016 0.482301 Li+
0.522263 0.167016 0.537856 Li+
0.960889 0.743634 0.490304 Li+
0.039111 0.243634 0.545860 Li+
0.494607 0.818220 0.664278 Li+
0.505393 0.318220 0.608723 Li+
0.484419 0.934004 0.566708 Li+
0.515581 0.434004 0.622263 Li+
0.505784 0.049457 0.580087 Li+
0.494216 0.549457 0.635643 Li+
0.507224 0.164548 0.593373 Li+
0.492776 0.664548 0.648929 Li+
0.992783 0.241566 0.601194 Li+
0.007217 0.741566 0.656749 Li+
0.521194 0.318286 0.664517 Li+
0.478806 0.818286 0.608961 Li+
0.476313 0.433730 0.566861 Li+
0.523687 0.933730 0.622416 Li+
0.533250 0.550453 0.580103 Li+
0.466750 0.050453 0.635659 Li+
0.477737 0.667016 0.593412 Li+
0.522263 0.167016 0.648967 Li+
0.960889 0.743634 0.601415 Li+
0.039111 0.243634 0.656971 Li+
0.494607 0.818220 0.775389 Li+
0.505393 0.318220 0.719834 Li+
0.484419 0.934004 0.677819 Li+
0.515581 0.434004 0.733374 Li+
0.505784 0.049457 0.691199 Li+
0.494216 0.549457 0.746754 Li+
0.507224 0.164548 0.704484 Li+
0.492776 0.664548 0.760040 Li+
0.992783 0.241566 0.712305 Li+
0.007217 0.741566 0.767860 Li+
0.521194 0.318286 0.775628 Li+
0.478806 0.818286 0.720072 Li+
0.476313 0.433730 0.677972 Li+
0.523687 0.933730 0.733527 Li+
0.533250 0.550453 0.691214 Li+
0.466750 0.050453 0.746770 Li+
0.477737 0.667016 0.704523 Li+
0.522263 0.167016 0.760078 Li+
0.960889 0.743634 0.712526 Li+
0.039111 0.243634 0.768082 Li+
0.185377 0.000413 0.102445 P5+
0.814623 0.500413 0.046890 P5+
0.843317 0.093280 0.003948 P5+
0.156683 0.593280 0.059504 P5+
0.188444 0.197061 0.014142 P5+
0.811556 0.697061 0.069697 P5+
0.828977 0.308311 0.022944 P5+
0.171023 0.808311 0.078500 P5+
0.159739 0.408249 0.034061 P5+
0.840261 0.908249 0.089617 P5+
0.843930 0.574567 0.001524 P5+
0.156070 0.074567 0.057079 P5+
0.174322 0.674438 0.012691 P5+
0.825678 0.174438 0.068246 P5+
0.812278 0.786455 0.021452 P5+
0.187722 0.286455 0.077008 P5+
0.151901 0.889856 0.031720 P5+
0.848099 0.389856 0.087275 P5+
0.809867 0.982845 0.044308 P5+
0.190133 0.482845 0.099864 P5+
0.185377 0.000413 0.213557 P5+
0.814623 0.500413 0.158001 P5+
0.843317 0.093280 0.115059 P5+
0.156683 0.593280 0.170615 P5+
0.188444 0.197061 0.125253 P5+
0.811556 0.697061 0.180809 P5+
0.828977 0.308311 0.134055 P5+
0.171023 0.808311 0.189611 P5+
0.159739 0.408249 0.145172 P5+
0.840261 0.908249 0.200728 P5+
0.843930 0.574567 0.112635 P5+
0.156070 0.074567 0.168190 P5+
0.174322 0.674438 0.123802 P5+
0.825678 0.174438 0.179357 P5+
0.812278 0.786455 0.132563 P5+
0.187722 0.286455 0.188119 P5+
0.151901 0.889856 0.142831 P5+
0.848099 0.389856 0.198387 P5+
0.809867 0.982845 0.155420 P5+
0.190133 0.482845 0.210975 P5+
0.185377 0.000413 0.324668 P5+
0.814623 0.500413 0.269112 P5+
0.843317 0.093280 0.226170 P5+
0.156683 0.593280 0.281726 P5+
0.188444 0.197061 0.236364 P5+
0.811556 0.697061 0.291920 P5+
0.828977 0.308311 0.245166 P5+
0.171023 0.808311 0.300722 P5+
0.159739 0.408249 0.256283 P5+
0.840261 0.908249 0.311839 P5+
0.843930 0.574567 0.223746 P5+
0.156070 0.074567 0.279302 P5+
0.174322 0.674438 0.234913 P5+
0.825678 0.174438 0.290468 P5+
0.812278 0.786455 0.243674 P5+
0.187722 0.286455 0.299230 P5+
0.151901 0.889856 0.253942 P5+
0.848099 0.389856 0.309498 P5+
0.809867 0.982845 0.266531 P5+
0.190133 0.482845 0.322086 P5+
0.185377 0.000413 0.435779 P5+
0.814623 0.500413 0.380223 P5+
0.843317 0.093280 0.337282 P5+
0.156683 0.593280 0.392837 P5+
0.188444 0.197061 0.347475 P5+
0.811556 0.697061 0.403031 P5+
0.828977 0.308311 0.356277 P5+
0.171023 0.808311 0.411833 P5+
0.159739 0.408249 0.367395 P5+
0.840261 0.908249 0.422950 P5+
0.843930 0.574567 0.334857 P5+
0.156070 0.074567 0.390413 P5+
0.174322 0.674438 0.346024 P5+
0.825678 0.174438 0.401579 P5+
0.812278 0.786455 0.354785 P5+
0.187722 0.286455 0.410341 P5+
0.151901 0.889856 0.365053 P5+
0.848099 0.389856 0.420609 P5+
0.809867 0.982845 0.377642 P5+
0.190133 0.482845 0.433197 P5+
0.185377 0.000413 0.546890 P5+
0.814623 0.500413 0.491334 P5+
0.843317 0.093280 0.448393 P5+
0.156683 0.593280 0.503948 P5+
0.188444 0.197061 0.458586 P5+
0.811556 0.697061 0.514142 P5+
0.828977 0.308311 0.467388 P5+
0.171023 0.808311 0.522944 P5+
0.159739 0.408249 0.478506 P5+
0.840261 0.908249 0.534061 P5+
0.843930 0.574567 0.445968 P5+
0.156070 0.074567 0.501524 P5+
0.174322 0.674438 0.457135 P5+
0.825678 0.174438 0.512691 P5+
0.812278 0.786455 0.465897 P5+
0.187722 0.286455 0.521452 P5+
0.151901 0.889856 0.476164 P5+
0.848099 0.389856 0.531720 P5+
0.809867 0.982845 0.488753 P5+
0.190133 0.482845 0.544308 P5+
0.185377 0.000413 0.658001 P5+
0.814623 0.500413 0.602445 P5+
0.843317 0.093280 0.559504 P5+
0.156683 0.593280 0.615059 P5+
0.188444 0.197061 0.569697 P5+
0.811556 0.697061 0.625253 P5+
0.828977 0.308311 0.578500 P5+
0.171023 0.808311 0.634055 P5+
0.159739 0.408249 0.589617 P5+
0.840261 0.908249 0.645172 P5+
0.843930 0.574567 0.557079 P5+
0.156070 0.074567 0.612635 P5+
0.174322 0.674438 0.568246 P5+
0.825678 0.174438 0.623802 P5+
0.812278 0.786455 0.577008 P5+
0.187722 0.286455 0.632563 P5+
0.151901 0.889856 0.587276 P5+
0.848099 0.389856 0.642831 P5+
0.809867 0.982845 0.599864 P5+
0.190133 0.482845 0.655420 P5+
0.185377 0.000413 0.769112 P5+
0.814623 0.500413 0.713557 P5+
0.843317 0.093280 0.670615 P5+
0.156683 0.593280 0.726170 P5+
0.188444 0.197061 0.680809 P5+
0.811556 0.697061 0.736364 P5+
0.828977 0.308311 0.689611 P5+
0.171023 0.808311 0.745166 P5+
0.159739 0.408249 0.700728 P5+
0.840261 0.908249 0.756283 P5+
0.843930 0.574567 0.668190 P5+
0.156070 0.074567 0.723746 P5+
0.174322 0.674438 0.679357 P5+
0.825678 0.174438 0.734913 P5+
0.812278 0.786455 0.688119 P5+
0.187722 0.286455 0.743674 P5+
0.151901 0.889856 0.698387 P5+
0.848099 0.389856 0.753942 P5+
0.809867 0.982845 0.710975 P5+
0.190133 0.482845 0.766531 P5+
0.069000 0.035413 0.001975 O2-
0.931000 0.535413 0.057530 O2-
0.951087 0.140628 0.013639 O2-
0.048913 0.640628 0.069195 O2-
0.080018 0.275856 0.018444 O2-
0.919982 0.775856 0.074000 O2-
0.926681 0.392259 0.026427 O2-
0.073319 0.892259 0.081983 O2-
0.942022 0.978148 0.096100 O2-
0.057978 0.478148 0.040545 O2-
0.076781 0.590622 0.009168 O2-
0.923219 0.090622 0.064724 O2-
0.921841 0.709404 0.016730 O2-
0.078159 0.209404 0.072286 O2-
0.049265 0.843555 0.021827 O2-
0.950735 0.343555 0.077383 O2-
0.918787 0.943480 0.033906 O2-
0.081213 0.443480 0.089461 O2-
0.944691 0.504327 0.106138 O2-
0.055309 0.004327 0.050583 O2-
0.322795 0.926111 0.107546 O2-
0.677205 0.426111 0.051991 O2-
0.313918 0.066074 0.094671 O2-
0.686082 0.566074 0.039115 O2-
0.643576 0.041349 0.009609 O2-
0.356424 0.541349 0.065164 O2-
0.795305 0.153257 0.104556 O2-
0.204695 0.653257 0.049000 O2-
0.351974 0.154647 0.023135 O2-
0.648026 0.654647 0.078690 O2-
0.281781 0.224590 0.002355 O2-
0.718219 0.724590 0.057911 O2-
0.751546 0.252705 0.033463 O2-
0.248454 0.752705 0.089019 O2-
0.656290 0.330648 0.013342 O2-
0.343710 0.830648 0.068897 O2-
0.215121 0.332841 0.042327 O2-
0.784879 0.832841 0.097883 O2-
0.355777 0.446708 0.026400 O2-
0.644223 0.946708 0.081955 O2-
0.649890 0.536665 0.009350 O2-
0.350110 0.036665 0.064905 O2-
0.785996 0.649394 0.104322 O2-
0.214004 0.149394 0.048766 O2-
0.340793 0.651785 0.022536 O2-
0.659207 0.151785 0.078091 O2-
0.258044 0.728542 0.002150 O2-
0.741956 0.228542 0.057705 O2-
0.725734 0.758375 0.033345 O2-
0.274266 0.258375 0.088901 O2-
0.642950 0.828801 0.012698 O2-
0.357050 0.328801 0.068253 O2-
0.205272 0.829973 0.042179 O2-
0.794728 0.329973 0.097734 O2-
0.347295 0.944360 0.026205 O2-
0.652705 0.444360 0.081761 O2-
0.677470 0.919559 0.052314 O2-
0.322530 0.419559 0.107869 O2-
0.678914 0.057634 0.038917 O2-
0.321086 0.557634 0.094473 O2-
0.069000 0.035413 0.113086 O2-
0.931000 0.535413 0.168641 O2-
0.951087 0.140628 0.124750 O2-
0.048913 0.640628 0.180306 O2-
0.080018 0.275856 0.129555 O2-
0.919982 0.775856 0.185111 O2-
0.926681 0.392259 0.137539 O2-
0.073319 0.892259 0.193094 O2-
0.942022 0.978148 0.207211 O2-
0.057978 0.478148 0.151656 O2-
0.076781 0.590622 0.120279 O2-
0.923219 0.090622 0.175835 O2-
0.921841 0.709404 0.127841 O2-
0.078159 0.209404 0.183397 O2-
0.049265 0.843555 0.132938 O2-
0.950735 0.343555 0.188494 O2-
0.918787 0.943480 0.145017 O2-
0.081213 0.443480 0.200573 O2-
0.944691 0.504327 0.217249 O2-
0.055309 0.004327 0.161694 O2-
0.322795 0.926111 0.218658 O2-
0.677205 0.426111 0.163102 O2-
0.313918 0.066074 0.205782 O2-
0.686082 0.566074 0.150226 O2-
0.643576 0.041349 0.120720 O2-
0.356424 0.541349 0.176275 O2-
0.795305 0.153257 0.215667 O2-
0.204695 0.653257 0.160111 O2-
0.351974 0.154647 0.134246 O2-
0.648026 0.654647 0.189801 O2-
0.281781 0.224590 0.113466 O2-
0.718219 0.724590 0.169022 O2-
0.751546 0.252705 0.144574 O2-
0.248454 0.752705 0.200130 O2-
0.656290 0.330648 0.124453 O2-
0.343710 0.830648 0.180008 O2-
0.215121 0.332841 0.153438 O2-
0.784879 0.832841 0.208994 O2-
0.355777 0.446708 0.137511 O2-
0.644223 0.946708 0.193067 O2-
0.649890 0.536665 0.120461 O2-
0.350110 0.036665 0.176016 O2-
0.785996 0.649394 0.215433 O2-
0.214004 0.149394 0.159877 O2-
0.340793 0.651785 0.133647 O2-
0.659207 0.151785 0.189202 O2-
0.258044 0.728542 0.113261 O2-
0.741956 0.228542 0.168816 O2-
0.725734 0.758375 0.144456 O2-
0.274266 0.258375 0.200012 O2-
0.642950 0.828801 0.123809 O2-
0.357050 0.328801 0.179364 O2-
0.205272 0.829973 0.153290 O2-
0.794728 0.329973 0.208845 O2-
0.347295 0.944360 0.137316 O2-
0.652705 0.444360 0.192872 O2-
0.677470 0.919559 0.163425 O2-
0.322530 0.419559 0.218980 O2-
0.678914 0.057634 0.150029 O2-
0.321086 0.557634 0.205584 O2-
0.069000 0.035413 0.224197 O2-
0.931000 0.535413 0.279753 O2-
0.951087 0.140628 0.235861 O2-
0.048913 0.640628 0.291417 O2-
0.080018 0.275856 0.240666 O2-
0.919982 0.775856 0.296222 O2-
0.926681 0.392259 0.248650 O2-
0.073319 0.892259 0.304205 O2-
0.942022 0.978148 0.318322 O2-
0.057978 0.478148 0.262767 O2-
0.076781 0.590622 0.231391 O2-
0.923219 0.090622 0.286946 O2-
0.921841 0.709404 0.238952 O2-
0.078159 0.209404 0.294508 O2-
0.049265 0.843555 0.244049 O2-
0.950735 0.343555 0.299605 O2-
0.918787 0.943480 0.256128 O2-
0.081213 0.443480 0.311684 O2-
0.944691 0.504327 0.328361 O2-
0.055309 0.004327 0.272805 O2-
0.322795 0.926111 0.329769 O2-
0.677205 0.426111 0.274213 O2-
0.313918 0.066074 0.316893 O2-
0.686082 0.566074 0.261337 O2-
0.643576 0.041349 0.231831 O2-
0.356424 0.541349 0.287386 O2-
0.795305 0.153257 0.326778 O2-
0.204695 0.653257 0.271222 O2-
0.351974 0.154647 0.245357 O2-
0.648026 0.654647 0.300912 O2-
0.281781 0.224590 0.224577 O2-
0.718219 0.724590 0.280133 O2-
0.751546 0.252705 0.255685 O2-
0.248454 0.752705 0.311241 O2-
0.656290 0.330648 0.235564 O2-
0.343710 0.830648 0.291119 O2-
0.215121 0.332841 0.264549 O2-
0.784879 0.832841 0.320105 O2-
0.355777 0.446708 0.248622 O2-
0.644223 0.946708 0.304178 O2-
0.649890 0.536665 0.231572 O2-
0.350110 0.036665 0.287127 O2-
0.785996 0.649394 0.326544 O2-
0.214004 0.149394 0.270988 O2-
0.340793 0.651785 0.244758 O2-
0.659207 0.151785 0.300314 O2-
0.258044 0.728542 0.224372 O2-
0.741956 0.228542 0.279927 O2-
0.725734 0.758375 0.255567 O2-
0.274266 0.258375 0.311123 O2-
0.642950 0.828801 0.234920 O2-
0.357050 0.328801 0.290476 O2-
0.205272 0.829973 0.264401 O2-
0.794728 0.329973 0.319956 O2-
0.347295 0.944360 0.248427 O2-
0.652705 0.444360 0.303983 O2-
0.677470 0.919559 0.274536 O2-
0.322530 0.419559 0.330091 O2-
0.678914 0.057634 0.261140 O2-
0.321086 0.557634 0.316695 O2-
0.069000 0.035413 0.335308 O2-
0.931000 0.535413 0.390864 O2-
0.951087 0.140628 0.346973 O2-
0.048913 0.640628 0.402528 O2-
0.080018 0.275856 0.351777 O2-
0.919982 0.775856 0.407333 O2-
0.926681 0.392259 0.359761 O2-
0.073319 0.892259 0.415316 O2-
0.942022 0.978148 0.429433 O2-
0.057978 0.478148 0.373878 O2-
0.076781 0.590622 0.342502 O2-
0.923219 0.090622 0.398057 O2-
0.921841 0.709404 0.350063 O2-
0.078159 0.209404 0.405619 O2-
0.049265 0.843555 0.355161 O2-
0.950735 0.343555 0.410716 O2-
0.918787 0.943480 0.367239 O2-
0.081213 0.443480 0.422795 O2-
0.944691 0.504327 0.439472 O2-
0.055309 0.004327 0.383916 O2-
0.322795 0.926111 0.440880 O2-
0.677205 0.426111 0.385324 O2-
0.313918 0.066074 0.428004 O2-
0.686082 0.566074 0.372448 O2-
0.643576 0.041349 0.342942 O2-
0.356424 0.541349 0.398497 O2-
0.795305 0.153257 0.437889 O2-
0.204695 0.653257 0.382333 O2-
0.351974 0.154647 0.356468 O2-
0.648026 0.654647 0.412024 O2-
0.281781 0.224590 0.335688 O2-
0.718219 0.724590 0.391244 O2-
0.751546 0.252705 0.366796 O2-
0.248454 0.752705 0.422352 O2-
0.656290 0.330648 0.346675 O2-
0.343710 0.830648 0.402230 O2-
0.215121 0.332841 0.375660 O2-
0.784879 0.832841 0.431216 O2-
0.355777 0.446708 0.359733 O2-
0.644223 0.946708 0.415289 O2-
0.649890 0.536665 0.342683 O2-
0.350110 0.036665 0.398238 O2-
0.785996 0.649394 0.437655 O2-
0.214004 0.149394 0.382099 O2-
0.340793 0.651785 0.355869 O2-
0.659207 0.151785 0.411425 O2-
0.258044 0.728542 0.335483 O2-
0.741956 0.228542 0.391039 O2-
0.725734 0.758375 0.366678 O2-
0.274266 0.258375 0.422234 O2-
0.642950 0.828801 0.346031 O2-
0.357050 0.328801 0.401587 O2-
0.205272 0.829973 0.375512 O2-
0.794728 0.329973 0.431068 O2-
0.347295 0.944360 0.359538 O2-
0.652705 0.444360 0.415094 O2-
0.677470 0.919559 0.385647 O2-
0.322530 0.419559 0.441203 O2-
0.678914 0.057634 0.372251 O2-
0.321086 0.557634 0.427806 O2-
0.069000 0.035413 0.446419 O2-
0.931000 0.535413 0.501975 O2-
0.951087 0.140628 0.458084 O2-
0.048913 0.640628 0.513639 O2-
0.080018 0.275856 0.462888 O2-
0.919982 0.775856 0.518444 O2-
0.926681 0.392259 0.470872 O2-
0.073319 0.892259 0.526427 O2-
0.942022 0.978148 0.540545 O2-
0.057978 0.478148 0.484989 O2-
0.076781 0.590622 0.453613 O2-
0.923219 0.090622 0.509168 O2-
0.921841 0.709404 0.461175 O2-
0.078159 0.209404 0.516730 O2-
0.049265 0.843555 0.466272 O2-
0.950735 0.343555 0.521827 O2-
0.918787 0.943480 0.478350 O2-
0.081213 0.443480 0.533906 O2-
0.944691 0.504327 0.550583 O2-
0.055309 0.004327 0.495027 O2-
0.322795 0.926111 0.551991 O2-
0.677205 0.426111 0.496435 O2-
0.313918 0.066074 0.539115 O2-
0.686082 0.566074 0.483560 O2-
0.643576 0.041349 0.454053 O2-
0.356424 0.541349 0.509609 O2-
0.795305 0.153257 0.549000 O2-
0.204695 0.653257 0.493444 O2-
0.351974 0.154647 0.467579 O2-
0.648026 0.654647 0.523135 O2-
0.281781 0.224590 0.446799 O2-
0.718219 0.724590 0.502355 O2-
0.751546 0.252705 0.477907 O2-
0.248454 0.752705 0.533463 O2-
0.656290 0.330648 0.457786 O2-
0.343710 0.830648 0.513342 O2-
0.215121 0.332841 0.486772 O2-
0.784879 0.832841 0.542327 O2-
0.355777 0.446708 0.470844 O2-
0.644223 0.946708 0.526400 O2-
0.649890 0.536665 0.453794 O2-
0.350110 0.036665 0.509350 O2-
0.785996 0.649394 0.548766 O2-
0.214004 0.149394 0.493210 O2-
0.340793 0.651785 0.466980 O2-
0.659207 0.151785 0.522536 O2-
0.258044 0.728542 0.446594 O2-
0.741956 0.228542 0.502150 O2-
0.725734 0.758375 0.477790 O2-
0.274266 0.258375 0.533345 O2-
0.642950 0.828801 0.457142 O2-
0.357050 0.328801 0.512698 O2-
0.205272 0.829973 0.486623 O2-
0.794728 0.329973 0.542179 O2-
0.347295 0.944360 0.470649 O2-
0.652705 0.444360 0.526205 O2-
0.677470 0.919559 0.496758 O2-
0.322530 0.419559 0.552314 O2-
0.678914 0.057634 0.483362 O2-
0.321086 0.557634 0.538917 O2-
0.069000 0.035413 0.557530 O2-
0.931000 0.535413 0.613086 O2-
0.951087 0.140628 0.569195 O2-
0.048913 0.640628 0.624750 O2-
0.080018 0.275856 0.573999 O2-
0.919982 0.775856 0.629555 O2-
0.926681 0.392259 0.581983 O2-
0.073319 0.892259 0.637539 O2-
0.942022 0.978148 0.651656 O2-
0.057978 0.478148 0.596100 O2-
0.076781 0.590622 0.564724 O2-
0.923219 0.090622 0.620279 O2-
0.921841 0.709404 0.572286 O2-
0.078159 0.209404 0.627841 O2-
0.049265 0.843555 0.577383 O2-
0.950735 0.343555 0.632938 O2-
0.918787 0.943480 0.589461 O2-
0.081213 0.443480 0.645017 O2-
0.944691 0.504327 0.661694 O2-
0.055309 0.004327 0.606138 O2-
0.322795 0.926111 0.663102 O2-
0.677205 0.426111 0.607546 O2-
0.313918 0.066074 0.650226 O2-
0.686082 0.566074 0.594671 O2-
0.643576 0.041349 0.565164 O2-
0.356424 0.541349 0.620720 O2-
0.795305 0.153257 0.660111 O2-
0.204695 0.653257 0.604556 O2-
0.351974 0.154647 0.578690 O2-
0.648026 0.654647 0.634246 O2-
0.281781 0.224590 0.557911 O2-
0.718219 0.724590 0.613466 O2-
0.751546 0.252705 0.589019 O2-
0.248454 0.752705 0.644574 O2-
0.656290 0.330648 0.568897 O2-
0.343710 0.830648 0.624453 O2-
0.215121 0.332841 0.597883 O2-
0.784879 0.832841 0.653438 O2-
0.355777 0.446708 0.581955 O2-
0.644223 0.946708 0.637511 O2-
0.649890 0.536665 0.564905 O2-
0.350110 0.036665 0.620461 O2-
0.785996 0.649394 0.659877 O2-
0.214004 0.149394 0.604322 O2-
0.340793 0.651785 0.578091 O2-
0.659207 0.151785 0.633647 O2-
0.258044 0.728542 0.557705 O2-
0.741956 0.228542 0.613261 O2-
0.725734 0.758375 0.588901 O2-
0.274266 0.258375 0.644456 O2-
0.642950 0.828801 0.568253 O2-
0.357050 0.328801 0.623809 O2-
0.205272 0.829973 0.597734 O2-
0.794728 0.329973 0.653290 O2-
0.347295 0.944360 0.581761 O2-
0.652705 0.444360 0.637316 O2-
0.677470 0.919559 0.607869 O2-
0.322530 0.419559 0.663425 O2-
0.678914 0.057634 0.594473 O2-
0.321086 0.557634 0.650029 O2-
0.069000 0.035413 0.668641 O2-
0.931000 0.535413 0.724197 O2-
0.951087 0.140628 0.680306 O2-
0.048913 0.640628 0.735861 O2-
0.080018 0.275856 0.685111 O2-
0.919982 0.775856 0.740666 O2-
0.926681 0.392259 0.693094 O2-
0.073319 0.892259 0.748650 O2-
0.942022 0.978148 0.762767 O2-
0.057978 0.478148 0.707211 O2-
0.076781 0.590622 0.675835 O2-
0.923219 0.090622 0.731391 O2-
0.921841 0.709404 0.683397 O2-
0.078159 0.209404 0.738952 O2-
0.049265 0.843555 0.688494 O2-
0.950735 0.343555 0.744049 O2-
0.918787 0.943480 0.700573 O2-
0.081213 0.443480 0.756128 O2-
0.944691 0.504327 0.772805 O2-
0.055309 0.004327 0.717249 O2-
0.322795 0.926111 0.774213 O2-
0.677205 0.426111 0.718657 O2-
0.313918 0.066074 0.761337 O2-
0.686082 0.566074 0.705782 O2-
0.643576 0.041349 0.676275 O2-
0.356424 0.541349 0.731831 O2-
0.795305 0.153257 0.771222 O2-
0.204695 0.653257 0.715667 O2-
0.351974 0.154647 0.689801 O2-
0.648026 0.654647 0.745357 O2-
0.281781 0.224590 0.669022 O2-
0.718219 0.724590 0.724577 O2-
0.751546 0.252705 0.700130 O2-
0.248454 0.752705 0.755685 O2-
0.656290 0.330648 0.680008 O2-
0.343710 0.830648 0.735564 O2-
0.215121 0.332841 0.708994 O2-
0.784879 0.832841 0.764549 O2-
0.355777 0.446708 0.693067 O2-
0.644223 0.946708 0.748622 O2-
0.649890 0.536665 0.676016 O2-
0.350110 0.036665 0.731572 O2-
0.785996 0.649394 0.770988 O2-
0.214004 0.149394 0.715433 O2-
0.340793 0.651785 0.689202 O2-
0.659207 0.151785 0.744758 O2-
0.258044 0.728542 0.668816 O2-
0.741956 0.228542 0.724372 O2-
0.725734 0.758375 0.700012 O2-
0.274266 0.258375 0.755567 O2-
0.642950 0.828801 0.679364 O2-
0.357050 0.328801 0.734920 O2-
0.205272 0.829973 0.708845 O2-
0.794728 0.329973 0.764401 O2-
0.347295 0.944360 0.692872 O2-
0.652705 0.444360 0.748427 O2-
0.677470 0.919559 0.718980 O2-
0.322530 0.419559 0.774536 O2-
0.678914 0.057634 0.705584 O2-
0.321086 0.557634 0.761140 O2-
