Li56 P56
1.0
5.593872 0.000000 -4.970385
0.756887 9.037780 0.000000
0.000000 0.000000 64.615005
Li P
56 56
direct
0.112292 0.670700 0.051204 Li+
0.387708 0.829300 0.033929 Li+
0.887708 0.329300 0.016736 Li+
0.612292 0.170700 0.034011 Li+
0.804018 0.970214 0.006716 Li+
0.695982 0.529786 0.036867 Li+
0.195982 0.029786 0.061224 Li+
0.304018 0.470214 0.031073 Li+
0.112292 0.670700 0.128127 Li+
0.387708 0.829300 0.110852 Li+
0.887708 0.329300 0.093659 Li+
0.612292 0.170700 0.110935 Li+
0.804018 0.970214 0.083639 Li+
0.695982 0.529786 0.113790 Li+
0.195982 0.029786 0.138147 Li+
0.304018 0.470214 0.107996 Li+
0.112292 0.670700 0.205050 Li+
0.387708 0.829300 0.187775 Li+
0.887708 0.329300 0.170582 Li+
0.612292 0.170700 0.187858 Li+
0.804018 0.970214 0.160562 Li+
0.695982 0.529786 0.190714 Li+
0.195982 0.029786 0.215070 Li+
0.304018 0.470214 0.184919 Li+
0.112292 0.670700 0.281973 Li+
0.387708 0.829300 0.264698 Li+
0.887708 0.329300 0.247505 Li+
0.612292 0.170700 0.264781 Li+
0.804018 0.970214 0.237486 Li+
0.695982 0.529786 0.267637 Li+
0.195982 0.029786 0.291993 Li+
0.304018 0.470214 0.261842 Li+
0.112292 0.670700 0.358897 Li+
0.387708 0.829300 0.341621 Li+
0.887708 0.329300 0.324428 Li+
0.612292 0.170700 0.341704 Li+
0.804018 0.970214 0.314409 Li+
0.695982 0.529786 0.344560 Li+
0.195982 0.029786 0.368916 Li+
0.304018 0.470214 0.338765 Li+
0.112292 0.670700 0.435820 Li+
0.387708 0.829300 0.418544 Li+
0.887708 0.329300 0.401351 Li+
0.612292 0.170700 0.418627 Li+
0.804018 0.970214 0.391332 Li+
0.695982 0.529786 0.421483 Li+
0.195982 0.029786 0.445839 Li+
0.304018 0.470214 0.415688 Li+
0.112292 0.670700 0.512743 Li+
0.387708 0.829300 0.495467 Li+
0.887708 0.329300 0.478274 Li+
0.612292 0.170700 0.495550 Li+
0.804018 0.970214 0.468255 Li+
0.695982 0.529786 0.498406 Li+
0.195982 0.029786 0.522762 Li+
0.304018 0.470214 0.492611 Li+
0.976271 0.707084 0.001767 P-
0.523729 0.792916 0.005418 P-
0.023729 0.292916 0.066173 P-
0.476271 0.207084 0.062522 P-
0.808560 0.888258 0.045703 P-
0.691440 0.611742 0.075156 P-
0.191440 0.111742 0.022237 P-
0.308560 0.388258 0.069707 P-
0.976271 0.707084 0.078691 P-
0.523729 0.792916 0.082341 P-
0.023729 0.292916 0.143096 P-
0.476271 0.207084 0.139445 P-
0.808560 0.888258 0.122626 P-
0.691440 0.611742 0.152079 P-
0.191440 0.111742 0.099160 P-
0.308560 0.388258 0.146631 P-
0.976271 0.707084 0.155614 P-
0.523729 0.792916 0.159264 P-
0.023729 0.292916 0.220019 P-
0.476271 0.207084 0.216368 P-
0.808560 0.888258 0.199549 P-
0.691440 0.611742 0.229002 P-
0.191440 0.111742 0.176083 P-
0.308560 0.388258 0.223554 P-
0.976271 0.707084 0.232537 P-
0.523729 0.792916 0.236187 P-
0.023729 0.292916 0.296942 P-
0.476271 0.207084 0.293291 P-
0.808560 0.888258 0.276473 P-
0.691440 0.611742 0.305925 P-
0.191440 0.111742 0.253006 P-
0.308560 0.388258 0.300477 P-
0.976271 0.707084 0.309460 P-
0.523729 0.792916 0.313110 P-
0.023729 0.292916 0.373865 P-
0.476271 0.207084 0.370214 P-
0.808560 0.888258 0.353396 P-
0.691440 0.611742 0.382848 P-
0.191440 0.111742 0.329929 P-
0.308560 0.388258 0.377400 P-
0.976271 0.707084 0.386383 P-
0.523729 0.792916 0.390033 P-
0.023729 0.292916 0.450788 P-
0.476271 0.207084 0.447137 P-
0.808560 0.888258 0.430319 P-
0.691440 0.611742 0.459771 P-
0.191440 0.111742 0.406852 P-
0.308560 0.388258 0.454323 P-
0.976271 0.707084 0.463306 P-
0.523729 0.792916 0.466957 P-
0.023729 0.292916 0.527711 P-
0.476271 0.207084 0.524060 P-
0.808560 0.888258 0.507242 P-
0.691440 0.611742 0.536694 P-
0.191440 0.111742 0.483775 P-
0.308560 0.388258 0.531246 P-
