Li42 P14 O56
1.0
5.296402 0.000000 0.000000
-0.000000 6.176136 -4.922448
0.000000 0.000000 63.991824
Li P O
42 14 56
direct
0.844520 0.000000 0.042982 Li+
0.155480 0.500000 0.042982 Li+
0.326434 0.747127 0.023450 Li+
0.673566 0.752873 0.062353 Li+
0.673566 0.247127 0.023450 Li+
0.326434 0.252873 0.062353 Li+
0.844520 0.000000 0.119905 Li+
0.155480 0.500000 0.119905 Li+
0.326434 0.747127 0.100373 Li+
0.673566 0.752873 0.139276 Li+
0.673566 0.247127 0.100373 Li+
0.326434 0.252873 0.139276 Li+
0.844520 0.000000 0.196829 Li+
0.155480 0.500000 0.196829 Li+
0.326434 0.747127 0.177296 Li+
0.673566 0.752873 0.216199 Li+
0.673566 0.247127 0.177296 Li+
0.326434 0.252873 0.216199 Li+
0.844520 0.000000 0.273752 Li+
0.155480 0.500000 0.273752 Li+
0.326434 0.747127 0.254219 Li+
0.673566 0.752873 0.293122 Li+
0.673566 0.247127 0.254219 Li+
0.326434 0.252873 0.293122 Li+
0.844520 0.000000 0.350675 Li+
0.155480 0.500000 0.350675 Li+
0.326434 0.747127 0.331142 Li+
0.673566 0.752873 0.370045 Li+
0.673566 0.247127 0.331142 Li+
0.326434 0.252873 0.370045 Li+
0.844520 0.000000 0.427598 Li+
0.155480 0.500000 0.427598 Li+
0.326434 0.747127 0.408065 Li+
0.673566 0.752873 0.446968 Li+
0.673566 0.247127 0.408065 Li+
0.326434 0.252873 0.446968 Li+
0.844520 0.000000 0.504521 Li+
0.155480 0.500000 0.504521 Li+
0.326434 0.747127 0.484988 Li+
0.673566 0.752873 0.523892 Li+
0.673566 0.247127 0.484988 Li+
0.326434 0.252873 0.523892 Li+
0.824261 0.500000 0.003906 P5+
0.175739 0.000000 0.003906 P5+
0.824261 0.500000 0.080829 P5+
0.175739 0.000000 0.080829 P5+
0.824261 0.500000 0.157752 P5+
0.175739 0.000000 0.157752 P5+
0.824261 0.500000 0.234675 P5+
0.175739 0.000000 0.234675 P5+
0.824261 0.500000 0.311598 P5+
0.175739 0.000000 0.311598 P5+
0.824261 0.500000 0.388521 P5+
0.175739 0.000000 0.388521 P5+
0.824261 0.500000 0.465444 P5+
0.175739 0.000000 0.465444 P5+
0.313509 0.207138 0.027962 O2-
0.103508 0.500000 0.011652 O2-
0.818396 0.500000 0.056503 O2-
0.181604 0.000000 0.056503 O2-
0.686491 0.707138 0.027962 O2-
0.313509 0.792862 0.073017 O2-
0.896492 0.000000 0.011652 O2-
0.686491 0.292862 0.073017 O2-
0.313509 0.207138 0.104885 O2-
0.103508 0.500000 0.088575 O2-
0.818396 0.500000 0.133427 O2-
0.181604 0.000000 0.133427 O2-
0.686491 0.707138 0.104885 O2-
0.313509 0.792862 0.149940 O2-
0.896492 0.000000 0.088575 O2-
0.686491 0.292862 0.149940 O2-
0.313509 0.207138 0.181808 O2-
0.103508 0.500000 0.165498 O2-
0.818396 0.500000 0.210350 O2-
0.181604 0.000000 0.210350 O2-
0.686491 0.707138 0.181808 O2-
0.313509 0.792862 0.226864 O2-
0.896492 0.000000 0.165498 O2-
0.686491 0.292862 0.226864 O2-
0.313509 0.207138 0.258731 O2-
0.103508 0.500000 0.242422 O2-
0.818396 0.500000 0.287273 O2-
0.181604 0.000000 0.287273 O2-
0.686491 0.707138 0.258731 O2-
0.313509 0.792862 0.303787 O2-
0.896492 0.000000 0.242422 O2-
0.686491 0.292862 0.303787 O2-
0.313509 0.207138 0.335654 O2-
0.103508 0.500000 0.319345 O2-
0.818396 0.500000 0.364196 O2-
0.181604 0.000000 0.364196 O2-
0.686491 0.707138 0.335654 O2-
0.313509 0.792862 0.380710 O2-
0.896492 0.000000 0.319345 O2-
0.686491 0.292862 0.380710 O2-
0.313509 0.207138 0.412577 O2-
0.103508 0.500000 0.396268 O2-
0.818396 0.500000 0.441119 O2-
0.181604 0.000000 0.441119 O2-
0.686491 0.707138 0.412577 O2-
0.313509 0.792862 0.457633 O2-
0.896492 0.000000 0.396268 O2-
0.686491 0.292862 0.457633 O2-
0.313509 0.207138 0.489500 O2-
0.103508 0.500000 0.473191 O2-
0.818396 0.500000 0.518042 O2-
0.181604 0.000000 0.518042 O2-
0.686491 0.707138 0.489500 O2-
0.313509 0.792862 0.534556 O2-
0.896492 0.000000 0.473191 O2-
0.686491 0.292862 0.534556 O2-
