Li56 P28 O98
1.0
6.730959 0.000000 7.860032
2.035903 8.419349 5.263538
0.000000 0.000000 68.387046
Li P O
56 28 98
Selective dynamics
direct
0.144977 0.987971 0.008578 T T T Li+
0.855023 0.012029 0.068345 T T T Li+
0.588727 0.751653 0.042715 T T T Li+
0.411273 0.248347 0.034208 T T T Li+
0.327738 0.791276 0.031443 T T T Li+
0.672262 0.208724 0.045480 T T T Li+
0.241886 0.450796 0.066482 T T T Li+
0.758114 0.549204 0.010441 T T T Li+
0.144977 0.987971 0.085501 F F F Li+
0.855023 0.012029 0.145268 F F F Li+
0.588727 0.751653 0.119638 F F F Li+
0.411273 0.248347 0.111131 F F F Li+
0.327738 0.791276 0.108366 F F F Li+
0.672262 0.208724 0.122403 F F F Li+
0.241886 0.450796 0.143405 F F F Li+
0.758114 0.549204 0.087364 F F F Li+
0.144977 0.987971 0.162424 F F F Li+
0.855023 0.012029 0.222191 F F F Li+
0.588727 0.751653 0.196561 F F F Li+
0.411273 0.248347 0.188054 F F F Li+
0.327738 0.791276 0.185289 F F F Li+
0.672262 0.208724 0.199327 F F F Li+
0.241886 0.450796 0.220328 F F F Li+
0.758114 0.549204 0.164287 F F F Li+
0.144977 0.987971 0.239347 F F F Li+
0.855023 0.012029 0.299114 F F F Li+
0.588727 0.751653 0.273484 F F F Li+
0.411273 0.248347 0.264977 F F F Li+
0.327738 0.791276 0.262212 F F F Li+
0.672262 0.208724 0.276250 F F F Li+
0.241886 0.450796 0.297252 F F F Li+
0.758114 0.549204 0.241210 F F F Li+
0.144977 0.987971 0.316270 F F F Li+
0.855023 0.012029 0.376037 F F F Li+
0.588727 0.751653 0.350407 F F F Li+
0.411273 0.248347 0.341900 F F F Li+
0.327738 0.791276 0.339135 F F F Li+
0.672262 0.208724 0.353173 F F F Li+
0.241886 0.450796 0.374175 F F F Li+
0.758114 0.549204 0.318133 F F F Li+
0.144977 0.987971 0.393193 F F F Li+
0.855023 0.012029 0.452960 F F F Li+
0.588727 0.751653 0.427331 F F F Li+
0.411273 0.248347 0.418823 F F F Li+
0.327738 0.791276 0.416058 F F F Li+
0.672262 0.208724 0.430096 F F F Li+
0.241886 0.450796 0.451098 F F F Li+
0.758114 0.549204 0.395056 F F F Li+
0.144977 0.987971 0.470117 T T T Li+
0.855023 0.012029 0.529883 T T T Li+
0.588727 0.751653 0.504254 T T T Li+
0.411273 0.248347 0.495746 T T T Li+
0.327738 0.791276 0.492981 T T T Li+
0.672262 0.208724 0.507019 T T T Li+
0.241886 0.450796 0.528021 T T T Li+
0.758114 0.549204 0.471979 T T T Li+
0.213298 0.631956 0.017595 T T T P5+
0.786702 0.368044 0.059328 T T T P5+
0.779241 0.845502 0.050733 T T T P5+
0.220759 0.154498 0.026190 T T T P5+
0.213298 0.631956 0.094518 F F F P5+
0.786702 0.368044 0.136251 F F F P5+
0.779241 0.845502 0.127656 F F F P5+
0.220759 0.154498 0.103113 F F F P5+
0.213298 0.631956 0.171441 F F F P5+
0.786702 0.368044 0.213174 F F F P5+
0.779241 0.845502 0.204579 F F F P5+
0.220759 0.154498 0.180036 F F F P5+
0.213298 0.631956 0.248364 F F F P5+
0.786702 0.368044 0.290097 F F F P5+
0.779241 0.845502 0.281502 F F F P5+
0.220759 0.154498 0.256959 F F F P5+
0.213298 0.631956 0.325287 F F F P5+
0.786702 0.368044 0.367020 F F F P5+
0.779241 0.845502 0.358425 F F F P5+
0.220759 0.154498 0.333882 F F F P5+
0.213298 0.631956 0.402210 F F F P5+
0.786702 0.368044 0.443943 F F F P5+
0.779241 0.845502 0.435348 F F F P5+
0.220759 0.154498 0.410805 F F F P5+
0.213298 0.631956 0.479134 T T T P5+
0.786702 0.368044 0.520866 T T T P5+
0.779241 0.845502 0.512271 T T T P5+
0.220759 0.154498 0.487729 T T T P5+
0.741759 0.874340 0.031063 T T T O2-
0.605720 0.790684 0.008440 T T T O2-
0.394280 0.209316 0.068483 T T T O2-
0.848591 0.981976 0.042488 T T T O2-
0.743350 0.376455 0.008674 T T T O2-
0.256650 0.623545 0.068250 T T T O2-
0.732189 0.526190 0.042805 T T T O2-
0.267811 0.473810 0.034118 T T T O2-
0.702403 0.236504 0.069178 T T T O2-
0.297597 0.763496 0.007745 T T T O2-
0.962384 0.683894 0.045138 T T T O2-
0.037616 0.316106 0.031785 T T T O2-
0.151409 0.018024 0.034435 T T T O2-
0.258241 0.125660 0.045861 T T T O2-
0.741759 0.874340 0.107986 F F F O2-
0.605720 0.790684 0.085364 F F F O2-
0.394280 0.209316 0.145406 F F F O2-
0.848591 0.981976 0.119411 F F F O2-
0.743350 0.376455 0.085597 F F F O2-
0.256650 0.623545 0.145173 F F F O2-
0.732189 0.526190 0.119728 F F F O2-
0.267811 0.473810 0.111041 F F F O2-
0.702403 0.236504 0.146101 F F F O2-
0.297597 0.763496 0.084668 F F F O2-
0.962384 0.683894 0.122061 F F F O2-
0.037616 0.316106 0.108708 F F F O2-
0.151409 0.018024 0.111358 F F F O2-
0.258241 0.125660 0.122784 F F F O2-
0.741759 0.874340 0.184909 F F F O2-
0.605720 0.790684 0.162287 F F F O2-
0.394280 0.209316 0.222329 F F F O2-
0.848591 0.981976 0.196334 F F F O2-
0.743350 0.376455 0.162520 F F F O2-
0.256650 0.623545 0.222096 F F F O2-
0.732189 0.526190 0.196651 F F F O2-
0.267811 0.473810 0.187964 F F F O2-
0.702403 0.236504 0.223024 F F F O2-
0.297597 0.763496 0.161591 F F F O2-
0.962384 0.683894 0.198984 F F F O2-
0.037616 0.316106 0.185631 F F F O2-
0.151409 0.018024 0.188281 F F F O2-
0.258241 0.125660 0.199707 F F F O2-
0.741759 0.874340 0.261832 F F F O2-
0.605720 0.790684 0.239210 F F F O2-
0.394280 0.209316 0.299252 F F F O2-
0.848591 0.981976 0.273257 F F F O2-
0.743350 0.376455 0.239443 F F F O2-
0.256650 0.623545 0.299019 F F F O2-
0.732189 0.526190 0.273574 F F F O2-
0.267811 0.473810 0.264887 F F F O2-
0.702403 0.236504 0.299947 F F F O2-
0.297597 0.763496 0.238514 F F F O2-
0.962384 0.683894 0.275907 F F F O2-
0.037616 0.316106 0.262555 F F F O2-
0.151409 0.018024 0.265204 F F F O2-
0.258241 0.125660 0.276630 F F F O2-
0.741759 0.874340 0.338755 F F F O2-
0.605720 0.790684 0.316133 F F F O2-
0.394280 0.209316 0.376175 F F F O2-
0.848591 0.981976 0.350180 F F F O2-
0.743350 0.376455 0.316366 F F F O2-
0.256650 0.623545 0.375942 F F F O2-
0.732189 0.526190 0.350497 F F F O2-
0.267811 0.473810 0.341810 F F F O2-
0.702403 0.236504 0.376870 F F F O2-
0.297597 0.763496 0.315437 F F F O2-
0.962384 0.683894 0.352830 F F F O2-
0.037616 0.316106 0.339478 F F F O2-
0.151409 0.018024 0.342127 F F F O2-
0.258241 0.125660 0.353553 F F F O2-
0.741759 0.874340 0.415678 F F F O2-
0.605720 0.790684 0.393056 F F F O2-
0.394280 0.209316 0.453098 F F F O2-
0.848591 0.981976 0.427103 F F F O2-
0.743350 0.376455 0.393289 F F F O2-
0.256650 0.623545 0.452865 F F F O2-
0.732189 0.526190 0.427420 F F F O2-
0.267811 0.473810 0.418733 F F F O2-
0.702403 0.236504 0.453793 F F F O2-
0.297597 0.763496 0.392360 F F F O2-
0.962384 0.683894 0.429753 F F F O2-
0.037616 0.316106 0.416401 F F F O2-
0.151409 0.018024 0.419050 F F F O2-
0.258241 0.125660 0.430476 F F F O2-
0.741759 0.874340 0.492601 T T T O2-
0.605720 0.790684 0.469979 T T T O2-
0.394280 0.209316 0.530021 T T T O2-
0.848591 0.981976 0.504026 T T T O2-
0.743350 0.376455 0.470212 T T T O2-
0.256650 0.623545 0.529788 T T T O2-
0.732189 0.526190 0.504343 T T T O2-
0.267811 0.473810 0.495657 T T T O2-
0.702403 0.236504 0.530717 T T T O2-
0.297597 0.763496 0.469283 T T T O2-
0.962384 0.683894 0.506676 T T T O2-
0.037616 0.316106 0.493324 T T T O2-
0.151409 0.018024 0.495974 T T T O2-
0.258241 0.125660 0.507399 T T T O2-
