Li56 P56
1.0
5.593872 0.000000 -4.970385
0.756887 9.037780 0.000000
0.000000 0.000000 64.615005
Li P
56 56
direct
0.112292 0.670700 0.040127 Li+
0.387708 0.829300 0.022852 Li+
0.887708 0.329300 0.005659 Li+
0.612292 0.170700 0.022935 Li+
0.804018 0.970214 0.072562 Li+
0.695982 0.529786 0.025790 Li+
0.195982 0.029786 0.050147 Li+
0.304018 0.470214 0.019996 Li+
0.112292 0.670700 0.117050 Li+
0.387708 0.829300 0.099775 Li+
0.887708 0.329300 0.082582 Li+
0.612292 0.170700 0.099858 Li+
0.804018 0.970214 0.149486 Li+
0.695982 0.529786 0.102714 Li+
0.195982 0.029786 0.127070 Li+
0.304018 0.470214 0.096919 Li+
0.112292 0.670700 0.193973 Li+
0.387708 0.829300 0.176698 Li+
0.887708 0.329300 0.159505 Li+
0.612292 0.170700 0.176781 Li+
0.804018 0.970214 0.226409 Li+
0.695982 0.529786 0.179637 Li+
0.195982 0.029786 0.203993 Li+
0.304018 0.470214 0.173842 Li+
0.112292 0.670700 0.270897 Li+
0.387708 0.829300 0.253621 Li+
0.887708 0.329300 0.236428 Li+
0.612292 0.170700 0.253704 Li+
0.804018 0.970214 0.303332 Li+
0.695982 0.529786 0.256560 Li+
0.195982 0.029786 0.280916 Li+
0.304018 0.470214 0.250765 Li+
0.112292 0.670700 0.347820 Li+
0.387708 0.829300 0.330544 Li+
0.887708 0.329300 0.313351 Li+
0.612292 0.170700 0.330627 Li+
0.804018 0.970214 0.380255 Li+
0.695982 0.529786 0.333483 Li+
0.195982 0.029786 0.357839 Li+
0.304018 0.470214 0.327688 Li+
0.112292 0.670700 0.424743 Li+
0.387708 0.829300 0.407467 Li+
0.887708 0.329300 0.390274 Li+
0.612292 0.170700 0.407550 Li+
0.804018 0.970214 0.457178 Li+
0.695982 0.529786 0.410406 Li+
0.195982 0.029786 0.434762 Li+
0.304018 0.470214 0.404611 Li+
0.112292 0.670700 0.501666 Li+
0.387708 0.829300 0.484390 Li+
0.887708 0.329300 0.467197 Li+
0.612292 0.170700 0.484473 Li+
0.804018 0.970214 0.534101 Li+
0.695982 0.529786 0.487329 Li+
0.195982 0.029786 0.511685 Li+
0.304018 0.470214 0.481534 Li+
0.976271 0.707084 0.067614 P-
0.523729 0.792916 0.071264 P-
0.023729 0.292916 0.055096 P-
0.476271 0.207084 0.051445 P-
0.808560 0.888258 0.034626 P-
0.691440 0.611742 0.064079 P-
0.191440 0.111742 0.011160 P-
0.308560 0.388258 0.058631 P-
0.976271 0.707084 0.144537 P-
0.523729 0.792916 0.148187 P-
0.023729 0.292916 0.132019 P-
0.476271 0.207084 0.128368 P-
0.808560 0.888258 0.111549 P-
0.691440 0.611742 0.141002 P-
0.191440 0.111742 0.088083 P-
0.308560 0.388258 0.135554 P-
0.976271 0.707084 0.221460 P-
0.523729 0.792916 0.225110 P-
0.023729 0.292916 0.208942 P-
0.476271 0.207084 0.205291 P-
0.808560 0.888258 0.188473 P-
0.691440 0.611742 0.217925 P-
0.191440 0.111742 0.165006 P-
0.308560 0.388258 0.212477 P-
0.976271 0.707084 0.298383 P-
0.523729 0.792916 0.302033 P-
0.023729 0.292916 0.285865 P-
0.476271 0.207084 0.282214 P-
0.808560 0.888258 0.265396 P-
0.691440 0.611742 0.294848 P-
0.191440 0.111742 0.241929 P-
0.308560 0.388258 0.289400 P-
0.976271 0.707084 0.375306 P-
0.523729 0.792916 0.378957 P-
0.023729 0.292916 0.362788 P-
0.476271 0.207084 0.359137 P-
0.808560 0.888258 0.342319 P-
0.691440 0.611742 0.371771 P-
0.191440 0.111742 0.318852 P-
0.308560 0.388258 0.366323 P-
0.976271 0.707084 0.452229 P-
0.523729 0.792916 0.455880 P-
0.023729 0.292916 0.439711 P-
0.476271 0.207084 0.436060 P-
0.808560 0.888258 0.419242 P-
0.691440 0.611742 0.448694 P-
0.191440 0.111742 0.395775 P-
0.308560 0.388258 0.443246 P-
0.976271 0.707084 0.529152 P-
0.523729 0.792916 0.532803 P-
0.023729 0.292916 0.516634 P-
0.476271 0.207084 0.512983 P-
0.808560 0.888258 0.496165 P-
0.691440 0.611742 0.525617 P-
0.191440 0.111742 0.472698 P-
0.308560 0.388258 0.520169 P-
