Li5 P2 N1 O6                            
   1.00000000000000     
     0.0001254895912035    0.1656534458264455    5.1583758907318327
     6.4824118759906328   -0.0001045886581057    0.0000920149557046
    -0.0000846360172762    5.2264793454706666    0.1801869671168257
   Li   P    N    O 
     5     2     1     6
Direct
  0.5833713884244250 -0.0000071330179711  0.8228024762319951
  0.5088018842766537  0.7357331917109129  0.3125624085348014
 -0.0203617904786074  0.6905192410276049  0.6527685312526874
 -0.0203829029449318  0.3094979773022492  0.6527273551292917
  0.5087817946587448  0.2642609571266052  0.3125637170487195
  0.4873656672190450  0.4999968888530523  0.8179920331246937
 -0.0214849065658816  0.0000100558410913  0.2728163553079560
  0.7086789344955690 -0.0000187896291355  0.1676201463066422
  0.1257305868860875  0.1930522083919398  0.3463555918390019
  0.6100578326694983  0.6995146476045229  0.6812413921857221
  0.1257336436261954  0.8069923498528258  0.3464397269186125
  0.6100464569475348  0.3004610367262239  0.6812386304567842
  0.5463648907060740  0.4999922410983574  0.1007711803660166
  0.1935535200796247  0.4999951271117201  0.7801284552970764
 
  0.00000000E+00  0.00000000E+00  0.00000000E+00
  0.00000000E+00  0.00000000E+00  0.00000000E+00
  0.00000000E+00  0.00000000E+00  0.00000000E+00
  0.00000000E+00  0.00000000E+00  0.00000000E+00
  0.00000000E+00  0.00000000E+00  0.00000000E+00
  0.00000000E+00  0.00000000E+00  0.00000000E+00
  0.00000000E+00  0.00000000E+00  0.00000000E+00
  0.00000000E+00  0.00000000E+00  0.00000000E+00
  0.00000000E+00  0.00000000E+00  0.00000000E+00
  0.00000000E+00  0.00000000E+00  0.00000000E+00
  0.00000000E+00  0.00000000E+00  0.00000000E+00
  0.00000000E+00  0.00000000E+00  0.00000000E+00
  0.00000000E+00  0.00000000E+00  0.00000000E+00
  0.00000000E+00  0.00000000E+00  0.00000000E+00
