Li7 P2 N1 O7                            
   1.00000000000000     
     4.8453570293081727    0.0175425528617519   -0.0244990392216734
     0.0176742348593073    5.4664696648037374    0.0610158621243978
    -0.0314001091002179    0.0701586075772073    6.3234210805762920
   Li   P    N    O 
     7     2     1     7
Direct
  0.0278214525606337  0.6243058512925641  0.2490140745537281
  0.0033768743439571  0.6802774325929244  0.7453128146547231
  0.5188292301055055  0.3262235803658194  0.7354283288582063
  0.5071007880504064  0.8429209533631957 -0.0080842253873395
  0.0307718476087174  0.1803631364920801  0.5359010505411070
  0.5104237637020940  0.3322826668309874  0.2602712027124963
  0.8611146277160716  0.9747799802443190  0.2899246587348385
  0.5008595922335157  0.8361528582103198  0.5031753702400080
  0.0034641358490711  0.1795829199923161 -0.0087524204512212
  0.6129296512207532  0.1065640801255736  0.4994392623430404
  0.1124593446565312  0.3226871892894129  0.7981169554798296
  0.1711259157676063  0.8145532876282897  0.4863539786128680
  0.6834675457865681  0.1813816749007720 -0.0003402208280607
  0.6163925684549233  0.6917269252526445  0.2953286362751102
  0.1089837623414370  0.2992468177416761  0.1997823870051886
  0.0985680940400947  0.9036689812871989  0.0001147137051503
  0.5923408055621456  0.6793616643899089  0.7081234329503274
 
  0.00000000E+00  0.00000000E+00  0.00000000E+00
  0.00000000E+00  0.00000000E+00  0.00000000E+00
  0.00000000E+00  0.00000000E+00  0.00000000E+00
  0.00000000E+00  0.00000000E+00  0.00000000E+00
  0.00000000E+00  0.00000000E+00  0.00000000E+00
  0.00000000E+00  0.00000000E+00  0.00000000E+00
  0.00000000E+00  0.00000000E+00  0.00000000E+00
  0.00000000E+00  0.00000000E+00  0.00000000E+00
  0.00000000E+00  0.00000000E+00  0.00000000E+00
  0.00000000E+00  0.00000000E+00  0.00000000E+00
  0.00000000E+00  0.00000000E+00  0.00000000E+00
  0.00000000E+00  0.00000000E+00  0.00000000E+00
  0.00000000E+00  0.00000000E+00  0.00000000E+00
  0.00000000E+00  0.00000000E+00  0.00000000E+00
  0.00000000E+00  0.00000000E+00  0.00000000E+00
  0.00000000E+00  0.00000000E+00  0.00000000E+00
  0.00000000E+00  0.00000000E+00  0.00000000E+00
