Li1 N3
1.0
1.648366 2.793381 0.000368
-1.648366 2.793381 0.000368
0.000000 1.455861 4.682754
Li N
1 3
direct
-0.000000 -0.000000 -0.000000 Li
0.605876 0.605876 0.256533 N
0.394124 0.394124 0.743467 N
0.500000 0.500000 0.500000 N
