Li61 P7 N32                             
   1.00000000000000     
    -0.0012794495028478    9.4854835221337765   -0.0030698211994011
    -0.0061074506795098   -0.0030433460681573    9.5499875345660108
     9.5367948011920234   -0.0011303652742090   -0.0061786894811616
   Li   P    N 
    61     7    32
Direct
  0.4944693955011861  0.0026811500641873  0.5006066770561759
  0.0055513498018107  0.5023846930953320 -0.0026456981801736
  0.4941798746172788 -0.0062145047178198  0.0003364076794845
 -0.0012416060003151  0.0006894946410212  0.5025006232855117
  0.4882760237615604  0.4922517686599390 -0.0012886097485599
  0.0046210178131609  0.5011670454717203  0.5006442822871230
  0.7468319365134044 -0.0019005393917104  0.4994008557969633
  0.2448914437783461 -0.0095227576362263  0.5044075620617665
  0.7662910310171337  0.4992996281341299  0.5007422062246326
  0.2341438591191932  0.5044902608548973  0.5107265354629238
  0.2599957113984422  0.0048501814835772  0.0006312739430776
  0.7330681662065583 -0.0009518289689564 -0.0005232392386246
  0.8234216481475541  0.4070774130477989 -0.0757798900047356
  0.5120119035440611  0.2336676196846929 -0.0185502426353736
  0.4979605194228066  0.7515085447563313  0.0135144965737157
 -0.0163857674896509  0.4889049185051126  0.2592130427594018
 -0.0087265447733694  0.5131279009988704  0.7426172105262866
  0.2312786917103941  0.2206592168941790  0.2170439274797653
  0.2333522915897003  0.7909960072796269  0.7788037978625709
  0.2590826691019057  0.2913105215950884  0.7258458965683454
  0.2672231323377331  0.7312518991272997  0.2805570423591952
  0.7656204175212218  0.3041519875245395  0.3074113187444944
  0.7571099239657287  0.7034599614248823  0.7017376282238997
  0.7332738096209195  0.1975287633330679  0.8068033455715894
  0.7402552917879357  0.8034152570442908  0.2006822937037448
  0.9883086568741776  0.2449632605661911  0.2454079699263745
  0.9836534778761715  0.7540676411170202  0.7566862663164434
  0.2584404131895633  0.2266907946324415  0.4916798605312286
  0.2621691447665361  0.7513201719310928  0.5268206174972276
  0.7517302530143454  0.2285821469384499  0.5546779361444105
  0.7433264094351131  0.7635090236072657  0.4574318031378013
  0.7321432966814752  0.5540891765345000  0.2817310324948706
  0.7367843148949149  0.4542336166039512  0.7222624170462034
  0.2123369635832257  0.4867032753065780  0.2546118312125957
  0.2297583644578645  0.5438046109015424  0.7495117090012212
  0.5151092764147710  0.7505409737115696  0.2538256074189604
  0.5100407190301308  0.2555527555276635  0.7434431125989247
  0.2339444191838837  0.9807854544106297  0.2544907746659177
  0.2340237862879999  0.0334262425469303  0.7479510654122314
  0.2656345739713052  0.2462060965298249  0.9718932405430165
  0.2539618637957939  0.7664234192652730  0.0295948733952505
  0.7543901121011301  0.9563853201266557  0.7355990838705997
  0.7566158886559986  0.0442725203688962  0.2641672779572055
  0.7562084725491709  0.7795092806568147  0.9522495457765466
  0.7679205753154743  0.2163169548851505  0.0568567642724199
  0.0072354188742437  0.2528421115624401  0.7660411051356030
  0.0136855697650543  0.7457617980634382  0.2361820142925888
  0.5068032120708695  0.2584339379030800  0.2315557119187093
  0.4834776851515822  0.7363010866300116  0.7559359792807174
  0.0135752566917826  0.2630960986228032  0.0160936918121498
  0.0074767858420430  0.7425224767404400 -0.0146454312996347
  0.5147098319802444  0.2354916204914701  0.4972139310223992
  0.5011620051411226  0.7649773381130623  0.5069577241390461
  0.4860880648187829  0.5272757822782191  0.2327904483841495
  0.4838862579724265  0.4846566693347448  0.7600207804694077
 -0.0043666287320717 -0.0067158708320367  0.2635115097266792
 -0.0051444559855977  0.0059899133025834  0.7414589089826440
  0.3623952417620473  0.3651234608597797  0.3589602196516484
  0.8265817096357246  0.5931871706886029  0.0781539003427582
  0.6735444374120105  0.4244237526481406  0.0928309532278740
  0.6687361311983999  0.5779530032179895  0.9113087037437405
  0.4991708368715434  0.5039978474895149  0.5013207880780050
  0.0004047379213755  0.0020976100428741  0.0019488817885654
  0.2470642623380623  0.5058991459155695  0.0041348619137476
  0.0012877137404541  0.7501899658765806  0.4986558243266340
  0.0039591893694849  0.2513957690506705  0.5046952399808139
  0.4970212058940341  0.0047679514712396  0.2493765937828373
  0.4959316413593787 -0.0028002253439955  0.7511201422565572
  0.6016168014167482  0.5998732328473431  0.6051591099524403
  0.5961945531794528  0.4050948675346892  0.3894084523064330
  0.8961874139320577  0.8969835015173795  0.0994586508996622
  0.8960709554936466  0.1074774669876101  0.9040631007255429
  0.1045345973779615  0.9060850427908651  0.8950491899089460
  0.1040351070968860  0.0985108413150521  0.1093018304079963
  0.3896277835844494  0.6053739964808773  0.4046204961978640
  0.3948569021374822  0.3903089557916714  0.5909907211170339
  0.1109802535676498  0.3471500574053633  0.3957140754360303
  0.1014153301720980  0.6529260149029293  0.6094461140892967
  0.1084448679453607  0.1493620234333838  0.6075148503961757
  0.1112159022194724  0.8506649698573998  0.3995999407661145
  0.8908540607993916  0.1510537719475739  0.4089346339072623
  0.8873684281184580  0.8510804016245050  0.5929787448771112
  0.8671515569218394  0.3822570621365657  0.1327872399495044
  0.8641796419229600  0.6165366506252890  0.8689738771927721
  0.1442243552533625  0.6078298630119628  0.1090592147562955
  0.1532644831737687  0.4031427994152505  0.8911367706486889
  0.3934699530724213  0.8948824298191863  0.1559886122238776
  0.3973420121141873  0.1071843139214024  0.8502550237941995
  0.3909274905053410  0.1137680397520528  0.3478762159025495
  0.3852748663167578  0.8990773128004368  0.6498334725369848
  0.3418632797174386  0.3954313487649713  0.1133036034736457
  0.3487070424170073  0.6145290838718337  0.9050290989405124
  0.6095399175466264  0.0926980120737533  0.6495962559181707
  0.6079442283853227  0.9104480870060441  0.3530591751922588
  0.6312283630262492  0.6337447274293349  0.1181066883710719
  0.6271565269066238  0.3704920091735402  0.8822988726289078
  0.9049506448455790  0.3562101275217267  0.6081057710264062
  0.9029602732813621  0.6461358950136201  0.3920854037123608
  0.5986530339611436  0.1038979957723765  0.1425346238562961
  0.5946870904041558  0.8898203442524784  0.8521571523472979
 
  0.00000000E+00  0.00000000E+00  0.00000000E+00
  0.00000000E+00  0.00000000E+00  0.00000000E+00
  0.00000000E+00  0.00000000E+00  0.00000000E+00
  0.00000000E+00  0.00000000E+00  0.00000000E+00
  0.00000000E+00  0.00000000E+00  0.00000000E+00
  0.00000000E+00  0.00000000E+00  0.00000000E+00
  0.00000000E+00  0.00000000E+00  0.00000000E+00
  0.00000000E+00  0.00000000E+00  0.00000000E+00
  0.00000000E+00  0.00000000E+00  0.00000000E+00
  0.00000000E+00  0.00000000E+00  0.00000000E+00
  0.00000000E+00  0.00000000E+00  0.00000000E+00
  0.00000000E+00  0.00000000E+00  0.00000000E+00
  0.00000000E+00  0.00000000E+00  0.00000000E+00
  0.00000000E+00  0.00000000E+00  0.00000000E+00
  0.00000000E+00  0.00000000E+00  0.00000000E+00
  0.00000000E+00  0.00000000E+00  0.00000000E+00
  0.00000000E+00  0.00000000E+00  0.00000000E+00
  0.00000000E+00  0.00000000E+00  0.00000000E+00
  0.00000000E+00  0.00000000E+00  0.00000000E+00
  0.00000000E+00  0.00000000E+00  0.00000000E+00
  0.00000000E+00  0.00000000E+00  0.00000000E+00
  0.00000000E+00  0.00000000E+00  0.00000000E+00
  0.00000000E+00  0.00000000E+00  0.00000000E+00
  0.00000000E+00  0.00000000E+00  0.00000000E+00
  0.00000000E+00  0.00000000E+00  0.00000000E+00
  0.00000000E+00  0.00000000E+00  0.00000000E+00
  0.00000000E+00  0.00000000E+00  0.00000000E+00
  0.00000000E+00  0.00000000E+00  0.00000000E+00
  0.00000000E+00  0.00000000E+00  0.00000000E+00
  0.00000000E+00  0.00000000E+00  0.00000000E+00
  0.00000000E+00  0.00000000E+00  0.00000000E+00
  0.00000000E+00  0.00000000E+00  0.00000000E+00
  0.00000000E+00  0.00000000E+00  0.00000000E+00
  0.00000000E+00  0.00000000E+00  0.00000000E+00
  0.00000000E+00  0.00000000E+00  0.00000000E+00
  0.00000000E+00  0.00000000E+00  0.00000000E+00
  0.00000000E+00  0.00000000E+00  0.00000000E+00
  0.00000000E+00  0.00000000E+00  0.00000000E+00
  0.00000000E+00  0.00000000E+00  0.00000000E+00
  0.00000000E+00  0.00000000E+00  0.00000000E+00
  0.00000000E+00  0.00000000E+00  0.00000000E+00
  0.00000000E+00  0.00000000E+00  0.00000000E+00
  0.00000000E+00  0.00000000E+00  0.00000000E+00
  0.00000000E+00  0.00000000E+00  0.00000000E+00
  0.00000000E+00  0.00000000E+00  0.00000000E+00
  0.00000000E+00  0.00000000E+00  0.00000000E+00
  0.00000000E+00  0.00000000E+00  0.00000000E+00
  0.00000000E+00  0.00000000E+00  0.00000000E+00
  0.00000000E+00  0.00000000E+00  0.00000000E+00
  0.00000000E+00  0.00000000E+00  0.00000000E+00
  0.00000000E+00  0.00000000E+00  0.00000000E+00
  0.00000000E+00  0.00000000E+00  0.00000000E+00
  0.00000000E+00  0.00000000E+00  0.00000000E+00
  0.00000000E+00  0.00000000E+00  0.00000000E+00
  0.00000000E+00  0.00000000E+00  0.00000000E+00
  0.00000000E+00  0.00000000E+00  0.00000000E+00
  0.00000000E+00  0.00000000E+00  0.00000000E+00
  0.00000000E+00  0.00000000E+00  0.00000000E+00
  0.00000000E+00  0.00000000E+00  0.00000000E+00
  0.00000000E+00  0.00000000E+00  0.00000000E+00
  0.00000000E+00  0.00000000E+00  0.00000000E+00
  0.00000000E+00  0.00000000E+00  0.00000000E+00
  0.00000000E+00  0.00000000E+00  0.00000000E+00
  0.00000000E+00  0.00000000E+00  0.00000000E+00
  0.00000000E+00  0.00000000E+00  0.00000000E+00
  0.00000000E+00  0.00000000E+00  0.00000000E+00
  0.00000000E+00  0.00000000E+00  0.00000000E+00
  0.00000000E+00  0.00000000E+00  0.00000000E+00
  0.00000000E+00  0.00000000E+00  0.00000000E+00
  0.00000000E+00  0.00000000E+00  0.00000000E+00
  0.00000000E+00  0.00000000E+00  0.00000000E+00
  0.00000000E+00  0.00000000E+00  0.00000000E+00
  0.00000000E+00  0.00000000E+00  0.00000000E+00
  0.00000000E+00  0.00000000E+00  0.00000000E+00
  0.00000000E+00  0.00000000E+00  0.00000000E+00
  0.00000000E+00  0.00000000E+00  0.00000000E+00
  0.00000000E+00  0.00000000E+00  0.00000000E+00
  0.00000000E+00  0.00000000E+00  0.00000000E+00
  0.00000000E+00  0.00000000E+00  0.00000000E+00
  0.00000000E+00  0.00000000E+00  0.00000000E+00
  0.00000000E+00  0.00000000E+00  0.00000000E+00
  0.00000000E+00  0.00000000E+00  0.00000000E+00
  0.00000000E+00  0.00000000E+00  0.00000000E+00
  0.00000000E+00  0.00000000E+00  0.00000000E+00
  0.00000000E+00  0.00000000E+00  0.00000000E+00
  0.00000000E+00  0.00000000E+00  0.00000000E+00
  0.00000000E+00  0.00000000E+00  0.00000000E+00
  0.00000000E+00  0.00000000E+00  0.00000000E+00
  0.00000000E+00  0.00000000E+00  0.00000000E+00
  0.00000000E+00  0.00000000E+00  0.00000000E+00
  0.00000000E+00  0.00000000E+00  0.00000000E+00
  0.00000000E+00  0.00000000E+00  0.00000000E+00
  0.00000000E+00  0.00000000E+00  0.00000000E+00
  0.00000000E+00  0.00000000E+00  0.00000000E+00
  0.00000000E+00  0.00000000E+00  0.00000000E+00
  0.00000000E+00  0.00000000E+00  0.00000000E+00
  0.00000000E+00  0.00000000E+00  0.00000000E+00
  0.00000000E+00  0.00000000E+00  0.00000000E+00
  0.00000000E+00  0.00000000E+00  0.00000000E+00
  0.00000000E+00  0.00000000E+00  0.00000000E+00
