Li42 P14 O56
1.0
5.296402 0.000000 -4.922448
0.000000 6.176136 -4.922448
0.000000 0.000000 68.914272
Li P O
42 14 56
direct
0.844520 0.000000 0.036264 Li+
0.155480 0.500000 0.058476 Li+
0.326434 0.747127 0.052549 Li+
0.673566 0.752873 0.042040 Li+
0.673566 0.247127 0.005916 Li+
0.326434 0.252873 0.017245 Li+
0.844520 0.000000 0.107693 Li+
0.155480 0.500000 0.129904 Li+
0.326434 0.747127 0.123978 Li+
0.673566 0.752873 0.113469 Li+
0.673566 0.247127 0.077344 Li+
0.326434 0.252873 0.088674 Li+
0.844520 0.000000 0.179121 Li+
0.155480 0.500000 0.201333 Li+
0.326434 0.747127 0.195406 Li+
0.673566 0.752873 0.184897 Li+
0.673566 0.247127 0.148773 Li+
0.326434 0.252873 0.160102 Li+
0.844520 0.000000 0.250550 Li+
0.155480 0.500000 0.272761 Li+
0.326434 0.747127 0.266835 Li+
0.673566 0.752873 0.256326 Li+
0.673566 0.247127 0.220201 Li+
0.326434 0.252873 0.231531 Li+
0.844520 0.000000 0.321979 Li+
0.155480 0.500000 0.344190 Li+
0.326434 0.747127 0.338263 Li+
0.673566 0.752873 0.327755 Li+
0.673566 0.247127 0.291630 Li+
0.326434 0.252873 0.302959 Li+
0.844520 0.000000 0.393407 Li+
0.155480 0.500000 0.415619 Li+
0.326434 0.747127 0.409692 Li+
0.673566 0.752873 0.399183 Li+
0.673566 0.247127 0.363058 Li+
0.326434 0.252873 0.374388 Li+
0.844520 0.000000 0.464836 Li+
0.155480 0.500000 0.487047 Li+
0.326434 0.747127 0.481120 Li+
0.673566 0.752873 0.470612 Li+
0.673566 0.247127 0.434487 Li+
0.326434 0.252873 0.445817 Li+
0.824261 0.500000 0.069960 P5+
0.175739 0.000000 0.023637 P5+
0.824261 0.500000 0.141389 P5+
0.175739 0.000000 0.095066 P5+
0.824261 0.500000 0.212817 P5+
0.175739 0.000000 0.166494 P5+
0.824261 0.500000 0.284246 P5+
0.175739 0.000000 0.237923 P5+
0.824261 0.500000 0.355675 P5+
0.175739 0.000000 0.309352 P5+
0.824261 0.500000 0.427103 P5+
0.175739 0.000000 0.380780 P5+
0.824261 0.500000 0.498532 P5+
0.175739 0.000000 0.452209 P5+
0.313509 0.207138 0.055816 O2-
0.103508 0.500000 0.025671 O2-
0.818396 0.500000 0.046953 O2-
0.181604 0.000000 0.001468 O2-
0.686491 0.707138 0.011029 O2-
0.313509 0.792862 0.026225 O2-
0.896492 0.000000 0.010884 O2-
0.686491 0.292862 0.052866 O2-
0.313509 0.207138 0.127244 O2-
0.103508 0.500000 0.097100 O2-
0.818396 0.500000 0.118382 O2-
0.181604 0.000000 0.072897 O2-
0.686491 0.707138 0.082457 O2-
0.313509 0.792862 0.097653 O2-
0.896492 0.000000 0.082313 O2-
0.686491 0.292862 0.124295 O2-
0.313509 0.207138 0.198673 O2-
0.103508 0.500000 0.168528 O2-
0.818396 0.500000 0.189811 O2-
0.181604 0.000000 0.144325 O2-
0.686491 0.707138 0.153886 O2-
0.313509 0.792862 0.169082 O2-
0.896492 0.000000 0.153741 O2-
0.686491 0.292862 0.195723 O2-
0.313509 0.207138 0.270101 O2-
0.103508 0.500000 0.239957 O2-
0.818396 0.500000 0.261239 O2-
0.181604 0.000000 0.215754 O2-
0.686491 0.707138 0.225314 O2-
0.313509 0.792862 0.240510 O2-
0.896492 0.000000 0.225170 O2-
0.686491 0.292862 0.267152 O2-
0.313509 0.207138 0.341530 O2-
0.103508 0.500000 0.311385 O2-
0.818396 0.500000 0.332668 O2-
0.181604 0.000000 0.287183 O2-
0.686491 0.707138 0.296743 O2-
0.313509 0.792862 0.311939 O2-
0.896492 0.000000 0.296599 O2-
0.686491 0.292862 0.338580 O2-
0.313509 0.207138 0.412959 O2-
0.103508 0.500000 0.382814 O2-
0.818396 0.500000 0.404096 O2-
0.181604 0.000000 0.358611 O2-
0.686491 0.707138 0.368171 O2-
0.313509 0.792862 0.383367 O2-
0.896492 0.000000 0.368027 O2-
0.686491 0.292862 0.410009 O2-
0.313509 0.207138 0.484387 O2-
0.103508 0.500000 0.454243 O2-
0.818396 0.500000 0.475525 O2-
0.181604 0.000000 0.430040 O2-
0.686491 0.707138 0.439600 O2-
0.313509 0.792862 0.454796 O2-
0.896492 0.000000 0.439456 O2-
0.686491 0.292862 0.481438 O2-
