Li71 P24 N1 O94                         
   1.00000000000000     
    14.7373691006732184    0.0073915881142217    0.0012183166729820
     0.0053301597110921   10.5448732126084899    0.0026114244196858
     0.0010370086734209    0.0030073976593225   12.3420885476123061
   Li   P    N    O 
    71    24     1    94
Direct
  0.1686353776511115  0.4228665435954372  0.0015266035650710
  0.1679981174904902  0.4226320287979664  0.4986751765631288
  0.1589154341577337  0.8890121086663586  0.0017888561744076
  0.1698964346734734  0.9214201746808134  0.4978164213442129
  0.5043440650225107  0.4228236637713195 -0.0004715629938699
  0.5038438344789157  0.4216304727177291  0.5001767388318089
  0.5092592695936694  0.9186799699256343 -0.0000157854232280
  0.5037783629833154  0.9224344202236885  0.4999077285702982
  0.8359332241536582  0.4234330962504096  0.0008366708488611
  0.8364212135411786  0.4232162351218038  0.4999649386182728
  0.8362771413952739  0.9241946945954086  0.0012222162120565
  0.8371293026421329  0.9244462503137559  0.4988641560065646
 -0.0019397069228185  0.0712692584710920  0.7474670418736732
 -0.0001444897323414  0.5845109786747656  0.2527212537486499
  0.0017783622538401  0.5785422336072689  0.7498612246767301
  0.3348799689789429  0.0761352319713386  0.2534796631469067
  0.3364644567965806  0.0760858507767385  0.7459555543034866
  0.3416086854498910  0.5800312474552233  0.2505487642003973
  0.3371112747585592  0.5779651118408912  0.7486467754677619
  0.6781668043503020  0.0743587525635671  0.2510786200450812
  0.6708268368520338  0.0763635408210963  0.7490055135811400
  0.6704896289902749  0.5796952219734725  0.2504912243584870
  0.6698076072355093  0.5777118399803675  0.7496930274620014
  0.1507359585859324  0.1768356223051436  0.1577494915461077
  0.1675853616780603  0.1613320545718732  0.6247649614239069
  0.1707391202093732  0.6630452907114814  0.1292779479347382
  0.1692956423504610  0.6627308874281359  0.6250502180118622
  0.5099658849689991  0.1634118098898606  0.1293471694170419
  0.5033456262623376  0.1633043879893132  0.6256402190020514
  0.5045589951564659  0.6626999575928237  0.1259312866079967
  0.5028242775368450  0.6628457309140472  0.6261593290027528
  0.8380887121145795  0.1620702241897644  0.1273556402576126
  0.8360714107663146  0.1637497716726168  0.6260665652214950
  0.8353117907750227  0.6653270598224309  0.1263779478698229
  0.8358833405803234  0.6634953288271159  0.6262570610115221
 -0.0034291508632314  0.3304644394968272  0.1243474278011773
  0.0026683748045206  0.3356482687279281  0.6242720750305027
 -0.0014137107866158  0.8454723938100971  0.1275078350813793
  0.0028326470436087  0.8365253500600357  0.6221548158695860
  0.3393436155903911  0.3407455684244254  0.1232493851655908
  0.3358636605370545  0.3366483825259859  0.6232001686090691
  0.3384384930804802  0.8348999368334794  0.1257662342482686
  0.3372067100139607  0.8359859245890594  0.6230602298843472
  0.6707154068256627  0.3371825459188837  0.1238671279905780
  0.6698030238646165  0.3360605991066902  0.6241998359953983
  0.6688602998451812  0.8343082785670072  0.1228284060658406
  0.6693153110113935  0.8356948346220187  0.6231175675002518
 -0.0026744314685661  0.3320228642307693  0.3760116342711724
  0.0012461653476594  0.3368605552707632  0.8760326196432600
  0.0012652370141678  0.8467222927767021  0.3738595795758159
  0.0001441584496828  0.8351778880465834  0.8749896642008266
  0.3387433990092167  0.3368762885586055  0.3770258625898477
  0.3355705812579141  0.3409101747852091  0.8753847178756754
  0.3387510061703061  0.8366543463037351  0.3763061110926105
  0.3365570915438471  0.8342693686610384  0.8739717645197131
  0.6708197106207411  0.3361980185780136  0.3767697029653586
  0.6698170795851924  0.3368529537520005  0.8756831638929852
  0.6682667654494658  0.8346649127131986  0.3784633862573489
  0.6698794924863938  0.8353707026893890  0.8758082331255820
  0.1665523298111160  0.1613294962616832  0.3763439751092281
  0.1590089192129483  0.1706033033117837  0.8551853727101260
  0.1698289394802373  0.6650996510855781  0.3730852820853922
  0.1695312332912324  0.6597909436772939  0.8723694211917289
  0.5048928422858712  0.1624928391657182  0.3736077125190236
  0.5076283938251941  0.1640639820005789  0.8710824051813389
  0.5042844469638764  0.6627186288017008  0.3746714627033118
  0.5031120534279454  0.6627631601346248  0.8728750404347769
  0.8393678343769919  0.1619415266937104  0.3727516037117253
  0.8358979880061730  0.1636731124574257  0.8735398349831689
  0.8354566873241731  0.6657415117092605  0.3742534034942829
  0.8356564162465467  0.6630388925141639  0.8744549051291234
  0.1728498396933800  0.4167670505142108  0.2492109551044485
  0.1667302126413731  0.4126183306095758  0.7494060714477988
  0.1686563577320628  0.9098640843742449  0.2491173588900180
  0.1673245367027404  0.9100074021575595  0.7509933404684347
  0.5016815698200748  0.4124557048220278  0.2502650666439443
  0.5002932925509928  0.4121870625118697  0.7496161236444783
  0.5017292163520219  0.9124091461233148  0.2501592625910314
  0.5006302502422068  0.9119845730467960  0.7497519839321020
  0.8317412800879023  0.4138587577335783  0.2501678564370823
  0.8332685260615391  0.4129096313649334  0.7503262736772172
  0.8284994173372706  0.9121550753265425  0.2501373923211104
  0.8320376656733811  0.9111130870019902  0.7498974727644935
  0.0022184992946131  0.0893412143896926 -0.0076435512132046
  0.0019402497074323  0.0905031955272434  0.5051065541218727
  0.0006452146433932  0.5892608674891743  0.0010983160173333
  0.0000886401377118  0.5893993301175920  0.5000490287271789
  0.3401531000060832  0.0868206022212422 -0.0000754872378288
  0.3346120234203820  0.0872936851336514  0.5002701806611950
  0.3346301420715324  0.5883947819286656 -0.0007287073882266
  0.3345326527930302  0.5874747664725020  0.5000324420111975
  0.6662070367933791  0.0877204485982119 -0.0009260447205946
  0.6670471431643068  0.0875902762022601  0.5008130636296757
  0.6668148969087671  0.5870313602820225 -0.0009480510624024
  0.6669688715997442  0.5866364788646157  0.5010888006626975
  0.0628510482684862  0.4129749162201387  0.2480833151451148
  0.0411192512147314  0.1679380754879926  0.4106541525250191
  0.0326211457102323  0.1515752137242823  0.8827084276974623
  0.0356140963375971  0.6611018862008424  0.3980333862479252
  0.0361553655627398  0.6568294958740820  0.8962752169517957
  0.3698249394749163  0.1565758661945561  0.3965630038506712
  0.3677718241018928  0.1581340851940497  0.8947132021958387
  0.3712051450320222  0.6567157154152387  0.3972363805029951
  0.3692201638279966  0.6568220450514263  0.8948338022752897
  0.7023446758377443  0.1571606966351634  0.3978915889328399
  0.7008845124284063  0.1561868478280725  0.8947863251963191
  0.7018691925000704  0.6558605476470356  0.3975577610192462
  0.7020636070404813  0.6560362119082934  0.8953158488277946
  0.2014345828577619  0.0513563019572089  0.2493756434841057
  0.2017504075629682  0.0504282297055533  0.7522980121195676
  0.2105232117831285  0.5551635208431296  0.2497864637251367
  0.2019258091161842  0.5518532816994500  0.7493740234009053
  0.5367518510742697  0.0518351587854416  0.2502682168023510
  0.5340357508341569  0.0522958870633458  0.7497944826797655
  0.5346474226128525  0.5529369544620588  0.2500590722871348
  0.5337928558814516  0.5523440301867182  0.7498333685557118
  0.8495459535948229  0.0548603082290543  0.2495886915112843
  0.8638520231986304  0.0519254244733687  0.7502098161960145
  0.8647922627760602  0.5544369408341325  0.2500245865721608
  0.8667599706388007  0.5532346149085483  0.7505738107159839
  0.0612849409785998  0.4109717526599396  0.7506022437633223
  0.0652735185218777  0.8974811889852975  0.2488490436469369
  0.0620498835908230  0.9055364054706380  0.7503029143914458
  0.3959740121804725  0.4094180426660012  0.2503051516745244
  0.3944988542947803  0.4091966018832857  0.7495000048785292
  0.3959148342713453  0.9114061818577974  0.2495755760624631
  0.3948040440522614  0.9095289737940280  0.7501473487364306
  0.7259599892121340  0.4110213075228599  0.2501791099409629
  0.7275441254332274  0.4096324364024318  0.7500878552930383
  0.7229482221787078  0.8964634231985110  0.2504990393775940
  0.7264103524013094  0.9064716822117526  0.7496296105850413
  0.2290305046586105  0.0893787010610003  0.5008158227271976
  0.2288374001263322  0.5917930809634305  0.0001403800054929
  0.2288132020498081  0.5904830202154420  0.4994064245456383
  0.5600127676247226  0.0903804896362648 -0.0009419324399452
  0.5611592282052933  0.0902696303646739  0.5006763739755712
  0.5610335670066716  0.5906573780627949 -0.0011011830975672
  0.5611929113171982  0.5896449546706846  0.5010800462018734
  0.8966259856173114  0.0918295619419111 -0.0014429215329483
  0.8959794472547845  0.0917810870958815  0.5016421531435891
  0.8949139928476550  0.5921090974134551  0.0006751321836259
  0.8943080562522588  0.5920951615291402  0.5002535759418646
  0.2082449901126171  0.3459053207953345  0.1454945675183023
  0.2015053976782560  0.3418237701239601  0.6463749724375483
  0.2072660489220681  0.8443652777364330  0.1438660656398935
  0.2041699134776541  0.8419014523383104  0.6479266297792441
  0.5363319962685749  0.3436104720643670  0.1459993878318751
  0.5356860671652853  0.3427205679208297  0.6463339938519471
  0.5356715793920920  0.8425902395961795  0.1459974519177313
  0.5355006233296022  0.8426852387857796  0.6461793497821072
  0.8659288464974162  0.3444883774696639  0.1460003321676956
  0.8688435215545408  0.3440202432447070  0.6468083512711299
  0.8665113351580945  0.8454204038706049  0.1460775389486682
  0.8687157489389203  0.8428955759846729  0.6465667102978423
  0.0438135213514936  0.1678934285333913  0.0843928089005819
  0.0336025443605300  0.1530727816350536  0.6142259104766838
  0.0365254331814227  0.6606468150090695  0.1031852611310486
  0.0354413323372302  0.6564439898715868  0.6050154679574206
  0.3699211776791097  0.1572926272608854  0.1042556906536296
  0.3695756106729547  0.1569308063336639  0.6039879550995807
  0.3713107554923996  0.6571840311874605  0.1021587531083505
  0.3692752060378403  0.6562740929933618  0.6042540103490864
  0.7010057151689961  0.1573003193251462  0.1020815860270516
  0.7017713973011399  0.1562163114931441  0.6050832006507137
  0.7018768829010762  0.6559187090181212  0.1025334618028746
  0.7020007942803791  0.6560010569709792  0.6047441460733334
  0.0340902481953610  0.4485544389202102  0.0020541179026839
  0.0335390809846371  0.4487749760304665  0.4989207875534172
  0.0355324770171051  0.9483691404313939 -0.0034604774943014
  0.0357681811600283  0.9497421124694216  0.5018425780279199
  0.3683256018850163  0.4479624191618347 -0.0012404736558240
  0.3681792859409253  0.4470620627370901  0.5003890550454801
  0.3698713062078844  0.9458094236176370 -0.0010907570460370
  0.3689872177285773  0.9473904807800420  0.5006140104686059
  0.7000720506480175  0.4466403566285485 -0.0009687833179996
  0.7006426728502646  0.4464455410609503  0.5012332373952980
  0.6992194687793118  0.9471629804273765 -0.0006878044200933
  0.7004922366620103  0.9471543853512585  0.5008042223521103
  0.2042150145932475  0.3448376750390242  0.3536881387214616
  0.2018529859018397  0.3426210291819579  0.8536642056173263
  0.2078490620222886  0.8430086244679356  0.3524472007921328
  0.2027813471971517  0.8420236736151246  0.8558479692872281
  0.5366240950101815  0.3429729952181110  0.3538030180102451
  0.5353647217873647  0.3431088014249985  0.8536167763851024
  0.5352896657973755  0.8423124743270579  0.3541079806325513
  0.5357412401617765  0.8428429454634190  0.8536090026712969
  0.8663182775808445  0.3448020344689620  0.3540819673698249
  0.8682707186335827  0.3441154403526928  0.8544579652242463
  0.8675830032637134  0.8454795085732416  0.3534181097217901
  0.8676337074877057  0.8429222521659334  0.8540756505327759
 
  0.00000000E+00  0.00000000E+00  0.00000000E+00
  0.00000000E+00  0.00000000E+00  0.00000000E+00
  0.00000000E+00  0.00000000E+00  0.00000000E+00
  0.00000000E+00  0.00000000E+00  0.00000000E+00
  0.00000000E+00  0.00000000E+00  0.00000000E+00
  0.00000000E+00  0.00000000E+00  0.00000000E+00
  0.00000000E+00  0.00000000E+00  0.00000000E+00
  0.00000000E+00  0.00000000E+00  0.00000000E+00
  0.00000000E+00  0.00000000E+00  0.00000000E+00
  0.00000000E+00  0.00000000E+00  0.00000000E+00
  0.00000000E+00  0.00000000E+00  0.00000000E+00
  0.00000000E+00  0.00000000E+00  0.00000000E+00
  0.00000000E+00  0.00000000E+00  0.00000000E+00
  0.00000000E+00  0.00000000E+00  0.00000000E+00
  0.00000000E+00  0.00000000E+00  0.00000000E+00
  0.00000000E+00  0.00000000E+00  0.00000000E+00
  0.00000000E+00  0.00000000E+00  0.00000000E+00
  0.00000000E+00  0.00000000E+00  0.00000000E+00
  0.00000000E+00  0.00000000E+00  0.00000000E+00
  0.00000000E+00  0.00000000E+00  0.00000000E+00
  0.00000000E+00  0.00000000E+00  0.00000000E+00
  0.00000000E+00  0.00000000E+00  0.00000000E+00
  0.00000000E+00  0.00000000E+00  0.00000000E+00
  0.00000000E+00  0.00000000E+00  0.00000000E+00
  0.00000000E+00  0.00000000E+00  0.00000000E+00
  0.00000000E+00  0.00000000E+00  0.00000000E+00
  0.00000000E+00  0.00000000E+00  0.00000000E+00
  0.00000000E+00  0.00000000E+00  0.00000000E+00
  0.00000000E+00  0.00000000E+00  0.00000000E+00
  0.00000000E+00  0.00000000E+00  0.00000000E+00
  0.00000000E+00  0.00000000E+00  0.00000000E+00
  0.00000000E+00  0.00000000E+00  0.00000000E+00
  0.00000000E+00  0.00000000E+00  0.00000000E+00
  0.00000000E+00  0.00000000E+00  0.00000000E+00
  0.00000000E+00  0.00000000E+00  0.00000000E+00
  0.00000000E+00  0.00000000E+00  0.00000000E+00
  0.00000000E+00  0.00000000E+00  0.00000000E+00
  0.00000000E+00  0.00000000E+00  0.00000000E+00
  0.00000000E+00  0.00000000E+00  0.00000000E+00
  0.00000000E+00  0.00000000E+00  0.00000000E+00
  0.00000000E+00  0.00000000E+00  0.00000000E+00
  0.00000000E+00  0.00000000E+00  0.00000000E+00
  0.00000000E+00  0.00000000E+00  0.00000000E+00
  0.00000000E+00  0.00000000E+00  0.00000000E+00
  0.00000000E+00  0.00000000E+00  0.00000000E+00
  0.00000000E+00  0.00000000E+00  0.00000000E+00
  0.00000000E+00  0.00000000E+00  0.00000000E+00
  0.00000000E+00  0.00000000E+00  0.00000000E+00
  0.00000000E+00  0.00000000E+00  0.00000000E+00
  0.00000000E+00  0.00000000E+00  0.00000000E+00
  0.00000000E+00  0.00000000E+00  0.00000000E+00
  0.00000000E+00  0.00000000E+00  0.00000000E+00
  0.00000000E+00  0.00000000E+00  0.00000000E+00
  0.00000000E+00  0.00000000E+00  0.00000000E+00
  0.00000000E+00  0.00000000E+00  0.00000000E+00
  0.00000000E+00  0.00000000E+00  0.00000000E+00
  0.00000000E+00  0.00000000E+00  0.00000000E+00
  0.00000000E+00  0.00000000E+00  0.00000000E+00
  0.00000000E+00  0.00000000E+00  0.00000000E+00
  0.00000000E+00  0.00000000E+00  0.00000000E+00
  0.00000000E+00  0.00000000E+00  0.00000000E+00
  0.00000000E+00  0.00000000E+00  0.00000000E+00
  0.00000000E+00  0.00000000E+00  0.00000000E+00
  0.00000000E+00  0.00000000E+00  0.00000000E+00
  0.00000000E+00  0.00000000E+00  0.00000000E+00
  0.00000000E+00  0.00000000E+00  0.00000000E+00
  0.00000000E+00  0.00000000E+00  0.00000000E+00
  0.00000000E+00  0.00000000E+00  0.00000000E+00
  0.00000000E+00  0.00000000E+00  0.00000000E+00
  0.00000000E+00  0.00000000E+00  0.00000000E+00
  0.00000000E+00  0.00000000E+00  0.00000000E+00
  0.00000000E+00  0.00000000E+00  0.00000000E+00
  0.00000000E+00  0.00000000E+00  0.00000000E+00
  0.00000000E+00  0.00000000E+00  0.00000000E+00
  0.00000000E+00  0.00000000E+00  0.00000000E+00
  0.00000000E+00  0.00000000E+00  0.00000000E+00
  0.00000000E+00  0.00000000E+00  0.00000000E+00
  0.00000000E+00  0.00000000E+00  0.00000000E+00
  0.00000000E+00  0.00000000E+00  0.00000000E+00
  0.00000000E+00  0.00000000E+00  0.00000000E+00
  0.00000000E+00  0.00000000E+00  0.00000000E+00
  0.00000000E+00  0.00000000E+00  0.00000000E+00
  0.00000000E+00  0.00000000E+00  0.00000000E+00
  0.00000000E+00  0.00000000E+00  0.00000000E+00
  0.00000000E+00  0.00000000E+00  0.00000000E+00
  0.00000000E+00  0.00000000E+00  0.00000000E+00
  0.00000000E+00  0.00000000E+00  0.00000000E+00
  0.00000000E+00  0.00000000E+00  0.00000000E+00
  0.00000000E+00  0.00000000E+00  0.00000000E+00
  0.00000000E+00  0.00000000E+00  0.00000000E+00
  0.00000000E+00  0.00000000E+00  0.00000000E+00
  0.00000000E+00  0.00000000E+00  0.00000000E+00
  0.00000000E+00  0.00000000E+00  0.00000000E+00
  0.00000000E+00  0.00000000E+00  0.00000000E+00
  0.00000000E+00  0.00000000E+00  0.00000000E+00
  0.00000000E+00  0.00000000E+00  0.00000000E+00
  0.00000000E+00  0.00000000E+00  0.00000000E+00
  0.00000000E+00  0.00000000E+00  0.00000000E+00
  0.00000000E+00  0.00000000E+00  0.00000000E+00
  0.00000000E+00  0.00000000E+00  0.00000000E+00
  0.00000000E+00  0.00000000E+00  0.00000000E+00
  0.00000000E+00  0.00000000E+00  0.00000000E+00
  0.00000000E+00  0.00000000E+00  0.00000000E+00
  0.00000000E+00  0.00000000E+00  0.00000000E+00
  0.00000000E+00  0.00000000E+00  0.00000000E+00
  0.00000000E+00  0.00000000E+00  0.00000000E+00
  0.00000000E+00  0.00000000E+00  0.00000000E+00
  0.00000000E+00  0.00000000E+00  0.00000000E+00
  0.00000000E+00  0.00000000E+00  0.00000000E+00
  0.00000000E+00  0.00000000E+00  0.00000000E+00
  0.00000000E+00  0.00000000E+00  0.00000000E+00
  0.00000000E+00  0.00000000E+00  0.00000000E+00
  0.00000000E+00  0.00000000E+00  0.00000000E+00
  0.00000000E+00  0.00000000E+00  0.00000000E+00
  0.00000000E+00  0.00000000E+00  0.00000000E+00
  0.00000000E+00  0.00000000E+00  0.00000000E+00
  0.00000000E+00  0.00000000E+00  0.00000000E+00
  0.00000000E+00  0.00000000E+00  0.00000000E+00
  0.00000000E+00  0.00000000E+00  0.00000000E+00
  0.00000000E+00  0.00000000E+00  0.00000000E+00
  0.00000000E+00  0.00000000E+00  0.00000000E+00
  0.00000000E+00  0.00000000E+00  0.00000000E+00
  0.00000000E+00  0.00000000E+00  0.00000000E+00
  0.00000000E+00  0.00000000E+00  0.00000000E+00
  0.00000000E+00  0.00000000E+00  0.00000000E+00
  0.00000000E+00  0.00000000E+00  0.00000000E+00
  0.00000000E+00  0.00000000E+00  0.00000000E+00
  0.00000000E+00  0.00000000E+00  0.00000000E+00
  0.00000000E+00  0.00000000E+00  0.00000000E+00
  0.00000000E+00  0.00000000E+00  0.00000000E+00
  0.00000000E+00  0.00000000E+00  0.00000000E+00
  0.00000000E+00  0.00000000E+00  0.00000000E+00
  0.00000000E+00  0.00000000E+00  0.00000000E+00
  0.00000000E+00  0.00000000E+00  0.00000000E+00
  0.00000000E+00  0.00000000E+00  0.00000000E+00
  0.00000000E+00  0.00000000E+00  0.00000000E+00
  0.00000000E+00  0.00000000E+00  0.00000000E+00
  0.00000000E+00  0.00000000E+00  0.00000000E+00
  0.00000000E+00  0.00000000E+00  0.00000000E+00
  0.00000000E+00  0.00000000E+00  0.00000000E+00
  0.00000000E+00  0.00000000E+00  0.00000000E+00
  0.00000000E+00  0.00000000E+00  0.00000000E+00
  0.00000000E+00  0.00000000E+00  0.00000000E+00
  0.00000000E+00  0.00000000E+00  0.00000000E+00
  0.00000000E+00  0.00000000E+00  0.00000000E+00
  0.00000000E+00  0.00000000E+00  0.00000000E+00
  0.00000000E+00  0.00000000E+00  0.00000000E+00
  0.00000000E+00  0.00000000E+00  0.00000000E+00
  0.00000000E+00  0.00000000E+00  0.00000000E+00
  0.00000000E+00  0.00000000E+00  0.00000000E+00
  0.00000000E+00  0.00000000E+00  0.00000000E+00
  0.00000000E+00  0.00000000E+00  0.00000000E+00
  0.00000000E+00  0.00000000E+00  0.00000000E+00
  0.00000000E+00  0.00000000E+00  0.00000000E+00
  0.00000000E+00  0.00000000E+00  0.00000000E+00
  0.00000000E+00  0.00000000E+00  0.00000000E+00
  0.00000000E+00  0.00000000E+00  0.00000000E+00
  0.00000000E+00  0.00000000E+00  0.00000000E+00
  0.00000000E+00  0.00000000E+00  0.00000000E+00
  0.00000000E+00  0.00000000E+00  0.00000000E+00
  0.00000000E+00  0.00000000E+00  0.00000000E+00
  0.00000000E+00  0.00000000E+00  0.00000000E+00
  0.00000000E+00  0.00000000E+00  0.00000000E+00
  0.00000000E+00  0.00000000E+00  0.00000000E+00
  0.00000000E+00  0.00000000E+00  0.00000000E+00
  0.00000000E+00  0.00000000E+00  0.00000000E+00
  0.00000000E+00  0.00000000E+00  0.00000000E+00
  0.00000000E+00  0.00000000E+00  0.00000000E+00
  0.00000000E+00  0.00000000E+00  0.00000000E+00
  0.00000000E+00  0.00000000E+00  0.00000000E+00
  0.00000000E+00  0.00000000E+00  0.00000000E+00
  0.00000000E+00  0.00000000E+00  0.00000000E+00
  0.00000000E+00  0.00000000E+00  0.00000000E+00
  0.00000000E+00  0.00000000E+00  0.00000000E+00
  0.00000000E+00  0.00000000E+00  0.00000000E+00
  0.00000000E+00  0.00000000E+00  0.00000000E+00
  0.00000000E+00  0.00000000E+00  0.00000000E+00
  0.00000000E+00  0.00000000E+00  0.00000000E+00
  0.00000000E+00  0.00000000E+00  0.00000000E+00
  0.00000000E+00  0.00000000E+00  0.00000000E+00
  0.00000000E+00  0.00000000E+00  0.00000000E+00
  0.00000000E+00  0.00000000E+00  0.00000000E+00
  0.00000000E+00  0.00000000E+00  0.00000000E+00
  0.00000000E+00  0.00000000E+00  0.00000000E+00
  0.00000000E+00  0.00000000E+00  0.00000000E+00
  0.00000000E+00  0.00000000E+00  0.00000000E+00
  0.00000000E+00  0.00000000E+00  0.00000000E+00
  0.00000000E+00  0.00000000E+00  0.00000000E+00
  0.00000000E+00  0.00000000E+00  0.00000000E+00
  0.00000000E+00  0.00000000E+00  0.00000000E+00
