Li5 P2 N1 O6                            
   1.00000000000000     
    -0.3412263816223391    0.1790288716749984    4.9732448189764504
     6.3249022434704418    0.2189739898041687   -0.4578457065953397
     0.1702934098318052    5.3704917625712483    0.1825365882117441
   Li   P    N    O 
     5     2     1     6
Direct
  0.4695796803397940  0.0637026645738360  0.9256073401322461
  0.4038739799574362  0.6965143794876292  0.3037734536866476
  0.0632667977687034  0.7761846589579348  0.6774606891216644
  0.0281052741207197  0.2543408259975406  0.6701722872883413
  0.5362367414510386  0.2410867420601199  0.3463203958502695
  0.5668782349988433  0.5071474514161977  0.8079311654015562
 -0.0295534756226238 -0.0204261218495305  0.1897672834208836
  0.1326690825953723  0.1597143693519222  0.3454468733816692
  0.0344022791647535  0.7699679737048603  0.3231191204975637
  0.6449258092855539  0.2993265969251337  0.6978968034689823
  0.5280496888533058  0.4850999248424992  0.0937077088865262
  0.0818536717491758  0.0014151681168610  0.9048569726529373
  0.3253386237048285  0.5791642990624385  0.6748426973955214
  0.6557466116331263 -0.0203769326474422  0.1971262088151963
 
  0.00000000E+00  0.00000000E+00  0.00000000E+00
  0.00000000E+00  0.00000000E+00  0.00000000E+00
  0.00000000E+00  0.00000000E+00  0.00000000E+00
  0.00000000E+00  0.00000000E+00  0.00000000E+00
  0.00000000E+00  0.00000000E+00  0.00000000E+00
  0.00000000E+00  0.00000000E+00  0.00000000E+00
  0.00000000E+00  0.00000000E+00  0.00000000E+00
  0.00000000E+00  0.00000000E+00  0.00000000E+00
  0.00000000E+00  0.00000000E+00  0.00000000E+00
  0.00000000E+00  0.00000000E+00  0.00000000E+00
  0.00000000E+00  0.00000000E+00  0.00000000E+00
  0.00000000E+00  0.00000000E+00  0.00000000E+00
  0.00000000E+00  0.00000000E+00  0.00000000E+00
  0.00000000E+00  0.00000000E+00  0.00000000E+00
