Li73 P24 N1 O95                         
   1.00000000000000     
    14.7296912049694022   -0.0008138820244464   -0.0112360238513199
    -0.0005684739339443   10.5620535050562214   -0.0126704046133841
    -0.0093147828834043   -0.0148209527471173   12.3078932132001011
   Li   P    N    O 
    73    24     1    95
Direct
  0.1823719862328765  0.4298799209685457 -0.0084282275633963
  0.1729925979347120  0.4222017605064202  0.4956544228295433
  0.1701693658080536  0.9210831215433168  0.0004107718122065
  0.1703078156175521  0.9218553655802856  0.4990070432887095
  0.5031000183021613  0.4238125811661924 -0.0004026455778183
  0.5029582104498777  0.4234889728898966  0.4992062860933634
  0.5028351124777365  0.9215264031137816 -0.0007320203276356
  0.5028066847801131  0.9224940058212592  0.4995050402806254
  0.8384528399433582  0.4211395906217674  0.0005352315058318
  0.8365416861358411  0.4233881673372849  0.5000961891655490
  0.8357499084190064  0.9224524306742118 -0.0008701576225286
  0.8362798145208745  0.9218641461674049  0.5003090198643317
  0.0082970255498407  0.0594504414546055  0.2547712803136385
  0.0034717539471801  0.0806394410534050  0.7501981494356703
  0.0027161901520227  0.5675128972198941  0.2474458614980957
  0.0043974668472282  0.5792970471358700  0.7493558521897528
  0.3370905227081922  0.0766358330966269  0.2510018278253016
  0.3364862073064013  0.0784066596871468  0.7493703355129948
  0.3336927402487075  0.5749639414353384  0.2495065785768218
  0.3375589054248425  0.5783579228266680  0.7487775879100795
  0.6676474810194379  0.0783499330681357  0.2499870495516871
  0.6690899630686535  0.0785286121077751  0.7495401250339530
  0.6690610188782152  0.5804678806309275  0.2503737675614074
  0.6706090365401394  0.5777872436001555  0.7497749433355860
  0.1751112406742529  0.1599089146025290  0.1299229294487075
  0.1701883018013413  0.1643508128397197  0.6245160798940298
  0.1701001448609234  0.6587999582204332  0.1275496788555072
  0.1699591801180090  0.6642675993774853  0.6250921039099406
  0.5020185656631770  0.1639876417699667  0.1257373098981673
  0.5024162024302412  0.1636533085907260  0.6257226103230356
  0.5039229895013477  0.6635263905620755  0.1262135321019961
  0.5032821899352347  0.6639101990116287  0.6258478621640008
  0.8288177419537202  0.1602194480245973  0.1225967686990374
  0.8358249402740008  0.1635738027771152  0.6266744459488094
  0.8377362506046109  0.6628697943964912  0.1245924303793134
  0.8370441413609921  0.6638337382403079  0.6267238977096313
 -0.0357925241406501  0.2716786577412042  0.2201131468431866
  0.0032326410493843  0.3378786815325241  0.6246290397795217
  0.0036474778475658  0.8335275140139020  0.1230758920795517
  0.0031201858300049  0.8392183097224314  0.6244687792150185
  0.3332425149198851  0.3383440729641706  0.1236413736860856
  0.3367702747279953  0.3368402651583211  0.6221056313216344
  0.3374232482638232  0.8359753279751985  0.1231620169427892
  0.3361850218474473  0.8368565376033353  0.6232266927063705
  0.6688086274923143  0.3379719973870944  0.1235490765265512
  0.6697167230796425  0.3376476343662564  0.6233714604287169
  0.6700746898349993  0.8374526784634415  0.1231624912843367
  0.6696332559371351  0.8375015264213476  0.6233626620532966
  0.0089499252295714  0.3444146961714473  0.3878534837917278
  0.0031929506369634  0.3390092566674044  0.8736160699206031
  0.0035486853291829  0.8328058752211660  0.3770383372047363
  0.0027069679272723  0.8409688497765240  0.8761000186529277
  0.3365440339828679  0.3367656580596756  0.3738405676464968
  0.3381856281382220  0.3369328227715241  0.8745037395701539
  0.3374868225381163  0.8349385335164059  0.3761151617021307
  0.3367677587061827  0.8377897457917697  0.8754204223720337
  0.6668786073791662  0.3371633109096477  0.3781337574620042
  0.6695850048802808  0.3376598380504421  0.8760101582354786
  0.6701187040224811  0.8378771389161870  0.3756387621870479
  0.6699416182187239  0.8369184423400823  0.8752656201225196
  0.1694487865050700  0.1655971177121057  0.3719836314510201
  0.1708494164319992  0.1646543489298862  0.8743981317975303
  0.1694081215619607  0.6579376876725263  0.3710520881572233
  0.1694309700283324  0.6667637981013385  0.8716100113642673
  0.5025142952796293  0.1637729029382295  0.3735613851527668
  0.5020262721084272  0.1638483599192076  0.8728637196914316
  0.5029579723767247  0.6631311454016350  0.3731261889258509
  0.5046558689359268  0.6642694146524190  0.8727342954422345
  0.8338111643759530  0.1620343376942814  0.3756287544638561
  0.8353461939990303  0.1641339410019622  0.8735489286737522
  0.8371066583471068  0.6640187966077995  0.3735705681363192
  0.8377184768537655  0.6631667723891078  0.8733840459637232
  0.0623790047297885  0.3411040112400069  0.0995498602058767
  0.1611376123652248  0.4086524526490743  0.2495537071431103
  0.1685526044258826  0.4129279515837576  0.7477628221676608
  0.1692550052236303  0.9071841041363811  0.2503612382732894
  0.1672348725433709  0.9149188350243264  0.7496742554312245
  0.5004437217376675  0.4127735188293820  0.2489236766306680
  0.5011176742892212  0.4127044344618233  0.7491246881194501
  0.5008717877086879  0.9122907101032298  0.2495796493255573
  0.5006867629392563  0.9130580321558569  0.7492737911520999
  0.8284434762426294  0.4135001199752966  0.2500910183758268
  0.8343733869123428  0.4122883218821035  0.7494868920504232
  0.8348868126163322  0.9138382464389240  0.2490904477158794
  0.8339227050264456  0.9135971549801251  0.7500792030606392
 -0.0008419144834897  0.0897914081333167  0.0030045707401200
 -0.0006143900155113  0.0875671136043652  0.4992154933997939
  0.0031050438627047  0.5903505636016925 -0.0040137803816465
  0.0012041074982333  0.5898801160164823  0.5020986721569640
  0.3336946291664280  0.0875940691251202  0.0001466272812747
  0.3338190621887445  0.0873087159449000  0.4993344649096546
  0.3358621518314772  0.5909738796633166 -0.0016642642288634
  0.3346061055516310  0.5878194853435041  0.4994268155870785
  0.6652620826389810  0.0877500246569763 -0.0007950757987734
  0.6667993671444689  0.0881287733963980  0.4999974860767110
  0.6682582025145366  0.5885233750772151 -0.0004919116147778
  0.6678156067353928  0.5891251677319007  0.5002185267773421
  0.0547616050654612  0.3981330878136475  0.2488540550411281
  0.0329308217002908  0.1557800315845553  0.3938636763032813
  0.0365001445448245  0.1612088934873932  0.9016761337103486
  0.0361053767965838  0.6571347931003797  0.3978734589644951
  0.0351070620035904  0.6640967026349164  0.8929279180223809
  0.3698440881750926  0.1558099017135346  0.3957969598387884
  0.3685603985671240  0.1572154237691254  0.8964102721482329
  0.3702113248253410  0.6563741202027161  0.3956740218770604
  0.3721630651521937  0.6588720060773993  0.8945814611420123
  0.7015388673248821  0.1573839141158388  0.3959555518771115
  0.7014937889741866  0.1576216284243128  0.8963062673035338
  0.7032508661248571  0.6588120293879094  0.3967886050122966
  0.7036286750902599  0.6574107515557090  0.8955777631010003
  0.2004458931517668  0.0484058289601222  0.2510184707312642
  0.2010990577031131  0.0548830271066277  0.7494732240669935
  0.2012003442821416  0.5484872676756498  0.2487519534644224
  0.2017347873434754  0.5532484118205891  0.7488905874110062
  0.5338929554539661  0.0526906527273205  0.2496492736573336
  0.5341473425604339  0.0532468182090801  0.7494008071220546
  0.5347042119195567  0.5526129675218168  0.2495229999631233
  0.5353105839848489  0.5525019438625109  0.7492690947694309
  0.8698461144173292  0.0541693084562102  0.2489131728185050
  0.8681337421397048  0.0535469442330793  0.7505257785407154
  0.8629764218056413  0.5524053175779698  0.2490043356980250
  0.8684800371946040  0.5520581628689779  0.7496864122402076
  0.0628516613374625  0.4095692164652019  0.7487694239004081
  0.0633974790900382  0.9007684206407409  0.2502848710150991
  0.0613980797095230  0.9137067480167186  0.7504717578293232
  0.3949719409228547  0.4100110979991390  0.2480926271985685
  0.3954137136975504  0.4101143155719989  0.7486885134547020
  0.3952179523608170  0.9087974944700893  0.2496449584757960
  0.3949660621067180  0.9102091894945928  0.7494639664458370
  0.7231802518249226  0.4113579826337539  0.2535185285138264
  0.7286369049158713  0.4096624555773246  0.7498102645853250
  0.7292104754920911  0.9124840651496622  0.2492562456944770
  0.7282108944326626  0.9113020969741189  0.7496237290231397
  0.2278426514992421  0.0890672818514952  0.0000854658476607
  0.2280564067940474  0.0900840572836607  0.4986446793711841
  0.2302752272374426  0.5976581637455859 -0.0028380557319980
  0.2289512589302729  0.5909313794394704  0.4995060360294784
  0.5596896566289560  0.0898591355583979 -0.0016428254033694
  0.5611373094710796  0.0905535314095372  0.4999410255113884
  0.5625223288059737  0.5915627121196225 -0.0006803411774313
  0.5621106545763912  0.5915009822537242  0.4997209657414852
  0.8935863519773453  0.0915270584115821  0.0004122312687821
  0.8936250890330952  0.0899937008344335  0.5005164791270490
  0.8972537671754868  0.5876822921278256 -0.0018065105616027
  0.8952217000925065  0.5905701405942689  0.5004959825576768
  0.1997465988137453  0.3426491048335255  0.1393825741519790
  0.2034396843424650  0.3439955273487575  0.6436544957099620
  0.2045877223799123  0.8402251437405188  0.1457517371437195
  0.2018824183777900  0.8449468260857953  0.6458199191870074
  0.5359131129091970  0.3435421360401411  0.1449621077385651
  0.5363642679897946  0.3431714906005161  0.6452802958822870
  0.5366586855268812  0.8434304403339196  0.1456814140120122
  0.5359707749243646  0.8439474273800757  0.6452614347081890
  0.8600815067665060  0.3396168317509128  0.1464073286676893
  0.8692811647339123  0.3429925808250953  0.6453026556056467
  0.8697021941436920  0.8443418756234897  0.1450749839961109
  0.8692444965895535  0.8442664553624648  0.6462664211944695
  0.0322391517110157  0.1583767655965952  0.1099314019732486
  0.0356137315884196  0.1582402312049245  0.6020938977314112
  0.0372430905647687  0.6578168541606402  0.1008826212199467
  0.0351996356684250  0.6612799562673587  0.6057605822118156
  0.3681016626569047  0.1571036584470693  0.1045008813501706
  0.3688597826554018  0.1566996718048477  0.6035902038271412
  0.3716181209873696  0.6579524857963488  0.1029196111068075
  0.3698437657929736  0.6574098018136322  0.6035751557598555
  0.6990927464710636  0.1567398594042441  0.1041121974303218
  0.7023334035896345  0.1576797022309304  0.6038068350537421
  0.7036346433445551  0.6581421625626831  0.1034079690643532
  0.7030022669877432  0.6580218433200471  0.6045534025783563
  0.0419746209027201  0.4535692748809946 -0.0116002801844110
  0.0363105320485502  0.4508147388202055  0.5062973701362735
  0.0341047711962405  0.9507199427158342  0.0027880095803262
  0.0337718811300928  0.9479602816581075  0.4991570095383502
  0.3666752384251042  0.4494382655293904 -0.0019350753301403
  0.3684230479893952  0.4478460554796427  0.4995993042042746
  0.3680829465618639  0.9479208103396545 -0.0002356077781494
  0.3675600283973359  0.9472124260327431  0.4998008083338273
  0.7018619916119186  0.4484701879435527 -0.0002075153219892
  0.7016432667454052  0.4490466760139340  0.5001351718502550
  0.7002292288626299  0.9483232346242950 -0.0007036516063040
  0.7011050448088459  0.9484012278553111  0.4996947516026025
  0.2072599503023445  0.3398665866312028  0.3503140946759385
  0.2050844452966390  0.3434346983146966  0.8510005278539933
  0.2046454829048441  0.8394175311771993  0.3543294958991571
  0.2027616259338529  0.8457600323788631  0.8533420161622559
  0.5349487186994548  0.3434097188791941  0.3532234223905509
  0.5358580258339560  0.3435723570134072  0.8533431945354804
  0.5365771844228189  0.8434978686723563  0.3534126332657525
  0.5364902211749581  0.8439985058310351  0.8529166371203362
  0.8683583671888521  0.3407636266930882  0.3507117439553665
  0.8698180152322523  0.3425878286644899  0.8530246307942002
  0.8700481254767544  0.8449066928941805  0.3529863049630996
  0.8688324515561170  0.8445366364743101  0.8541776551751303
 
  0.00000000E+00  0.00000000E+00  0.00000000E+00
  0.00000000E+00  0.00000000E+00  0.00000000E+00
  0.00000000E+00  0.00000000E+00  0.00000000E+00
  0.00000000E+00  0.00000000E+00  0.00000000E+00
  0.00000000E+00  0.00000000E+00  0.00000000E+00
  0.00000000E+00  0.00000000E+00  0.00000000E+00
  0.00000000E+00  0.00000000E+00  0.00000000E+00
  0.00000000E+00  0.00000000E+00  0.00000000E+00
  0.00000000E+00  0.00000000E+00  0.00000000E+00
  0.00000000E+00  0.00000000E+00  0.00000000E+00
  0.00000000E+00  0.00000000E+00  0.00000000E+00
  0.00000000E+00  0.00000000E+00  0.00000000E+00
  0.00000000E+00  0.00000000E+00  0.00000000E+00
  0.00000000E+00  0.00000000E+00  0.00000000E+00
  0.00000000E+00  0.00000000E+00  0.00000000E+00
  0.00000000E+00  0.00000000E+00  0.00000000E+00
  0.00000000E+00  0.00000000E+00  0.00000000E+00
  0.00000000E+00  0.00000000E+00  0.00000000E+00
  0.00000000E+00  0.00000000E+00  0.00000000E+00
  0.00000000E+00  0.00000000E+00  0.00000000E+00
  0.00000000E+00  0.00000000E+00  0.00000000E+00
  0.00000000E+00  0.00000000E+00  0.00000000E+00
  0.00000000E+00  0.00000000E+00  0.00000000E+00
  0.00000000E+00  0.00000000E+00  0.00000000E+00
  0.00000000E+00  0.00000000E+00  0.00000000E+00
  0.00000000E+00  0.00000000E+00  0.00000000E+00
  0.00000000E+00  0.00000000E+00  0.00000000E+00
  0.00000000E+00  0.00000000E+00  0.00000000E+00
  0.00000000E+00  0.00000000E+00  0.00000000E+00
  0.00000000E+00  0.00000000E+00  0.00000000E+00
  0.00000000E+00  0.00000000E+00  0.00000000E+00
  0.00000000E+00  0.00000000E+00  0.00000000E+00
  0.00000000E+00  0.00000000E+00  0.00000000E+00
  0.00000000E+00  0.00000000E+00  0.00000000E+00
  0.00000000E+00  0.00000000E+00  0.00000000E+00
  0.00000000E+00  0.00000000E+00  0.00000000E+00
  0.00000000E+00  0.00000000E+00  0.00000000E+00
  0.00000000E+00  0.00000000E+00  0.00000000E+00
  0.00000000E+00  0.00000000E+00  0.00000000E+00
  0.00000000E+00  0.00000000E+00  0.00000000E+00
  0.00000000E+00  0.00000000E+00  0.00000000E+00
  0.00000000E+00  0.00000000E+00  0.00000000E+00
  0.00000000E+00  0.00000000E+00  0.00000000E+00
  0.00000000E+00  0.00000000E+00  0.00000000E+00
  0.00000000E+00  0.00000000E+00  0.00000000E+00
  0.00000000E+00  0.00000000E+00  0.00000000E+00
  0.00000000E+00  0.00000000E+00  0.00000000E+00
  0.00000000E+00  0.00000000E+00  0.00000000E+00
  0.00000000E+00  0.00000000E+00  0.00000000E+00
  0.00000000E+00  0.00000000E+00  0.00000000E+00
  0.00000000E+00  0.00000000E+00  0.00000000E+00
  0.00000000E+00  0.00000000E+00  0.00000000E+00
  0.00000000E+00  0.00000000E+00  0.00000000E+00
  0.00000000E+00  0.00000000E+00  0.00000000E+00
  0.00000000E+00  0.00000000E+00  0.00000000E+00
  0.00000000E+00  0.00000000E+00  0.00000000E+00
  0.00000000E+00  0.00000000E+00  0.00000000E+00
  0.00000000E+00  0.00000000E+00  0.00000000E+00
  0.00000000E+00  0.00000000E+00  0.00000000E+00
  0.00000000E+00  0.00000000E+00  0.00000000E+00
  0.00000000E+00  0.00000000E+00  0.00000000E+00
  0.00000000E+00  0.00000000E+00  0.00000000E+00
  0.00000000E+00  0.00000000E+00  0.00000000E+00
  0.00000000E+00  0.00000000E+00  0.00000000E+00
  0.00000000E+00  0.00000000E+00  0.00000000E+00
  0.00000000E+00  0.00000000E+00  0.00000000E+00
  0.00000000E+00  0.00000000E+00  0.00000000E+00
  0.00000000E+00  0.00000000E+00  0.00000000E+00
  0.00000000E+00  0.00000000E+00  0.00000000E+00
  0.00000000E+00  0.00000000E+00  0.00000000E+00
  0.00000000E+00  0.00000000E+00  0.00000000E+00
  0.00000000E+00  0.00000000E+00  0.00000000E+00
  0.00000000E+00  0.00000000E+00  0.00000000E+00
  0.00000000E+00  0.00000000E+00  0.00000000E+00
  0.00000000E+00  0.00000000E+00  0.00000000E+00
  0.00000000E+00  0.00000000E+00  0.00000000E+00
  0.00000000E+00  0.00000000E+00  0.00000000E+00
  0.00000000E+00  0.00000000E+00  0.00000000E+00
  0.00000000E+00  0.00000000E+00  0.00000000E+00
  0.00000000E+00  0.00000000E+00  0.00000000E+00
  0.00000000E+00  0.00000000E+00  0.00000000E+00
  0.00000000E+00  0.00000000E+00  0.00000000E+00
  0.00000000E+00  0.00000000E+00  0.00000000E+00
  0.00000000E+00  0.00000000E+00  0.00000000E+00
  0.00000000E+00  0.00000000E+00  0.00000000E+00
  0.00000000E+00  0.00000000E+00  0.00000000E+00
  0.00000000E+00  0.00000000E+00  0.00000000E+00
  0.00000000E+00  0.00000000E+00  0.00000000E+00
  0.00000000E+00  0.00000000E+00  0.00000000E+00
  0.00000000E+00  0.00000000E+00  0.00000000E+00
  0.00000000E+00  0.00000000E+00  0.00000000E+00
  0.00000000E+00  0.00000000E+00  0.00000000E+00
  0.00000000E+00  0.00000000E+00  0.00000000E+00
  0.00000000E+00  0.00000000E+00  0.00000000E+00
  0.00000000E+00  0.00000000E+00  0.00000000E+00
  0.00000000E+00  0.00000000E+00  0.00000000E+00
  0.00000000E+00  0.00000000E+00  0.00000000E+00
  0.00000000E+00  0.00000000E+00  0.00000000E+00
  0.00000000E+00  0.00000000E+00  0.00000000E+00
  0.00000000E+00  0.00000000E+00  0.00000000E+00
  0.00000000E+00  0.00000000E+00  0.00000000E+00
  0.00000000E+00  0.00000000E+00  0.00000000E+00
  0.00000000E+00  0.00000000E+00  0.00000000E+00
  0.00000000E+00  0.00000000E+00  0.00000000E+00
  0.00000000E+00  0.00000000E+00  0.00000000E+00
  0.00000000E+00  0.00000000E+00  0.00000000E+00
  0.00000000E+00  0.00000000E+00  0.00000000E+00
  0.00000000E+00  0.00000000E+00  0.00000000E+00
  0.00000000E+00  0.00000000E+00  0.00000000E+00
  0.00000000E+00  0.00000000E+00  0.00000000E+00
  0.00000000E+00  0.00000000E+00  0.00000000E+00
  0.00000000E+00  0.00000000E+00  0.00000000E+00
  0.00000000E+00  0.00000000E+00  0.00000000E+00
  0.00000000E+00  0.00000000E+00  0.00000000E+00
  0.00000000E+00  0.00000000E+00  0.00000000E+00
  0.00000000E+00  0.00000000E+00  0.00000000E+00
  0.00000000E+00  0.00000000E+00  0.00000000E+00
  0.00000000E+00  0.00000000E+00  0.00000000E+00
  0.00000000E+00  0.00000000E+00  0.00000000E+00
  0.00000000E+00  0.00000000E+00  0.00000000E+00
  0.00000000E+00  0.00000000E+00  0.00000000E+00
  0.00000000E+00  0.00000000E+00  0.00000000E+00
  0.00000000E+00  0.00000000E+00  0.00000000E+00
  0.00000000E+00  0.00000000E+00  0.00000000E+00
  0.00000000E+00  0.00000000E+00  0.00000000E+00
  0.00000000E+00  0.00000000E+00  0.00000000E+00
  0.00000000E+00  0.00000000E+00  0.00000000E+00
  0.00000000E+00  0.00000000E+00  0.00000000E+00
  0.00000000E+00  0.00000000E+00  0.00000000E+00
  0.00000000E+00  0.00000000E+00  0.00000000E+00
  0.00000000E+00  0.00000000E+00  0.00000000E+00
  0.00000000E+00  0.00000000E+00  0.00000000E+00
  0.00000000E+00  0.00000000E+00  0.00000000E+00
  0.00000000E+00  0.00000000E+00  0.00000000E+00
  0.00000000E+00  0.00000000E+00  0.00000000E+00
  0.00000000E+00  0.00000000E+00  0.00000000E+00
  0.00000000E+00  0.00000000E+00  0.00000000E+00
  0.00000000E+00  0.00000000E+00  0.00000000E+00
  0.00000000E+00  0.00000000E+00  0.00000000E+00
  0.00000000E+00  0.00000000E+00  0.00000000E+00
  0.00000000E+00  0.00000000E+00  0.00000000E+00
  0.00000000E+00  0.00000000E+00  0.00000000E+00
  0.00000000E+00  0.00000000E+00  0.00000000E+00
  0.00000000E+00  0.00000000E+00  0.00000000E+00
  0.00000000E+00  0.00000000E+00  0.00000000E+00
  0.00000000E+00  0.00000000E+00  0.00000000E+00
  0.00000000E+00  0.00000000E+00  0.00000000E+00
  0.00000000E+00  0.00000000E+00  0.00000000E+00
  0.00000000E+00  0.00000000E+00  0.00000000E+00
  0.00000000E+00  0.00000000E+00  0.00000000E+00
  0.00000000E+00  0.00000000E+00  0.00000000E+00
  0.00000000E+00  0.00000000E+00  0.00000000E+00
  0.00000000E+00  0.00000000E+00  0.00000000E+00
  0.00000000E+00  0.00000000E+00  0.00000000E+00
  0.00000000E+00  0.00000000E+00  0.00000000E+00
  0.00000000E+00  0.00000000E+00  0.00000000E+00
  0.00000000E+00  0.00000000E+00  0.00000000E+00
  0.00000000E+00  0.00000000E+00  0.00000000E+00
  0.00000000E+00  0.00000000E+00  0.00000000E+00
  0.00000000E+00  0.00000000E+00  0.00000000E+00
  0.00000000E+00  0.00000000E+00  0.00000000E+00
  0.00000000E+00  0.00000000E+00  0.00000000E+00
  0.00000000E+00  0.00000000E+00  0.00000000E+00
  0.00000000E+00  0.00000000E+00  0.00000000E+00
  0.00000000E+00  0.00000000E+00  0.00000000E+00
  0.00000000E+00  0.00000000E+00  0.00000000E+00
  0.00000000E+00  0.00000000E+00  0.00000000E+00
  0.00000000E+00  0.00000000E+00  0.00000000E+00
  0.00000000E+00  0.00000000E+00  0.00000000E+00
  0.00000000E+00  0.00000000E+00  0.00000000E+00
  0.00000000E+00  0.00000000E+00  0.00000000E+00
  0.00000000E+00  0.00000000E+00  0.00000000E+00
  0.00000000E+00  0.00000000E+00  0.00000000E+00
  0.00000000E+00  0.00000000E+00  0.00000000E+00
  0.00000000E+00  0.00000000E+00  0.00000000E+00
  0.00000000E+00  0.00000000E+00  0.00000000E+00
  0.00000000E+00  0.00000000E+00  0.00000000E+00
  0.00000000E+00  0.00000000E+00  0.00000000E+00
  0.00000000E+00  0.00000000E+00  0.00000000E+00
  0.00000000E+00  0.00000000E+00  0.00000000E+00
  0.00000000E+00  0.00000000E+00  0.00000000E+00
  0.00000000E+00  0.00000000E+00  0.00000000E+00
  0.00000000E+00  0.00000000E+00  0.00000000E+00
  0.00000000E+00  0.00000000E+00  0.00000000E+00
  0.00000000E+00  0.00000000E+00  0.00000000E+00
  0.00000000E+00  0.00000000E+00  0.00000000E+00
  0.00000000E+00  0.00000000E+00  0.00000000E+00
  0.00000000E+00  0.00000000E+00  0.00000000E+00
  0.00000000E+00  0.00000000E+00  0.00000000E+00
  0.00000000E+00  0.00000000E+00  0.00000000E+00
  0.00000000E+00  0.00000000E+00  0.00000000E+00
  0.00000000E+00  0.00000000E+00  0.00000000E+00
  0.00000000E+00  0.00000000E+00  0.00000000E+00
