Li71 P24 N1 O94                         
   1.00000000000000     
    14.7285975069832702   -0.0005296635549141    0.0003780133872010
    -0.0003765342235998   10.5672052644552625    0.0046691342777429
     0.0003333532900189    0.0053990107654036   12.3183112298287067
   Li   P    N    O 
    71    24     1    94
Direct
  0.1695762431007090  0.4186500831147249 -0.0028855401953898
  0.1630066480888618  0.4357958095860400  0.5224487055777810
  0.1642250432551114  0.9277257925954335  0.0085985466479630
  0.1705882618050856  0.9216161997350222  0.5011062470754557
  0.5037907880478366  0.4218602104525241 -0.0011371517008428
  0.5062701622919841  0.4249589065264524  0.5038873609093839
  0.5073080810443594  0.9220292505269659 -0.0006755197533127
  0.5023091292158816  0.9225202873832711  0.4996790022963285
  0.8363595216245366  0.4223740844978816  0.0001069073849027
  0.8344931811467019  0.4218168506038391  0.5002278207567764
  0.8358100859002947  0.9193716787798655 -0.0011807533463554
  0.8365801078985431  0.9232875912086562  0.4993638021157881
  0.0064367721867614  0.0771865628179022  0.2443643118207375
  0.0021077319525747  0.0767346380997495  0.7515569958325282
  0.0003528721591923  0.5816029242322572  0.2502571795625139
  0.0027111303747631  0.5786602937648778  0.7512143591993775
  0.3332250708240601  0.0765488948475208  0.2436094508534008
  0.3367648322516927  0.0777194489138485  0.7524775539972512
  0.3373499668585618  0.5804756147907788  0.2482618233654709
  0.3365474936343469  0.5772958504642286  0.7514440155946311
  0.6713096471422046  0.0766997080314150  0.2486577754108425
  0.6705152544176604  0.0761735366310460  0.7494117381622365
  0.6702292030169615  0.5786713813513383  0.2494420395426334
  0.6689245672230403  0.5783318863556347  0.7502926527030360
  0.1688923401752190  0.1632467540288836  0.6284229320302418
  0.1696431001882180  0.6660963479905609  0.1231882559871156
  0.1700661979626484  0.6679747810229170  0.6283480536201101
  0.5046182578400963  0.1621015450077103  0.1258462837197464
  0.5029016773439120  0.1629471836186405  0.6266376295675025
  0.5031615158397710  0.6639994486773892  0.1251007507418957
  0.5024583529621854  0.6641503267039556  0.6265436203854415
  0.8401036441258343  0.1618249884757261  0.1247713805357722
  0.8358845099059087  0.1630502829813066  0.6255113998805386
  0.8359362020077784  0.6631164970304312  0.1261445283674940
  0.8352816659883572  0.6635366777229176  0.6265891336303873
  0.0030751491998675  0.3324959198536118  0.1222897723635329
  0.0004901080006757  0.3361677729624773  0.6257469235893794
  0.0023600473114697  0.8374611216401150  0.1243247582268591
  0.0028274108370013  0.8380495892865331  0.6237959394981056
  0.3357315949273622  0.3331347379058097  0.1201142847321362
  0.3360856301153179  0.3361026840753635  0.6256293630884487
  0.3369247273023284  0.8388172110501718  0.1208506863430349
  0.3362105767222084  0.8379937546168900  0.6243461996842684
  0.6715033786003486  0.3358765367202205  0.1231736820277302
  0.6693320135069812  0.3366405539726117  0.6243909457814399
  0.6705061053908642  0.8366720397655801  0.1238330916718690
  0.6689414260111719  0.8367951443442886  0.6227226122516182
 -0.0000021376523273  0.3365190569611627  0.3768405135874616
  0.0008870056637690  0.3358717178502219  0.8772735666134418
  0.0029613056541692  0.8381413346904801  0.3762226793090599
  0.0026920346372342  0.8374743660423578  0.8770342516366000
  0.3679242259860347  0.3358525689345431  0.3807857976265419
  0.3366519798449571  0.3319802014591896  0.8773834287050666
  0.3349716712884362  0.8372715370885876  0.3749744210168280
  0.3369598147468760  0.8386321994613845  0.8781446617822820
  0.6678743675978290  0.3367657273847356  0.3760863687520397
  0.6702386192791548  0.3366583505120633  0.8761595390083441
  0.6692491500073020  0.8372870497408791  0.3763990757425615
  0.6702305108235029  0.8364062925789979  0.8754180508324433
  0.1653778244824740  0.1431254289619911  0.3701794999256279
  0.1625787076547093  0.1678816388458096  0.8783590637196151
  0.1671034746763742  0.6638417717302968  0.3770840944405619
  0.1700174155360201  0.6650036777157829  0.8749889581147746
  0.5044361287009107  0.1589686515505310  0.3721074850516066
  0.5069130473483080  0.1620641079331512  0.8727752336129293
  0.5030002263475799  0.6642967875689523  0.3735147156118311
  0.5026845595013947  0.6635743841340485  0.8735725733063257
  0.8360090224367357  0.1629913367656839  0.3721994658670302
  0.8353377404208128  0.1624000833244538  0.8709992892313376
  0.8354484995958897  0.6639756642276925  0.3744857677055125
  0.8363443103703505  0.6627759973045499  0.8735281136047363
  0.1669093046663003  0.4183957993512432  0.2421591609736296
  0.1664484840902717  0.4134589368710482  0.7516695297945952
  0.1683895364047940  0.9085551636475775  0.2522152693731876
  0.1671006585354860  0.9135276250277232  0.7515865481379759
  0.5003973792912452  0.4135632567279776  0.2481374846956357
  0.5004534902935532  0.4123480471386567  0.7502845111837008
  0.5011247514347560  0.9114976993925591  0.2498189826694028
  0.5011688813209090  0.9118127889873375  0.7490526241573880
  0.8327759556909455  0.4129471103020455  0.2502375244686352
  0.8329412851296449  0.4129415811766873  0.7498847492944338
  0.8339054765907358  0.9115075964356431  0.2506985598733952
  0.8336289267427364  0.9110772623180945  0.7482120395902915
 -0.0054977729308137  0.0871649704662829 -0.0000693211004714
  0.0007838901967685  0.0894620186242549  0.5002590854450155
  0.0004967205454236  0.5872448054582640  0.0003809213507973
 -0.0009295655689556  0.5880269221430011  0.5003791600163179
  0.3387965009118795  0.0862597596628523 -0.0016928394868340
  0.3330016233624342  0.0892812913236398  0.4994418284427176
  0.3343499619171465  0.5869251751379122 -0.0007241500543602
  0.3336737803520419  0.5875860548814391  0.5002816056330082
  0.6687238871644295  0.0874482985308925 -0.0004590668481360
  0.6668362894906109  0.0882391035115914  0.4996359263766795
  0.6673602240234666  0.5876763728849297 -0.0002960779774759
  0.6664787916113242  0.5882947085546992  0.4999875483624387
  0.2292178945972575  0.0878793742634173 -0.0057357897370279
  0.0371610095338686  0.1597234826376370  0.3968703167434840
  0.0302365929925982  0.1568513806687407  0.8958687597533326
  0.0337274170444511  0.6563826673991237  0.3960986428244285
  0.0360134931611173  0.6567097914297584  0.8968063256186463
  0.3686231492668239  0.1581000364962683  0.3952333576259641
  0.3768909625685745  0.1546649975005757  0.8941167410617807
  0.3686063536966906  0.6560491098255926  0.3963238577777715
  0.3689372675553461  0.6569142015289250  0.8953823704108845
  0.7015060841629498  0.1577742816831180  0.3955359720472744
  0.7025702275703934  0.1563764160687500  0.8947770100666819
  0.7019572841913956  0.6571300930735304  0.3961988039573578
  0.7027142339638336  0.6566817277959953  0.8958316694049472
  0.2049894555920096  0.0447853049040254  0.2562328340493079
  0.2001621515689053  0.0537982120058879  0.7514609619822165
  0.2006682783655191  0.5573351703645473  0.2543151288591657
  0.1999143792817639  0.5535360383754215  0.7496768867733534
  0.5355455141138598  0.0512820133681604  0.2496509553289329
  0.5359077414194350  0.0512644610055559  0.7484789904589951
  0.5349726540961942  0.5527120446082037  0.2499338239848765
  0.5336137337760556  0.5526147252411318  0.7494725710166271
  0.8676206724552656  0.0511899423718192  0.2506338165991877
  0.8669010639218151  0.0511550457531479  0.7475435246297520
  0.8664330098687424  0.5530878817572482  0.2509953383871641
  0.8674783821241454  0.5525116059303244  0.7495836155037540
  0.0617872254880207  0.4097930870325744  0.2513447136796650
  0.0606988522478369  0.4100102457882118  0.7505883130080214
  0.0622558181605340  0.9077095629799664  0.2505716385672894
  0.0612493064440516  0.9094307815221762  0.7502794428627474
  0.3944024875698206  0.4120890343365003  0.2459162583078251
  0.3946916394411840  0.4089228060169938  0.7506181241880812
  0.3954998080967133  0.9087221722668465  0.2492450639816459
  0.3954122602948763  0.9095673637431341  0.7496692470828685
  0.7269815452898123  0.4099833288678931  0.2508562644786112
  0.7272189854135045  0.4109406035973392  0.7495538609008988
  0.7280709876990337  0.9086080001422773  0.2506332695274486
  0.7278553540441679  0.9080279491921670  0.7484494288094226
  0.2270751817092962  0.0945386799549958  0.4994673954516468
  0.2284820455871561  0.5889685146926172 -0.0001241024426509
  0.2275975326341736  0.5886207443714671  0.5009216559105685
  0.5631184678344315  0.0908972763106681  0.0004316947443486
  0.5609904729935727  0.0906569286673809  0.4999184706034674
  0.5615925999462463  0.5904791599539910 -0.0003688193667642
  0.5606704925209939  0.5919330122090349  0.5000199529322997
  0.8883277366346882  0.0852435618945379 -0.0057004014728824
  0.8951308474210999  0.0921894359421900  0.4988502387156306
  0.8947375389660948  0.5905954398414816  0.0001910705279491
  0.8935743593387400  0.5894298866428089  0.5010780770737898
  0.2055273801269914  0.3528603724417449  0.1419123142722587
  0.2019622969455908  0.3439298502307248  0.6476721384578655
  0.2033800890316683  0.8386389874612065  0.1486019595769327
  0.2027208848621586  0.8453720089128511  0.6467889930489620
  0.5375570560396495  0.3430259712327142  0.1466542236861972
  0.5355282704126096  0.3432780401311239  0.6461200375286652
  0.5375564651340599  0.8417524230688238  0.1470162301550904
  0.5352222217894803  0.8428450398729879  0.6443596323477191
  0.8679887357857552  0.3450145262606449  0.1462625286474168
  0.8678405973956606  0.3432689026561121  0.6460102713024074
  0.8688883670917817  0.8414844684700422  0.1472715665552397
  0.8689432769490442  0.8425495701422384  0.6439698303777164
  0.0216846484216038  0.1572534898659975  0.1044548309493388
  0.0352340618454286  0.1581884801661031  0.6045823026043967
  0.0358497725644878  0.6556514759225718  0.1046929894007887
  0.0357510333840328  0.6568564509763165  0.6035566204092674
  0.3722843319934286  0.1565550620515887  0.1028781613563782
  0.3687577525925707  0.1577269825356521  0.6031918785870877
  0.3695739960542896  0.6564260017334437  0.1030081128199582
  0.3682719874281127  0.6567050151496928  0.6040401106672540
  0.7045439599023202  0.1564205120615622  0.1031454900301719
  0.7022010759809554  0.1574851048585847  0.6033157155623514
  0.7026491498086032  0.6566676814683556  0.1035650758156072
  0.7019465608150492  0.6567193037750566  0.6038441761278758
  0.0339843192893834  0.4471923544340464  0.0004677823052189
  0.0336711439791761  0.4476799878599986  0.5004676461803105
  0.0296552379885041  0.9473718181869674  0.0005126161333461
  0.0348745161972910  0.9497398877317623  0.4998203281545637
  0.3688938030979331  0.4474327049033833 -0.0013447231299930
  0.3675749810233133  0.4473127602298472  0.5007624785892062
  0.3768279093188013  0.9471627668789436 -0.0009480581651264
  0.3656394038100507  0.9489927853679152  0.4990692167958012
  0.7010835335685147  0.4476991053694701 -0.0001545285443459
  0.6989607549613466  0.4476302103643484  0.4997579875841650
  0.7011302646585252  0.9467802256778276 -0.0006825741291719
  0.7009319714876812  0.9485523843562000  0.4995704741205174
  0.2021759157570969  0.3446891365881529  0.8544951723855541
  0.2008319382124937  0.8365602692433836  0.3570632114179904
  0.2024287486271249  0.8433130052538803  0.8545399845290396
  0.5302700232099037  0.3434476737293264  0.3548584764725650
  0.5369305217429209  0.3437673672525361  0.8535903926441963
  0.5356112642758711  0.8431873122150078  0.3547219498427348
  0.5373285655468354  0.8418992121244558  0.8519865912110653
  0.8682978949594826  0.3436067874613895  0.3540883960461300
  0.8677535680391127  0.3437494302759447  0.8537557667041208
  0.8689820559498836  0.8426168816560083  0.3550109552700976
  0.8689807453355903  0.8412189632796455  0.8515161533799169
 
  0.00000000E+00  0.00000000E+00  0.00000000E+00
  0.00000000E+00  0.00000000E+00  0.00000000E+00
  0.00000000E+00  0.00000000E+00  0.00000000E+00
  0.00000000E+00  0.00000000E+00  0.00000000E+00
  0.00000000E+00  0.00000000E+00  0.00000000E+00
  0.00000000E+00  0.00000000E+00  0.00000000E+00
  0.00000000E+00  0.00000000E+00  0.00000000E+00
  0.00000000E+00  0.00000000E+00  0.00000000E+00
  0.00000000E+00  0.00000000E+00  0.00000000E+00
  0.00000000E+00  0.00000000E+00  0.00000000E+00
  0.00000000E+00  0.00000000E+00  0.00000000E+00
  0.00000000E+00  0.00000000E+00  0.00000000E+00
  0.00000000E+00  0.00000000E+00  0.00000000E+00
  0.00000000E+00  0.00000000E+00  0.00000000E+00
  0.00000000E+00  0.00000000E+00  0.00000000E+00
  0.00000000E+00  0.00000000E+00  0.00000000E+00
  0.00000000E+00  0.00000000E+00  0.00000000E+00
  0.00000000E+00  0.00000000E+00  0.00000000E+00
  0.00000000E+00  0.00000000E+00  0.00000000E+00
  0.00000000E+00  0.00000000E+00  0.00000000E+00
  0.00000000E+00  0.00000000E+00  0.00000000E+00
  0.00000000E+00  0.00000000E+00  0.00000000E+00
  0.00000000E+00  0.00000000E+00  0.00000000E+00
  0.00000000E+00  0.00000000E+00  0.00000000E+00
  0.00000000E+00  0.00000000E+00  0.00000000E+00
  0.00000000E+00  0.00000000E+00  0.00000000E+00
  0.00000000E+00  0.00000000E+00  0.00000000E+00
  0.00000000E+00  0.00000000E+00  0.00000000E+00
  0.00000000E+00  0.00000000E+00  0.00000000E+00
  0.00000000E+00  0.00000000E+00  0.00000000E+00
  0.00000000E+00  0.00000000E+00  0.00000000E+00
  0.00000000E+00  0.00000000E+00  0.00000000E+00
  0.00000000E+00  0.00000000E+00  0.00000000E+00
  0.00000000E+00  0.00000000E+00  0.00000000E+00
  0.00000000E+00  0.00000000E+00  0.00000000E+00
  0.00000000E+00  0.00000000E+00  0.00000000E+00
  0.00000000E+00  0.00000000E+00  0.00000000E+00
  0.00000000E+00  0.00000000E+00  0.00000000E+00
  0.00000000E+00  0.00000000E+00  0.00000000E+00
  0.00000000E+00  0.00000000E+00  0.00000000E+00
  0.00000000E+00  0.00000000E+00  0.00000000E+00
  0.00000000E+00  0.00000000E+00  0.00000000E+00
  0.00000000E+00  0.00000000E+00  0.00000000E+00
  0.00000000E+00  0.00000000E+00  0.00000000E+00
  0.00000000E+00  0.00000000E+00  0.00000000E+00
  0.00000000E+00  0.00000000E+00  0.00000000E+00
  0.00000000E+00  0.00000000E+00  0.00000000E+00
  0.00000000E+00  0.00000000E+00  0.00000000E+00
  0.00000000E+00  0.00000000E+00  0.00000000E+00
  0.00000000E+00  0.00000000E+00  0.00000000E+00
  0.00000000E+00  0.00000000E+00  0.00000000E+00
  0.00000000E+00  0.00000000E+00  0.00000000E+00
  0.00000000E+00  0.00000000E+00  0.00000000E+00
  0.00000000E+00  0.00000000E+00  0.00000000E+00
  0.00000000E+00  0.00000000E+00  0.00000000E+00
  0.00000000E+00  0.00000000E+00  0.00000000E+00
  0.00000000E+00  0.00000000E+00  0.00000000E+00
  0.00000000E+00  0.00000000E+00  0.00000000E+00
  0.00000000E+00  0.00000000E+00  0.00000000E+00
  0.00000000E+00  0.00000000E+00  0.00000000E+00
  0.00000000E+00  0.00000000E+00  0.00000000E+00
  0.00000000E+00  0.00000000E+00  0.00000000E+00
  0.00000000E+00  0.00000000E+00  0.00000000E+00
  0.00000000E+00  0.00000000E+00  0.00000000E+00
  0.00000000E+00  0.00000000E+00  0.00000000E+00
  0.00000000E+00  0.00000000E+00  0.00000000E+00
  0.00000000E+00  0.00000000E+00  0.00000000E+00
  0.00000000E+00  0.00000000E+00  0.00000000E+00
  0.00000000E+00  0.00000000E+00  0.00000000E+00
  0.00000000E+00  0.00000000E+00  0.00000000E+00
  0.00000000E+00  0.00000000E+00  0.00000000E+00
  0.00000000E+00  0.00000000E+00  0.00000000E+00
  0.00000000E+00  0.00000000E+00  0.00000000E+00
  0.00000000E+00  0.00000000E+00  0.00000000E+00
  0.00000000E+00  0.00000000E+00  0.00000000E+00
  0.00000000E+00  0.00000000E+00  0.00000000E+00
  0.00000000E+00  0.00000000E+00  0.00000000E+00
  0.00000000E+00  0.00000000E+00  0.00000000E+00
  0.00000000E+00  0.00000000E+00  0.00000000E+00
  0.00000000E+00  0.00000000E+00  0.00000000E+00
  0.00000000E+00  0.00000000E+00  0.00000000E+00
  0.00000000E+00  0.00000000E+00  0.00000000E+00
  0.00000000E+00  0.00000000E+00  0.00000000E+00
  0.00000000E+00  0.00000000E+00  0.00000000E+00
  0.00000000E+00  0.00000000E+00  0.00000000E+00
  0.00000000E+00  0.00000000E+00  0.00000000E+00
  0.00000000E+00  0.00000000E+00  0.00000000E+00
  0.00000000E+00  0.00000000E+00  0.00000000E+00
  0.00000000E+00  0.00000000E+00  0.00000000E+00
  0.00000000E+00  0.00000000E+00  0.00000000E+00
  0.00000000E+00  0.00000000E+00  0.00000000E+00
  0.00000000E+00  0.00000000E+00  0.00000000E+00
  0.00000000E+00  0.00000000E+00  0.00000000E+00
  0.00000000E+00  0.00000000E+00  0.00000000E+00
  0.00000000E+00  0.00000000E+00  0.00000000E+00
  0.00000000E+00  0.00000000E+00  0.00000000E+00
  0.00000000E+00  0.00000000E+00  0.00000000E+00
  0.00000000E+00  0.00000000E+00  0.00000000E+00
  0.00000000E+00  0.00000000E+00  0.00000000E+00
  0.00000000E+00  0.00000000E+00  0.00000000E+00
  0.00000000E+00  0.00000000E+00  0.00000000E+00
  0.00000000E+00  0.00000000E+00  0.00000000E+00
  0.00000000E+00  0.00000000E+00  0.00000000E+00
  0.00000000E+00  0.00000000E+00  0.00000000E+00
  0.00000000E+00  0.00000000E+00  0.00000000E+00
  0.00000000E+00  0.00000000E+00  0.00000000E+00
  0.00000000E+00  0.00000000E+00  0.00000000E+00
  0.00000000E+00  0.00000000E+00  0.00000000E+00
  0.00000000E+00  0.00000000E+00  0.00000000E+00
  0.00000000E+00  0.00000000E+00  0.00000000E+00
  0.00000000E+00  0.00000000E+00  0.00000000E+00
  0.00000000E+00  0.00000000E+00  0.00000000E+00
  0.00000000E+00  0.00000000E+00  0.00000000E+00
  0.00000000E+00  0.00000000E+00  0.00000000E+00
  0.00000000E+00  0.00000000E+00  0.00000000E+00
  0.00000000E+00  0.00000000E+00  0.00000000E+00
  0.00000000E+00  0.00000000E+00  0.00000000E+00
  0.00000000E+00  0.00000000E+00  0.00000000E+00
  0.00000000E+00  0.00000000E+00  0.00000000E+00
  0.00000000E+00  0.00000000E+00  0.00000000E+00
  0.00000000E+00  0.00000000E+00  0.00000000E+00
  0.00000000E+00  0.00000000E+00  0.00000000E+00
  0.00000000E+00  0.00000000E+00  0.00000000E+00
  0.00000000E+00  0.00000000E+00  0.00000000E+00
  0.00000000E+00  0.00000000E+00  0.00000000E+00
  0.00000000E+00  0.00000000E+00  0.00000000E+00
  0.00000000E+00  0.00000000E+00  0.00000000E+00
  0.00000000E+00  0.00000000E+00  0.00000000E+00
  0.00000000E+00  0.00000000E+00  0.00000000E+00
  0.00000000E+00  0.00000000E+00  0.00000000E+00
  0.00000000E+00  0.00000000E+00  0.00000000E+00
  0.00000000E+00  0.00000000E+00  0.00000000E+00
  0.00000000E+00  0.00000000E+00  0.00000000E+00
  0.00000000E+00  0.00000000E+00  0.00000000E+00
  0.00000000E+00  0.00000000E+00  0.00000000E+00
  0.00000000E+00  0.00000000E+00  0.00000000E+00
  0.00000000E+00  0.00000000E+00  0.00000000E+00
  0.00000000E+00  0.00000000E+00  0.00000000E+00
  0.00000000E+00  0.00000000E+00  0.00000000E+00
  0.00000000E+00  0.00000000E+00  0.00000000E+00
  0.00000000E+00  0.00000000E+00  0.00000000E+00
  0.00000000E+00  0.00000000E+00  0.00000000E+00
  0.00000000E+00  0.00000000E+00  0.00000000E+00
  0.00000000E+00  0.00000000E+00  0.00000000E+00
  0.00000000E+00  0.00000000E+00  0.00000000E+00
  0.00000000E+00  0.00000000E+00  0.00000000E+00
  0.00000000E+00  0.00000000E+00  0.00000000E+00
  0.00000000E+00  0.00000000E+00  0.00000000E+00
  0.00000000E+00  0.00000000E+00  0.00000000E+00
  0.00000000E+00  0.00000000E+00  0.00000000E+00
  0.00000000E+00  0.00000000E+00  0.00000000E+00
  0.00000000E+00  0.00000000E+00  0.00000000E+00
  0.00000000E+00  0.00000000E+00  0.00000000E+00
  0.00000000E+00  0.00000000E+00  0.00000000E+00
  0.00000000E+00  0.00000000E+00  0.00000000E+00
  0.00000000E+00  0.00000000E+00  0.00000000E+00
  0.00000000E+00  0.00000000E+00  0.00000000E+00
  0.00000000E+00  0.00000000E+00  0.00000000E+00
  0.00000000E+00  0.00000000E+00  0.00000000E+00
  0.00000000E+00  0.00000000E+00  0.00000000E+00
  0.00000000E+00  0.00000000E+00  0.00000000E+00
  0.00000000E+00  0.00000000E+00  0.00000000E+00
  0.00000000E+00  0.00000000E+00  0.00000000E+00
  0.00000000E+00  0.00000000E+00  0.00000000E+00
  0.00000000E+00  0.00000000E+00  0.00000000E+00
  0.00000000E+00  0.00000000E+00  0.00000000E+00
  0.00000000E+00  0.00000000E+00  0.00000000E+00
  0.00000000E+00  0.00000000E+00  0.00000000E+00
  0.00000000E+00  0.00000000E+00  0.00000000E+00
  0.00000000E+00  0.00000000E+00  0.00000000E+00
  0.00000000E+00  0.00000000E+00  0.00000000E+00
  0.00000000E+00  0.00000000E+00  0.00000000E+00
  0.00000000E+00  0.00000000E+00  0.00000000E+00
  0.00000000E+00  0.00000000E+00  0.00000000E+00
  0.00000000E+00  0.00000000E+00  0.00000000E+00
  0.00000000E+00  0.00000000E+00  0.00000000E+00
  0.00000000E+00  0.00000000E+00  0.00000000E+00
  0.00000000E+00  0.00000000E+00  0.00000000E+00
  0.00000000E+00  0.00000000E+00  0.00000000E+00
  0.00000000E+00  0.00000000E+00  0.00000000E+00
  0.00000000E+00  0.00000000E+00  0.00000000E+00
  0.00000000E+00  0.00000000E+00  0.00000000E+00
  0.00000000E+00  0.00000000E+00  0.00000000E+00
  0.00000000E+00  0.00000000E+00  0.00000000E+00
  0.00000000E+00  0.00000000E+00  0.00000000E+00
  0.00000000E+00  0.00000000E+00  0.00000000E+00
  0.00000000E+00  0.00000000E+00  0.00000000E+00
  0.00000000E+00  0.00000000E+00  0.00000000E+00
  0.00000000E+00  0.00000000E+00  0.00000000E+00
  0.00000000E+00  0.00000000E+00  0.00000000E+00
