Li61 P7 N32                             
   1.00000000000000     
     0.0003741982466597    9.5983666906005087    0.0006783442734697
    -0.0317245043344701    0.0006730651887307    9.5474097530045583
     9.5731639579625760    0.0003709340999830   -0.0319203272092345
   Li   P    N 
    61     7    32
Direct
  0.4914357650095684 -0.0001714017883206  0.5000204307734307
  0.0100328497247903  0.4999867447030643 -0.0000271196480375
  0.4987536136526862  0.0000281701670737 -0.0000046092478211
 -0.0099424581797519  0.0000352546187093  0.5000036279969898
  0.5048927751266553  0.5000591598402069  0.0002552242708085
 -0.0093856479818389  0.5000004036370415  0.4999861383969783
  0.7449137245503891  0.0002148555083646  0.5000933622905690
  0.2396490569541033  0.0000256252208576  0.4999987780058805
  0.7661131041783160  0.5008118020920691  0.5000957457458283
  0.2118260399072712  0.5000869554409304  0.4998844803993331
  0.2625017559249200 -0.0000421748683516 -0.0000029363334010
  0.7361447504941222 -0.0000025931275058  0.0000315112582204
  0.5563322852429263  0.4988192044502735  0.5010116570402383
  0.5129977724250643  0.2431547411626164 -0.0247799289953594
  0.5131393993446945  0.7569582638372083  0.0247918424494794
  0.0190222308877892  0.5054648880406728  0.2505669295841125
  0.0188262304419552  0.4945726760333521  0.7494078824500729
  0.2025768355335825  0.2410635379207665  0.2275082194279110
  0.2025519252752730  0.7589686062588633  0.7724461235710640
  0.2311482262603781  0.2704264814685667  0.7216512974905290
  0.2309069235586207  0.7295223253591588  0.2783829579771521
  0.7044158165906350  0.2011284226979952  0.3094041799243944
  0.7042639015386030  0.7988846217674058  0.6903287784348419
  0.7342963386348625  0.2472541611965708  0.7583295926452293
  0.7343041444661225  0.7526721406788752  0.2413107113377096
  0.9480534184276435  0.2673399812443071  0.2460822890720626
  0.9479390258069428  0.7326874587222609  0.7539031110014782
  0.2495497749970683  0.2430022572299754  0.4879576878380031
  0.2494768004910652  0.7570798387564274  0.5120514052280434
  0.7408121017109343  0.2633567657430542  0.5132613728977016
  0.7405816159256337  0.7376882759502018  0.4860233033316516
  0.7758510956522390  0.5080790677539420  0.2679369847855820
  0.7756069443353252  0.4917310952508200  0.7321393598210546
  0.2727636395165211  0.5102785388865817  0.2436431102247494
  0.2724704259445492  0.4898627454585123  0.7560578352039662
  0.4648005370580925  0.7630391248812632  0.2824973337638554
  0.4650435746466008  0.2369586436681823  0.7174218846880807
  0.2399660251247809  0.9876310263911460  0.2454549706388169
  0.2399138467329659  0.0123407701532071  0.7545627277283041
  0.2677746587151388  0.2394736426396807  0.9729991035786755
  0.2678887998493619  0.7603618724689167  0.0269763957526962
  0.7611234045246880  0.0051880783799841  0.7617879367823016
  0.7611882116524519 -0.0053365789116140  0.2382690716128576
  0.7841396890325298  0.7608593387156150  0.0011548162622047
  0.7840244382606126  0.2391128669569948 -0.0012082366201392
 -0.0106187971419832  0.2328291201266689  0.7566725453546027
 -0.0107386464043266  0.7672699014276585  0.2433752767870487
  0.4595381057167931  0.2573691190919098  0.2290206810361854
  0.4594877688944043  0.7425328742161225  0.7709866389344859
  0.0214561927025720  0.2626197359967554  0.0002723392241519
  0.0215518989049653  0.7373797913720581 -0.0002374981358896
  0.5040813875650297  0.2377468675198333  0.4891625103963677
  0.5040839334289061  0.7616449447750805  0.5105756101525191
  0.5246670147871276  0.5315828715233584  0.2537357707882917
  0.5240728588729644  0.4688362872198810  0.7473593175326924
 -0.0000607482098892  0.0139693373657157  0.2633255663818230
 -0.0001044444879371 -0.0139099549814250  0.7366888787318501
  0.4019124190472816  0.4162595520923692  0.4086841624479593
  0.4019886332670605  0.5838527013795027  0.5910634030054773
  0.6543900616865388  0.3471218302977019  0.1581980351703034
  0.6546137575983160  0.6531652848586647  0.8417527507228314
  0.0023192916443720 -0.0000233619924946 -0.0000180932967564
  0.7676324809694877  0.5000097385829316 -0.0000120758395349
  0.2544152641811305  0.4999160270110449 -0.0000663525073139
 -0.0073676705127570  0.7532065947321935  0.4990120061825318
 -0.0073186006878224  0.2468688021278653  0.5010130177263121
  0.4971211282755988  0.0046751899836268  0.2471095480761006
  0.4970522581166068 -0.0048140637649767  0.7528870395873475
  0.6199835782771959  0.6249307470760175  0.6385545342147244
  0.6199924635752868  0.3749377682452768  0.3614576203193137
  0.8991346840761489  0.8995467509293698  0.1031126119173195
  0.8991100380614988  0.1004132911914033  0.8968993850559107
  0.1044488530057246  0.8977224927083871  0.8979054099837810
  0.1044306509131661  0.1022708251559847  0.1020889115322031
  0.3715571385291095  0.6205730799173127  0.3910757408977028
  0.3718806948938165  0.3794959414995865  0.6088407929969316
  0.0876162569826207  0.3464652061823666  0.3905473708449042
  0.0875489690841258  0.6535712901848147  0.6094518357247870
  0.0988263439820647  0.1459574652647706  0.6003603035773494
  0.0987515822473922  0.8540996978329485  0.3996275304533664
  0.8820333486420183  0.1459612860263280  0.4045748221890513
  0.8819761923610397  0.8541647281569419  0.5954186846112497
  0.8635192412220036  0.3998143659493903  0.1057314695983163
  0.8634537179141204  0.6001075134947399  0.8942569945900133
  0.1547889430716457  0.6009104583772482  0.1069403949559560
  0.1547528327540603  0.3989976562006778  0.8928968014638461
  0.3985051481020085  0.8971072871736666  0.1454865071557686
  0.3984565124124513  0.1028830095671388  0.8544697017261826
  0.3869555338968303  0.1015564392279202  0.3482934297267788
  0.3868704093204473  0.8983105837248333  0.6517434045064185
  0.3550399917216711  0.3901091409542819  0.0970556330404029
  0.3551393365084516  0.6096294322677961  0.9028162360254643
  0.6050977342356650  0.0953025029306322  0.6529438181280648
  0.6051522490679243  0.9044353775505732  0.3470356732830113
  0.6639060190794686  0.6089695883687520  0.0946298816290958
  0.6638333152122430  0.3910151462867643  0.9055221802055256
  0.8959919035377130  0.3507961765808033  0.6121209855069952
  0.8959444254658961  0.6493303008343245  0.3878863436075671
  0.5999313525929757  0.1108713438481662  0.1461736202942462
  0.5998516030719033  0.8889762326728110  0.8538529509402669
 
  0.00000000E+00  0.00000000E+00  0.00000000E+00
  0.00000000E+00  0.00000000E+00  0.00000000E+00
  0.00000000E+00  0.00000000E+00  0.00000000E+00
  0.00000000E+00  0.00000000E+00  0.00000000E+00
  0.00000000E+00  0.00000000E+00  0.00000000E+00
  0.00000000E+00  0.00000000E+00  0.00000000E+00
  0.00000000E+00  0.00000000E+00  0.00000000E+00
  0.00000000E+00  0.00000000E+00  0.00000000E+00
  0.00000000E+00  0.00000000E+00  0.00000000E+00
  0.00000000E+00  0.00000000E+00  0.00000000E+00
  0.00000000E+00  0.00000000E+00  0.00000000E+00
  0.00000000E+00  0.00000000E+00  0.00000000E+00
  0.00000000E+00  0.00000000E+00  0.00000000E+00
  0.00000000E+00  0.00000000E+00  0.00000000E+00
  0.00000000E+00  0.00000000E+00  0.00000000E+00
  0.00000000E+00  0.00000000E+00  0.00000000E+00
  0.00000000E+00  0.00000000E+00  0.00000000E+00
  0.00000000E+00  0.00000000E+00  0.00000000E+00
  0.00000000E+00  0.00000000E+00  0.00000000E+00
  0.00000000E+00  0.00000000E+00  0.00000000E+00
  0.00000000E+00  0.00000000E+00  0.00000000E+00
  0.00000000E+00  0.00000000E+00  0.00000000E+00
  0.00000000E+00  0.00000000E+00  0.00000000E+00
  0.00000000E+00  0.00000000E+00  0.00000000E+00
  0.00000000E+00  0.00000000E+00  0.00000000E+00
  0.00000000E+00  0.00000000E+00  0.00000000E+00
  0.00000000E+00  0.00000000E+00  0.00000000E+00
  0.00000000E+00  0.00000000E+00  0.00000000E+00
  0.00000000E+00  0.00000000E+00  0.00000000E+00
  0.00000000E+00  0.00000000E+00  0.00000000E+00
  0.00000000E+00  0.00000000E+00  0.00000000E+00
  0.00000000E+00  0.00000000E+00  0.00000000E+00
  0.00000000E+00  0.00000000E+00  0.00000000E+00
  0.00000000E+00  0.00000000E+00  0.00000000E+00
  0.00000000E+00  0.00000000E+00  0.00000000E+00
  0.00000000E+00  0.00000000E+00  0.00000000E+00
  0.00000000E+00  0.00000000E+00  0.00000000E+00
  0.00000000E+00  0.00000000E+00  0.00000000E+00
  0.00000000E+00  0.00000000E+00  0.00000000E+00
  0.00000000E+00  0.00000000E+00  0.00000000E+00
  0.00000000E+00  0.00000000E+00  0.00000000E+00
  0.00000000E+00  0.00000000E+00  0.00000000E+00
  0.00000000E+00  0.00000000E+00  0.00000000E+00
  0.00000000E+00  0.00000000E+00  0.00000000E+00
  0.00000000E+00  0.00000000E+00  0.00000000E+00
  0.00000000E+00  0.00000000E+00  0.00000000E+00
  0.00000000E+00  0.00000000E+00  0.00000000E+00
  0.00000000E+00  0.00000000E+00  0.00000000E+00
  0.00000000E+00  0.00000000E+00  0.00000000E+00
  0.00000000E+00  0.00000000E+00  0.00000000E+00
  0.00000000E+00  0.00000000E+00  0.00000000E+00
  0.00000000E+00  0.00000000E+00  0.00000000E+00
  0.00000000E+00  0.00000000E+00  0.00000000E+00
  0.00000000E+00  0.00000000E+00  0.00000000E+00
  0.00000000E+00  0.00000000E+00  0.00000000E+00
  0.00000000E+00  0.00000000E+00  0.00000000E+00
  0.00000000E+00  0.00000000E+00  0.00000000E+00
  0.00000000E+00  0.00000000E+00  0.00000000E+00
  0.00000000E+00  0.00000000E+00  0.00000000E+00
  0.00000000E+00  0.00000000E+00  0.00000000E+00
  0.00000000E+00  0.00000000E+00  0.00000000E+00
  0.00000000E+00  0.00000000E+00  0.00000000E+00
  0.00000000E+00  0.00000000E+00  0.00000000E+00
  0.00000000E+00  0.00000000E+00  0.00000000E+00
  0.00000000E+00  0.00000000E+00  0.00000000E+00
  0.00000000E+00  0.00000000E+00  0.00000000E+00
  0.00000000E+00  0.00000000E+00  0.00000000E+00
  0.00000000E+00  0.00000000E+00  0.00000000E+00
  0.00000000E+00  0.00000000E+00  0.00000000E+00
  0.00000000E+00  0.00000000E+00  0.00000000E+00
  0.00000000E+00  0.00000000E+00  0.00000000E+00
  0.00000000E+00  0.00000000E+00  0.00000000E+00
  0.00000000E+00  0.00000000E+00  0.00000000E+00
  0.00000000E+00  0.00000000E+00  0.00000000E+00
  0.00000000E+00  0.00000000E+00  0.00000000E+00
  0.00000000E+00  0.00000000E+00  0.00000000E+00
  0.00000000E+00  0.00000000E+00  0.00000000E+00
  0.00000000E+00  0.00000000E+00  0.00000000E+00
  0.00000000E+00  0.00000000E+00  0.00000000E+00
  0.00000000E+00  0.00000000E+00  0.00000000E+00
  0.00000000E+00  0.00000000E+00  0.00000000E+00
  0.00000000E+00  0.00000000E+00  0.00000000E+00
  0.00000000E+00  0.00000000E+00  0.00000000E+00
  0.00000000E+00  0.00000000E+00  0.00000000E+00
  0.00000000E+00  0.00000000E+00  0.00000000E+00
  0.00000000E+00  0.00000000E+00  0.00000000E+00
  0.00000000E+00  0.00000000E+00  0.00000000E+00
  0.00000000E+00  0.00000000E+00  0.00000000E+00
  0.00000000E+00  0.00000000E+00  0.00000000E+00
  0.00000000E+00  0.00000000E+00  0.00000000E+00
  0.00000000E+00  0.00000000E+00  0.00000000E+00
  0.00000000E+00  0.00000000E+00  0.00000000E+00
  0.00000000E+00  0.00000000E+00  0.00000000E+00
  0.00000000E+00  0.00000000E+00  0.00000000E+00
  0.00000000E+00  0.00000000E+00  0.00000000E+00
  0.00000000E+00  0.00000000E+00  0.00000000E+00
  0.00000000E+00  0.00000000E+00  0.00000000E+00
  0.00000000E+00  0.00000000E+00  0.00000000E+00
  0.00000000E+00  0.00000000E+00  0.00000000E+00
  0.00000000E+00  0.00000000E+00  0.00000000E+00
