Li140 P140 O420
1.0
5.521558 0.000000 0.000000
0.000000 16.540545 2.677750
0.000000 0.000000 119.816820
Li P O
140 140 420
direct
0.494607 0.818220 0.063638 Li+
0.505393 0.318220 0.008083 Li+
0.484419 0.934004 0.077179 Li+
0.515581 0.434004 0.021623 Li+
0.505784 0.049457 0.090559 Li+
0.494216 0.549457 0.035003 Li+
0.507224 0.164548 0.103844 Li+
0.492776 0.664548 0.048289 Li+
0.992783 0.241566 0.000554 Li+
0.007217 0.741566 0.056109 Li+
0.521194 0.318286 0.063877 Li+
0.478806 0.818286 0.008322 Li+
0.476313 0.433730 0.077332 Li+
0.523687 0.933730 0.021777 Li+
0.533250 0.550453 0.090575 Li+
0.466750 0.050453 0.035019 Li+
0.477737 0.667016 0.103883 Li+
0.522263 0.167016 0.048328 Li+
0.960889 0.743634 0.000776 Li+
0.039111 0.243634 0.056331 Li+
0.494607 0.818220 0.174750 Li+
0.505393 0.318220 0.119194 Li+
0.484419 0.934004 0.188290 Li+
0.515581 0.434004 0.132734 Li+
0.505784 0.049457 0.201670 Li+
0.494216 0.549457 0.146114 Li+
0.507224 0.164548 0.214955 Li+
0.492776 0.664548 0.159400 Li+
0.992783 0.241566 0.111665 Li+
0.007217 0.741566 0.167220 Li+
0.521194 0.318286 0.174988 Li+
0.478806 0.818286 0.119433 Li+
0.476313 0.433730 0.188443 Li+
0.523687 0.933730 0.132888 Li+
0.533250 0.550453 0.201686 Li+
0.466750 0.050453 0.146130 Li+
0.477737 0.667016 0.214994 Li+
0.522263 0.167016 0.159439 Li+
0.960889 0.743634 0.111887 Li+
0.039111 0.243634 0.167442 Li+
0.494607 0.818220 0.285861 Li+
0.505393 0.318220 0.230305 Li+
0.484419 0.934004 0.299401 Li+
0.515581 0.434004 0.243846 Li+
0.505784 0.049457 0.312781 Li+
0.494216 0.549457 0.257226 Li+
0.507224 0.164548 0.326067 Li+
0.492776 0.664548 0.270511 Li+
0.992783 0.241566 0.222776 Li+
0.007217 0.741566 0.278332 Li+
0.521194 0.318286 0.286099 Li+
0.478806 0.818286 0.230544 Li+
0.476313 0.433730 0.299554 Li+
0.523687 0.933730 0.243999 Li+
0.533250 0.550453 0.312797 Li+
0.466750 0.050453 0.257241 Li+
0.477737 0.667016 0.326105 Li+
0.522263 0.167016 0.270550 Li+
0.960889 0.743634 0.222998 Li+
0.039111 0.243634 0.278553 Li+
0.494607 0.818220 0.396972 Li+
0.505393 0.318220 0.341416 Li+
0.484419 0.934004 0.410512 Li+
0.515581 0.434004 0.354957 Li+
0.505784 0.049457 0.423892 Li+
0.494216 0.549457 0.368337 Li+
0.507224 0.164548 0.437178 Li+
0.492776 0.664548 0.381622 Li+
0.992783 0.241566 0.333887 Li+
0.007217 0.741566 0.389443 Li+
0.521194 0.318286 0.397211 Li+
0.478806 0.818286 0.341655 Li+
0.476313 0.433730 0.410665 Li+
0.523687 0.933730 0.355110 Li+
0.533250 0.550453 0.423908 Li+
0.466750 0.050453 0.368353 Li+
0.477737 0.667016 0.437216 Li+
0.522263 0.167016 0.381661 Li+
0.960889 0.743634 0.334109 Li+
0.039111 0.243634 0.389665 Li+
0.494607 0.818220 0.508083 Li+
0.505393 0.318220 0.452527 Li+
0.484419 0.934004 0.521623 Li+
0.515581 0.434004 0.466068 Li+
0.505784 0.049457 0.535003 Li+
0.494216 0.549457 0.479448 Li+
0.507224 0.164548 0.548289 Li+
0.492776 0.664548 0.492733 Li+
0.992783 0.241566 0.444998 Li+
0.007217 0.741566 0.500554 Li+
0.521194 0.318286 0.508322 Li+
0.478806 0.818286 0.452766 Li+
0.476313 0.433730 0.521777 Li+
0.523687 0.933730 0.466221 Li+
0.533250 0.550453 0.535019 Li+
0.466750 0.050453 0.479464 Li+
0.477737 0.667016 0.548328 Li+
0.522263 0.167016 0.492772 Li+
0.960889 0.743634 0.445220 Li+
0.039111 0.243634 0.500776 Li+
0.494607 0.818220 0.619194 Li+
0.505393 0.318220 0.563638 Li+
0.484419 0.934004 0.632734 Li+
0.515581 0.434004 0.577179 Li+
0.505784 0.049457 0.646114 Li+
0.494216 0.549457 0.590559 Li+
0.507224 0.164548 0.659400 Li+
0.492776 0.664548 0.603844 Li+
0.992783 0.241566 0.556109 Li+
0.007217 0.741566 0.611665 Li+
0.521194 0.318286 0.619433 Li+
0.478806 0.818286 0.563877 Li+
0.476313 0.433730 0.632888 Li+
0.523687 0.933730 0.577332 Li+
0.533250 0.550453 0.646130 Li+
0.466750 0.050453 0.590575 Li+
0.477737 0.667016 0.659439 Li+
0.522263 0.167016 0.603883 Li+
0.960889 0.743634 0.556331 Li+
0.039111 0.243634 0.611887 Li+
0.494607 0.818220 0.730305 Li+
0.505393 0.318220 0.674750 Li+
0.484419 0.934004 0.743846 Li+
0.515581 0.434004 0.688290 Li+
0.505784 0.049457 0.757226 Li+
0.494216 0.549457 0.701670 Li+
0.507224 0.164548 0.770511 Li+
0.492776 0.664548 0.714955 Li+
0.992783 0.241566 0.667220 Li+
0.007217 0.741566 0.722776 Li+
0.521194 0.318286 0.730544 Li+
0.478806 0.818286 0.674988 Li+
0.476313 0.433730 0.743999 Li+
0.523687 0.933730 0.688443 Li+
0.533250 0.550453 0.757241 Li+
0.466750 0.050453 0.701686 Li+
0.477737 0.667016 0.770550 Li+
0.522263 0.167016 0.714994 Li+
0.960889 0.743634 0.667442 Li+
0.039111 0.243634 0.722998 Li+
0.185377 0.000413 0.057361 P5+
0.814623 0.500413 0.001806 P5+
0.843317 0.093280 0.069975 P5+
0.156683 0.593280 0.014420 P5+
0.188444 0.197061 0.080169 P5+
0.811556 0.697061 0.024613 P5+
0.828977 0.308311 0.088971 P5+
0.171023 0.808311 0.033415 P5+
0.159739 0.408249 0.100088 P5+
0.840261 0.908249 0.044533 P5+
0.843930 0.574567 0.067551 P5+
0.156070 0.074567 0.011995 P5+
0.174322 0.674438 0.078718 P5+
0.825678 0.174438 0.023162 P5+
0.812278 0.786455 0.087479 P5+
0.187722 0.286455 0.031924 P5+
0.151901 0.889856 0.097747 P5+
0.848099 0.389856 0.042191 P5+
0.809867 0.982845 0.110335 P5+
0.190133 0.482845 0.054780 P5+
0.185377 0.000413 0.168472 P5+
0.814623 0.500413 0.112917 P5+
0.843317 0.093280 0.181086 P5+
0.156683 0.593280 0.125531 P5+
0.188444 0.197061 0.191280 P5+
0.811556 0.697061 0.135724 P5+
0.828977 0.308311 0.200082 P5+
0.171023 0.808311 0.144526 P5+
0.159739 0.408249 0.211199 P5+
0.840261 0.908249 0.155644 P5+
0.843930 0.574567 0.178662 P5+
0.156070 0.074567 0.123106 P5+
0.174322 0.674438 0.189829 P5+
0.825678 0.174438 0.134273 P5+
0.812278 0.786455 0.198590 P5+
0.187722 0.286455 0.143035 P5+
0.151901 0.889856 0.208858 P5+
0.848099 0.389856 0.153302 P5+
0.809867 0.982845 0.221447 P5+
0.190133 0.482845 0.165891 P5+
0.185377 0.000413 0.279584 P5+
0.814623 0.500413 0.224028 P5+
0.843317 0.093280 0.292197 P5+
0.156683 0.593280 0.236642 P5+
0.188444 0.197061 0.302391 P5+
0.811556 0.697061 0.246836 P5+
0.828977 0.308311 0.311193 P5+
0.171023 0.808311 0.255638 P5+
0.159739 0.408249 0.322310 P5+
0.840261 0.908249 0.266755 P5+
0.843930 0.574567 0.289773 P5+
0.156070 0.074567 0.234217 P5+
0.174322 0.674438 0.300940 P5+
0.825678 0.174438 0.245384 P5+
0.812278 0.786455 0.309701 P5+
0.187722 0.286455 0.254146 P5+
0.151901 0.889856 0.319969 P5+
0.848099 0.389856 0.264414 P5+
0.809867 0.982845 0.332558 P5+
0.190133 0.482845 0.277002 P5+
0.185377 0.000413 0.390695 P5+
0.814623 0.500413 0.335139 P5+
0.843317 0.093280 0.403309 P5+
0.156683 0.593280 0.347753 P5+
0.188444 0.197061 0.413502 P5+
0.811556 0.697061 0.357947 P5+
0.828977 0.308311 0.422304 P5+
0.171023 0.808311 0.366749 P5+
0.159739 0.408249 0.433422 P5+
0.840261 0.908249 0.377866 P5+
0.843930 0.574567 0.400884 P5+
0.156070 0.074567 0.345329 P5+
0.174322 0.674438 0.412051 P5+
0.825678 0.174438 0.356495 P5+
0.812278 0.786455 0.420812 P5+
0.187722 0.286455 0.365257 P5+
0.151901 0.889856 0.431080 P5+
0.848099 0.389856 0.375525 P5+
0.809867 0.982845 0.443669 P5+
0.190133 0.482845 0.388113 P5+
0.185377 0.000413 0.501806 P5+
0.814623 0.500413 0.446250 P5+
0.843317 0.093280 0.514420 P5+
0.156683 0.593280 0.458864 P5+
0.188444 0.197061 0.524613 P5+
0.811556 0.697061 0.469058 P5+
0.828977 0.308311 0.533415 P5+
0.171023 0.808311 0.477860 P5+
0.159739 0.408249 0.544533 P5+
0.840261 0.908249 0.488977 P5+
0.843930 0.574567 0.511995 P5+
0.156070 0.074567 0.456440 P5+
0.174322 0.674438 0.523162 P5+
0.825678 0.174438 0.467606 P5+
0.812278 0.786455 0.531924 P5+
0.187722 0.286455 0.476368 P5+
0.151901 0.889856 0.542191 P5+
0.848099 0.389856 0.486636 P5+
0.809867 0.982845 0.554780 P5+
0.190133 0.482845 0.499224 P5+
0.185377 0.000413 0.612917 P5+
0.814623 0.500413 0.557361 P5+
0.843317 0.093280 0.625531 P5+
0.156683 0.593280 0.569975 P5+
0.188444 0.197061 0.635724 P5+
0.811556 0.697061 0.580169 P5+
0.828977 0.308311 0.644526 P5+
0.171023 0.808311 0.588971 P5+
0.159739 0.408249 0.655644 P5+
0.840261 0.908249 0.600088 P5+
0.843930 0.574567 0.623106 P5+
0.156070 0.074567 0.567551 P5+
0.174322 0.674438 0.634273 P5+
0.825678 0.174438 0.578718 P5+
0.812278 0.786455 0.643035 P5+
0.187722 0.286455 0.587479 P5+
0.151901 0.889856 0.653302 P5+
0.848099 0.389856 0.597747 P5+
0.809867 0.982845 0.665891 P5+
0.190133 0.482845 0.610335 P5+
0.185377 0.000413 0.724028 P5+
0.814623 0.500413 0.668472 P5+
0.843317 0.093280 0.736642 P5+
0.156683 0.593280 0.681086 P5+
0.188444 0.197061 0.746836 P5+
0.811556 0.697061 0.691280 P5+
0.828977 0.308311 0.755638 P5+
0.171023 0.808311 0.700082 P5+
0.159739 0.408249 0.766755 P5+
0.840261 0.908249 0.711199 P5+
0.843930 0.574567 0.734217 P5+
0.156070 0.074567 0.678662 P5+
0.174322 0.674438 0.745384 P5+
0.825678 0.174438 0.689829 P5+
0.812278 0.786455 0.754146 P5+
0.187722 0.286455 0.698590 P5+
0.151901 0.889856 0.764414 P5+
0.848099 0.389856 0.708858 P5+
0.809867 0.982845 0.777002 P5+
0.190133 0.482845 0.721447 P5+
0.069000 0.035413 0.068002 O2-
0.931000 0.535413 0.012446 O2-
0.951087 0.140628 0.079666 O2-
0.048913 0.640628 0.024111 O2-
0.080018 0.275856 0.084471 O2-
0.919982 0.775856 0.028915 O2-
0.926681 0.392259 0.092454 O2-
0.073319 0.892259 0.036899 O2-
0.942022 0.978148 0.051016 O2-
0.057978 0.478148 0.106572 O2-
0.076781 0.590622 0.075195 O2-
0.923219 0.090622 0.019640 O2-
0.921841 0.709404 0.082757 O2-
0.078159 0.209404 0.027202 O2-
0.049265 0.843555 0.087854 O2-
0.950735 0.343555 0.032299 O2-
0.918787 0.943480 0.099933 O2-
0.081213 0.443480 0.044377 O2-
0.944691 0.504327 0.061054 O2-
0.055309 0.004327 0.005499 O2-
0.322795 0.926111 0.062462 O2-
0.677205 0.426111 0.006907 O2-
0.313918 0.066074 0.049587 O2-
0.686082 0.566074 0.105142 O2-
0.643576 0.041349 0.075636 O2-
0.356424 0.541349 0.020080 O2-
0.795305 0.153257 0.059471 O2-
0.204695 0.653257 0.003916 O2-
0.351974 0.154647 0.089162 O2-
0.648026 0.654647 0.033606 O2-
0.281781 0.224590 0.068382 O2-
0.718219 0.724590 0.012826 O2-
0.751546 0.252705 0.099490 O2-
0.248454 0.752705 0.043934 O2-
0.656290 0.330648 0.079368 O2-
0.343710 0.830648 0.023813 O2-
0.215121 0.332841 0.108354 O2-
0.784879 0.832841 0.052799 O2-
0.355777 0.446708 0.092427 O2-
0.644223 0.946708 0.036871 O2-
0.649890 0.536665 0.075376 O2-
0.350110 0.036665 0.019821 O2-
0.785996 0.649394 0.059237 O2-
0.214004 0.149394 0.003682 O2-
0.340793 0.651785 0.088563 O2-
0.659207 0.151785 0.033007 O2-
0.258044 0.728542 0.068177 O2-
0.741956 0.228542 0.012621 O2-
0.725734 0.758375 0.099372 O2-
0.274266 0.258375 0.043817 O2-
0.642950 0.828801 0.078725 O2-
0.357050 0.328801 0.023169 O2-
0.205272 0.829973 0.108206 O2-
0.794728 0.329973 0.052650 O2-
0.347295 0.944360 0.092232 O2-
0.652705 0.444360 0.036676 O2-
0.677470 0.919559 0.007230 O2-
0.322530 0.419559 0.062785 O2-
0.678914 0.057634 0.104944 O2-
0.321086 0.557634 0.049389 O2-
0.069000 0.035413 0.179113 O2-
0.931000 0.535413 0.123557 O2-
0.951087 0.140628 0.190777 O2-
0.048913 0.640628 0.135222 O2-
0.080018 0.275856 0.195582 O2-
0.919982 0.775856 0.140026 O2-
0.926681 0.392259 0.203565 O2-
0.073319 0.892259 0.148010 O2-
0.942022 0.978148 0.162127 O2-
0.057978 0.478148 0.217683 O2-
0.076781 0.590622 0.186306 O2-
0.923219 0.090622 0.130751 O2-
0.921841 0.709404 0.193868 O2-
0.078159 0.209404 0.138313 O2-
0.049265 0.843555 0.198965 O2-
0.950735 0.343555 0.143410 O2-
0.918787 0.943480 0.211044 O2-
0.081213 0.443480 0.155488 O2-
0.944691 0.504327 0.172165 O2-
0.055309 0.004327 0.116610 O2-
0.322795 0.926111 0.173573 O2-
0.677205 0.426111 0.118018 O2-
0.313918 0.066074 0.160698 O2-
0.686082 0.566074 0.216253 O2-
0.643576 0.041349 0.186747 O2-
0.356424 0.541349 0.131191 O2-
0.795305 0.153257 0.170583 O2-
0.204695 0.653257 0.115027 O2-
0.351974 0.154647 0.200273 O2-
0.648026 0.654647 0.144717 O2-
0.281781 0.224590 0.179493 O2-
0.718219 0.724590 0.123937 O2-
0.751546 0.252705 0.210601 O2-
0.248454 0.752705 0.155045 O2-
0.656290 0.330648 0.190480 O2-
0.343710 0.830648 0.134924 O2-
0.215121 0.332841 0.219465 O2-
0.784879 0.832841 0.163910 O2-
0.355777 0.446708 0.203538 O2-
0.644223 0.946708 0.147982 O2-
0.649890 0.536665 0.186488 O2-
0.350110 0.036665 0.130932 O2-
0.785996 0.649394 0.170349 O2-
0.214004 0.149394 0.114793 O2-
0.340793 0.651785 0.199674 O2-
0.659207 0.151785 0.144118 O2-
0.258044 0.728542 0.179288 O2-
0.741956 0.228542 0.123732 O2-
0.725734 0.758375 0.210483 O2-
0.274266 0.258375 0.154928 O2-
0.642950 0.828801 0.189836 O2-
0.357050 0.328801 0.134280 O2-
0.205272 0.829973 0.219317 O2-
0.794728 0.329973 0.163761 O2-
0.347295 0.944360 0.203343 O2-
0.652705 0.444360 0.147788 O2-
0.677470 0.919559 0.118341 O2-
0.322530 0.419559 0.173896 O2-
0.678914 0.057634 0.216056 O2-
0.321086 0.557634 0.160500 O2-
0.069000 0.035413 0.290224 O2-
0.931000 0.535413 0.234668 O2-
0.951087 0.140628 0.301888 O2-
0.048913 0.640628 0.246333 O2-
0.080018 0.275856 0.306693 O2-
0.919982 0.775856 0.251138 O2-
0.926681 0.392259 0.314677 O2-
0.073319 0.892259 0.259121 O2-
0.942022 0.978148 0.273238 O2-
0.057978 0.478148 0.328794 O2-
0.076781 0.590622 0.297418 O2-
0.923219 0.090622 0.241862 O2-
0.921841 0.709404 0.304979 O2-
0.078159 0.209404 0.249424 O2-
0.049265 0.843555 0.310076 O2-
0.950735 0.343555 0.254521 O2-
0.918787 0.943480 0.322155 O2-
0.081213 0.443480 0.266600 O2-
0.944691 0.504327 0.283276 O2-
0.055309 0.004327 0.227721 O2-
0.322795 0.926111 0.284684 O2-
0.677205 0.426111 0.229129 O2-
0.313918 0.066074 0.271809 O2-
0.686082 0.566074 0.327364 O2-
0.643576 0.041349 0.297858 O2-
0.356424 0.541349 0.242302 O2-
0.795305 0.153257 0.281694 O2-
0.204695 0.653257 0.226138 O2-
0.351974 0.154647 0.311384 O2-
0.648026 0.654647 0.255828 O2-
0.281781 0.224590 0.290604 O2-
0.718219 0.724590 0.235049 O2-
0.751546 0.252705 0.321712 O2-
0.248454 0.752705 0.266157 O2-
0.656290 0.330648 0.301591 O2-
0.343710 0.830648 0.246035 O2-
0.215121 0.332841 0.330576 O2-
0.784879 0.832841 0.275021 O2-
0.355777 0.446708 0.314649 O2-
0.644223 0.946708 0.259093 O2-
0.649890 0.536665 0.297599 O2-
0.350110 0.036665 0.242043 O2-
0.785996 0.649394 0.281460 O2-
0.214004 0.149394 0.225904 O2-
0.340793 0.651785 0.310785 O2-
0.659207 0.151785 0.255229 O2-
0.258044 0.728542 0.290399 O2-
0.741956 0.228542 0.234843 O2-
0.725734 0.758375 0.321594 O2-
0.274266 0.258375 0.266039 O2-
0.642950 0.828801 0.300947 O2-
0.357050 0.328801 0.245391 O2-
0.205272 0.829973 0.330428 O2-
0.794728 0.329973 0.274872 O2-
0.347295 0.944360 0.314454 O2-
0.652705 0.444360 0.258899 O2-
0.677470 0.919559 0.229452 O2-
0.322530 0.419559 0.285007 O2-
0.678914 0.057634 0.327167 O2-
0.321086 0.557634 0.271611 O2-
0.069000 0.035413 0.401335 O2-
0.931000 0.535413 0.345780 O2-
0.951087 0.140628 0.412999 O2-
0.048913 0.640628 0.357444 O2-
0.080018 0.275856 0.417804 O2-
0.919982 0.775856 0.362249 O2-
0.926681 0.392259 0.425788 O2-
0.073319 0.892259 0.370232 O2-
0.942022 0.978148 0.384349 O2-
0.057978 0.478148 0.439905 O2-
0.076781 0.590622 0.408529 O2-
0.923219 0.090622 0.352973 O2-
0.921841 0.709404 0.416090 O2-
0.078159 0.209404 0.360535 O2-
0.049265 0.843555 0.421188 O2-
0.950735 0.343555 0.365632 O2-
0.918787 0.943480 0.433266 O2-
0.081213 0.443480 0.377711 O2-
0.944691 0.504327 0.394388 O2-
0.055309 0.004327 0.338832 O2-
0.322795 0.926111 0.395796 O2-
0.677205 0.426111 0.340240 O2-
0.313918 0.066074 0.382920 O2-
0.686082 0.566074 0.438475 O2-
0.643576 0.041349 0.408969 O2-
0.356424 0.541349 0.353413 O2-
0.795305 0.153257 0.392805 O2-
0.204695 0.653257 0.337249 O2-
0.351974 0.154647 0.422495 O2-
0.648026 0.654647 0.366939 O2-
0.281781 0.224590 0.401715 O2-
0.718219 0.724590 0.346160 O2-
0.751546 0.252705 0.432823 O2-
0.248454 0.752705 0.377268 O2-
0.656290 0.330648 0.412702 O2-
0.343710 0.830648 0.357146 O2-
0.215121 0.332841 0.441687 O2-
0.784879 0.832841 0.386132 O2-
0.355777 0.446708 0.425760 O2-
0.644223 0.946708 0.370205 O2-
0.649890 0.536665 0.408710 O2-
0.350110 0.036665 0.353154 O2-
0.785996 0.649394 0.392571 O2-
0.214004 0.149394 0.337015 O2-
0.340793 0.651785 0.421896 O2-
0.659207 0.151785 0.366341 O2-
0.258044 0.728542 0.401510 O2-
0.741956 0.228542 0.345954 O2-
0.725734 0.758375 0.432705 O2-
0.274266 0.258375 0.377150 O2-
0.642950 0.828801 0.412058 O2-
0.357050 0.328801 0.356503 O2-
0.205272 0.829973 0.441539 O2-
0.794728 0.329973 0.385983 O2-
0.347295 0.944360 0.425565 O2-
0.652705 0.444360 0.370010 O2-
0.677470 0.919559 0.340563 O2-
0.322530 0.419559 0.396118 O2-
0.678914 0.057634 0.438278 O2-
0.321086 0.557634 0.382722 O2-
0.069000 0.035413 0.512446 O2-
0.931000 0.535413 0.456891 O2-
0.951087 0.140628 0.524111 O2-
0.048913 0.640628 0.468555 O2-
0.080018 0.275856 0.528915 O2-
0.919982 0.775856 0.473360 O2-
0.926681 0.392259 0.536899 O2-
0.073319 0.892259 0.481343 O2-
0.942022 0.978148 0.495460 O2-
0.057978 0.478148 0.551016 O2-
0.076781 0.590622 0.519640 O2-
0.923219 0.090622 0.464084 O2-
0.921841 0.709404 0.527202 O2-
0.078159 0.209404 0.471646 O2-
0.049265 0.843555 0.532299 O2-
0.950735 0.343555 0.476743 O2-
0.918787 0.943480 0.544377 O2-
0.081213 0.443480 0.488822 O2-
0.944691 0.504327 0.505499 O2-
0.055309 0.004327 0.449943 O2-
0.322795 0.926111 0.506907 O2-
0.677205 0.426111 0.451351 O2-
0.313918 0.066074 0.494031 O2-
0.686082 0.566074 0.549587 O2-
0.643576 0.041349 0.520080 O2-
0.356424 0.541349 0.464524 O2-
0.795305 0.153257 0.503916 O2-
0.204695 0.653257 0.448360 O2-
0.351974 0.154647 0.533606 O2-
0.648026 0.654647 0.478051 O2-
0.281781 0.224590 0.512826 O2-
0.718219 0.724590 0.457271 O2-
0.751546 0.252705 0.543934 O2-
0.248454 0.752705 0.488379 O2-
0.656290 0.330648 0.523813 O2-
0.343710 0.830648 0.468257 O2-
0.215121 0.332841 0.552799 O2-
0.784879 0.832841 0.497243 O2-
0.355777 0.446708 0.536871 O2-
0.644223 0.946708 0.481316 O2-
0.649890 0.536665 0.519821 O2-
0.350110 0.036665 0.464265 O2-
0.785996 0.649394 0.503682 O2-
0.214004 0.149394 0.448126 O2-
0.340793 0.651785 0.533007 O2-
0.659207 0.151785 0.477452 O2-
0.258044 0.728542 0.512621 O2-
0.741956 0.228542 0.457066 O2-
0.725734 0.758375 0.543817 O2-
0.274266 0.258375 0.488261 O2-
0.642950 0.828801 0.523169 O2-
0.357050 0.328801 0.467614 O2-
0.205272 0.829973 0.552650 O2-
0.794728 0.329973 0.497095 O2-
0.347295 0.944360 0.536676 O2-
0.652705 0.444360 0.481121 O2-
0.677470 0.919559 0.451674 O2-
0.322530 0.419559 0.507230 O2-
0.678914 0.057634 0.549389 O2-
0.321086 0.557634 0.493833 O2-
0.069000 0.035413 0.623557 O2-
0.931000 0.535413 0.568002 O2-
0.951087 0.140628 0.635222 O2-
0.048913 0.640628 0.579666 O2-
0.080018 0.275856 0.640026 O2-
0.919982 0.775856 0.584471 O2-
0.926681 0.392259 0.648010 O2-
0.073319 0.892259 0.592454 O2-
0.942022 0.978148 0.606572 O2-
0.057978 0.478148 0.662127 O2-
0.076781 0.590622 0.630751 O2-
0.923219 0.090622 0.575195 O2-
0.921841 0.709404 0.638313 O2-
0.078159 0.209404 0.582757 O2-
0.049265 0.843555 0.643410 O2-
0.950735 0.343555 0.587854 O2-
0.918787 0.943480 0.655488 O2-
0.081213 0.443480 0.599933 O2-
0.944691 0.504327 0.616610 O2-
0.055309 0.004327 0.561054 O2-
0.322795 0.926111 0.618018 O2-
0.677205 0.426111 0.562462 O2-
0.313918 0.066074 0.605142 O2-
0.686082 0.566074 0.660698 O2-
0.643576 0.041349 0.631191 O2-
0.356424 0.541349 0.575636 O2-
0.795305 0.153257 0.615027 O2-
0.204695 0.653257 0.559471 O2-
0.351974 0.154647 0.644717 O2-
0.648026 0.654647 0.589162 O2-
0.281781 0.224590 0.623937 O2-
0.718219 0.724590 0.568382 O2-
0.751546 0.252705 0.655045 O2-
0.248454 0.752705 0.599490 O2-
0.656290 0.330648 0.634924 O2-
0.343710 0.830648 0.579368 O2-
0.215121 0.332841 0.663910 O2-
0.784879 0.832841 0.608354 O2-
0.355777 0.446708 0.647982 O2-
0.644223 0.946708 0.592427 O2-
0.649890 0.536665 0.630932 O2-
0.350110 0.036665 0.575376 O2-
0.785996 0.649394 0.614793 O2-
0.214004 0.149394 0.559237 O2-
0.340793 0.651785 0.644118 O2-
0.659207 0.151785 0.588563 O2-
0.258044 0.728542 0.623732 O2-
0.741956 0.228542 0.568177 O2-
0.725734 0.758375 0.654928 O2-
0.274266 0.258375 0.599372 O2-
0.642950 0.828801 0.634280 O2-
0.357050 0.328801 0.578725 O2-
0.205272 0.829973 0.663761 O2-
0.794728 0.329973 0.608206 O2-
0.347295 0.944360 0.647788 O2-
0.652705 0.444360 0.592232 O2-
0.677470 0.919559 0.562785 O2-
0.322530 0.419559 0.618341 O2-
0.678914 0.057634 0.660500 O2-
0.321086 0.557634 0.604944 O2-
0.069000 0.035413 0.734668 O2-
0.931000 0.535413 0.679113 O2-
0.951087 0.140628 0.746333 O2-
0.048913 0.640628 0.690777 O2-
0.080018 0.275856 0.751138 O2-
0.919982 0.775856 0.695582 O2-
0.926681 0.392259 0.759121 O2-
0.073319 0.892259 0.703565 O2-
0.942022 0.978148 0.717683 O2-
0.057978 0.478148 0.773238 O2-
0.076781 0.590622 0.741862 O2-
0.923219 0.090622 0.686306 O2-
0.921841 0.709404 0.749424 O2-
0.078159 0.209404 0.693868 O2-
0.049265 0.843555 0.754521 O2-
0.950735 0.343555 0.698965 O2-
0.918787 0.943480 0.766600 O2-
0.081213 0.443480 0.711044 O2-
0.944691 0.504327 0.727721 O2-
0.055309 0.004327 0.672165 O2-
0.322795 0.926111 0.729129 O2-
0.677205 0.426111 0.673573 O2-
0.313918 0.066074 0.716253 O2-
0.686082 0.566074 0.771809 O2-
0.643576 0.041349 0.742302 O2-
0.356424 0.541349 0.686747 O2-
0.795305 0.153257 0.726138 O2-
0.204695 0.653257 0.670583 O2-
0.351974 0.154647 0.755828 O2-
0.648026 0.654647 0.700273 O2-
0.281781 0.224590 0.735049 O2-
0.718219 0.724590 0.679493 O2-
0.751546 0.252705 0.766157 O2-
0.248454 0.752705 0.710601 O2-
0.656290 0.330648 0.746035 O2-
0.343710 0.830648 0.690480 O2-
0.215121 0.332841 0.775021 O2-
0.784879 0.832841 0.719465 O2-
0.355777 0.446708 0.759093 O2-
0.644223 0.946708 0.703538 O2-
0.649890 0.536665 0.742043 O2-
0.350110 0.036665 0.686488 O2-
0.785996 0.649394 0.725904 O2-
0.214004 0.149394 0.670349 O2-
0.340793 0.651785 0.755229 O2-
0.659207 0.151785 0.699674 O2-
0.258044 0.728542 0.734843 O2-
0.741956 0.228542 0.679288 O2-
0.725734 0.758375 0.766039 O2-
0.274266 0.258375 0.710483 O2-
0.642950 0.828801 0.745391 O2-
0.357050 0.328801 0.689836 O2-
0.205272 0.829973 0.774872 O2-
0.794728 0.329973 0.719317 O2-
0.347295 0.944360 0.758899 O2-
0.652705 0.444360 0.703343 O2-
0.677470 0.919559 0.673896 O2-
0.322530 0.419559 0.729452 O2-
0.678914 0.057634 0.771611 O2-
0.321086 0.557634 0.716056 O2-
