Li56 P28 O98
1.0
6.730959 0.000000 -7.860032
-2.035903 8.419349 -5.257546
0.000000 0.000000 57.865962
Li P O
56 28 98
Selective dynamics
direct
0.144977 0.012029 0.030960 T T T Li
0.855023 0.987971 0.046861 T T T Li
0.588727 0.248347 0.033583 T T T Li
0.411273 0.751653 0.044238 F F F Li
0.327738 0.208724 0.039701 T T T Li
0.672262 0.791276 0.038120 F F F Li
0.241886 0.549204 0.060196 T T T Li
0.758114 0.450796 0.017625 T T T Li
0.144977 0.012029 0.121869 F F F Li
0.855023 0.987971 0.137770 F F F Li
0.588727 0.248347 0.124492 F F F Li
0.411273 0.751653 0.135147 F F F Li
0.327738 0.208724 0.130610 F F F Li
0.672262 0.791276 0.129029 F F F Li
0.241886 0.549204 0.151105 F F F Li
0.758114 0.450796 0.108534 F F F Li
0.144977 0.012029 0.212778 F F F Li
0.855023 0.987971 0.228679 F F F Li
0.588727 0.248347 0.215401 F F F Li
0.411273 0.751653 0.226056 F F F Li
0.327738 0.208724 0.221519 F F F Li
0.672262 0.791276 0.219938 F F F Li
0.241886 0.549204 0.242014 F F F Li
0.758114 0.450796 0.199443 F F F Li
0.144977 0.012029 0.303687 F F F Li
0.855023 0.987971 0.319588 F F F Li
0.588727 0.248347 0.306310 F F F Li
0.411273 0.751653 0.316965 F F F Li
0.327738 0.208724 0.312428 F F F Li
0.672262 0.791276 0.310847 F F F Li
0.241886 0.549204 0.332923 F F F Li
0.758114 0.450796 0.290352 F F F Li
0.144977 0.012029 0.394596 F F F Li
0.855023 0.987971 0.410497 F F F Li
0.588727 0.248347 0.397219 F F F Li
0.411273 0.751653 0.407874 F F F Li
0.327738 0.208724 0.403337 F F F Li
0.672262 0.791276 0.401756 F F F Li
0.241886 0.549204 0.423832 F F F Li
0.758114 0.450796 0.381261 F F F Li
0.144977 0.012029 0.485505 F F F Li
0.855023 0.987971 0.501406 F F F Li
0.588727 0.248347 0.488128 F F F Li
0.411273 0.751653 0.498783 F F F Li
0.327738 0.208724 0.494246 F F F Li
0.672262 0.791276 0.492665 F F F Li
0.241886 0.549204 0.514741 F F F Li
0.758114 0.450796 0.472170 F F F Li
0.144977 0.012029 0.576414 T T T Li
0.855023 0.987971 0.592315 T T T Li
0.588727 0.248347 0.579037 F F F Li
0.411273 0.751653 0.589692 T T T Li
0.327738 0.208724 0.585155 F F F Li
0.672262 0.791276 0.583575 F F F Li
0.241886 0.549204 0.605650 T T T Li
0.758114 0.450796 0.563080 T T T Li
0.213298 0.368044 0.085033 F F F P
0.786702 0.631956 0.083697 F F F P
0.779241 0.154498 0.007044 T T T P
0.220759 0.845502 0.070777 F F F P
0.213298 0.368044 0.175942 F F F P
0.786702 0.631956 0.174606 F F F P
0.779241 0.154498 0.097953 F F F P
0.220759 0.845502 0.161686 F F F P
0.213298 0.368044 0.266851 F F F P
0.786702 0.631956 0.265515 F F F P
0.779241 0.154498 0.188862 F F F P
0.220759 0.845502 0.252595 F F F P
0.213298 0.368044 0.357760 F F F P
0.786702 0.631956 0.356424 F F F P
0.779241 0.154498 0.279771 F F F P
0.220759 0.845502 0.343504 F F F P
0.213298 0.368044 0.448670 F F F P
0.786702 0.631956 0.447333 F F F P
0.779241 0.154498 0.370680 F F F P
0.220759 0.845502 0.434413 F F F P
0.213298 0.368044 0.539579 F F F P
0.786702 0.631956 0.538242 F F F P
0.779241 0.154498 0.461589 F F F P
0.220759 0.845502 0.525322 F F F P
0.213298 0.368044 0.630488 T T T P
0.786702 0.631956 0.629151 T T T P
0.779241 0.154498 0.552498 F F F P
0.220759 0.845502 0.616231 T T T P
0.741759 0.125660 0.025047 T T T O
0.605720 0.209316 0.066993 F F F O
0.394280 0.790684 0.010828 F F F O
0.848591 0.018024 0.082883 F F F O
0.743350 0.623545 0.051122 F F F O
0.256650 0.376455 0.026698 T T T O
0.732189 0.473810 0.074470 F F F O
0.267811 0.526190 0.003351 F F F O
0.702403 0.763496 0.005063 F F F O
0.297597 0.236504 0.072758 F F F O
0.962384 0.316106 0.043040 F F F O
0.037616 0.683894 0.034781 F F F O
0.151409 0.981976 0.085846 F F F O
0.258241 0.874340 0.052773 T T T O
0.741759 0.125660 0.115956 F F F O
0.605720 0.209316 0.157902 F F F O
0.394280 0.790684 0.101737 F F F O
0.848591 0.018024 0.173792 F F F O
0.743350 0.623545 0.142032 F F F O
0.256650 0.376455 0.117607 F F F O
0.732189 0.473810 0.165379 F F F O
0.267811 0.526190 0.094260 F F F O
0.702403 0.763496 0.095972 F F F O
0.297597 0.236504 0.163667 F F F O
0.962384 0.316106 0.133949 F F F O
0.037616 0.683894 0.125690 F F F O
0.151409 0.981976 0.176755 F F F O
0.258241 0.874340 0.143682 F F F O
0.741759 0.125660 0.206865 F F F O
0.605720 0.209316 0.248811 F F F O
0.394280 0.790684 0.192646 F F F O
0.848591 0.018024 0.264702 F F F O
0.743350 0.623545 0.232941 F F F O
0.256650 0.376455 0.208516 F F F O
0.732189 0.473810 0.256288 F F F O
0.267811 0.526190 0.185169 F F F O
0.702403 0.763496 0.186881 F F F O
0.297597 0.236504 0.254576 F F F O
0.962384 0.316106 0.224858 F F F O
0.037616 0.683894 0.216599 F F F O
0.151409 0.981976 0.267665 F F F O
0.258241 0.874340 0.234592 F F F O
0.741759 0.125660 0.297775 F F F O
0.605720 0.209316 0.339720 F F F O
0.394280 0.790684 0.283555 F F F O
0.848591 0.018024 0.355611 F F F O
0.743350 0.623545 0.323850 F F F O
0.256650 0.376455 0.299425 F F F O
0.732189 0.473810 0.347197 F F F O
0.267811 0.526190 0.276078 F F F O
0.702403 0.763496 0.277790 F F F O
0.297597 0.236504 0.345485 F F F O
0.962384 0.316106 0.315767 F F F O
0.037616 0.683894 0.307508 F F F O
0.151409 0.981976 0.358574 F F F O
0.258241 0.874340 0.325501 F F F O
0.741759 0.125660 0.388684 F F F O
0.605720 0.209316 0.430629 F F F O
0.394280 0.790684 0.374464 F F F O
0.848591 0.018024 0.446520 F F F O
0.743350 0.623545 0.414759 F F F O
0.256650 0.376455 0.390335 F F F O
0.732189 0.473810 0.438106 F F F O
0.267811 0.526190 0.366987 F F F O
0.702403 0.763496 0.368699 F F F O
0.297597 0.236504 0.436394 F F F O
0.962384 0.316106 0.406676 F F F O
0.037616 0.683894 0.398417 F F F O
0.151409 0.981976 0.449483 F F F O
0.258241 0.874340 0.416410 F F F O
0.741759 0.125660 0.479593 F F F O
0.605720 0.209316 0.521538 F F F O
0.394280 0.790684 0.465373 F F F O
0.848591 0.018024 0.537429 F F F O
0.743350 0.623545 0.505668 F F F O
0.256650 0.376455 0.481244 F F F O
0.732189 0.473810 0.529015 F F F O
0.267811 0.526190 0.457896 F F F O
0.702403 0.763496 0.459608 F F F O
0.297597 0.236504 0.527303 F F F O
0.962384 0.316106 0.497585 F F F O
0.037616 0.683894 0.489327 F F F O
0.151409 0.981976 0.540392 F F F O
0.258241 0.874340 0.507319 F F F O
0.741759 0.125660 0.570502 F F F O
0.605720 0.209316 0.612447 F F F O
0.394280 0.790684 0.556282 F F F O
0.848591 0.018024 0.628338 F F F O
0.743350 0.623545 0.596577 T T T O
0.256650 0.376455 0.572153 F F F O
0.732189 0.473810 0.619924 T T T O
0.267811 0.526190 0.548805 F F F O
0.702403 0.763496 0.550517 F F F O
0.297597 0.236504 0.618212 T T T O
0.962384 0.316106 0.588494 T T T O
0.037616 0.683894 0.580236 F F F O
0.151409 0.981976 0.631301 T T T O
0.258241 0.874340 0.598228 T T T O
