Li61 P7 N32                             
   1.00000000000000     
    -0.0021894794145597    9.4837140949568948   -0.0015179332184869
    -0.0050295405957699   -0.0015794335845107    9.5452413773193587
     9.5355758742985799   -0.0021418387686730   -0.0051154485891126
   Li   P    N 
    61     7    32
Direct
  0.4975171395670907  0.0022673886840757  0.4975588476081239
  0.0087669931172265  0.5029266538199544 -0.0060099376144134
  0.4965617531679724 -0.0057520416232106 -0.0027190038471442
  0.0019318960361897 -0.0003995290264329  0.4987530605025361
  0.4914847911180369  0.4935048973890871 -0.0032350335500715
  0.0078339777564523  0.4999671827727390  0.4970331765042519
  0.7502525052988677 -0.0009213013895301  0.4962260642470425
  0.2481124722335527 -0.0101351897938430  0.5004812558857078
  0.7695547243469871  0.4997640283913322  0.4980583675896323
  0.2370651907431407  0.5037401522913022  0.5087618998468143
  0.2627671140288686  0.0037842810475234 -0.0028427102212312
  0.7355933019661431 -0.0001872525807157 -0.0037067607464061
  0.6765187721720660  0.4248001716293432  0.0900912861460994
  0.5137507897015074  0.2346952241628376 -0.0223479342365506
  0.5012985260081003  0.7524752496021170  0.0107331094365613
 -0.0109246954386191  0.4875963307056181  0.2554983840057375
 -0.0060890823631785  0.5130504963522319  0.7390470451359670
  0.2314136257614046  0.2222203969455067  0.2168930284668642
  0.2363646558282369  0.7889298721317581  0.7763256515054507
  0.2656108774729305  0.2883503605737358  0.7269595387958189
  0.2701762246092038  0.7337023173050427  0.2784251990799979
  0.7668648643087869  0.3031680620656216  0.3038583121386448
  0.7600783619680349  0.7035724968195022  0.6992138900575652
  0.7387667021607346  0.1985054180758669  0.8020065922621685
  0.7415751727009601  0.8042140235494325  0.1966775898755800
  0.9894879485044539  0.2442638728551604  0.2428692480210540
  0.9871637138344805  0.7540511422715169  0.7534634583066888
  0.2610508233308276  0.2265970863442058  0.4909024388799642
  0.2649779705694779  0.7507906966365236  0.5241059209143784
  0.7540412890560970  0.2296594252495138  0.5504613692457053
  0.7470721092188665  0.7640897170578723  0.4541119723818706
  0.7372838402460722  0.5534828366961116  0.2788790558908041
  0.7392219758828001  0.4541421908799830  0.7196457690279111
  0.2188981522516483  0.4895989954231000  0.2532017433733953
  0.2328269963689246  0.5413034846636723  0.7468018766443788
  0.5177310250037264  0.7506874060445465  0.2513441289615121
  0.5147850796495114  0.2556116414009178  0.7403479888177006
  0.2368675046052701  0.9825439906215733  0.2504604287089759
  0.2368242984058346  0.0319434386398159  0.7441851783212846
  0.2660548060559763  0.2444329264666691  0.9727009312329309
  0.2566747762313704  0.7656068611107524  0.0270899118433772
  0.7571919160563141  0.9566687558754443  0.7328039095817931
  0.7593337320380265  0.0442891518273546  0.2606119676264487
  0.7603755566453596  0.7802580272226111  0.9491896405785486
  0.7683669738528470  0.2173264854278376  0.0520055802000330
  0.0120141090657037  0.2529549754032009  0.7635826413501543
  0.0164968061113664  0.7447701017534065  0.2327805938250584
  0.5066358786463397  0.2589414247456172  0.2263673608530464
  0.4868771753437822  0.7364345640115815  0.7532621435212915
  0.0152564803432364  0.2632536317097430  0.0141023098474790
  0.0100625641624267  0.7426351746278466 -0.0180105423304642
  0.5174864084738215  0.2349633529807284  0.4939087640878090
  0.5042546866811775  0.7640247401263203  0.5045526079185944
  0.4907567030708674  0.5269883573668860  0.2316983821602122
  0.4873740301985883  0.4847263789201429  0.7579685438373758
 -0.0015401746191993 -0.0076844979298869  0.2597544770962743
 -0.0025096116221494  0.0058503633779344  0.7378488394585065
  0.3652635053924034  0.3635986257769984  0.3575887834508493
  0.8268588432096552  0.4079273490694656  0.9215807509699599
  0.8304763458350950  0.5936370343334814  0.0765996887471806
  0.6725699655315310  0.5786832564998137  0.9092650095008866
  0.5020961079002496  0.5035070244676561  0.4991785937733430
  0.0032949201637380  0.0021531359256943 -0.0014072506621247
  0.2500096554862155  0.5050105455919147  0.0017709107848002
  0.0043891544306992  0.7493000831879758  0.4956051520778115
  0.0068200215337276  0.2503692732093087  0.5020702106763253
  0.4995640315211595  0.0051381453788942  0.2465072194143628
  0.4988562104848658 -0.0026126246435902  0.7478742340604303
  0.6045183481978260  0.5994269672893744  0.6029919310192665
  0.5992467933794661  0.4048785217754026  0.3873966589380804
  0.8987973365332752  0.8972592443336080  0.0961576291196689
  0.8991129760875353  0.1076184980101129  0.9008047587846918
  0.1073367926078120  0.9057253833799951  0.8918717936377316
  0.1071817822966824  0.0984262786074440  0.1060955071792940
  0.3923802937064635  0.6049861444835910  0.4023631273266143
  0.3980511409944543  0.3898182101952252  0.5889961363420259
  0.1141942884272559  0.3459944246809654  0.3929248867371125
  0.1044421735162754  0.6519891536018434  0.6065535230025155
  0.1110767092741076  0.1480036686377700  0.6046854831568679
  0.1142712724200614  0.8496380980318641  0.3962825268534553
  0.8934371515981953  0.1505055062103740  0.4060782278559354
  0.8905365358479446  0.8505019282265487  0.5897328341833620
  0.8696587963515385  0.3820705432518305  0.1304674425472227
  0.8677811440520442  0.6169246482488763  0.8664933701339903
  0.1469953145642504  0.6071521103736855  0.1064786512897364
  0.1563014188810971  0.4018314500327321  0.8893542099622868
  0.3960400587798161  0.8949533231754275  0.1532228436540101
  0.3998435381583146  0.1077031537549317  0.8463714157019752
  0.3932380956744715  0.1139066988684132  0.3450806668671791
  0.3885571213846292  0.8987315120423326  0.6467471887943507
  0.3454661991649561  0.3952654292462509  0.1110973240395357
  0.3510314860489159  0.6139176951502709  0.9022337317035344
  0.6126549629328479  0.0926701048101791  0.6463642825661292
  0.6108424959238019  0.9107748556264954  0.3498688782671173
  0.6344347444214140  0.6340404849581823  0.1157484878601083
  0.6307831320469249  0.3706187075561557  0.8798753937645576
  0.9079167366765449  0.3554941189826282  0.6055668663610504
  0.9063125935429737  0.6453111582744535  0.3892193031246122
  0.6008053141122965  0.1043093953901379  0.1394165657874141
  0.5974872929719240  0.8901753442856868  0.8493644915859027
 
  0.00000000E+00  0.00000000E+00  0.00000000E+00
  0.00000000E+00  0.00000000E+00  0.00000000E+00
  0.00000000E+00  0.00000000E+00  0.00000000E+00
  0.00000000E+00  0.00000000E+00  0.00000000E+00
  0.00000000E+00  0.00000000E+00  0.00000000E+00
  0.00000000E+00  0.00000000E+00  0.00000000E+00
  0.00000000E+00  0.00000000E+00  0.00000000E+00
  0.00000000E+00  0.00000000E+00  0.00000000E+00
  0.00000000E+00  0.00000000E+00  0.00000000E+00
  0.00000000E+00  0.00000000E+00  0.00000000E+00
  0.00000000E+00  0.00000000E+00  0.00000000E+00
  0.00000000E+00  0.00000000E+00  0.00000000E+00
  0.00000000E+00  0.00000000E+00  0.00000000E+00
  0.00000000E+00  0.00000000E+00  0.00000000E+00
  0.00000000E+00  0.00000000E+00  0.00000000E+00
  0.00000000E+00  0.00000000E+00  0.00000000E+00
  0.00000000E+00  0.00000000E+00  0.00000000E+00
  0.00000000E+00  0.00000000E+00  0.00000000E+00
  0.00000000E+00  0.00000000E+00  0.00000000E+00
  0.00000000E+00  0.00000000E+00  0.00000000E+00
  0.00000000E+00  0.00000000E+00  0.00000000E+00
  0.00000000E+00  0.00000000E+00  0.00000000E+00
  0.00000000E+00  0.00000000E+00  0.00000000E+00
  0.00000000E+00  0.00000000E+00  0.00000000E+00
  0.00000000E+00  0.00000000E+00  0.00000000E+00
  0.00000000E+00  0.00000000E+00  0.00000000E+00
  0.00000000E+00  0.00000000E+00  0.00000000E+00
  0.00000000E+00  0.00000000E+00  0.00000000E+00
  0.00000000E+00  0.00000000E+00  0.00000000E+00
  0.00000000E+00  0.00000000E+00  0.00000000E+00
  0.00000000E+00  0.00000000E+00  0.00000000E+00
  0.00000000E+00  0.00000000E+00  0.00000000E+00
  0.00000000E+00  0.00000000E+00  0.00000000E+00
  0.00000000E+00  0.00000000E+00  0.00000000E+00
  0.00000000E+00  0.00000000E+00  0.00000000E+00
  0.00000000E+00  0.00000000E+00  0.00000000E+00
  0.00000000E+00  0.00000000E+00  0.00000000E+00
  0.00000000E+00  0.00000000E+00  0.00000000E+00
  0.00000000E+00  0.00000000E+00  0.00000000E+00
  0.00000000E+00  0.00000000E+00  0.00000000E+00
  0.00000000E+00  0.00000000E+00  0.00000000E+00
  0.00000000E+00  0.00000000E+00  0.00000000E+00
  0.00000000E+00  0.00000000E+00  0.00000000E+00
  0.00000000E+00  0.00000000E+00  0.00000000E+00
  0.00000000E+00  0.00000000E+00  0.00000000E+00
  0.00000000E+00  0.00000000E+00  0.00000000E+00
  0.00000000E+00  0.00000000E+00  0.00000000E+00
  0.00000000E+00  0.00000000E+00  0.00000000E+00
  0.00000000E+00  0.00000000E+00  0.00000000E+00
  0.00000000E+00  0.00000000E+00  0.00000000E+00
  0.00000000E+00  0.00000000E+00  0.00000000E+00
  0.00000000E+00  0.00000000E+00  0.00000000E+00
  0.00000000E+00  0.00000000E+00  0.00000000E+00
  0.00000000E+00  0.00000000E+00  0.00000000E+00
  0.00000000E+00  0.00000000E+00  0.00000000E+00
  0.00000000E+00  0.00000000E+00  0.00000000E+00
  0.00000000E+00  0.00000000E+00  0.00000000E+00
  0.00000000E+00  0.00000000E+00  0.00000000E+00
  0.00000000E+00  0.00000000E+00  0.00000000E+00
  0.00000000E+00  0.00000000E+00  0.00000000E+00
  0.00000000E+00  0.00000000E+00  0.00000000E+00
  0.00000000E+00  0.00000000E+00  0.00000000E+00
  0.00000000E+00  0.00000000E+00  0.00000000E+00
  0.00000000E+00  0.00000000E+00  0.00000000E+00
  0.00000000E+00  0.00000000E+00  0.00000000E+00
  0.00000000E+00  0.00000000E+00  0.00000000E+00
  0.00000000E+00  0.00000000E+00  0.00000000E+00
  0.00000000E+00  0.00000000E+00  0.00000000E+00
  0.00000000E+00  0.00000000E+00  0.00000000E+00
  0.00000000E+00  0.00000000E+00  0.00000000E+00
  0.00000000E+00  0.00000000E+00  0.00000000E+00
  0.00000000E+00  0.00000000E+00  0.00000000E+00
  0.00000000E+00  0.00000000E+00  0.00000000E+00
  0.00000000E+00  0.00000000E+00  0.00000000E+00
  0.00000000E+00  0.00000000E+00  0.00000000E+00
  0.00000000E+00  0.00000000E+00  0.00000000E+00
  0.00000000E+00  0.00000000E+00  0.00000000E+00
  0.00000000E+00  0.00000000E+00  0.00000000E+00
  0.00000000E+00  0.00000000E+00  0.00000000E+00
  0.00000000E+00  0.00000000E+00  0.00000000E+00
  0.00000000E+00  0.00000000E+00  0.00000000E+00
  0.00000000E+00  0.00000000E+00  0.00000000E+00
  0.00000000E+00  0.00000000E+00  0.00000000E+00
  0.00000000E+00  0.00000000E+00  0.00000000E+00
  0.00000000E+00  0.00000000E+00  0.00000000E+00
  0.00000000E+00  0.00000000E+00  0.00000000E+00
  0.00000000E+00  0.00000000E+00  0.00000000E+00
  0.00000000E+00  0.00000000E+00  0.00000000E+00
  0.00000000E+00  0.00000000E+00  0.00000000E+00
  0.00000000E+00  0.00000000E+00  0.00000000E+00
  0.00000000E+00  0.00000000E+00  0.00000000E+00
  0.00000000E+00  0.00000000E+00  0.00000000E+00
  0.00000000E+00  0.00000000E+00  0.00000000E+00
  0.00000000E+00  0.00000000E+00  0.00000000E+00
  0.00000000E+00  0.00000000E+00  0.00000000E+00
  0.00000000E+00  0.00000000E+00  0.00000000E+00
  0.00000000E+00  0.00000000E+00  0.00000000E+00
  0.00000000E+00  0.00000000E+00  0.00000000E+00
  0.00000000E+00  0.00000000E+00  0.00000000E+00
  0.00000000E+00  0.00000000E+00  0.00000000E+00
