(2, 1, 1)                               
   1.00000000000000     
     2.9911814987996719    0.0000381906650539    0.1463493273149507
     0.0000552532598873    4.5005004927601115   -0.0000139117591437
     1.5853143406500849   -0.0000748061345735   34.6036142258748569
   Li
     8
Selective dynamics
Direct
  0.5323956662870639 -0.0000232472483822  0.0625506411058192   T   T   T
  0.1257806860583906  0.5000064774459910  0.0210959633887965   T   T   T
  0.1666669999999968  0.0000000000000000  0.1458330000000032   F   F   F
  0.8333330000000032  0.5000000000000000  0.1041669999999968   F   F   F
  0.8333330000000032  0.0000000000000000  0.2291669999999968   F   F   F
  0.5000000000000000  0.5000000000000000  0.1875000000000000   F   F   F
  0.5416567047868868  0.0000035241727630  0.3122871465430410   T   T   T
  0.1344873044236412  0.5000032638033013  0.2707495744341264   T   T   T
 
  0.00000000E+00  0.00000000E+00  0.00000000E+00
  0.00000000E+00  0.00000000E+00  0.00000000E+00
  0.00000000E+00  0.00000000E+00  0.00000000E+00
  0.00000000E+00  0.00000000E+00  0.00000000E+00
  0.00000000E+00  0.00000000E+00  0.00000000E+00
  0.00000000E+00  0.00000000E+00  0.00000000E+00
  0.00000000E+00  0.00000000E+00  0.00000000E+00
  0.00000000E+00  0.00000000E+00  0.00000000E+00
