(2, 1, 1)
1.0
2.967711 0.000000 0.000000
0.000000 4.846252 0.000000
0.000000 0.000000 33.575822
Li
8
Selective dynamics
direct
0.500000 1.000000 0.062500 T T T Li+
0.166667 0.500000 0.020833 T T T Li+
0.166667 1.000000 0.145833 F F F Li+
0.833333 0.500000 0.104167 F F F Li+
0.833333 1.000000 0.229167 F F F Li+
0.500000 0.500000 0.187500 F F F Li+
0.500000 1.000000 0.312500 T T T Li+
0.166667 0.500000 0.270833 T T T Li+
