Li61 P7 N32                             
   1.00000000000000     
    -0.0081583576819699    9.4746347938420854   -0.0045580291107222
     0.0155400046123975   -0.0049790603663814    9.5609823381939805
     9.5519357852850284   -0.0087410215058749    0.0150766292305327
   Li   P    N 
    61     7    32
Direct
  0.4974707072172294  0.9978545847127570  0.5047990315169133
  0.0059295839276952  0.5101976624643718  0.9807969987118565
  0.4941275654047261  0.9941542212804135  0.0044609850891177
  0.0018695573896269  0.9999365769891183  0.5012168602231766
  0.4918753930638433  0.4898183827942003  0.0050738774087422
  0.0049737986125463  0.5000402425633171  0.5049532961040388
  0.7492423811450729  0.0004611742469423  0.5083046638213709
  0.2501009376520490  0.0008038332885703  0.5032100875137653
  0.7655291654771488  0.4995668873999594  0.5080722073003734
  0.2373294000732024  0.5019710474141715  0.5056780472287240
  0.2607800169276742  0.9980424914728602  0.0030802603215349
  0.7324613733147001  0.9961188624417480  0.0050515214557584
  0.6706676760058881  0.5763461858253615  0.9168272486051080
  0.5012997720118005  0.2377333277256939  0.9940920645888851
  0.5030636596249646  0.7507366636144148  0.0169827497634441
  0.9733643868526509  0.4914799202275952  0.2780761175431637
  0.9912851235241514  0.5113157297338957  0.7400040791137193
  0.2510352611250817  0.2074211844875491  0.2201953486163223
  0.2375223070381851  0.7810908990021961  0.7853064664842933
  0.2616384222094293  0.2796837538124483  0.7168536752856191
  0.2699342632945950  0.7305890872322779  0.2888486695737238
  0.7664326538919698  0.3050875961344073  0.3089599029363825
  0.7565030646062820  0.7021570196939665  0.7028363499139570
  0.7370820869466209  0.1970217575449134  0.8037346355056899
  0.7393482557802783  0.8026032594437822  0.2023687477351844
  0.9799337422467305  0.2241964007819038  0.2467411652336852
  0.9862947044372057  0.7515885578784884  0.7581316769888783
  0.2613471683940964  0.2474338011456993  0.4720090938280973
  0.2638775907644391  0.7553739541495277  0.5328890105394287
  0.7416095655751009  0.2354786381764624  0.5483562448717336
  0.7459440132979857  0.7701698133189383  0.4598939713467283
  0.8317372920772389  0.5903243562651939  0.0856638309971059
  0.8247432414223489  0.4077687351408106  0.9267835554368319
  0.0982822832672816  0.3808363949752658  0.1484214232448268
  0.2366402439322622  0.5327705834571111  0.7427346324161984
  0.5139473587353320  0.7425403639336517  0.2581739533586028
  0.5110727011737157  0.2518399018633824  0.7532703648725978
  0.2325080783293224  0.9721948210006932  0.2586605241136840
  0.2360580941009608  0.0241671328984982  0.7489106732122167
  0.2585987727290915  0.2368517000743232  0.9650197032965433
  0.2593028626388547  0.7574222663236275  0.0371902830553360
  0.7570667023370901  0.9578932628751221  0.7450853792655093
  0.7505287245187099  0.0469635899965476  0.2735279981184578
  0.7616344189541732  0.7779022384570482  0.9523326941917448
  0.7530007510366689  0.2176258424342268  0.0521763081438033
  0.0106766636796593  0.2523055444238716  0.7594955665494924
  0.0162172889606052  0.7400302920888036  0.2391314179556517
  0.4955515668072121  0.2597563154777012  0.2556411751310806
  0.4871553565413858  0.7331845530437151  0.7573824641232328
  0.9965036009575072  0.2452422731819845  0.0025362093300354
  0.0097668740411117  0.7410204687614722  0.9877810773108483
  0.5011820782239796  0.2361495076105337  0.5020252210565190
  0.5036554232250868  0.7592787055312579  0.5093759939784065
  0.4918228003957576  0.5123358487870698  0.2430253068819719
  0.4864454806021671  0.4821130396489480  0.7642581544773880
  0.9933589792336719  0.9830335635458961  0.2627280138742443
  0.9970531615060402  0.0020872564247750  0.7388762141746592
  0.2561257685877260  0.4849081785575822  0.2725979869771196
  0.7343691094507442  0.4518778179350123  0.7265046156353596
  0.7246655243573504  0.5639775998223823  0.2960515409224334
  0.6810436439297036  0.4232582723283658  0.1014885301446507
  0.4969697750912564  0.4981712007911510  0.5037366947136426
  0.0008449232078001  0.9953942339667535  0.0008965963543920
  0.2505674737219971  0.4998400791810785  0.9993262882556810
  0.0024835906851448  0.7492703696877927  0.5012493335668339
  0.0004758644898301  0.2502208055638046  0.5020988994659595
  0.4954790395775135  0.9992057414964053  0.2540606333685625
  0.4963452554626057  0.9941675622576353  0.7552133626435301
  0.6002135417131576  0.5953406436391074  0.6094870476059410
  0.6025577762793702  0.4006197637791487  0.3991769473729790
  0.8984950657295425  0.8895155538090147  0.0991730755614882
  0.8941630448035310  0.0969726429355018  0.9007523319211992
  0.1065435947959283  0.9008216210459430  0.8961164387187346
  0.1026359863235745  0.0963825012328554  0.1080935653128102
  0.3938941419441995  0.6047976026775662  0.4049115480527804
  0.3918771524943774  0.3918943305251013  0.5989440237569916
  0.0983744915670583  0.3483048747630486  0.3873160287810947
  0.1028685941990472  0.6502850294589649  0.6099586409281030
  0.1117248394092414  0.1515754430124591  0.6012776404908866
  0.1116679559883538  0.8483016219617969  0.3999575544651812
  0.8856220330101970  0.1472752917176727  0.4115465612476131
  0.8910984123455400  0.8511435381412649  0.5961005280852061
  0.8795102659197850  0.3753810336115857  0.1298475979863291
  0.8652286883255640  0.6154118587009944  0.8697150651810059
  0.1474676527332746  0.5937339441000447  0.1125912567815784
  0.1501535919245317  0.3995376858858959  0.8894968660354248
  0.3939033518367897  0.8886880687268520  0.1582563953349891
  0.3956256085274706  0.1030827086552363  0.8531689899304716
  0.3875271089609204  0.1002076316336079  0.3535602282673189
  0.3869746770106410  0.8951399542569365  0.6542253733573380
  0.3395797033126981  0.3844468003055091  0.1045380226560183
  0.3502421986204827  0.6100134860049211  0.9040647056106819
  0.6090056264324577  0.0909059025292028  0.6544440014457660
  0.6093407874554344  0.9053580473309555  0.3559172875950806
  0.6331521624177018  0.6275009632536019  0.1236860077187981
  0.6303410444728675  0.3658487379514816  0.8908768470371279
  0.9030913293016557  0.3537257155150001  0.6083238817684061
  0.9008631664316724  0.6469721601936780  0.3962468169563447
  0.5939035598296142  0.1044390084553837  0.1498304719944513
  0.5954234800614502  0.8874368973822159  0.8577275762572868
 
  0.00000000E+00  0.00000000E+00  0.00000000E+00
  0.00000000E+00  0.00000000E+00  0.00000000E+00
  0.00000000E+00  0.00000000E+00  0.00000000E+00
  0.00000000E+00  0.00000000E+00  0.00000000E+00
  0.00000000E+00  0.00000000E+00  0.00000000E+00
  0.00000000E+00  0.00000000E+00  0.00000000E+00
  0.00000000E+00  0.00000000E+00  0.00000000E+00
  0.00000000E+00  0.00000000E+00  0.00000000E+00
  0.00000000E+00  0.00000000E+00  0.00000000E+00
  0.00000000E+00  0.00000000E+00  0.00000000E+00
  0.00000000E+00  0.00000000E+00  0.00000000E+00
  0.00000000E+00  0.00000000E+00  0.00000000E+00
  0.00000000E+00  0.00000000E+00  0.00000000E+00
  0.00000000E+00  0.00000000E+00  0.00000000E+00
  0.00000000E+00  0.00000000E+00  0.00000000E+00
  0.00000000E+00  0.00000000E+00  0.00000000E+00
  0.00000000E+00  0.00000000E+00  0.00000000E+00
  0.00000000E+00  0.00000000E+00  0.00000000E+00
  0.00000000E+00  0.00000000E+00  0.00000000E+00
  0.00000000E+00  0.00000000E+00  0.00000000E+00
  0.00000000E+00  0.00000000E+00  0.00000000E+00
  0.00000000E+00  0.00000000E+00  0.00000000E+00
  0.00000000E+00  0.00000000E+00  0.00000000E+00
  0.00000000E+00  0.00000000E+00  0.00000000E+00
  0.00000000E+00  0.00000000E+00  0.00000000E+00
  0.00000000E+00  0.00000000E+00  0.00000000E+00
  0.00000000E+00  0.00000000E+00  0.00000000E+00
  0.00000000E+00  0.00000000E+00  0.00000000E+00
  0.00000000E+00  0.00000000E+00  0.00000000E+00
  0.00000000E+00  0.00000000E+00  0.00000000E+00
  0.00000000E+00  0.00000000E+00  0.00000000E+00
  0.00000000E+00  0.00000000E+00  0.00000000E+00
  0.00000000E+00  0.00000000E+00  0.00000000E+00
  0.00000000E+00  0.00000000E+00  0.00000000E+00
  0.00000000E+00  0.00000000E+00  0.00000000E+00
  0.00000000E+00  0.00000000E+00  0.00000000E+00
  0.00000000E+00  0.00000000E+00  0.00000000E+00
  0.00000000E+00  0.00000000E+00  0.00000000E+00
  0.00000000E+00  0.00000000E+00  0.00000000E+00
  0.00000000E+00  0.00000000E+00  0.00000000E+00
  0.00000000E+00  0.00000000E+00  0.00000000E+00
  0.00000000E+00  0.00000000E+00  0.00000000E+00
  0.00000000E+00  0.00000000E+00  0.00000000E+00
  0.00000000E+00  0.00000000E+00  0.00000000E+00
  0.00000000E+00  0.00000000E+00  0.00000000E+00
  0.00000000E+00  0.00000000E+00  0.00000000E+00
  0.00000000E+00  0.00000000E+00  0.00000000E+00
  0.00000000E+00  0.00000000E+00  0.00000000E+00
  0.00000000E+00  0.00000000E+00  0.00000000E+00
  0.00000000E+00  0.00000000E+00  0.00000000E+00
  0.00000000E+00  0.00000000E+00  0.00000000E+00
  0.00000000E+00  0.00000000E+00  0.00000000E+00
  0.00000000E+00  0.00000000E+00  0.00000000E+00
  0.00000000E+00  0.00000000E+00  0.00000000E+00
  0.00000000E+00  0.00000000E+00  0.00000000E+00
  0.00000000E+00  0.00000000E+00  0.00000000E+00
  0.00000000E+00  0.00000000E+00  0.00000000E+00
  0.00000000E+00  0.00000000E+00  0.00000000E+00
  0.00000000E+00  0.00000000E+00  0.00000000E+00
  0.00000000E+00  0.00000000E+00  0.00000000E+00
  0.00000000E+00  0.00000000E+00  0.00000000E+00
  0.00000000E+00  0.00000000E+00  0.00000000E+00
  0.00000000E+00  0.00000000E+00  0.00000000E+00
  0.00000000E+00  0.00000000E+00  0.00000000E+00
  0.00000000E+00  0.00000000E+00  0.00000000E+00
  0.00000000E+00  0.00000000E+00  0.00000000E+00
  0.00000000E+00  0.00000000E+00  0.00000000E+00
  0.00000000E+00  0.00000000E+00  0.00000000E+00
  0.00000000E+00  0.00000000E+00  0.00000000E+00
  0.00000000E+00  0.00000000E+00  0.00000000E+00
  0.00000000E+00  0.00000000E+00  0.00000000E+00
  0.00000000E+00  0.00000000E+00  0.00000000E+00
  0.00000000E+00  0.00000000E+00  0.00000000E+00
  0.00000000E+00  0.00000000E+00  0.00000000E+00
  0.00000000E+00  0.00000000E+00  0.00000000E+00
  0.00000000E+00  0.00000000E+00  0.00000000E+00
  0.00000000E+00  0.00000000E+00  0.00000000E+00
  0.00000000E+00  0.00000000E+00  0.00000000E+00
  0.00000000E+00  0.00000000E+00  0.00000000E+00
  0.00000000E+00  0.00000000E+00  0.00000000E+00
  0.00000000E+00  0.00000000E+00  0.00000000E+00
  0.00000000E+00  0.00000000E+00  0.00000000E+00
  0.00000000E+00  0.00000000E+00  0.00000000E+00
  0.00000000E+00  0.00000000E+00  0.00000000E+00
  0.00000000E+00  0.00000000E+00  0.00000000E+00
  0.00000000E+00  0.00000000E+00  0.00000000E+00
  0.00000000E+00  0.00000000E+00  0.00000000E+00
  0.00000000E+00  0.00000000E+00  0.00000000E+00
  0.00000000E+00  0.00000000E+00  0.00000000E+00
  0.00000000E+00  0.00000000E+00  0.00000000E+00
  0.00000000E+00  0.00000000E+00  0.00000000E+00
  0.00000000E+00  0.00000000E+00  0.00000000E+00
  0.00000000E+00  0.00000000E+00  0.00000000E+00
  0.00000000E+00  0.00000000E+00  0.00000000E+00
  0.00000000E+00  0.00000000E+00  0.00000000E+00
  0.00000000E+00  0.00000000E+00  0.00000000E+00
  0.00000000E+00  0.00000000E+00  0.00000000E+00
  0.00000000E+00  0.00000000E+00  0.00000000E+00
  0.00000000E+00  0.00000000E+00  0.00000000E+00
  0.00000000E+00  0.00000000E+00  0.00000000E+00
