Li61 P7 N32                             
   1.00000000000000     
    -0.0075714747198919    9.4719080663039854   -0.0042035184924847
     0.0157298216988869   -0.0046211523134058    9.5559843379959233
     9.5470400556118484   -0.0081504162387709    0.0152663198190348
   Li   P    N 
    61     7    32
Direct
  0.4973798712128311 -0.0021544892797028  0.5049086296170475
  0.0057576246134517  0.5101645349930944 -0.0192174560766579
  0.4940452190547323 -0.0058415104932107  0.0044505147093156
  0.0017712616745948 -0.0001113752523524  0.5012639179955691
  0.4917061677943146  0.4896540725777802  0.0048880011534281
  0.0050223365939440  0.4999652991249062  0.5050294181212783
  0.7492221362719305  0.0005197856244948  0.5083427656707470
  0.2500543668426278  0.0007310608272146  0.5031814762585295
  0.7654380408387924  0.4996129407354231  0.5080319701367584
  0.2374093584771317  0.5020429923492045  0.5056564831303111
  0.2607858106994118 -0.0018621215252674  0.0030650861967267
  0.7324009458560181 -0.0039432093395581  0.0048942710621045
  0.6706949194758842  0.5764411928927684 -0.0832628889606062
  0.5010251024429065  0.2377075898197615 -0.0059032828906259
  0.5031317809179185  0.7508178428038899  0.0170682471902941
 -0.0265102664026518  0.4916244043768001  0.2780080983784622
 -0.0085883909888077  0.5112303823219192  0.7399329619038336
  0.2510588241074102  0.2075556217095201  0.2202851133841615
  0.2375514225143824  0.7809486589510718  0.7852570115733445
  0.2617085606547125  0.2796674289336204  0.7168660278503451
  0.2700022556200444  0.7305939346836762  0.2887717131658988
  0.7665862174583207  0.3051705058069904  0.3089898644930956
  0.7564134701630864  0.7022387417989194  0.7028243526229919
  0.7372157597395989  0.1971327898119655  0.8036292586264959
  0.7393287498055228  0.8026055166324387  0.2023609275662419
  0.9800216761564652  0.2242178741700250  0.2468038393631074
  0.9863503646651145  0.7515259112768323  0.7581769177097231
  0.2613982543611496  0.2474610213481396  0.4721460106048391
  0.2639115592436959  0.7552721314328413  0.5328245646048166
  0.7416575170614901  0.2354178590076545  0.5483137256143903
  0.7460418299656275  0.7703773545171740  0.4598456602576869
  0.8319433015603285  0.5902792179563808  0.0855891310520525
  0.8247783454244566  0.4077806864772960  0.9267305497043937
  0.0982284980359366  0.3808913799202582  0.1484191149693858
  0.2365764859412980  0.5327712142390199  0.7427185943256061
  0.5140062034201216  0.7425431315083884  0.2582587573813410
  0.5109480052193871  0.2517269258143890  0.7532498763981135
  0.2325189399914244  0.9722679507862482  0.2585898398320135
  0.2360563596786767  0.0239121946354754  0.7488879101021496
  0.2584089419866202  0.2368214512213070  0.9649751071154657
  0.2592891600709113  0.7575264756372347  0.0371968134177558
  0.7571362385681215  0.9579031157817447  0.7451151224489586
  0.7505909670035331  0.0469467323602740  0.2734272110026133
  0.7618349444429521  0.7779239401825884  0.9521870789550563
  0.7530648940694267  0.2176771411829713  0.0521962529342217
  0.0106133111337811  0.2522524546718370  0.7594354902594456
  0.0163606507469365  0.7401387280180094  0.2391859951493854
  0.4956466437231757  0.2596891928822741  0.2556417254554953
  0.4872205307848544  0.7331135212570669  0.7573612792191647
 -0.0034550516264425  0.2453191404983075  0.0023686956752264
  0.0097542036006055  0.7409426404644225 -0.0121310066880797
  0.5011847503528479  0.2361022175746688  0.5020772527110826
  0.5037295293519186  0.7593569178594355  0.5092677824375728
  0.4917740892520568  0.5123729015548809  0.2430546645277654
  0.4865083672583722  0.4819921703589442  0.7643418726266934
 -0.0067480422915908 -0.0168246995320958  0.2628525737462179
 -0.0029320603241704  0.0021614459883454  0.7389463344551281
  0.2561605922467479  0.4850554897941855  0.2724616629268323
  0.7342728330499158  0.4520117073727987  0.7264339155382232
  0.7248044325827883  0.5639002560236845  0.2960670953509451
  0.6811136076363479  0.4232551110379535  0.1015871647436404
  0.4968199877422438  0.4980897721579665  0.5037769003000411
  0.0008934226031927 -0.0045440044305119  0.0010425830601260
  0.2504763585225731  0.4999772907859427 -0.0006825092358304
  0.0026255730900230  0.7493571736553549  0.5013472220898009
  0.0005063690264805  0.2502074511072200  0.5020672771929662
  0.4952959940031145 -0.0007984378656437  0.2541129357602088
  0.4962315902343869 -0.0058890521091853  0.7552431012072840
  0.6002573682269574  0.5953695480727628  0.6096094604440612
  0.6025224760241550  0.4006728916406441  0.3992149090909608
  0.8983627663712487  0.8894520831873812  0.0993028446670923
  0.8942350549929355  0.0970049146199026  0.9008326301003475
  0.1066114261801984  0.9008640652815406  0.8961518503283273
  0.1025794718275292  0.0964241069490169  0.1079668408851784
  0.3939700065374289  0.6047308096764712  0.4049163802786760
  0.3919012381357016  0.3919057520793162  0.5988881454155853
  0.0983842088172312  0.3483226565195830  0.3873758726630388
  0.1029666090760301  0.6501990796340074  0.6100443758912578
  0.1117557808106051  0.1514460460392769  0.6011885987976681
  0.1117819903943544  0.8483295412270282  0.3999574004932287
  0.8856061913767065  0.1472422089944638  0.4113520612625832
  0.8910618205453646  0.8511883470981032  0.5961787374971343
  0.8795629596855712  0.3754796179794277  0.1297675285991977
  0.8650616115080120  0.6154030483362930  0.8696350979747013
  0.1473549213766538  0.5938529307810908  0.1126538619706951
  0.1499940839182647  0.3994425359341852  0.8893314854363107
  0.3939000478342113  0.8885202447634867  0.1582634316106649
  0.3955018456810589  0.1031637272119927  0.8531124474450241
  0.3873462635046422  0.1002956116084234  0.3537250124362452
  0.3869612864804240  0.8950230990319599  0.6542233783428878
  0.3395491772413403  0.3842564784638675  0.1046134249764284
  0.3502856897500989  0.6099908498803657  0.9040239385122161
  0.6090528142878616  0.0909709899190677  0.6544522824571885
  0.6094324232510481  0.9053001659253842  0.3559882540282190
  0.6330914926234024  0.6274787471625237  0.1237549929720509
  0.6302586322384250  0.3658295986909365  0.8909394504404752
  0.9029566933728340  0.3537574062515927  0.6084328796229046
  0.9008006637108052  0.6469166102989620  0.3962409302561830
  0.5939481183702048  0.1043693129038415  0.1497267780547001
  0.5955381508436906  0.8872662843696330  0.8578671478666549
 
  0.00000000E+00  0.00000000E+00  0.00000000E+00
  0.00000000E+00  0.00000000E+00  0.00000000E+00
  0.00000000E+00  0.00000000E+00  0.00000000E+00
  0.00000000E+00  0.00000000E+00  0.00000000E+00
  0.00000000E+00  0.00000000E+00  0.00000000E+00
  0.00000000E+00  0.00000000E+00  0.00000000E+00
  0.00000000E+00  0.00000000E+00  0.00000000E+00
  0.00000000E+00  0.00000000E+00  0.00000000E+00
  0.00000000E+00  0.00000000E+00  0.00000000E+00
  0.00000000E+00  0.00000000E+00  0.00000000E+00
  0.00000000E+00  0.00000000E+00  0.00000000E+00
  0.00000000E+00  0.00000000E+00  0.00000000E+00
  0.00000000E+00  0.00000000E+00  0.00000000E+00
  0.00000000E+00  0.00000000E+00  0.00000000E+00
  0.00000000E+00  0.00000000E+00  0.00000000E+00
  0.00000000E+00  0.00000000E+00  0.00000000E+00
  0.00000000E+00  0.00000000E+00  0.00000000E+00
  0.00000000E+00  0.00000000E+00  0.00000000E+00
  0.00000000E+00  0.00000000E+00  0.00000000E+00
  0.00000000E+00  0.00000000E+00  0.00000000E+00
  0.00000000E+00  0.00000000E+00  0.00000000E+00
  0.00000000E+00  0.00000000E+00  0.00000000E+00
  0.00000000E+00  0.00000000E+00  0.00000000E+00
  0.00000000E+00  0.00000000E+00  0.00000000E+00
  0.00000000E+00  0.00000000E+00  0.00000000E+00
  0.00000000E+00  0.00000000E+00  0.00000000E+00
  0.00000000E+00  0.00000000E+00  0.00000000E+00
  0.00000000E+00  0.00000000E+00  0.00000000E+00
  0.00000000E+00  0.00000000E+00  0.00000000E+00
  0.00000000E+00  0.00000000E+00  0.00000000E+00
  0.00000000E+00  0.00000000E+00  0.00000000E+00
  0.00000000E+00  0.00000000E+00  0.00000000E+00
  0.00000000E+00  0.00000000E+00  0.00000000E+00
  0.00000000E+00  0.00000000E+00  0.00000000E+00
  0.00000000E+00  0.00000000E+00  0.00000000E+00
  0.00000000E+00  0.00000000E+00  0.00000000E+00
  0.00000000E+00  0.00000000E+00  0.00000000E+00
  0.00000000E+00  0.00000000E+00  0.00000000E+00
  0.00000000E+00  0.00000000E+00  0.00000000E+00
  0.00000000E+00  0.00000000E+00  0.00000000E+00
  0.00000000E+00  0.00000000E+00  0.00000000E+00
  0.00000000E+00  0.00000000E+00  0.00000000E+00
  0.00000000E+00  0.00000000E+00  0.00000000E+00
  0.00000000E+00  0.00000000E+00  0.00000000E+00
  0.00000000E+00  0.00000000E+00  0.00000000E+00
  0.00000000E+00  0.00000000E+00  0.00000000E+00
  0.00000000E+00  0.00000000E+00  0.00000000E+00
  0.00000000E+00  0.00000000E+00  0.00000000E+00
  0.00000000E+00  0.00000000E+00  0.00000000E+00
  0.00000000E+00  0.00000000E+00  0.00000000E+00
  0.00000000E+00  0.00000000E+00  0.00000000E+00
  0.00000000E+00  0.00000000E+00  0.00000000E+00
  0.00000000E+00  0.00000000E+00  0.00000000E+00
  0.00000000E+00  0.00000000E+00  0.00000000E+00
  0.00000000E+00  0.00000000E+00  0.00000000E+00
  0.00000000E+00  0.00000000E+00  0.00000000E+00
  0.00000000E+00  0.00000000E+00  0.00000000E+00
  0.00000000E+00  0.00000000E+00  0.00000000E+00
  0.00000000E+00  0.00000000E+00  0.00000000E+00
  0.00000000E+00  0.00000000E+00  0.00000000E+00
  0.00000000E+00  0.00000000E+00  0.00000000E+00
  0.00000000E+00  0.00000000E+00  0.00000000E+00
  0.00000000E+00  0.00000000E+00  0.00000000E+00
  0.00000000E+00  0.00000000E+00  0.00000000E+00
  0.00000000E+00  0.00000000E+00  0.00000000E+00
  0.00000000E+00  0.00000000E+00  0.00000000E+00
  0.00000000E+00  0.00000000E+00  0.00000000E+00
  0.00000000E+00  0.00000000E+00  0.00000000E+00
  0.00000000E+00  0.00000000E+00  0.00000000E+00
  0.00000000E+00  0.00000000E+00  0.00000000E+00
  0.00000000E+00  0.00000000E+00  0.00000000E+00
  0.00000000E+00  0.00000000E+00  0.00000000E+00
  0.00000000E+00  0.00000000E+00  0.00000000E+00
  0.00000000E+00  0.00000000E+00  0.00000000E+00
  0.00000000E+00  0.00000000E+00  0.00000000E+00
  0.00000000E+00  0.00000000E+00  0.00000000E+00
  0.00000000E+00  0.00000000E+00  0.00000000E+00
  0.00000000E+00  0.00000000E+00  0.00000000E+00
  0.00000000E+00  0.00000000E+00  0.00000000E+00
  0.00000000E+00  0.00000000E+00  0.00000000E+00
  0.00000000E+00  0.00000000E+00  0.00000000E+00
  0.00000000E+00  0.00000000E+00  0.00000000E+00
  0.00000000E+00  0.00000000E+00  0.00000000E+00
  0.00000000E+00  0.00000000E+00  0.00000000E+00
  0.00000000E+00  0.00000000E+00  0.00000000E+00
  0.00000000E+00  0.00000000E+00  0.00000000E+00
  0.00000000E+00  0.00000000E+00  0.00000000E+00
  0.00000000E+00  0.00000000E+00  0.00000000E+00
  0.00000000E+00  0.00000000E+00  0.00000000E+00
  0.00000000E+00  0.00000000E+00  0.00000000E+00
  0.00000000E+00  0.00000000E+00  0.00000000E+00
  0.00000000E+00  0.00000000E+00  0.00000000E+00
  0.00000000E+00  0.00000000E+00  0.00000000E+00
  0.00000000E+00  0.00000000E+00  0.00000000E+00
  0.00000000E+00  0.00000000E+00  0.00000000E+00
  0.00000000E+00  0.00000000E+00  0.00000000E+00
  0.00000000E+00  0.00000000E+00  0.00000000E+00
  0.00000000E+00  0.00000000E+00  0.00000000E+00
  0.00000000E+00  0.00000000E+00  0.00000000E+00
  0.00000000E+00  0.00000000E+00  0.00000000E+00
