(0, 0, 1)                               
   1.00000000000000     
     4.2173287663995582   -0.0000161729470016    0.0000000886271432
    -2.1086783889590253    3.6523045219460841   -0.0000000482078724
     0.0000015839739117   -0.0000000820311216   75.2973228668121664
   Li   P 
    42    14
Selective dynamics
Direct
  0.0000000000000000  0.0000000000000000  0.0750000000000028   F   F   F
 -0.0000002559408826 -0.0000003955287098  0.0251984006948408   T   T   T
  0.6666669999999968  0.3333330000000032  0.0084119999999999   F   F   F
  0.3333330000000032  0.6666669999999968  0.0584119999999970   F   F   F
  0.3333330000000032  0.6666669999999968  0.0915880000000016   F   F   F
  0.6666669999999968  0.3333330000000032  0.0415879999999973   F   F   F
  0.0000000000000000  0.0000000000000000  0.1749999999999972   F   F   F
  0.0000000000000000  0.0000000000000000  0.1250000000000000   F   F   F
  0.6666669999999968  0.3333330000000032  0.1084120000000013   F   F   F
  0.3333330000000032  0.6666669999999968  0.1584119999999984   F   F   F
  0.3333330000000032  0.6666669999999968  0.1915880000000030   F   F   F
  0.6666669999999968  0.3333330000000032  0.1415879999999987   F   F   F
  0.0000000000000000  0.0000000000000000  0.2749999999999986   F   F   F
  0.0000000000000000  0.0000000000000000  0.2250000000000014   F   F   F
  0.6666669999999968  0.3333330000000032  0.2084120000000027   F   F   F
  0.3333330000000032  0.6666669999999968  0.2584119999999999   F   F   F
  0.3333330000000032  0.6666669999999968  0.2915879999999973   F   F   F
  0.6666669999999968  0.3333330000000032  0.2415880000000001   F   F   F
  0.0000000000000000  0.0000000000000000  0.3750000000000000   F   F   F
  0.0000000000000000  0.0000000000000000  0.3250000000000028   F   F   F
  0.6666669999999968  0.3333330000000032  0.3084119999999970   F   F   F
  0.3333330000000032  0.6666669999999968  0.3584120000000013   F   F   F
  0.3333330000000032  0.6666669999999968  0.3915879999999987   F   F   F
  0.6666669999999968  0.3333330000000032  0.3415880000000016   F   F   F
  0.0000000000000000  0.0000000000000000  0.4750000000000014   F   F   F
  0.0000000000000000  0.0000000000000000  0.4249999999999972   F   F   F
  0.6666669999999968  0.3333330000000032  0.4084119999999984   F   F   F
  0.3333330000000032  0.6666669999999968  0.4584120000000027   F   F   F
  0.3333330000000032  0.6666669999999968  0.4915880000000001   F   F   F
  0.6666669999999968  0.3333330000000032  0.4415880000000030   F   F   F
  0.0000000000000000  0.0000000000000000  0.5750000000000028   F   F   F
  0.0000000000000000  0.0000000000000000  0.5249999999999986   F   F   F
  0.6666669999999968  0.3333330000000032  0.5084119999999999   F   F   F
  0.3333330000000032  0.6666669999999968  0.5584119999999970   F   F   F
  0.3333330000000032  0.6666669999999968  0.5915880000000016   F   F   F
  0.6666669999999968  0.3333330000000032  0.5415879999999973   F   F   F
 -0.0000004840998445  0.0000003846753856  0.6747991292181921   T   T   T
  0.0000000000000000  0.0000000000000000  0.6250000000000000   F   F   F
  0.6666669999999968  0.3333330000000032  0.6084120000000013   F   F   F
  0.3333330000000032  0.6666669999999968  0.6584119999999984   F   F   F
  0.3333330000000032  0.6666669999999968  0.6915880000000030   F   F   F
  0.6666669999999968  0.3333330000000032  0.6415879999999987   F   F   F
  0.6666669999999968  0.3333330000000032  0.0750000000000028   F   F   F
  0.3333323413372861  0.6666665503556108  0.0238575847272310   T   T   T
  0.6666669999999968  0.3333330000000032  0.1749999999999972   F   F   F
  0.3333330000000032  0.6666669999999968  0.1250000000000000   F   F   F
  0.6666669999999968  0.3333330000000032  0.2749999999999986   F   F   F
  0.3333330000000032  0.6666669999999968  0.2250000000000014   F   F   F
  0.6666669999999968  0.3333330000000032  0.3750000000000000   F   F   F
  0.3333330000000032  0.6666669999999968  0.3250000000000028   F   F   F
  0.6666669999999968  0.3333330000000032  0.4750000000000014   F   F   F
  0.3333330000000032  0.6666669999999968  0.4249999999999972   F   F   F
  0.6666669999999968  0.3333330000000032  0.5750000000000028   F   F   F
  0.3333330000000032  0.6666669999999968  0.5249999999999986   F   F   F
  0.6666671855425629  0.3333332678268277  0.6761432995831101   T   T   T
  0.3333330000000032  0.6666669999999968  0.6250000000000000   F   F   F
 
  0.00000000E+00  0.00000000E+00  0.00000000E+00
  0.00000000E+00  0.00000000E+00  0.00000000E+00
  0.00000000E+00  0.00000000E+00  0.00000000E+00
  0.00000000E+00  0.00000000E+00  0.00000000E+00
  0.00000000E+00  0.00000000E+00  0.00000000E+00
  0.00000000E+00  0.00000000E+00  0.00000000E+00
  0.00000000E+00  0.00000000E+00  0.00000000E+00
  0.00000000E+00  0.00000000E+00  0.00000000E+00
  0.00000000E+00  0.00000000E+00  0.00000000E+00
  0.00000000E+00  0.00000000E+00  0.00000000E+00
  0.00000000E+00  0.00000000E+00  0.00000000E+00
  0.00000000E+00  0.00000000E+00  0.00000000E+00
  0.00000000E+00  0.00000000E+00  0.00000000E+00
  0.00000000E+00  0.00000000E+00  0.00000000E+00
  0.00000000E+00  0.00000000E+00  0.00000000E+00
  0.00000000E+00  0.00000000E+00  0.00000000E+00
  0.00000000E+00  0.00000000E+00  0.00000000E+00
  0.00000000E+00  0.00000000E+00  0.00000000E+00
  0.00000000E+00  0.00000000E+00  0.00000000E+00
  0.00000000E+00  0.00000000E+00  0.00000000E+00
  0.00000000E+00  0.00000000E+00  0.00000000E+00
  0.00000000E+00  0.00000000E+00  0.00000000E+00
  0.00000000E+00  0.00000000E+00  0.00000000E+00
  0.00000000E+00  0.00000000E+00  0.00000000E+00
  0.00000000E+00  0.00000000E+00  0.00000000E+00
  0.00000000E+00  0.00000000E+00  0.00000000E+00
  0.00000000E+00  0.00000000E+00  0.00000000E+00
  0.00000000E+00  0.00000000E+00  0.00000000E+00
  0.00000000E+00  0.00000000E+00  0.00000000E+00
  0.00000000E+00  0.00000000E+00  0.00000000E+00
  0.00000000E+00  0.00000000E+00  0.00000000E+00
  0.00000000E+00  0.00000000E+00  0.00000000E+00
  0.00000000E+00  0.00000000E+00  0.00000000E+00
  0.00000000E+00  0.00000000E+00  0.00000000E+00
  0.00000000E+00  0.00000000E+00  0.00000000E+00
  0.00000000E+00  0.00000000E+00  0.00000000E+00
  0.00000000E+00  0.00000000E+00  0.00000000E+00
  0.00000000E+00  0.00000000E+00  0.00000000E+00
  0.00000000E+00  0.00000000E+00  0.00000000E+00
  0.00000000E+00  0.00000000E+00  0.00000000E+00
  0.00000000E+00  0.00000000E+00  0.00000000E+00
  0.00000000E+00  0.00000000E+00  0.00000000E+00
  0.00000000E+00  0.00000000E+00  0.00000000E+00
  0.00000000E+00  0.00000000E+00  0.00000000E+00
  0.00000000E+00  0.00000000E+00  0.00000000E+00
  0.00000000E+00  0.00000000E+00  0.00000000E+00
  0.00000000E+00  0.00000000E+00  0.00000000E+00
  0.00000000E+00  0.00000000E+00  0.00000000E+00
  0.00000000E+00  0.00000000E+00  0.00000000E+00
  0.00000000E+00  0.00000000E+00  0.00000000E+00
  0.00000000E+00  0.00000000E+00  0.00000000E+00
  0.00000000E+00  0.00000000E+00  0.00000000E+00
  0.00000000E+00  0.00000000E+00  0.00000000E+00
  0.00000000E+00  0.00000000E+00  0.00000000E+00
  0.00000000E+00  0.00000000E+00  0.00000000E+00
  0.00000000E+00  0.00000000E+00  0.00000000E+00
