Li42 P14 O56
1.0
5.296402 0.000000 -4.922448
0.000000 6.176136 -4.922448
0.000000 0.000000 68.914272
Li P O
42 14 56
direct
0.844520 0.000000 0.068541 Li+
0.155480 0.500000 0.019323 Li+
0.326434 0.747127 0.013397 Li+
0.673566 0.752873 0.002888 Li+
0.673566 0.247127 0.038192 Li+
0.326434 0.252873 0.049521 Li+
0.844520 0.000000 0.139969 Li+
0.155480 0.500000 0.090752 Li+
0.326434 0.747127 0.084825 Li+
0.673566 0.752873 0.074317 Li+
0.673566 0.247127 0.109620 Li+
0.326434 0.252873 0.120950 Li+
0.844520 0.000000 0.211398 Li+
0.155480 0.500000 0.162181 Li+
0.326434 0.747127 0.156254 Li+
0.673566 0.752873 0.145745 Li+
0.673566 0.247127 0.181049 Li+
0.326434 0.252873 0.192379 Li+
0.844520 0.000000 0.282826 Li+
0.155480 0.500000 0.233609 Li+
0.326434 0.747127 0.227682 Li+
0.673566 0.752873 0.217174 Li+
0.673566 0.247127 0.252478 Li+
0.326434 0.252873 0.263807 Li+
0.844520 0.000000 0.354255 Li+
0.155480 0.500000 0.305038 Li+
0.326434 0.747127 0.299111 Li+
0.673566 0.752873 0.288602 Li+
0.673566 0.247127 0.323906 Li+
0.326434 0.252873 0.335236 Li+
0.844520 0.000000 0.425683 Li+
0.155480 0.500000 0.376466 Li+
0.326434 0.747127 0.370540 Li+
0.673566 0.752873 0.360031 Li+
0.673566 0.247127 0.395335 Li+
0.326434 0.252873 0.406664 Li+
0.844520 0.000000 0.497112 Li+
0.155480 0.500000 0.447895 Li+
0.326434 0.747127 0.441968 Li+
0.673566 0.752873 0.431459 Li+
0.673566 0.247127 0.466763 Li+
0.326434 0.252873 0.478093 Li+
0.824261 0.500000 0.030808 P5+
0.175739 0.000000 0.055914 P5+
0.824261 0.500000 0.102237 P5+
0.175739 0.000000 0.127342 P5+
0.824261 0.500000 0.173665 P5+
0.175739 0.000000 0.198771 P5+
0.824261 0.500000 0.245094 P5+
0.175739 0.000000 0.270199 P5+
0.824261 0.500000 0.316522 P5+
0.175739 0.000000 0.341628 P5+
0.824261 0.500000 0.387951 P5+
0.175739 0.000000 0.413056 P5+
0.824261 0.500000 0.459379 P5+
0.175739 0.000000 0.484485 P5+
0.313509 0.207138 0.016663 O2-
0.103508 0.500000 0.057947 O2-
0.818396 0.500000 0.007801 O2-
0.181604 0.000000 0.033745 O2-
0.686491 0.707138 0.043305 O2-
0.313509 0.792862 0.058501 O2-
0.896492 0.000000 0.043161 O2-
0.686491 0.292862 0.013714 O2-
0.313509 0.207138 0.088092 O2-
0.103508 0.500000 0.129376 O2-
0.818396 0.500000 0.079230 O2-
0.181604 0.000000 0.105173 O2-
0.686491 0.707138 0.114734 O2-
0.313509 0.792862 0.129929 O2-
0.896492 0.000000 0.114589 O2-
0.686491 0.292862 0.085142 O2-
0.313509 0.207138 0.159521 O2-
0.103508 0.500000 0.200805 O2-
0.818396 0.500000 0.150658 O2-
0.181604 0.000000 0.176602 O2-
0.686491 0.707138 0.186162 O2-
0.313509 0.792862 0.201358 O2-
0.896492 0.000000 0.186018 O2-
0.686491 0.292862 0.156571 O2-
0.313509 0.207138 0.230949 O2-
0.103508 0.500000 0.272233 O2-
0.818396 0.500000 0.222087 O2-
0.181604 0.000000 0.248030 O2-
0.686491 0.707138 0.257591 O2-
0.313509 0.792862 0.272787 O2-
0.896492 0.000000 0.257446 O2-
0.686491 0.292862 0.228000 O2-
0.313509 0.207138 0.302378 O2-
0.103508 0.500000 0.343662 O2-
0.818396 0.500000 0.293516 O2-
0.181604 0.000000 0.319459 O2-
0.686491 0.707138 0.329019 O2-
0.313509 0.792862 0.344215 O2-
0.896492 0.000000 0.328875 O2-
0.686491 0.292862 0.299428 O2-
0.313509 0.207138 0.373806 O2-
0.103508 0.500000 0.415090 O2-
0.818396 0.500000 0.364944 O2-
0.181604 0.000000 0.390888 O2-
0.686491 0.707138 0.400448 O2-
0.313509 0.792862 0.415644 O2-
0.896492 0.000000 0.400303 O2-
0.686491 0.292862 0.370857 O2-
0.313509 0.207138 0.445235 O2-
0.103508 0.500000 0.486519 O2-
0.818396 0.500000 0.436373 O2-
0.181604 0.000000 0.462316 O2-
0.686491 0.707138 0.471876 O2-
0.313509 0.792862 0.487072 O2-
0.896492 0.000000 0.471732 O2-
0.686491 0.292862 0.442285 O2-
