(2, 1, 2)
1.0
5.508548 0.000000 -6.360724
0.000000 7.703522 -3.180362
0.000000 0.000000 44.525066
Li O
32 32
Selective dynamics
direct
0.000000 0.500000 0.032118 T T T Li+
0.500000 0.500000 0.067832 T T T Li+
0.000000 0.000000 0.067832 T T T Li+
0.500000 0.000000 0.032118 T T T Li+
0.166667 0.750000 0.038071 T T T Li+
0.666667 0.750000 0.002356 T T T Li+
0.333333 0.250000 0.061880 T T T Li+
0.833333 0.250000 0.026166 T T T Li+
0.000000 0.500000 0.103547 F F F Li+
0.500000 0.500000 0.139261 F F F Li+
0.000000 0.000000 0.139261 F F F Li+
0.500000 0.000000 0.103547 F F F Li+
0.166667 0.750000 0.109499 F F F Li+
0.666667 0.750000 0.073785 T T T Li+
0.333333 0.250000 0.133309 F F F Li+
0.833333 0.250000 0.097594 F F F Li+
0.000000 0.500000 0.174975 F F F Li+
0.500000 0.500000 0.210690 T T T Li+
0.000000 0.000000 0.210690 F F F Li+
0.500000 0.000000 0.174975 F F F Li+
0.166667 0.750000 0.180928 F F F Li+
0.666667 0.750000 0.145213 F F F Li+
0.333333 0.250000 0.204737 F F F Li+
0.833333 0.250000 0.169023 F F F Li+
0.000000 0.500000 0.246404 T T T Li+
0.500000 0.500000 0.282118 T T T Li+
0.000000 0.000000 0.282118 T T T Li+
0.500000 0.000000 0.246404 T T T Li+
0.166667 0.750000 0.252356 T T T Li+
0.666667 0.750000 0.216642 F F F Li+
0.333333 0.250000 0.276166 T T T Li+
0.833333 0.250000 0.240452 T T T Li+
0.166667 0.149310 0.066593 F F F O-
0.666667 0.149310 0.030878 T T T O-
0.333333 0.649310 0.018974 T T T O-
0.833333 0.649310 0.054688 F F F O-
0.333333 0.850690 0.033358 T T T O-
0.833333 0.850690 0.069072 F F F O-
0.166667 0.350690 0.009548 T T T O-
0.666667 0.350690 0.045263 T T T O-
0.166667 0.149310 0.138021 F F F O-
0.666667 0.149310 0.102307 F F F O-
0.333333 0.649310 0.090402 F F F O-
0.833333 0.649310 0.126117 F F F O-
0.333333 0.850690 0.104787 F F F O-
0.833333 0.850690 0.140501 F F F O-
0.166667 0.350690 0.080977 F F F O-
0.666667 0.350690 0.116691 F F F O-
0.166667 0.149310 0.209450 F F F O-
0.666667 0.149310 0.173736 F F F O-
0.333333 0.649310 0.161831 F F F O-
0.833333 0.649310 0.197545 F F F O-
0.333333 0.850690 0.176215 F F F O-
0.833333 0.850690 0.211929 F F F O-
0.166667 0.350690 0.152406 F F F O-
0.666667 0.350690 0.188120 F F F O-
0.166667 0.149310 0.280878 T T T O-
0.666667 0.149310 0.245164 T T T O-
0.333333 0.649310 0.233259 T T T O-
0.833333 0.649310 0.268974 T T T O-
0.333333 0.850690 0.247644 T T T O-
0.833333 0.850690 0.283358 T T T O-
0.166667 0.350690 0.223834 F F F O-
0.666667 0.350690 0.259548 T T T O-
