(1, 0, 0)                               
   1.00000000000000     
     6.3353915631260289    1.5401067800432269   -0.0002000179277020
     0.7542135858943732    3.1942266105008508    0.0008698971186319
    -0.0163376798055017    0.0092304428029627   66.0529217169672194
   O    Li
    28    56
Selective dynamics
Direct
  0.5000000000000000  0.0000000000000000  0.9270830000000032   F   F   F
  0.0000000000000000  0.0000000000000000  0.9270830000000032   F   F   F
  0.2500000000000000  0.5000000000000000  0.9687500000000000   F   F   F
  0.7500000000000000  0.5000000000000000  0.9687500000000000   F   F   F
  0.0000000000000000  0.0000000000000000  0.8437500000000000   F   F   F
  0.5000000000000000  0.0000000000000000  0.8437500000000000   F   F   F
  0.2500000000000000  0.5000000000000000  0.8854169999999968   F   F   F
  0.7500000000000000  0.5000000000000000  0.8854169999999968   F   F   F
  0.0000000000000000  0.0000000000000000  0.7604169999999968   F   F   F
  0.5000000000000000  0.0000000000000000  0.7604169999999968   F   F   F
  0.2500000000000000  0.5000000000000000  0.8020830000000032   F   F   F
  0.7500000000000000  0.5000000000000000  0.8020830000000032   F   F   F
  0.0000000000000000  0.0000000000000000  0.6770830000000032   F   F   F
  0.5000000000000000  0.0000000000000000  0.6770830000000032   F   F   F
  0.2500000000000000  0.5000000000000000  0.7187500000000000   F   F   F
  0.7500000000000000  0.5000000000000000  0.7187500000000000   F   F   F
  0.0000000000000000  0.0000000000000000  0.5937500000000000   F   F   F
  0.5000000000000000  0.0000000000000000  0.5937500000000000   F   F   F
  0.2500000000000000  0.5000000000000000  0.6354169999999968   F   F   F
  0.7500000000000000  0.5000000000000000  0.6354169999999968   F   F   F
  0.0000000000000000  0.0000000000000000  0.5104169999999968   F   F   F
  0.5000000000000000  0.0000000000000000  0.5104169999999968   F   F   F
  0.2500000000000000  0.5000000000000000  0.5520830000000032   F   F   F
  0.7500000000000000  0.5000000000000000  0.5520830000000032   F   F   F
  0.2500000000000000  0.5000000000000000  0.4687500000000000   F   F   F
  0.7500000000000000  0.5000000000000000  0.4687500000000000   F   F   F
  0.0955432283009198  0.0707787557933173  0.4265415586888648   T   T   T
  0.6040926089337354  0.0709353167053591  0.0111260153707746   T   T   T
  0.8423275766448455  0.2886151835708670  0.9955682588857480   T   T   T
  0.4216285923147043  0.7423492450919607  0.0090561518999757   T   T   T
  0.4402357104581812  0.7078377330372364  0.9887921912196790   T   T   T
  0.7819232923703741  0.4018284403324664  0.0146817963437240   T   T   T
  0.2500000000000000  0.0000000000000000  0.9479169999999968   F   F   F
  0.7500000000000000  0.0000000000000000  0.9479169999999968   F   F   F
  0.5000000000000000  0.5000000000000000  0.9479169999999968   F   F   F
  0.0000000000000000  0.5000000000000000  0.9479169999999968   F   F   F
  0.0000000000000000  0.5000000000000000  0.9062500000000000   F   F   F
  0.5000000000000000  0.5000000000000000  0.9062500000000000   F   F   F
  0.2500000000000000  0.0000000000000000  0.9062500000000000   F   F   F
  0.7500000000000000  0.0000000000000000  0.9062500000000000   F   F   F
  0.2500000000000000  0.0000000000000000  0.8645830000000032   F   F   F
  0.7500000000000000  0.0000000000000000  0.8645830000000032   F   F   F
  0.0000000000000000  0.5000000000000000  0.8645830000000032   F   F   F
  0.5000000000000000  0.5000000000000000  0.8645830000000032   F   F   F
  0.0000000000000000  0.5000000000000000  0.8229169999999968   F   F   F
  0.5000000000000000  0.5000000000000000  0.8229169999999968   F   F   F
  0.2500000000000000  0.0000000000000000  0.8229169999999968   F   F   F
  0.7500000000000000  0.0000000000000000  0.8229169999999968   F   F   F
  0.2500000000000000  0.0000000000000000  0.7812500000000000   F   F   F
  0.7500000000000000  0.0000000000000000  0.7812500000000000   F   F   F
  0.0000000000000000  0.5000000000000000  0.7812500000000000   F   F   F
  0.5000000000000000  0.5000000000000000  0.7812500000000000   F   F   F
  0.0000000000000000  0.5000000000000000  0.7395830000000032   F   F   F
  0.5000000000000000  0.5000000000000000  0.7395830000000032   F   F   F
  0.2500000000000000  0.0000000000000000  0.7395830000000032   F   F   F
  0.7500000000000000  0.0000000000000000  0.7395830000000032   F   F   F
  0.2500000000000000  0.0000000000000000  0.6979169999999968   F   F   F
  0.7500000000000000  0.0000000000000000  0.6979169999999968   F   F   F
  0.5000000000000000  0.5000000000000000  0.6979169999999968   F   F   F
  0.0000000000000000  0.5000000000000000  0.6979169999999968   F   F   F
  0.0000000000000000  0.5000000000000000  0.6562500000000000   F   F   F
  0.5000000000000000  0.5000000000000000  0.6562500000000000   F   F   F
  0.2500000000000000  0.0000000000000000  0.6562500000000000   F   F   F
  0.7500000000000000  0.0000000000000000  0.6562500000000000   F   F   F
  0.2500000000000000  0.0000000000000000  0.6145830000000032   F   F   F
  0.7500000000000000  0.0000000000000000  0.6145830000000032   F   F   F
  0.5000000000000000  0.5000000000000000  0.6145830000000032   F   F   F
  0.0000000000000000  0.5000000000000000  0.6145830000000032   F   F   F
  0.5000000000000000  0.5000000000000000  0.5729169999999968   F   F   F
  0.0000000000000000  0.5000000000000000  0.5729169999999968   F   F   F
  0.2500000000000000  0.0000000000000000  0.5729169999999968   F   F   F
  0.7500000000000000  0.0000000000000000  0.5729169999999968   F   F   F
  0.2500000000000000  0.0000000000000000  0.5312500000000000   F   F   F
  0.7500000000000000  0.0000000000000000  0.5312500000000000   F   F   F
  0.0000000000000000  0.5000000000000000  0.5312500000000000   F   F   F
  0.5000000000000000  0.5000000000000000  0.5312500000000000   F   F   F
  0.0000000000000000  0.5000000000000000  0.4895830000000032   F   F   F
  0.5000000000000000  0.5000000000000000  0.4895830000000032   F   F   F
  0.2500000000000000  0.0000000000000000  0.4895830000000032   F   F   F
  0.7500000000000000  0.0000000000000000  0.4895830000000032   F   F   F
  0.2721310996620026  0.3978388578558509  0.4231244973591213   T   T   T
  0.9283120227815905  0.7098132914730829  0.4486532907388920   T   T   T
  0.3263017904236639  0.2649476580048044  0.4421841336523178   T   T   T
  0.9098339625309193  0.7499500034214920  0.4284471577793818   T   T   T
 
  0.00000000E+00  0.00000000E+00  0.00000000E+00
  0.00000000E+00  0.00000000E+00  0.00000000E+00
  0.00000000E+00  0.00000000E+00  0.00000000E+00
  0.00000000E+00  0.00000000E+00  0.00000000E+00
  0.00000000E+00  0.00000000E+00  0.00000000E+00
  0.00000000E+00  0.00000000E+00  0.00000000E+00
  0.00000000E+00  0.00000000E+00  0.00000000E+00
  0.00000000E+00  0.00000000E+00  0.00000000E+00
  0.00000000E+00  0.00000000E+00  0.00000000E+00
  0.00000000E+00  0.00000000E+00  0.00000000E+00
  0.00000000E+00  0.00000000E+00  0.00000000E+00
  0.00000000E+00  0.00000000E+00  0.00000000E+00
  0.00000000E+00  0.00000000E+00  0.00000000E+00
  0.00000000E+00  0.00000000E+00  0.00000000E+00
  0.00000000E+00  0.00000000E+00  0.00000000E+00
  0.00000000E+00  0.00000000E+00  0.00000000E+00
  0.00000000E+00  0.00000000E+00  0.00000000E+00
  0.00000000E+00  0.00000000E+00  0.00000000E+00
  0.00000000E+00  0.00000000E+00  0.00000000E+00
  0.00000000E+00  0.00000000E+00  0.00000000E+00
  0.00000000E+00  0.00000000E+00  0.00000000E+00
  0.00000000E+00  0.00000000E+00  0.00000000E+00
  0.00000000E+00  0.00000000E+00  0.00000000E+00
  0.00000000E+00  0.00000000E+00  0.00000000E+00
  0.00000000E+00  0.00000000E+00  0.00000000E+00
  0.00000000E+00  0.00000000E+00  0.00000000E+00
  0.00000000E+00  0.00000000E+00  0.00000000E+00
  0.00000000E+00  0.00000000E+00  0.00000000E+00
  0.00000000E+00  0.00000000E+00  0.00000000E+00
  0.00000000E+00  0.00000000E+00  0.00000000E+00
  0.00000000E+00  0.00000000E+00  0.00000000E+00
  0.00000000E+00  0.00000000E+00  0.00000000E+00
  0.00000000E+00  0.00000000E+00  0.00000000E+00
  0.00000000E+00  0.00000000E+00  0.00000000E+00
  0.00000000E+00  0.00000000E+00  0.00000000E+00
  0.00000000E+00  0.00000000E+00  0.00000000E+00
  0.00000000E+00  0.00000000E+00  0.00000000E+00
  0.00000000E+00  0.00000000E+00  0.00000000E+00
  0.00000000E+00  0.00000000E+00  0.00000000E+00
  0.00000000E+00  0.00000000E+00  0.00000000E+00
  0.00000000E+00  0.00000000E+00  0.00000000E+00
  0.00000000E+00  0.00000000E+00  0.00000000E+00
  0.00000000E+00  0.00000000E+00  0.00000000E+00
  0.00000000E+00  0.00000000E+00  0.00000000E+00
  0.00000000E+00  0.00000000E+00  0.00000000E+00
  0.00000000E+00  0.00000000E+00  0.00000000E+00
  0.00000000E+00  0.00000000E+00  0.00000000E+00
  0.00000000E+00  0.00000000E+00  0.00000000E+00
  0.00000000E+00  0.00000000E+00  0.00000000E+00
  0.00000000E+00  0.00000000E+00  0.00000000E+00
  0.00000000E+00  0.00000000E+00  0.00000000E+00
  0.00000000E+00  0.00000000E+00  0.00000000E+00
  0.00000000E+00  0.00000000E+00  0.00000000E+00
  0.00000000E+00  0.00000000E+00  0.00000000E+00
  0.00000000E+00  0.00000000E+00  0.00000000E+00
  0.00000000E+00  0.00000000E+00  0.00000000E+00
  0.00000000E+00  0.00000000E+00  0.00000000E+00
  0.00000000E+00  0.00000000E+00  0.00000000E+00
  0.00000000E+00  0.00000000E+00  0.00000000E+00
  0.00000000E+00  0.00000000E+00  0.00000000E+00
  0.00000000E+00  0.00000000E+00  0.00000000E+00
  0.00000000E+00  0.00000000E+00  0.00000000E+00
  0.00000000E+00  0.00000000E+00  0.00000000E+00
  0.00000000E+00  0.00000000E+00  0.00000000E+00
  0.00000000E+00  0.00000000E+00  0.00000000E+00
  0.00000000E+00  0.00000000E+00  0.00000000E+00
  0.00000000E+00  0.00000000E+00  0.00000000E+00
  0.00000000E+00  0.00000000E+00  0.00000000E+00
  0.00000000E+00  0.00000000E+00  0.00000000E+00
  0.00000000E+00  0.00000000E+00  0.00000000E+00
  0.00000000E+00  0.00000000E+00  0.00000000E+00
  0.00000000E+00  0.00000000E+00  0.00000000E+00
  0.00000000E+00  0.00000000E+00  0.00000000E+00
  0.00000000E+00  0.00000000E+00  0.00000000E+00
  0.00000000E+00  0.00000000E+00  0.00000000E+00
  0.00000000E+00  0.00000000E+00  0.00000000E+00
  0.00000000E+00  0.00000000E+00  0.00000000E+00
  0.00000000E+00  0.00000000E+00  0.00000000E+00
  0.00000000E+00  0.00000000E+00  0.00000000E+00
  0.00000000E+00  0.00000000E+00  0.00000000E+00
  0.00000000E+00  0.00000000E+00  0.00000000E+00
  0.00000000E+00  0.00000000E+00  0.00000000E+00
  0.00000000E+00  0.00000000E+00  0.00000000E+00
  0.00000000E+00  0.00000000E+00  0.00000000E+00
