ALGO = Fast
EDIFF = 1e-05
EDIFFG = -0.03
ENCUT = 520
IBRION = 2
ISIF = 3
ISMEAR = -5
ISPIN = 1
ISYM = 0
LASPH = True
LCHARG = False
LORBIT = 11
LPLANE = True
LREAL = Auto
LWAVE = False
MAGMOM = 84*0.6
NCORE = 16
NELM = 150
NELMIN = 6
NSIM = 4
NSW = 150
PREC = Accurate
SIGMA = 0.05
