(1, 0, 0)                               
   1.00000000000000     
     6.2770618005396255    1.5679797898538903   -0.0081627373907637
     0.7501723911482151    3.2390116695957363    0.0025491497457363
    -0.1156365080365739    0.0632317779508330   66.3304956871199636
   O    Li
    28    56
Selective dynamics
Direct
  0.5000000000000000  0.0000000000000000  0.9270830000000032   F   F   F
  0.0000000000000000  0.0000000000000000  0.9270830000000032   F   F   F
  0.2500000000000000  0.5000000000000000  0.9687500000000000   F   F   F
  0.7500000000000000  0.5000000000000000  0.9687500000000000   F   F   F
  0.0000000000000000  0.0000000000000000  0.8437500000000000   F   F   F
  0.5000000000000000  0.0000000000000000  0.8437500000000000   F   F   F
  0.2500000000000000  0.5000000000000000  0.8854169999999968   F   F   F
  0.7500000000000000  0.5000000000000000  0.8854169999999968   F   F   F
  0.0000000000000000  0.0000000000000000  0.7604169999999968   F   F   F
  0.5000000000000000  0.0000000000000000  0.7604169999999968   F   F   F
  0.2500000000000000  0.5000000000000000  0.8020830000000032   F   F   F
  0.7500000000000000  0.5000000000000000  0.8020830000000032   F   F   F
  0.0000000000000000  0.0000000000000000  0.6770830000000032   F   F   F
  0.5000000000000000  0.0000000000000000  0.6770830000000032   F   F   F
  0.2500000000000000  0.5000000000000000  0.7187500000000000   F   F   F
  0.7500000000000000  0.5000000000000000  0.7187500000000000   F   F   F
  0.0000000000000000  0.0000000000000000  0.5937500000000000   F   F   F
  0.5000000000000000  0.0000000000000000  0.5937500000000000   F   F   F
  0.2500000000000000  0.5000000000000000  0.6354169999999968   F   F   F
  0.7500000000000000  0.5000000000000000  0.6354169999999968   F   F   F
  0.0000000000000000  0.0000000000000000  0.5104169999999968   F   F   F
  0.5000000000000000  0.0000000000000000  0.5104169999999968   F   F   F
  0.2500000000000000  0.5000000000000000  0.5520830000000032   F   F   F
  0.7500000000000000  0.5000000000000000  0.5520830000000032   F   F   F
  0.2500000000000000  0.5000000000000000  0.4687500000000000   F   F   F
  0.7500000000000000  0.5000000000000000  0.4687500000000000   F   F   F
  0.0719447153689305 -0.0308509848932436  0.4266992458567245   T   T   T
  0.4872257089450870  0.0093811435692183  0.0045921538694028   T   T   T
  0.8355278065328039  0.6142605358742985  0.9935712244889049   T   T   T
  0.5161479399092058  0.4819933214394679  0.0139219052769551   T   T   T
  0.4012222959505427  0.6169660254104066 -0.0056279681084037   T   T   T
  0.8399790041679093  0.3266144188847399  0.0070904697982213   T   T   T
  0.2500000000000000  0.0000000000000000  0.9479169999999968   F   F   F
  0.7500000000000000  0.0000000000000000  0.9479169999999968   F   F   F
  0.5000000000000000  0.5000000000000000  0.9479169999999968   F   F   F
  0.0000000000000000  0.5000000000000000  0.9479169999999968   F   F   F
  0.0000000000000000  0.5000000000000000  0.9062500000000000   F   F   F
  0.5000000000000000  0.5000000000000000  0.9062500000000000   F   F   F
  0.2500000000000000  0.0000000000000000  0.9062500000000000   F   F   F
  0.7500000000000000  0.0000000000000000  0.9062500000000000   F   F   F
  0.2500000000000000  0.0000000000000000  0.8645830000000032   F   F   F
  0.7500000000000000  0.0000000000000000  0.8645830000000032   F   F   F
  0.0000000000000000  0.5000000000000000  0.8645830000000032   F   F   F
  0.5000000000000000  0.5000000000000000  0.8645830000000032   F   F   F
  0.0000000000000000  0.5000000000000000  0.8229169999999968   F   F   F
  0.5000000000000000  0.5000000000000000  0.8229169999999968   F   F   F
  0.2500000000000000  0.0000000000000000  0.8229169999999968   F   F   F
  0.7500000000000000  0.0000000000000000  0.8229169999999968   F   F   F
  0.2500000000000000  0.0000000000000000  0.7812500000000000   F   F   F
  0.7500000000000000  0.0000000000000000  0.7812500000000000   F   F   F
  0.0000000000000000  0.5000000000000000  0.7812500000000000   F   F   F
  0.5000000000000000  0.5000000000000000  0.7812500000000000   F   F   F
  0.0000000000000000  0.5000000000000000  0.7395830000000032   F   F   F
  0.5000000000000000  0.5000000000000000  0.7395830000000032   F   F   F
  0.2500000000000000  0.0000000000000000  0.7395830000000032   F   F   F
  0.7500000000000000  0.0000000000000000  0.7395830000000032   F   F   F
  0.2500000000000000  0.0000000000000000  0.6979169999999968   F   F   F
  0.7500000000000000  0.0000000000000000  0.6979169999999968   F   F   F
  0.5000000000000000  0.5000000000000000  0.6979169999999968   F   F   F
  0.0000000000000000  0.5000000000000000  0.6979169999999968   F   F   F
  0.0000000000000000  0.5000000000000000  0.6562500000000000   F   F   F
  0.5000000000000000  0.5000000000000000  0.6562500000000000   F   F   F
  0.2500000000000000  0.0000000000000000  0.6562500000000000   F   F   F
  0.7500000000000000  0.0000000000000000  0.6562500000000000   F   F   F
  0.2500000000000000  0.0000000000000000  0.6145830000000032   F   F   F
  0.7500000000000000  0.0000000000000000  0.6145830000000032   F   F   F
  0.5000000000000000  0.5000000000000000  0.6145830000000032   F   F   F
  0.0000000000000000  0.5000000000000000  0.6145830000000032   F   F   F
  0.5000000000000000  0.5000000000000000  0.5729169999999968   F   F   F
  0.0000000000000000  0.5000000000000000  0.5729169999999968   F   F   F
  0.2500000000000000  0.0000000000000000  0.5729169999999968   F   F   F
  0.7500000000000000  0.0000000000000000  0.5729169999999968   F   F   F
  0.2500000000000000  0.0000000000000000  0.5312500000000000   F   F   F
  0.7500000000000000  0.0000000000000000  0.5312500000000000   F   F   F
  0.0000000000000000  0.5000000000000000  0.5312500000000000   F   F   F
  0.5000000000000000  0.5000000000000000  0.5312500000000000   F   F   F
  0.0000000000000000  0.5000000000000000  0.4895830000000032   F   F   F
  0.5000000000000000  0.5000000000000000  0.4895830000000032   F   F   F
  0.2500000000000000  0.0000000000000000  0.4895830000000032   F   F   F
  0.7500000000000000  0.0000000000000000  0.4895830000000032   F   F   F
  0.3007563097269437  0.3511477371211232  0.4237051009065220   T   T   T
  0.9136849866784579  0.7073082233933515  0.4476888188929475   T   T   T
  0.3349517329387184  0.4719837763211607  0.4417215523749413   T   T   T
  0.9314489243771463  0.5928092975379334  0.4275465961417685   T   T   T
 
  0.00000000E+00  0.00000000E+00  0.00000000E+00
  0.00000000E+00  0.00000000E+00  0.00000000E+00
  0.00000000E+00  0.00000000E+00  0.00000000E+00
  0.00000000E+00  0.00000000E+00  0.00000000E+00
  0.00000000E+00  0.00000000E+00  0.00000000E+00
  0.00000000E+00  0.00000000E+00  0.00000000E+00
  0.00000000E+00  0.00000000E+00  0.00000000E+00
  0.00000000E+00  0.00000000E+00  0.00000000E+00
  0.00000000E+00  0.00000000E+00  0.00000000E+00
  0.00000000E+00  0.00000000E+00  0.00000000E+00
  0.00000000E+00  0.00000000E+00  0.00000000E+00
  0.00000000E+00  0.00000000E+00  0.00000000E+00
  0.00000000E+00  0.00000000E+00  0.00000000E+00
  0.00000000E+00  0.00000000E+00  0.00000000E+00
  0.00000000E+00  0.00000000E+00  0.00000000E+00
  0.00000000E+00  0.00000000E+00  0.00000000E+00
  0.00000000E+00  0.00000000E+00  0.00000000E+00
  0.00000000E+00  0.00000000E+00  0.00000000E+00
  0.00000000E+00  0.00000000E+00  0.00000000E+00
  0.00000000E+00  0.00000000E+00  0.00000000E+00
  0.00000000E+00  0.00000000E+00  0.00000000E+00
  0.00000000E+00  0.00000000E+00  0.00000000E+00
  0.00000000E+00  0.00000000E+00  0.00000000E+00
  0.00000000E+00  0.00000000E+00  0.00000000E+00
  0.00000000E+00  0.00000000E+00  0.00000000E+00
  0.00000000E+00  0.00000000E+00  0.00000000E+00
  0.00000000E+00  0.00000000E+00  0.00000000E+00
  0.00000000E+00  0.00000000E+00  0.00000000E+00
  0.00000000E+00  0.00000000E+00  0.00000000E+00
  0.00000000E+00  0.00000000E+00  0.00000000E+00
  0.00000000E+00  0.00000000E+00  0.00000000E+00
  0.00000000E+00  0.00000000E+00  0.00000000E+00
  0.00000000E+00  0.00000000E+00  0.00000000E+00
  0.00000000E+00  0.00000000E+00  0.00000000E+00
  0.00000000E+00  0.00000000E+00  0.00000000E+00
  0.00000000E+00  0.00000000E+00  0.00000000E+00
  0.00000000E+00  0.00000000E+00  0.00000000E+00
  0.00000000E+00  0.00000000E+00  0.00000000E+00
  0.00000000E+00  0.00000000E+00  0.00000000E+00
  0.00000000E+00  0.00000000E+00  0.00000000E+00
  0.00000000E+00  0.00000000E+00  0.00000000E+00
  0.00000000E+00  0.00000000E+00  0.00000000E+00
  0.00000000E+00  0.00000000E+00  0.00000000E+00
  0.00000000E+00  0.00000000E+00  0.00000000E+00
  0.00000000E+00  0.00000000E+00  0.00000000E+00
  0.00000000E+00  0.00000000E+00  0.00000000E+00
  0.00000000E+00  0.00000000E+00  0.00000000E+00
  0.00000000E+00  0.00000000E+00  0.00000000E+00
  0.00000000E+00  0.00000000E+00  0.00000000E+00
  0.00000000E+00  0.00000000E+00  0.00000000E+00
  0.00000000E+00  0.00000000E+00  0.00000000E+00
  0.00000000E+00  0.00000000E+00  0.00000000E+00
  0.00000000E+00  0.00000000E+00  0.00000000E+00
  0.00000000E+00  0.00000000E+00  0.00000000E+00
  0.00000000E+00  0.00000000E+00  0.00000000E+00
  0.00000000E+00  0.00000000E+00  0.00000000E+00
  0.00000000E+00  0.00000000E+00  0.00000000E+00
  0.00000000E+00  0.00000000E+00  0.00000000E+00
  0.00000000E+00  0.00000000E+00  0.00000000E+00
  0.00000000E+00  0.00000000E+00  0.00000000E+00
  0.00000000E+00  0.00000000E+00  0.00000000E+00
  0.00000000E+00  0.00000000E+00  0.00000000E+00
  0.00000000E+00  0.00000000E+00  0.00000000E+00
  0.00000000E+00  0.00000000E+00  0.00000000E+00
  0.00000000E+00  0.00000000E+00  0.00000000E+00
  0.00000000E+00  0.00000000E+00  0.00000000E+00
  0.00000000E+00  0.00000000E+00  0.00000000E+00
  0.00000000E+00  0.00000000E+00  0.00000000E+00
  0.00000000E+00  0.00000000E+00  0.00000000E+00
  0.00000000E+00  0.00000000E+00  0.00000000E+00
  0.00000000E+00  0.00000000E+00  0.00000000E+00
  0.00000000E+00  0.00000000E+00  0.00000000E+00
  0.00000000E+00  0.00000000E+00  0.00000000E+00
  0.00000000E+00  0.00000000E+00  0.00000000E+00
  0.00000000E+00  0.00000000E+00  0.00000000E+00
  0.00000000E+00  0.00000000E+00  0.00000000E+00
  0.00000000E+00  0.00000000E+00  0.00000000E+00
  0.00000000E+00  0.00000000E+00  0.00000000E+00
  0.00000000E+00  0.00000000E+00  0.00000000E+00
  0.00000000E+00  0.00000000E+00  0.00000000E+00
  0.00000000E+00  0.00000000E+00  0.00000000E+00
  0.00000000E+00  0.00000000E+00  0.00000000E+00
  0.00000000E+00  0.00000000E+00  0.00000000E+00
  0.00000000E+00  0.00000000E+00  0.00000000E+00
