Li5 P2 N1 O6                            
   1.00000000000000     
     0.6345073692363074    0.8097153228413150    5.0602153141255108
     6.6057168230623047   -0.4009454656477346    0.8453823380805485
    -0.3492947982590350    4.6784486799153102    0.9508783872772768
   Li   P    N    O 
     5     2     1     6
Direct
  0.5902553150645692  0.0851884375509688  0.8650707336529364
  0.4270026195784054  0.8908328333882559  0.4532835257412626
  0.9687378667552605  0.7029747983014311  0.6190371590817474
  0.0035057225691241  0.2646166113935678  0.7205195708340829
  0.4598834342189541  0.2878197392854797  0.3435658058433663
  0.4091226280662233  0.5647231441166206  0.8767170941674411
  0.0320101354652207  0.9948061311726614  0.1804632605559197
  0.2286577286969345  0.1185443979327311  0.2492459052536782
  0.5900354919953242  0.6873158563964257  0.6809350404076971
  0.1823635300299244  0.7291380978788686  0.1892448178175159
  0.5936631925687079  0.3906116313062173  0.9727010544098555
  0.0054596909246955  0.9734570051205876  0.8618450347940593
  0.2269143593369458  0.4806256100324320  0.7211788002539664
  0.7237612847297374  0.0364837061237656  0.4242211971864834
 
  0.00000000E+00  0.00000000E+00  0.00000000E+00
  0.00000000E+00  0.00000000E+00  0.00000000E+00
  0.00000000E+00  0.00000000E+00  0.00000000E+00
  0.00000000E+00  0.00000000E+00  0.00000000E+00
  0.00000000E+00  0.00000000E+00  0.00000000E+00
  0.00000000E+00  0.00000000E+00  0.00000000E+00
  0.00000000E+00  0.00000000E+00  0.00000000E+00
  0.00000000E+00  0.00000000E+00  0.00000000E+00
  0.00000000E+00  0.00000000E+00  0.00000000E+00
  0.00000000E+00  0.00000000E+00  0.00000000E+00
  0.00000000E+00  0.00000000E+00  0.00000000E+00
  0.00000000E+00  0.00000000E+00  0.00000000E+00
  0.00000000E+00  0.00000000E+00  0.00000000E+00
  0.00000000E+00  0.00000000E+00  0.00000000E+00
