Li140 P140 O420
1.0
5.521558 0.000000 0.000000
0.000000 16.540545 -10.635230
0.000000 0.000000 119.816820
Li P O
140 140 420
Selective dynamics
direct
0.494607 0.818220 0.031874 F F F Li
0.505393 0.318220 0.031874 F F F Li
0.484419 0.934004 0.058280 F F F Li
0.515581 0.434004 0.058280 F F F Li
0.505784 0.049457 0.084488 F F F Li
0.494216 0.549457 0.084488 F F F Li
0.507224 0.164548 0.110561 F F F Li
0.492776 0.664548 0.110561 F F F Li
0.992783 0.241566 0.015828 T T T Li
0.007217 0.741566 0.015828 T T T Li
0.521194 0.318286 0.087676 F F F Li
0.478806 0.818286 0.087676 F F F Li
0.476313 0.433730 0.002847 T T T Li
0.523687 0.933730 0.002847 T T T Li
0.533250 0.550453 0.029059 F F F Li
0.466750 0.050453 0.029059 F F F Li
0.477737 0.667016 0.055318 F F F Li
0.522263 0.167016 0.055318 F F F Li
0.960889 0.743634 0.071835 F F F Li
0.039111 0.243634 0.071835 F F F Li
0.494607 0.818220 0.142985 F F F Li
0.505393 0.318220 0.142985 F F F Li
0.484419 0.934004 0.169391 F F F Li
0.515581 0.434004 0.169391 F F F Li
0.505784 0.049457 0.195599 F F F Li
0.494216 0.549457 0.195599 F F F Li
0.507224 0.164548 0.221672 F F F Li
0.492776 0.664548 0.221672 F F F Li
0.992783 0.241566 0.126939 F F F Li
0.007217 0.741566 0.126939 F F F Li
0.521194 0.318286 0.198787 F F F Li
0.478806 0.818286 0.198787 F F F Li
0.476313 0.433730 0.113958 F F F Li
0.523687 0.933730 0.113958 F F F Li
0.533250 0.550453 0.140170 F F F Li
0.466750 0.050453 0.140170 F F F Li
0.477737 0.667016 0.166430 F F F Li
0.522263 0.167016 0.166430 F F F Li
0.960889 0.743634 0.182946 F F F Li
0.039111 0.243634 0.182946 F F F Li
0.494607 0.818220 0.254096 F F F Li
0.505393 0.318220 0.254096 F F F Li
0.484419 0.934004 0.280502 F F F Li
0.515581 0.434004 0.280502 F F F Li
0.505784 0.049457 0.306710 F F F Li
0.494216 0.549457 0.306710 F F F Li
0.507224 0.164548 0.332783 F F F Li
0.492776 0.664548 0.332783 F F F Li
0.992783 0.241566 0.238050 F F F Li
0.007217 0.741566 0.238050 F F F Li
0.521194 0.318286 0.309898 F F F Li
0.478806 0.818286 0.309898 F F F Li
0.476313 0.433730 0.225069 F F F Li
0.523687 0.933730 0.225069 F F F Li
0.533250 0.550453 0.251281 F F F Li
0.466750 0.050453 0.251281 F F F Li
0.477737 0.667016 0.277541 F F F Li
0.522263 0.167016 0.277541 F F F Li
0.960889 0.743634 0.294057 F F F Li
0.039111 0.243634 0.294057 F F F Li
0.494607 0.818220 0.365208 F F F Li
0.505393 0.318220 0.365208 F F F Li
0.484419 0.934004 0.391613 F F F Li
0.515581 0.434004 0.391613 F F F Li
0.505784 0.049457 0.417821 F F F Li
0.494216 0.549457 0.417821 F F F Li
0.507224 0.164548 0.443894 F F F Li
0.492776 0.664548 0.443894 F F F Li
0.992783 0.241566 0.349161 F F F Li
0.007217 0.741566 0.349161 F F F Li
0.521194 0.318286 0.421009 F F F Li
0.478806 0.818286 0.421009 F F F Li
0.476313 0.433730 0.336180 F F F Li
0.523687 0.933730 0.336180 F F F Li
0.533250 0.550453 0.362392 F F F Li
0.466750 0.050453 0.362392 F F F Li
0.477737 0.667016 0.388652 F F F Li
0.522263 0.167016 0.388652 F F F Li
0.960889 0.743634 0.405169 F F F Li
0.039111 0.243634 0.405169 F F F Li
0.494607 0.818220 0.476319 F F F Li
0.505393 0.318220 0.476319 F F F Li
0.484419 0.934004 0.502724 F F F Li
0.515581 0.434004 0.502724 F F F Li
0.505784 0.049457 0.528932 F F F Li
0.494216 0.549457 0.528932 F F F Li
0.507224 0.164548 0.555005 F F F Li
0.492776 0.664548 0.555005 F F F Li
0.992783 0.241566 0.460272 F F F Li
0.007217 0.741566 0.460272 F F F Li
0.521194 0.318286 0.532120 F F F Li
0.478806 0.818286 0.532120 F F F Li
0.476313 0.433730 0.447291 F F F Li
0.523687 0.933730 0.447291 F F F Li
0.533250 0.550453 0.473503 F F F Li
0.466750 0.050453 0.473503 F F F Li
0.477737 0.667016 0.499763 F F F Li
0.522263 0.167016 0.499763 F F F Li
0.960889 0.743634 0.516280 F F F Li
0.039111 0.243634 0.516280 F F F Li
0.494607 0.818220 0.587430 F F F Li
0.505393 0.318220 0.587430 F F F Li
0.484419 0.934004 0.613835 F F F Li
0.515581 0.434004 0.613835 F F F Li
0.505784 0.049457 0.640043 F F F Li
0.494216 0.549457 0.640043 F F F Li
0.507224 0.164548 0.666117 F F F Li
0.492776 0.664548 0.666117 F F F Li
0.992783 0.241566 0.571384 F F F Li
0.007217 0.741566 0.571384 F F F Li
0.521194 0.318286 0.643231 F F F Li
0.478806 0.818286 0.643231 F F F Li
0.476313 0.433730 0.558402 F F F Li
0.523687 0.933730 0.558402 F F F Li
0.533250 0.550453 0.584614 F F F Li
0.466750 0.050453 0.584614 F F F Li
0.477737 0.667016 0.610874 F F F Li
0.522263 0.167016 0.610874 F F F Li
0.960889 0.743634 0.627391 F F F Li
0.039111 0.243634 0.627391 F F F Li
0.494607 0.818220 0.698541 F F F Li
0.505393 0.318220 0.698541 F F F Li
0.484419 0.934004 0.724946 F F F Li
0.515581 0.434004 0.724946 F F F Li
0.505784 0.049457 0.751154 F F F Li
0.494216 0.549457 0.751154 F F F Li
0.507224 0.164548 0.777228 T T T Li
0.492776 0.664548 0.777228 T T T Li
0.992783 0.241566 0.682495 F F F Li
0.007217 0.741566 0.682495 F F F Li
0.521194 0.318286 0.754343 F F F Li
0.478806 0.818286 0.754343 F F F Li
0.476313 0.433730 0.669513 F F F Li
0.523687 0.933730 0.669513 F F F Li
0.533250 0.550453 0.695725 F F F Li
0.466750 0.050453 0.695725 F F F Li
0.477737 0.667016 0.721985 F F F Li
0.522263 0.167016 0.721985 F F F Li
0.960889 0.743634 0.738502 F F F Li
0.039111 0.243634 0.738502 F F F Li
0.185377 0.000413 0.045841 F F F P
0.814623 0.500413 0.045841 F F F P
0.843317 0.093280 0.068773 F F F P
0.156683 0.593280 0.068773 F F F P
0.188444 0.197061 0.090498 F F F P
0.811556 0.697061 0.090498 F F F P
0.828977 0.308311 0.000550 T T T P
0.171023 0.808311 0.000550 T T T P
0.159739 0.408249 0.022772 T T T P
0.840261 0.908249 0.022772 T T T P
0.843930 0.574567 0.008714 T T T P
0.156070 0.074567 0.008714 T T T P
0.174322 0.674438 0.030978 F F F P
0.825678 0.174438 0.030978 F F F P
0.812278 0.786455 0.052185 F F F P
0.187722 0.286455 0.052185 F F F P
0.151901 0.889856 0.073942 F F F P
0.848099 0.389856 0.073942 F F F P
0.809867 0.982845 0.096863 F F F P
0.190133 0.482845 0.096863 F F F P
0.185377 0.000413 0.156952 F F F P
0.814623 0.500413 0.156952 F F F P
0.843317 0.093280 0.179884 F F F P
0.156683 0.593280 0.179884 F F F P
0.188444 0.197061 0.201609 F F F P
0.811556 0.697061 0.201609 F F F P
0.828977 0.308311 0.111661 F F F P
0.171023 0.808311 0.111661 F F F P
0.159739 0.408249 0.133883 F F F P
0.840261 0.908249 0.133883 F F F P
0.843930 0.574567 0.119825 F F F P
0.156070 0.074567 0.119825 F F F P
0.174322 0.674438 0.142089 F F F P
0.825678 0.174438 0.142089 F F F P
0.812278 0.786455 0.163297 F F F P
0.187722 0.286455 0.163297 F F F P
0.151901 0.889856 0.185053 F F F P
0.848099 0.389856 0.185053 F F F P
0.809867 0.982845 0.207974 F F F P
0.190133 0.482845 0.207974 F F F P
0.185377 0.000413 0.268063 F F F P
0.814623 0.500413 0.268063 F F F P
0.843317 0.093280 0.290995 F F F P
0.156683 0.593280 0.290995 F F F P
0.188444 0.197061 0.312720 F F F P
0.811556 0.697061 0.312720 F F F P
0.828977 0.308311 0.222772 F F F P
0.171023 0.808311 0.222772 F F F P
0.159739 0.408249 0.244994 F F F P
0.840261 0.908249 0.244994 F F F P
0.843930 0.574567 0.230936 F F F P
0.156070 0.074567 0.230936 F F F P
0.174322 0.674438 0.253200 F F F P
0.825678 0.174438 0.253200 F F F P
0.812278 0.786455 0.274408 F F F P
0.187722 0.286455 0.274408 F F F P
0.151901 0.889856 0.296164 F F F P
0.848099 0.389856 0.296164 F F F P
0.809867 0.982845 0.319085 F F F P
0.190133 0.482845 0.319085 F F F P
0.185377 0.000413 0.379174 F F F P
0.814623 0.500413 0.379174 F F F P
0.843317 0.093280 0.402107 F F F P
0.156683 0.593280 0.402107 F F F P
0.188444 0.197061 0.423831 F F F P
0.811556 0.697061 0.423831 F F F P
0.828977 0.308311 0.333883 F F F P
0.171023 0.808311 0.333883 F F F P
0.159739 0.408249 0.356105 F F F P
0.840261 0.908249 0.356105 F F F P
0.843930 0.574567 0.342047 F F F P
0.156070 0.074567 0.342047 F F F P
0.174322 0.674438 0.364311 F F F P
0.825678 0.174438 0.364311 F F F P
0.812278 0.786455 0.385519 F F F P
0.187722 0.286455 0.385519 F F F P
0.151901 0.889856 0.407276 F F F P
0.848099 0.389856 0.407276 F F F P
0.809867 0.982845 0.430196 F F F P
0.190133 0.482845 0.430196 F F F P
0.185377 0.000413 0.490285 F F F P
0.814623 0.500413 0.490285 F F F P
0.843317 0.093280 0.513218 F F F P
0.156683 0.593280 0.513218 F F F P
0.188444 0.197061 0.534943 F F F P
0.811556 0.697061 0.534943 F F F P
0.828977 0.308311 0.444995 F F F P
0.171023 0.808311 0.444995 F F F P
0.159739 0.408249 0.467216 F F F P
0.840261 0.908249 0.467216 F F F P
0.843930 0.574567 0.453158 F F F P
0.156070 0.074567 0.453158 F F F P
0.174322 0.674438 0.475422 F F F P
0.825678 0.174438 0.475422 F F F P
0.812278 0.786455 0.496630 F F F P
0.187722 0.286455 0.496630 F F F P
0.151901 0.889856 0.518387 F F F P
0.848099 0.389856 0.518387 F F F P
0.809867 0.982845 0.541307 F F F P
0.190133 0.482845 0.541307 F F F P
0.185377 0.000413 0.601396 F F F P
0.814623 0.500413 0.601396 F F F P
0.843317 0.093280 0.624329 F F F P
0.156683 0.593280 0.624329 F F F P
0.188444 0.197061 0.646054 F F F P
0.811556 0.697061 0.646054 F F F P
0.828977 0.308311 0.556106 F F F P
0.171023 0.808311 0.556106 F F F P
0.159739 0.408249 0.578327 F F F P
0.840261 0.908249 0.578327 F F F P
0.843930 0.574567 0.564270 F F F P
0.156070 0.074567 0.564270 F F F P
0.174322 0.674438 0.586533 F F F P
0.825678 0.174438 0.586533 F F F P
0.812278 0.786455 0.607741 F F F P
0.187722 0.286455 0.607741 F F F P
0.151901 0.889856 0.629498 F F F P
0.848099 0.389856 0.629498 F F F P
0.809867 0.982845 0.652418 F F F P
0.190133 0.482845 0.652418 F F F P
0.185377 0.000413 0.712507 F F F P
0.814623 0.500413 0.712507 F F F P
0.843317 0.093280 0.735440 F F F P
0.156683 0.593280 0.735440 F F F P
0.188444 0.197061 0.757165 F F F P
0.811556 0.697061 0.757165 F F F P
0.828977 0.308311 0.667217 F F F P
0.171023 0.808311 0.667217 F F F P
0.159739 0.408249 0.689438 F F F P
0.840261 0.908249 0.689438 F F F P
0.843930 0.574567 0.675381 F F F P
0.156070 0.074567 0.675381 F F F P
0.174322 0.674438 0.697644 F F F P
0.825678 0.174438 0.697644 F F F P
0.812278 0.786455 0.718852 F F F P
0.187722 0.286455 0.718852 F F F P
0.151901 0.889856 0.740609 F F F P
0.848099 0.389856 0.740609 F F F P
0.809867 0.982845 0.763530 T T T P
0.190133 0.482845 0.763530 T T T P
0.069000 0.035413 0.060370 F F F O
0.931000 0.535413 0.060370 F F F O
0.951087 0.140628 0.083725 F F F O
0.048913 0.640628 0.083725 F F F O
0.080018 0.275856 0.103555 F F F O
0.919982 0.775856 0.103555 F F F O
0.926681 0.392259 0.013361 T T T O
0.073319 0.892259 0.013361 T T T O
0.942022 0.978148 0.037022 F F F O
0.057978 0.478148 0.037022 F F F O
0.076781 0.590622 0.018142 T T T O
0.923219 0.090622 0.018142 T T T O
0.921841 0.709404 0.038902 F F F O
0.078159 0.209404 0.038902 F F F O
0.049265 0.843555 0.058905 F F F O
0.950735 0.343555 0.058905 F F F O
0.918787 0.943480 0.082086 F F F O
0.081213 0.443480 0.082086 F F F O
0.944691 0.504327 0.105524 F F F O
0.055309 0.004327 0.105524 F F F O
0.322795 0.926111 0.042686 F F F O
0.677205 0.426111 0.042686 F F F O
0.313918 0.066074 0.045362 F F F O
0.686082 0.566074 0.045362 F F F O
0.643576 0.041349 0.068663 F F F O
0.356424 0.541349 0.068663 F F F O
0.795305 0.153257 0.064934 F F F O
0.204695 0.653257 0.064934 F F F O
0.351974 0.154647 0.094778 F F F O
0.648026 0.654647 0.094778 F F F O
0.281781 0.224590 0.081770 F F F O
0.718219 0.724590 0.081770 F F F O
0.751546 0.252705 0.004891 T T T O
0.248454 0.752705 0.004891 T T T O
0.656290 0.330648 0.104541 F F F O
0.343710 0.830648 0.104541 F F F O
0.215121 0.332841 0.022659 T T T O
0.784879 0.832841 0.022659 T T T O
0.355777 0.446708 0.019383 F F F O
0.644223 0.946708 0.019383 F F F O
0.649890 0.536665 0.012328 T T T O
0.350110 0.036665 0.012328 T T T O
0.785996 0.649394 0.008715 T T T O
0.214004 0.149394 0.008715 T T T O
0.340793 0.651785 0.038306 F F F O
0.659207 0.151785 0.038306 F F F O
0.258044 0.728542 0.026448 F F F O
0.741956 0.228542 0.026448 F F F O
0.725734 0.758375 0.060958 F F F O
0.274266 0.258375 0.060958 F F F O
0.642950 0.828801 0.048136 F F F O
0.357050 0.328801 0.048136 F F F O
0.205272 0.829973 0.077747 F F F O
0.794728 0.329973 0.077747 F F F O
0.347295 0.944360 0.074483 F F F O
0.652705 0.444360 0.074483 F F F O
0.677470 0.919559 0.097836 F F F O
0.322530 0.419559 0.097836 F F F O
0.678914 0.057634 0.099782 F F F O
0.321086 0.557634 0.099782 F F F O
0.069000 0.035413 0.171481 F F F O
0.931000 0.535413 0.171481 F F F O
0.951087 0.140628 0.194836 F F F O
0.048913 0.640628 0.194836 F F F O
0.080018 0.275856 0.214666 F F F O
0.919982 0.775856 0.214666 F F F O
0.926681 0.392259 0.124472 F F F O
0.073319 0.892259 0.124472 F F F O
0.942022 0.978148 0.148133 F F F O
0.057978 0.478148 0.148133 F F F O
0.076781 0.590622 0.129254 F F F O
0.923219 0.090622 0.129254 F F F O
0.921841 0.709404 0.150013 F F F O
0.078159 0.209404 0.150013 F F F O
0.049265 0.843555 0.170016 F F F O
0.950735 0.343555 0.170016 F F F O
0.918787 0.943480 0.193198 F F F O
0.081213 0.443480 0.193198 F F F O
0.944691 0.504327 0.216635 F F F O
0.055309 0.004327 0.216635 F F F O
0.322795 0.926111 0.153797 F F F O
0.677205 0.426111 0.153797 F F F O
0.313918 0.066074 0.156473 F F F O
0.686082 0.566074 0.156473 F F F O
0.643576 0.041349 0.179775 F F F O
0.356424 0.541349 0.179775 F F F O
0.795305 0.153257 0.176045 F F F O
0.204695 0.653257 0.176045 F F F O
0.351974 0.154647 0.205889 F F F O
0.648026 0.654647 0.205889 F F F O
0.281781 0.224590 0.192881 F F F O
0.718219 0.724590 0.192881 F F F O
0.751546 0.252705 0.116002 F F F O
0.248454 0.752705 0.116002 F F F O
0.656290 0.330648 0.215652 F F F O
0.343710 0.830648 0.215652 F F F O
0.215121 0.332841 0.133770 F F F O
0.784879 0.832841 0.133770 F F F O
0.355777 0.446708 0.130495 F F F O
0.644223 0.946708 0.130495 F F F O
0.649890 0.536665 0.123439 F F F O
0.350110 0.036665 0.123439 F F F O
0.785996 0.649394 0.119826 F F F O
0.214004 0.149394 0.119826 F F F O
0.340793 0.651785 0.149417 F F F O
0.659207 0.151785 0.149417 F F F O
0.258044 0.728542 0.137559 F F F O
0.741956 0.228542 0.137559 F F F O
0.725734 0.758375 0.172070 F F F O
0.274266 0.258375 0.172070 F F F O
0.642950 0.828801 0.159247 F F F O
0.357050 0.328801 0.159247 F F F O
0.205272 0.829973 0.188858 F F F O
0.794728 0.329973 0.188858 F F F O
0.347295 0.944360 0.185594 F F F O
0.652705 0.444360 0.185594 F F F O
0.677470 0.919559 0.208947 F F F O
0.322530 0.419559 0.208947 F F F O
0.678914 0.057634 0.210893 F F F O
0.321086 0.557634 0.210893 F F F O
0.069000 0.035413 0.282592 F F F O
0.931000 0.535413 0.282592 F F F O
0.951087 0.140628 0.305947 F F F O
0.048913 0.640628 0.305947 F F F O
0.080018 0.275856 0.325777 F F F O
0.919982 0.775856 0.325777 F F F O
0.926681 0.392259 0.235583 F F F O
0.073319 0.892259 0.235583 F F F O
0.942022 0.978148 0.259244 F F F O
0.057978 0.478148 0.259244 F F F O
0.076781 0.590622 0.240365 F F F O
0.923219 0.090622 0.240365 F F F O
0.921841 0.709404 0.261124 F F F O
0.078159 0.209404 0.261124 F F F O
0.049265 0.843555 0.281127 F F F O
0.950735 0.343555 0.281127 F F F O
0.918787 0.943480 0.304309 F F F O
0.081213 0.443480 0.304309 F F F O
0.944691 0.504327 0.327746 F F F O
0.055309 0.004327 0.327746 F F F O
0.322795 0.926111 0.264908 F F F O
0.677205 0.426111 0.264908 F F F O
0.313918 0.066074 0.267584 F F F O
0.686082 0.566074 0.267584 F F F O
0.643576 0.041349 0.290886 F F F O
0.356424 0.541349 0.290886 F F F O
0.795305 0.153257 0.287156 F F F O
0.204695 0.653257 0.287156 F F F O
0.351974 0.154647 0.317000 F F F O
0.648026 0.654647 0.317000 F F F O
0.281781 0.224590 0.303992 F F F O
0.718219 0.724590 0.303992 F F F O
0.751546 0.252705 0.227113 F F F O
0.248454 0.752705 0.227113 F F F O
0.656290 0.330648 0.326763 F F F O
0.343710 0.830648 0.326763 F F F O
0.215121 0.332841 0.244881 F F F O
0.784879 0.832841 0.244881 F F F O
0.355777 0.446708 0.241606 F F F O
0.644223 0.946708 0.241606 F F F O
0.649890 0.536665 0.234551 F F F O
0.350110 0.036665 0.234551 F F F O
0.785996 0.649394 0.230937 F F F O
0.214004 0.149394 0.230937 F F F O
0.340793 0.651785 0.260528 F F F O
0.659207 0.151785 0.260528 F F F O
0.258044 0.728542 0.248670 F F F O
0.741956 0.228542 0.248670 F F F O
0.725734 0.758375 0.283181 F F F O
0.274266 0.258375 0.283181 F F F O
0.642950 0.828801 0.270358 F F F O
0.357050 0.328801 0.270358 F F F O
0.205272 0.829973 0.299970 F F F O
0.794728 0.329973 0.299970 F F F O
0.347295 0.944360 0.296706 F F F O
0.652705 0.444360 0.296706 F F F O
0.677470 0.919559 0.320059 F F F O
0.322530 0.419559 0.320059 F F F O
0.678914 0.057634 0.322004 F F F O
0.321086 0.557634 0.322004 F F F O
0.069000 0.035413 0.393703 F F F O
0.931000 0.535413 0.393703 F F F O
0.951087 0.140628 0.417058 F F F O
0.048913 0.640628 0.417058 F F F O
0.080018 0.275856 0.436888 F F F O
0.919982 0.775856 0.436888 F F F O
0.926681 0.392259 0.346694 F F F O
0.073319 0.892259 0.346694 F F F O
0.942022 0.978148 0.370355 F F F O
0.057978 0.478148 0.370355 F F F O
0.076781 0.590622 0.351476 F F F O
0.923219 0.090622 0.351476 F F F O
0.921841 0.709404 0.372236 F F F O
0.078159 0.209404 0.372236 F F F O
0.049265 0.843555 0.392238 F F F O
0.950735 0.343555 0.392238 F F F O
0.918787 0.943480 0.415420 F F F O
0.081213 0.443480 0.415420 F F F O
0.944691 0.504327 0.438857 F F F O
0.055309 0.004327 0.438857 F F F O
0.322795 0.926111 0.376019 F F F O
0.677205 0.426111 0.376019 F F F O
0.313918 0.066074 0.378695 F F F O
0.686082 0.566074 0.378695 F F F O
0.643576 0.041349 0.401997 F F F O
0.356424 0.541349 0.401997 F F F O
0.795305 0.153257 0.398267 F F F O
0.204695 0.653257 0.398267 F F F O
0.351974 0.154647 0.428112 F F F O
0.648026 0.654647 0.428112 F F F O
0.281781 0.224590 0.415103 F F F O
0.718219 0.724590 0.415103 F F F O
0.751546 0.252705 0.338224 F F F O
0.248454 0.752705 0.338224 F F F O
0.656290 0.330648 0.437874 F F F O
0.343710 0.830648 0.437874 F F F O
0.215121 0.332841 0.355992 F F F O
0.784879 0.832841 0.355992 F F F O
0.355777 0.446708 0.352717 F F F O
0.644223 0.946708 0.352717 F F F O
0.649890 0.536665 0.345662 F F F O
0.350110 0.036665 0.345662 F F F O
0.785996 0.649394 0.342048 F F F O
0.214004 0.149394 0.342048 F F F O
0.340793 0.651785 0.371639 F F F O
0.659207 0.151785 0.371639 F F F O
0.258044 0.728542 0.359782 F F F O
0.741956 0.228542 0.359782 F F F O
0.725734 0.758375 0.394292 F F F O
0.274266 0.258375 0.394292 F F F O
0.642950 0.828801 0.381470 F F F O
0.357050 0.328801 0.381470 F F F O
0.205272 0.829973 0.411081 F F F O
0.794728 0.329973 0.411081 F F F O
0.347295 0.944360 0.407817 F F F O
0.652705 0.444360 0.407817 F F F O
0.677470 0.919559 0.431170 F F F O
0.322530 0.419559 0.431170 F F F O
0.678914 0.057634 0.433115 F F F O
0.321086 0.557634 0.433115 F F F O
0.069000 0.035413 0.504815 F F F O
0.931000 0.535413 0.504815 F F F O
0.951087 0.140628 0.528169 F F F O
0.048913 0.640628 0.528169 F F F O
0.080018 0.275856 0.548000 F F F O
0.919982 0.775856 0.548000 F F F O
0.926681 0.392259 0.457806 F F F O
0.073319 0.892259 0.457806 F F F O
0.942022 0.978148 0.481466 F F F O
0.057978 0.478148 0.481466 F F F O
0.076781 0.590622 0.462587 F F F O
0.923219 0.090622 0.462587 F F F O
0.921841 0.709404 0.483347 F F F O
0.078159 0.209404 0.483347 F F F O
0.049265 0.843555 0.503349 F F F O
0.950735 0.343555 0.503349 F F F O
0.918787 0.943480 0.526531 F F F O
0.081213 0.443480 0.526531 F F F O
0.944691 0.504327 0.549969 F F F O
0.055309 0.004327 0.549969 F F F O
0.322795 0.926111 0.487130 F F F O
0.677205 0.426111 0.487130 F F F O
0.313918 0.066074 0.489806 F F F O
0.686082 0.566074 0.489806 F F F O
0.643576 0.041349 0.513108 F F F O
0.356424 0.541349 0.513108 F F F O
0.795305 0.153257 0.509378 F F F O
0.204695 0.653257 0.509378 F F F O
0.351974 0.154647 0.539223 F F F O
0.648026 0.654647 0.539223 F F F O
0.281781 0.224590 0.526214 F F F O
0.718219 0.724590 0.526214 F F F O
0.751546 0.252705 0.449335 F F F O
0.248454 0.752705 0.449335 F F F O
0.656290 0.330648 0.548985 F F F O
0.343710 0.830648 0.548985 F F F O
0.215121 0.332841 0.467103 F F F O
0.784879 0.832841 0.467103 F F F O
0.355777 0.446708 0.463828 F F F O
0.644223 0.946708 0.463828 F F F O
0.649890 0.536665 0.456773 F F F O
0.350110 0.036665 0.456773 F F F O
0.785996 0.649394 0.453159 F F F O
0.214004 0.149394 0.453159 F F F O
0.340793 0.651785 0.482750 F F F O
0.659207 0.151785 0.482750 F F F O
0.258044 0.728542 0.470893 F F F O
0.741956 0.228542 0.470893 F F F O
0.725734 0.758375 0.505403 F F F O
0.274266 0.258375 0.505403 F F F O
0.642950 0.828801 0.492581 F F F O
0.357050 0.328801 0.492581 F F F O
0.205272 0.829973 0.522192 F F F O
0.794728 0.329973 0.522192 F F F O
0.347295 0.944360 0.518928 F F F O
0.652705 0.444360 0.518928 F F F O
0.677470 0.919559 0.542281 F F F O
0.322530 0.419559 0.542281 F F F O
0.678914 0.057634 0.544226 F F F O
0.321086 0.557634 0.544226 F F F O
0.069000 0.035413 0.615926 F F F O
0.931000 0.535413 0.615926 F F F O
0.951087 0.140628 0.639281 F F F O
0.048913 0.640628 0.639281 F F F O
0.080018 0.275856 0.659111 F F F O
0.919982 0.775856 0.659111 F F F O
0.926681 0.392259 0.568917 F F F O
0.073319 0.892259 0.568917 F F F O
0.942022 0.978148 0.592577 F F F O
0.057978 0.478148 0.592577 F F F O
0.076781 0.590622 0.573698 F F F O
0.923219 0.090622 0.573698 F F F O
0.921841 0.709404 0.594458 F F F O
0.078159 0.209404 0.594458 F F F O
0.049265 0.843555 0.614461 F F F O
0.950735 0.343555 0.614461 F F F O
0.918787 0.943480 0.637642 F F F O
0.081213 0.443480 0.637642 F F F O
0.944691 0.504327 0.661080 F F F O
0.055309 0.004327 0.661080 F F F O
0.322795 0.926111 0.598241 F F F O
0.677205 0.426111 0.598241 F F F O
0.313918 0.066074 0.600917 F F F O
0.686082 0.566074 0.600917 F F F O
0.643576 0.041349 0.624219 F F F O
0.356424 0.541349 0.624219 F F F O
0.795305 0.153257 0.620489 F F F O
0.204695 0.653257 0.620489 F F F O
0.351974 0.154647 0.650334 F F F O
0.648026 0.654647 0.650334 F F F O
0.281781 0.224590 0.637325 F F F O
0.718219 0.724590 0.637325 F F F O
0.751546 0.252705 0.560446 F F F O
0.248454 0.752705 0.560446 F F F O
0.656290 0.330648 0.660096 F F F O
0.343710 0.830648 0.660096 F F F O
0.215121 0.332841 0.578214 F F F O
0.784879 0.832841 0.578214 F F F O
0.355777 0.446708 0.574939 F F F O
0.644223 0.946708 0.574939 F F F O
0.649890 0.536665 0.567884 F F F O
0.350110 0.036665 0.567884 F F F O
0.785996 0.649394 0.564270 F F F O
0.214004 0.149394 0.564270 F F F O
0.340793 0.651785 0.593861 F F F O
0.659207 0.151785 0.593861 F F F O
0.258044 0.728542 0.582004 F F F O
0.741956 0.228542 0.582004 F F F O
0.725734 0.758375 0.616514 F F F O
0.274266 0.258375 0.616514 F F F O
0.642950 0.828801 0.603692 F F F O
0.357050 0.328801 0.603692 F F F O
0.205272 0.829973 0.633303 F F F O
0.794728 0.329973 0.633303 F F F O
0.347295 0.944360 0.630039 F F F O
0.652705 0.444360 0.630039 F F F O
0.677470 0.919559 0.653392 F F F O
0.322530 0.419559 0.653392 F F F O
0.678914 0.057634 0.655337 F F F O
0.321086 0.557634 0.655337 F F F O
0.069000 0.035413 0.727037 F F F O
0.931000 0.535413 0.727037 F F F O
0.951087 0.140628 0.750392 F F F O
0.048913 0.640628 0.750392 F F F O
0.080018 0.275856 0.770222 F F F O
0.919982 0.775856 0.770222 F F F O
0.926681 0.392259 0.680028 F F F O
0.073319 0.892259 0.680028 F F F O
0.942022 0.978148 0.703688 F F F O
0.057978 0.478148 0.703688 F F F O
0.076781 0.590622 0.684809 F F F O
0.923219 0.090622 0.684809 F F F O
0.921841 0.709404 0.705569 F F F O
0.078159 0.209404 0.705569 F F F O
0.049265 0.843555 0.725572 F F F O
0.950735 0.343555 0.725572 F F F O
0.918787 0.943480 0.748753 F F F O
0.081213 0.443480 0.748753 F F F O
0.944691 0.504327 0.772191 F F F O
0.055309 0.004327 0.772191 F F F O
0.322795 0.926111 0.709353 F F F O
0.677205 0.426111 0.709353 F F F O
0.313918 0.066074 0.712028 F F F O
0.686082 0.566074 0.712028 F F F O
0.643576 0.041349 0.735330 F F F O
0.356424 0.541349 0.735330 F F F O
0.795305 0.153257 0.731600 F F F O
0.204695 0.653257 0.731600 F F F O
0.351974 0.154647 0.761445 F F F O
0.648026 0.654647 0.761445 F F F O
0.281781 0.224590 0.748437 F F F O
0.718219 0.724590 0.748437 F F F O
0.751546 0.252705 0.671557 F F F O
0.248454 0.752705 0.671557 F F F O
0.656290 0.330648 0.771207 F F F O
0.343710 0.830648 0.771207 F F F O
0.215121 0.332841 0.689326 F F F O
0.784879 0.832841 0.689326 F F F O
0.355777 0.446708 0.686050 F F F O
0.644223 0.946708 0.686050 F F F O
0.649890 0.536665 0.678995 F F F O
0.350110 0.036665 0.678995 F F F O
0.785996 0.649394 0.675381 F F F O
0.214004 0.149394 0.675381 F F F O
0.340793 0.651785 0.704972 F F F O
0.659207 0.151785 0.704972 F F F O
0.258044 0.728542 0.693115 F F F O
0.741956 0.228542 0.693115 F F F O
0.725734 0.758375 0.727625 F F F O
0.274266 0.258375 0.727625 F F F O
0.642950 0.828801 0.714803 F F F O
0.357050 0.328801 0.714803 F F F O
0.205272 0.829973 0.744414 F F F O
0.794728 0.329973 0.744414 F F F O
0.347295 0.944360 0.741150 F F F O
0.652705 0.444360 0.741150 F F F O
0.677470 0.919559 0.764503 T T T O
0.322530 0.419559 0.764503 T T T O
0.678914 0.057634 0.766448 F F F O
0.321086 0.557634 0.766448 F F F O
