Li61 P7 N32                             
   1.00000000000000     
     0.0000039915551938    9.4720700604702781    0.0000000113749351
     0.0000279819965724    0.0000002087112590    9.5773807650179776
     9.5773685571035116    0.0000042374684475    0.0000280138226799
   Li   P    N 
    61     7    32
Direct
  0.4940435011163941  0.0000014155515953  0.5000016237301921
 -0.0052206331652905  0.5000037643166992  0.0000013591501460
  0.4906117668273482  0.0000029475133461  0.0000095642331452
  0.0059651095982677  0.0000008806067654  0.4999977823878142
  0.5052174042808889  0.5000007068590741 -0.0000078676587823
  0.0093828122980218  0.4999980634994875  0.5000012874141876
  0.7500058954452810 -0.0000063521206491  0.5000037531692879
  0.2500021948036887 -0.0000003066553347  0.5000014337939550
  0.7661328238686971  0.4999944215373678  0.4999974837991678
  0.2436404474087494  0.5000017630226953  0.4999992420571234
  0.2563505777290752  0.0000015895804275  0.0000032073700590
  0.7338675717186762 -0.0000027879573782 -0.0000151021830135
  0.7499966224425260  0.5000302618304487 -0.0000047956716062
  0.5067502485777812  0.2482832638726444 -0.0158437504326301
  0.5067356446892279  0.7517191497794279  0.0158478725355545
 -0.0067503008976909  0.4841547232637046  0.2517227556031391
 -0.0067507435056179  0.5158408276596246  0.7482882379680686
  0.2339155294091687  0.2106316814707013  0.2182806927602047
  0.2339190147710065  0.7893628840480230  0.7817297364469942
  0.2660917265485453  0.2817122810217502  0.7106313373607323
  0.2660959131353524  0.7182824111785366  0.2893781878397348
  0.7877043742435946  0.3145492792851088  0.3312641071334879
  0.7877106763447206  0.6854425922547580  0.6687238291740162
  0.7123037402298871  0.1687343970079198  0.8145470135733155
  0.7122858677878861  0.8312766819364933  0.1854361726183947
  0.9879238306265777  0.2353273557835260  0.2452130351671032
  0.9879187003514459  0.7646717286913355  0.7547857391869640
  0.2692668858734841  0.2448120223681672  0.4691885329396856
  0.2692743455489982  0.7551916502605570  0.5308203400384830
  0.7556677812469790  0.2196954834690563  0.5645302523373547
  0.7556831680335544  0.7803070453848278  0.4354435180706394
  0.7499688241618647  0.5782374488026262  0.2848452338994725
  0.7499631438347635  0.4217523090222675  0.7151467530813677
  0.2307402319527997  0.4592045664005643  0.2561530871649469
  0.2307452683102696  0.5407920475927986  0.7438449925295003
  0.5120833223999354  0.7452131912653815  0.2646781410350155
  0.5120840184690053  0.2547814826829950  0.7353280777621086
  0.2307286669705485  0.9691842806669680  0.2551947181793052
  0.2307312127585993  0.0308100111884535  0.7448084834078286
  0.2692532390430999  0.2438478175917222  0.9592068433737968
  0.2692464408876848  0.7561551947790203  0.0408023298529416
  0.7443304914622717  0.9354400880996462  0.7197017638980523
  0.7443266313337591  0.0645438539098510  0.2803059418123388
  0.7500111815963442  0.7848307919641436  0.9217789000934796
  0.7500288986173281  0.2151502389933001  0.0782378051881945
  0.0224107743424691  0.2604749639837219  0.7628377585677429
  0.0224311427369694  0.7395219154980588  0.2371650120857445
  0.4775854433207761  0.2628356246748597  0.2395246888976248
  0.4775832071249120  0.7371661946738870  0.7604789660388936
  0.0237013211432864  0.2598658316085556  0.0237934674801117
  0.0237015947523400  0.7401308520136779 -0.0238013783957029
  0.5125555118756355  0.2394147704992793  0.4841541848459089
  0.5125676657611883  0.7605873259848116  0.5158444721717260
  0.4762976055618154  0.5237983613236992  0.2401328548334221
  0.4762930444261561  0.4761929780698387  0.7598675678278246
 -0.0125612380856109 -0.0158420426016486  0.2605876987496846
 -0.0125568958191548  0.0158404854175408  0.7394116963535440
  0.8346981951870027  0.3277139511312266  0.9196193407883656
  0.8347167873735042  0.6723257309028569  0.0804092250005486
  0.6652923224771646  0.4196097539153560  0.1722936964603787
  0.6652865023515828  0.5803909579241920  0.8276691427402219
  0.5019356737994758  0.4999992430596020  0.4999996441214998
 -0.0019365263993963  0.0000001013949444  0.0000018834435776
  0.2499968504213396  0.5000011168840395 -0.0000001052154660
  0.0075249005379886  0.7500595842758230  0.4974414040627668
  0.0075175258486942  0.2499396779817587  0.5025557607622025
  0.4924805789409160  0.0025565460787602  0.2500623773524081
  0.4924839054703362 -0.0025590564878738  0.7499408022676624
  0.6059637236167463  0.5902504771606407  0.6134364061024260
  0.6059608854951684  0.4097447054894283  0.3865606799247452
  0.8940396634193392  0.8865654056350206  0.0902590345420040
  0.8940427153388287  0.1134399445769783  0.9097443624674538
  0.1011824345671024  0.9106949876953071  0.8878304449851091
  0.1011836721335227  0.0893051209682908  0.1121733927831127
  0.3988195307637172  0.6121737602859935  0.4106981311101976
  0.3988157221369173  0.3878265880454573  0.5893015056191224
  0.1043226918101081  0.3455129229519825  0.3898574829760387
  0.1043250338338759  0.6544852795823235  0.6101409619775174
  0.1152829565241526  0.1514648023628351  0.6027605367823810
  0.1152892653994117  0.8485363384852765  0.3972398812360981
  0.8910327516408314  0.1471039780950515  0.4125646723242534
  0.8910349349171913  0.8528926680643465  0.5874301155615441
  0.8653585190062397  0.3741161016161579  0.1338592034498385
  0.8653597375959470  0.6258886296521985  0.8661398847639782
  0.1500477525401607  0.5979304606027646  0.1118706408651284
  0.1500502371516005  0.4020731435355847  0.8881315348587026
  0.3956748202664794  0.8898557322917821  0.1544923853588835
  0.3956776309898592  0.1101416639317793  0.8455103331070971
  0.3847155367999787  0.1027602573596986  0.3485371289789111
  0.3847185704865775  0.8972368042646302  0.6514639205903574
  0.3499479718332462  0.3881332873365484  0.0979303019642032
  0.3499451193474815  0.6118733800243888  0.9020712236771471
  0.6089739993437125  0.0874288013307895  0.6471064820752627
  0.6089694105909030  0.9125691713969409  0.3528969539678550
  0.6346428649446921  0.6338711408786820  0.1258825588126297
  0.6346359591940858  0.3661446854708607  0.8741172688511554
  0.9087217854874799  0.3541610547005532  0.6056050401351284
  0.9087328538267450  0.6458363786688237  0.3943875734427798
  0.5912710337964210  0.1056043399783750  0.1458345318355056
  0.5912702528665871  0.8943879700730952  0.8541656104414784
 
  0.00000000E+00  0.00000000E+00  0.00000000E+00
  0.00000000E+00  0.00000000E+00  0.00000000E+00
  0.00000000E+00  0.00000000E+00  0.00000000E+00
  0.00000000E+00  0.00000000E+00  0.00000000E+00
  0.00000000E+00  0.00000000E+00  0.00000000E+00
  0.00000000E+00  0.00000000E+00  0.00000000E+00
  0.00000000E+00  0.00000000E+00  0.00000000E+00
  0.00000000E+00  0.00000000E+00  0.00000000E+00
  0.00000000E+00  0.00000000E+00  0.00000000E+00
  0.00000000E+00  0.00000000E+00  0.00000000E+00
  0.00000000E+00  0.00000000E+00  0.00000000E+00
  0.00000000E+00  0.00000000E+00  0.00000000E+00
  0.00000000E+00  0.00000000E+00  0.00000000E+00
  0.00000000E+00  0.00000000E+00  0.00000000E+00
  0.00000000E+00  0.00000000E+00  0.00000000E+00
  0.00000000E+00  0.00000000E+00  0.00000000E+00
  0.00000000E+00  0.00000000E+00  0.00000000E+00
  0.00000000E+00  0.00000000E+00  0.00000000E+00
  0.00000000E+00  0.00000000E+00  0.00000000E+00
  0.00000000E+00  0.00000000E+00  0.00000000E+00
  0.00000000E+00  0.00000000E+00  0.00000000E+00
  0.00000000E+00  0.00000000E+00  0.00000000E+00
  0.00000000E+00  0.00000000E+00  0.00000000E+00
  0.00000000E+00  0.00000000E+00  0.00000000E+00
  0.00000000E+00  0.00000000E+00  0.00000000E+00
  0.00000000E+00  0.00000000E+00  0.00000000E+00
  0.00000000E+00  0.00000000E+00  0.00000000E+00
  0.00000000E+00  0.00000000E+00  0.00000000E+00
  0.00000000E+00  0.00000000E+00  0.00000000E+00
  0.00000000E+00  0.00000000E+00  0.00000000E+00
  0.00000000E+00  0.00000000E+00  0.00000000E+00
  0.00000000E+00  0.00000000E+00  0.00000000E+00
  0.00000000E+00  0.00000000E+00  0.00000000E+00
  0.00000000E+00  0.00000000E+00  0.00000000E+00
  0.00000000E+00  0.00000000E+00  0.00000000E+00
  0.00000000E+00  0.00000000E+00  0.00000000E+00
  0.00000000E+00  0.00000000E+00  0.00000000E+00
  0.00000000E+00  0.00000000E+00  0.00000000E+00
  0.00000000E+00  0.00000000E+00  0.00000000E+00
  0.00000000E+00  0.00000000E+00  0.00000000E+00
  0.00000000E+00  0.00000000E+00  0.00000000E+00
  0.00000000E+00  0.00000000E+00  0.00000000E+00
  0.00000000E+00  0.00000000E+00  0.00000000E+00
  0.00000000E+00  0.00000000E+00  0.00000000E+00
  0.00000000E+00  0.00000000E+00  0.00000000E+00
  0.00000000E+00  0.00000000E+00  0.00000000E+00
  0.00000000E+00  0.00000000E+00  0.00000000E+00
  0.00000000E+00  0.00000000E+00  0.00000000E+00
  0.00000000E+00  0.00000000E+00  0.00000000E+00
  0.00000000E+00  0.00000000E+00  0.00000000E+00
  0.00000000E+00  0.00000000E+00  0.00000000E+00
  0.00000000E+00  0.00000000E+00  0.00000000E+00
  0.00000000E+00  0.00000000E+00  0.00000000E+00
  0.00000000E+00  0.00000000E+00  0.00000000E+00
  0.00000000E+00  0.00000000E+00  0.00000000E+00
  0.00000000E+00  0.00000000E+00  0.00000000E+00
  0.00000000E+00  0.00000000E+00  0.00000000E+00
  0.00000000E+00  0.00000000E+00  0.00000000E+00
  0.00000000E+00  0.00000000E+00  0.00000000E+00
  0.00000000E+00  0.00000000E+00  0.00000000E+00
  0.00000000E+00  0.00000000E+00  0.00000000E+00
  0.00000000E+00  0.00000000E+00  0.00000000E+00
  0.00000000E+00  0.00000000E+00  0.00000000E+00
  0.00000000E+00  0.00000000E+00  0.00000000E+00
  0.00000000E+00  0.00000000E+00  0.00000000E+00
  0.00000000E+00  0.00000000E+00  0.00000000E+00
  0.00000000E+00  0.00000000E+00  0.00000000E+00
  0.00000000E+00  0.00000000E+00  0.00000000E+00
  0.00000000E+00  0.00000000E+00  0.00000000E+00
  0.00000000E+00  0.00000000E+00  0.00000000E+00
  0.00000000E+00  0.00000000E+00  0.00000000E+00
  0.00000000E+00  0.00000000E+00  0.00000000E+00
  0.00000000E+00  0.00000000E+00  0.00000000E+00
  0.00000000E+00  0.00000000E+00  0.00000000E+00
  0.00000000E+00  0.00000000E+00  0.00000000E+00
  0.00000000E+00  0.00000000E+00  0.00000000E+00
  0.00000000E+00  0.00000000E+00  0.00000000E+00
  0.00000000E+00  0.00000000E+00  0.00000000E+00
  0.00000000E+00  0.00000000E+00  0.00000000E+00
  0.00000000E+00  0.00000000E+00  0.00000000E+00
  0.00000000E+00  0.00000000E+00  0.00000000E+00
  0.00000000E+00  0.00000000E+00  0.00000000E+00
  0.00000000E+00  0.00000000E+00  0.00000000E+00
  0.00000000E+00  0.00000000E+00  0.00000000E+00
  0.00000000E+00  0.00000000E+00  0.00000000E+00
  0.00000000E+00  0.00000000E+00  0.00000000E+00
  0.00000000E+00  0.00000000E+00  0.00000000E+00
  0.00000000E+00  0.00000000E+00  0.00000000E+00
  0.00000000E+00  0.00000000E+00  0.00000000E+00
  0.00000000E+00  0.00000000E+00  0.00000000E+00
  0.00000000E+00  0.00000000E+00  0.00000000E+00
  0.00000000E+00  0.00000000E+00  0.00000000E+00
  0.00000000E+00  0.00000000E+00  0.00000000E+00
  0.00000000E+00  0.00000000E+00  0.00000000E+00
  0.00000000E+00  0.00000000E+00  0.00000000E+00
  0.00000000E+00  0.00000000E+00  0.00000000E+00
  0.00000000E+00  0.00000000E+00  0.00000000E+00
  0.00000000E+00  0.00000000E+00  0.00000000E+00
  0.00000000E+00  0.00000000E+00  0.00000000E+00
  0.00000000E+00  0.00000000E+00  0.00000000E+00
