Li5 P2 N1 O6                            
   1.00000000000000     
     0.0404702603314513    0.0524051770171942    5.1250242384379021
     5.8428211492651299    0.0102788291621473    0.0393252156062059
     0.0152800075152831    5.3975146952459170    0.0522906101215484
   Li   P    N    O 
     5     2     1     6
Direct
  0.5195163221155934 -0.0230682316621221  0.8645695041015625
  0.4857786682236327  0.7404867430069614  0.3421483841473249
  0.0055612343437164  0.7497086637522330  0.6745591709552176
  0.0137232467281707  0.2153830253267296  0.6732344138101665
  0.4849734436501357  0.2227314196611830  0.3487450206554276
  0.4945697525220973  0.4803567942639617  0.7934198535771901
 -0.0073646011174886  0.0520056383519971  0.1692235701247763
  0.4696815585651276  0.4802346227815232  0.0948688892668610
  0.6346221294055248  0.6969902738530511  0.6836777852854863
  0.1566701792527867  0.9811563063570417  0.3992825390302562
  0.6393749162280560  0.2609148338253949  0.6878101795534430
  0.1259548780112950 -0.0218704777623524  0.9211166456781963
  0.2137957906919901  0.4812730563435721  0.6885318765351075
  0.7045154813793896 -0.0234406680991750  0.1898231672789839
 
  0.00000000E+00  0.00000000E+00  0.00000000E+00
  0.00000000E+00  0.00000000E+00  0.00000000E+00
  0.00000000E+00  0.00000000E+00  0.00000000E+00
  0.00000000E+00  0.00000000E+00  0.00000000E+00
  0.00000000E+00  0.00000000E+00  0.00000000E+00
  0.00000000E+00  0.00000000E+00  0.00000000E+00
  0.00000000E+00  0.00000000E+00  0.00000000E+00
  0.00000000E+00  0.00000000E+00  0.00000000E+00
  0.00000000E+00  0.00000000E+00  0.00000000E+00
  0.00000000E+00  0.00000000E+00  0.00000000E+00
  0.00000000E+00  0.00000000E+00  0.00000000E+00
  0.00000000E+00  0.00000000E+00  0.00000000E+00
  0.00000000E+00  0.00000000E+00  0.00000000E+00
  0.00000000E+00  0.00000000E+00  0.00000000E+00
