(2, -1, 2)                              
   1.00000000000000     
     7.3532452173907181    0.0000033796855192    0.0000183474172792
     0.0000145729953166    7.6600616331723304    4.3695836132892101
     0.0001101787776806    0.4668483418028941   42.8443111343457588
   Li   P 
    48    16
Selective dynamics
Direct
  0.5328255488888408  0.7922768260450285  0.0241822711429370   T   T   T
 -0.0002001838260415  0.7111731131297221  0.0828216154502989   T   T   T
  0.5002045928304554  0.2111732797505153  0.0828245582090741   T   T   T
 -0.0328212071359070  0.2922814894729244  0.0241815651485592   T   T   T
  0.3808832576559537  0.0649087687483884  0.0491970315496624   T   T   T
  0.8333330000000032  0.0841190000000012  0.0915880000000016   F   F   F
  0.1191195541867657  0.5648913273030025  0.0491988625122735   T   T   T
  0.6666669999999968  0.5841190000000012  0.0915880000000016   F   F   F
  0.1088505422302671  0.9092848256595616  0.0202094587039521   T   T   T
  0.7292489129659034  0.9317993036658263  0.0550080938995771   T   T   T
  0.3911456514614396  0.4092760723824285  0.0202085960063816   T   T   T
  0.7707528893370440  0.4318086299929854  0.0550072170240634   T   T   T
  0.5000000000000000  0.7500000000000000  0.1250000000000000   F   F   F
  0.0000000000000000  0.7500000000000000  0.1749999999999972   F   F   F
  0.5000000000000000  0.2500000000000000  0.1749999999999972   F   F   F
  0.0000000000000000  0.2500000000000000  0.1250000000000000   F   F   F
  0.3333330000000032  0.0841190000000012  0.1415879999999987   F   F   F
  0.8333330000000032  0.0841190000000012  0.1915880000000030   F   F   F
  0.1666669999999968  0.5841190000000012  0.1415879999999987   F   F   F
  0.6666669999999968  0.5841190000000012  0.1915880000000030   F   F   F
  0.1666669999999968  0.9158809999999988  0.1084120000000013   F   F   F
  0.6666669999999968  0.9158809999999988  0.1584119999999984   F   F   F
  0.3333330000000032  0.4158809999999988  0.1084120000000013   F   F   F
  0.8333330000000032  0.4158809999999988  0.1584119999999984   F   F   F
  0.5000000000000000  0.7500000000000000  0.2250000000000014   F   F   F
  0.0000000000000000  0.7500000000000000  0.2749999999999986   F   F   F
  0.5000000000000000  0.2500000000000000  0.2749999999999986   F   F   F
  0.0000000000000000  0.2500000000000000  0.2250000000000014   F   F   F
  0.3333330000000032  0.0841190000000012  0.2415880000000001   F   F   F
  0.8333330000000032  0.0841190000000012  0.2915879999999973   F   F   F
  0.1666669999999968  0.5841190000000012  0.2415880000000001   F   F   F
  0.6666669999999968  0.5841190000000012  0.2915879999999973   F   F   F
  0.1666669999999968  0.9158809999999988  0.2084120000000027   F   F   F
  0.6666669999999968  0.9158809999999988  0.2584119999999999   F   F   F
  0.3333330000000032  0.4158809999999988  0.2084120000000027   F   F   F
  0.8333330000000032  0.4158809999999988  0.2584119999999999   F   F   F
  0.4997970753361659  0.7888194937170889  0.3171731971136318   T   T   T
  0.0328206584327855  0.7077102274007405  0.3758190661976822   T   T   T
  0.4671622092818624  0.2077188287879273  0.3758218507023565   T   T   T
  0.0001989944658054  0.2888269839132494  0.3171733946895184   T   T   T
  0.2707359889700723  0.0682137161149323  0.3449878121838843   T   T   T
  0.8911672185874475  0.0907029715054668  0.3797910529044917   T   T   T
  0.2292416177231401  0.5682121998050700  0.3449881465444906   T   T   T
  0.6088386886826976  0.5907251825330583  0.3797906335758235   T   T   T
  0.1666669999999968  0.9158809999999988  0.3084119999999970   F   F   F
  0.6191093171850639  0.9350954705366946  0.3508043859564156   T   T   T
  0.3333330000000032  0.4158809999999988  0.3084119999999970   F   F   F
  0.8808916132935770  0.4350906967387768  0.3508062827350280   T   T   T
  0.3333330000000032  0.7500000000000000  0.0750000000000028   F   F   F
  0.8462028606725787  0.7389262583496291  0.0308001386404804   T   T   T
  0.1666669999999968  0.2500000000000000  0.0750000000000028   F   F   F
  0.6538051447347872  0.2389235753907986  0.0308023109431872   T   T   T
  0.3333330000000032  0.7500000000000000  0.1749999999999972   F   F   F
  0.8333330000000032  0.7500000000000000  0.1250000000000000   F   F   F
  0.1666669999999968  0.2500000000000000  0.1749999999999972   F   F   F
  0.6666669999999968  0.2500000000000000  0.1250000000000000   F   F   F
  0.3333330000000032  0.7500000000000000  0.2749999999999986   F   F   F
  0.8333330000000032  0.7500000000000000  0.2250000000000014   F   F   F
  0.1666669999999968  0.2500000000000000  0.2749999999999986   F   F   F
  0.6666669999999968  0.2500000000000000  0.2250000000000014   F   F   F
  0.3461839143657644  0.7610835579943134  0.3691947912537110   T   T   T
  0.8333330000000032  0.7500000000000000  0.3250000000000028   F   F   F
  0.1538037535319252  0.2610814657850513  0.3691961870288383   T   T   T
  0.6666669999999968  0.2500000000000000  0.3250000000000028   F   F   F
 
  0.00000000E+00  0.00000000E+00  0.00000000E+00
  0.00000000E+00  0.00000000E+00  0.00000000E+00
  0.00000000E+00  0.00000000E+00  0.00000000E+00
  0.00000000E+00  0.00000000E+00  0.00000000E+00
  0.00000000E+00  0.00000000E+00  0.00000000E+00
  0.00000000E+00  0.00000000E+00  0.00000000E+00
  0.00000000E+00  0.00000000E+00  0.00000000E+00
  0.00000000E+00  0.00000000E+00  0.00000000E+00
  0.00000000E+00  0.00000000E+00  0.00000000E+00
  0.00000000E+00  0.00000000E+00  0.00000000E+00
  0.00000000E+00  0.00000000E+00  0.00000000E+00
  0.00000000E+00  0.00000000E+00  0.00000000E+00
  0.00000000E+00  0.00000000E+00  0.00000000E+00
  0.00000000E+00  0.00000000E+00  0.00000000E+00
  0.00000000E+00  0.00000000E+00  0.00000000E+00
  0.00000000E+00  0.00000000E+00  0.00000000E+00
  0.00000000E+00  0.00000000E+00  0.00000000E+00
  0.00000000E+00  0.00000000E+00  0.00000000E+00
  0.00000000E+00  0.00000000E+00  0.00000000E+00
  0.00000000E+00  0.00000000E+00  0.00000000E+00
  0.00000000E+00  0.00000000E+00  0.00000000E+00
  0.00000000E+00  0.00000000E+00  0.00000000E+00
  0.00000000E+00  0.00000000E+00  0.00000000E+00
  0.00000000E+00  0.00000000E+00  0.00000000E+00
  0.00000000E+00  0.00000000E+00  0.00000000E+00
  0.00000000E+00  0.00000000E+00  0.00000000E+00
  0.00000000E+00  0.00000000E+00  0.00000000E+00
  0.00000000E+00  0.00000000E+00  0.00000000E+00
  0.00000000E+00  0.00000000E+00  0.00000000E+00
  0.00000000E+00  0.00000000E+00  0.00000000E+00
  0.00000000E+00  0.00000000E+00  0.00000000E+00
  0.00000000E+00  0.00000000E+00  0.00000000E+00
  0.00000000E+00  0.00000000E+00  0.00000000E+00
  0.00000000E+00  0.00000000E+00  0.00000000E+00
  0.00000000E+00  0.00000000E+00  0.00000000E+00
  0.00000000E+00  0.00000000E+00  0.00000000E+00
  0.00000000E+00  0.00000000E+00  0.00000000E+00
  0.00000000E+00  0.00000000E+00  0.00000000E+00
  0.00000000E+00  0.00000000E+00  0.00000000E+00
  0.00000000E+00  0.00000000E+00  0.00000000E+00
  0.00000000E+00  0.00000000E+00  0.00000000E+00
  0.00000000E+00  0.00000000E+00  0.00000000E+00
  0.00000000E+00  0.00000000E+00  0.00000000E+00
  0.00000000E+00  0.00000000E+00  0.00000000E+00
  0.00000000E+00  0.00000000E+00  0.00000000E+00
  0.00000000E+00  0.00000000E+00  0.00000000E+00
  0.00000000E+00  0.00000000E+00  0.00000000E+00
  0.00000000E+00  0.00000000E+00  0.00000000E+00
  0.00000000E+00  0.00000000E+00  0.00000000E+00
  0.00000000E+00  0.00000000E+00  0.00000000E+00
  0.00000000E+00  0.00000000E+00  0.00000000E+00
  0.00000000E+00  0.00000000E+00  0.00000000E+00
  0.00000000E+00  0.00000000E+00  0.00000000E+00
  0.00000000E+00  0.00000000E+00  0.00000000E+00
  0.00000000E+00  0.00000000E+00  0.00000000E+00
  0.00000000E+00  0.00000000E+00  0.00000000E+00
  0.00000000E+00  0.00000000E+00  0.00000000E+00
  0.00000000E+00  0.00000000E+00  0.00000000E+00
  0.00000000E+00  0.00000000E+00  0.00000000E+00
  0.00000000E+00  0.00000000E+00  0.00000000E+00
  0.00000000E+00  0.00000000E+00  0.00000000E+00
  0.00000000E+00  0.00000000E+00  0.00000000E+00
  0.00000000E+00  0.00000000E+00  0.00000000E+00
  0.00000000E+00  0.00000000E+00  0.00000000E+00
