(2, -1, 2)
1.0
7.336722 0.000000 0.000000
-0.000000 7.570718 4.235858
0.000000 0.000000 42.358582
Li P
48 16
Selective dynamics
direct
0.500000 0.750000 0.025000 T T T Li+
0.000000 0.750000 0.075000 T T T Li+
0.500000 0.250000 0.075000 T T T Li+
0.000000 0.250000 0.025000 T T T Li+
0.333333 0.084119 0.041588 T T T Li+
0.833333 0.084119 0.091588 F F F Li+
0.166667 0.584119 0.041588 T T T Li+
0.666667 0.584119 0.091588 F F F Li+
0.166667 0.915881 0.008412 T T T Li+
0.666667 0.915881 0.058412 T T T Li+
0.333333 0.415881 0.008412 T T T Li+
0.833333 0.415881 0.058412 T T T Li+
0.500000 0.750000 0.125000 F F F Li+
0.000000 0.750000 0.175000 F F F Li+
0.500000 0.250000 0.175000 F F F Li+
0.000000 0.250000 0.125000 F F F Li+
0.333333 0.084119 0.141588 F F F Li+
0.833333 0.084119 0.191588 F F F Li+
0.166667 0.584119 0.141588 F F F Li+
0.666667 0.584119 0.191588 F F F Li+
0.166667 0.915881 0.108412 F F F Li+
0.666667 0.915881 0.158412 F F F Li+
0.333333 0.415881 0.108412 F F F Li+
0.833333 0.415881 0.158412 F F F Li+
0.500000 0.750000 0.225000 F F F Li+
0.000000 0.750000 0.275000 F F F Li+
0.500000 0.250000 0.275000 F F F Li+
0.000000 0.250000 0.225000 F F F Li+
0.333333 0.084119 0.241588 F F F Li+
0.833333 0.084119 0.291588 F F F Li+
0.166667 0.584119 0.241588 F F F Li+
0.666667 0.584119 0.291588 F F F Li+
0.166667 0.915881 0.208412 F F F Li+
0.666667 0.915881 0.258412 F F F Li+
0.333333 0.415881 0.208412 F F F Li+
0.833333 0.415881 0.258412 F F F Li+
0.500000 0.750000 0.325000 T T T Li+
0.000000 0.750000 0.375000 T T T Li+
0.500000 0.250000 0.375000 T T T Li+
0.000000 0.250000 0.325000 T T T Li+
0.333333 0.084119 0.341588 T T T Li+
0.833333 0.084119 0.391588 T T T Li+
0.166667 0.584119 0.341588 T T T Li+
0.666667 0.584119 0.391588 T T T Li+
0.166667 0.915881 0.308412 F F F Li+
0.666667 0.915881 0.358412 T T T Li+
0.333333 0.415881 0.308412 F F F Li+
0.833333 0.415881 0.358412 T T T Li+
0.333333 0.750000 0.075000 F F F P3+
0.833333 0.750000 0.025000 T T T P3+
0.166667 0.250000 0.075000 F F F P3+
0.666667 0.250000 0.025000 T T T P3+
0.333333 0.750000 0.175000 F F F P3+
0.833333 0.750000 0.125000 F F F P3+
0.166667 0.250000 0.175000 F F F P3+
0.666667 0.250000 0.125000 F F F P3+
0.333333 0.750000 0.275000 F F F P3+
0.833333 0.750000 0.225000 F F F P3+
0.166667 0.250000 0.275000 F F F P3+
0.666667 0.250000 0.225000 F F F P3+
0.333333 0.750000 0.375000 T T T P3+
0.833333 0.750000 0.325000 F F F P3+
0.166667 0.250000 0.375000 T T T P3+
0.666667 0.250000 0.325000 F F F P3+
