P14 N14 O14
1.0
4.524130 0.000000 0.000000
-2.262065 4.269245 0.112368
0.000000 0.000000 51.813600
P N O
14 14 14
direct
0.191565 0.383130 0.957771 P5+
0.884743 0.769485 0.936306 P5+
0.883873 0.767746 0.880847 P5+
0.577050 0.154100 0.859383 P5+
0.576181 0.152361 0.803924 P5+
0.269358 0.538716 0.782460 P5+
0.268488 0.536976 0.727001 P5+
0.961666 0.923331 0.705537 P5+
0.960796 0.921592 0.650078 P5+
0.653973 0.307947 0.628614 P5+
0.653104 0.306207 0.573155 P5+
0.346281 0.692562 0.551691 P5+
0.345411 0.690823 0.496232 P5+
0.038589 0.077177 0.474768 P5+
0.051231 0.384000 0.985500 N3-
0.178923 0.076308 0.947038 N3-
0.743539 0.768615 0.908577 N3-
0.871231 0.460923 0.870115 N3-
0.435846 0.153231 0.831654 N3-
0.563538 0.845538 0.793192 N3-
0.128154 0.537846 0.754731 N3-
0.255846 0.230154 0.716269 N3-
0.820462 0.922462 0.677808 N3-
0.948154 0.614769 0.639346 N3-
0.512769 0.307077 0.600885 N3-
0.640461 0.999385 0.562423 N3-
0.205077 0.691692 0.523962 N3-
0.332769 0.384000 0.485500 N3-
0.000308 0.500615 0.937577 O2-
0.576000 0.652000 0.956500 O2-
0.692615 0.885231 0.860654 O2-
0.268308 0.036615 0.879577 O2-
0.384923 0.269846 0.783731 O2-
0.960615 0.421231 0.802654 O2-
0.077231 0.654462 0.706808 O2-
0.652923 0.805846 0.725731 O2-
0.769538 0.039077 0.629885 O2-
0.345231 0.190462 0.648808 O2-
0.461846 0.423692 0.552962 O2-
0.037538 0.575077 0.571885 O2-
0.154154 0.808308 0.476038 O2-
0.729846 0.959692 0.494962 O2-
