P14 N14 O14
1.0
4.524130 0.000000 0.000000
-2.262065 4.269245 0.112368
0.000000 0.000000 51.813600
P N O
14 14 14
Selective dynamics
direct
0.076796 0.153592 0.929078 F F F P
0.077666 0.155331 0.984537 T T T P
0.769104 0.538207 0.852155 F F F P
0.769973 0.539947 0.907614 F F F P
0.461411 0.922823 0.775232 F F F P
0.462281 0.924562 0.830691 F F F P
0.153719 0.307438 0.698309 F F F P
0.154589 0.309177 0.753768 F F F P
0.846027 0.692053 0.621386 F F F P
0.846896 0.693793 0.676845 F F F P
0.538334 0.076669 0.544463 F F F P
0.539204 0.078408 0.599922 F F F P
0.230642 0.461284 0.467540 T T T P
0.231512 0.463024 0.522999 F F F P
0.936462 0.154462 0.956808 T T T N
0.371846 0.462154 0.995269 T T T N
0.628769 0.539077 0.879885 F F F N
0.064154 0.846769 0.918346 F F F N
0.321077 0.923692 0.802962 F F F N
0.756461 0.231385 0.841423 F F F N
0.013385 0.308308 0.726038 F F F N
0.448769 0.616000 0.764500 F F F N
0.705693 0.692923 0.649115 F F F N
0.141077 0.000615 0.687577 F F F N
0.398000 0.077538 0.572192 F F F N
0.833384 0.385231 0.610654 F F F N
0.090308 0.462154 0.495269 T T T N
0.525692 0.769846 0.533731 F F F N
0.193231 0.886462 0.985808 T T T O
0.461231 0.422462 0.927808 F F F O
0.885538 0.271077 0.908885 F F F O
0.153538 0.807077 0.850885 F F F O
0.577846 0.655692 0.831962 F F F O
0.845846 0.191692 0.773962 F F F O
0.270154 0.040308 0.755038 F F F O
0.538154 0.576308 0.697038 F F F O
0.962462 0.424923 0.678115 F F F O
0.230462 0.960923 0.620115 F F F O
0.654769 0.809538 0.601192 F F F O
0.922769 0.345538 0.543192 F F F O
0.347077 0.194154 0.524269 F F F O
0.615077 0.730154 0.466269 T T T O
