Li14 P14 N28
1.0
4.871811 0.000000 0.000000
-0.582207 4.836897 -0.000000
0.000000 0.000000 45.255026
Li P N
14 14 28
Selective dynamics
direct
0.875000 0.875000 0.946429 T T T Li+
0.875000 0.375000 0.982143 T T T Li+
0.375000 0.375000 0.875000 F F F Li+
0.375000 0.875000 0.910714 F F F Li+
0.875000 0.875000 0.803571 F F F Li+
0.875000 0.375000 0.839286 F F F Li+
0.375000 0.375000 0.732143 F F F Li+
0.375000 0.875000 0.767857 F F F Li+
0.875000 0.875000 0.660714 F F F Li+
0.875000 0.375000 0.696429 F F F Li+
0.375000 0.375000 0.589286 F F F Li+
0.375000 0.875000 0.625000 F F F Li+
0.875000 0.875000 0.517857 T T T Li+
0.875000 0.375000 0.553571 T T T Li+
0.375000 0.375000 0.946429 T T T P5+
0.375000 0.875000 0.982143 T T T P5+
0.875000 0.875000 0.875000 F F F P5+
0.875000 0.375000 0.910714 F F F P5+
0.375000 0.375000 0.803571 F F F P5+
0.375000 0.875000 0.839286 F F F P5+
0.875000 0.875000 0.732143 F F F P5+
0.875000 0.375000 0.767857 F F F P5+
0.375000 0.375000 0.660714 F F F P5+
0.375000 0.875000 0.696429 F F F P5+
0.875000 0.875000 0.589286 F F F P5+
0.875000 0.375000 0.625000 F F F P5+
0.375000 0.375000 0.517857 T T T P5+
0.375000 0.875000 0.553571 T T T P5+
0.458501 0.208501 0.976214 T T T N3-
0.041499 0.791498 0.988071 T T T N3-
0.458502 0.708502 0.952357 T T T N3-
0.041499 0.291498 0.940500 T T T N3-
0.958501 0.708501 0.904786 F F F N3-
0.541499 0.291498 0.916643 F F F N3-
0.958502 0.208501 0.880928 F F F N3-
0.541499 0.791498 0.869072 F F F N3-
0.458501 0.208501 0.833357 F F F N3-
0.041499 0.791498 0.845214 F F F N3-
0.458502 0.708501 0.809500 F F F N3-
0.041499 0.291498 0.797643 F F F N3-
0.958501 0.708501 0.761929 F F F N3-
0.541499 0.291498 0.773786 F F F N3-
0.958502 0.208501 0.738071 F F F N3-
0.541499 0.791498 0.726214 F F F N3-
0.458501 0.208501 0.690500 F F F N3-
0.041499 0.791498 0.702357 F F F N3-
0.458502 0.708501 0.666643 F F F N3-
0.041499 0.291498 0.654786 F F F N3-
0.958502 0.708501 0.619072 F F F N3-
0.541499 0.291498 0.630928 F F F N3-
0.958502 0.208501 0.595214 F F F N3-
0.541499 0.791498 0.583357 F F F N3-
0.458502 0.208501 0.547643 T T T N3-
0.041499 0.791498 0.559500 T T T N3-
0.458502 0.708501 0.523786 T T T N3-
0.041499 0.291498 0.511929 T T T N3-
