P28 O70
1.0
4.936987 0.000000 0.023070
1.557664 8.595798 0.415402
0.000000 0.000000 53.147410
P O
28 70
Selective dynamics
direct
0.429995 0.033190 0.059473 F F F P
0.736476 0.728659 0.059603 F F F P
0.293563 0.549241 0.051447 F F F P
0.164574 0.295941 0.025962 T T T P
0.846662 0.866524 0.142806 F F F P
0.153142 0.561992 0.142936 F F F P
0.710230 0.382574 0.134781 F F F P
0.581241 0.129274 0.109295 F F F P
0.263328 0.699857 0.226139 F F F P
0.569809 0.395325 0.226269 F F F P
0.126896 0.215908 0.218114 F F F P
0.997908 0.962608 0.192628 F F F P
0.679995 0.533190 0.309473 F F F P
0.986476 0.228659 0.309603 F F F P
0.543563 0.049241 0.301447 F F F P
0.414574 0.795941 0.275961 F F F P
0.096662 0.366524 0.392806 F F F P
0.403142 0.061992 0.392936 F F F P
0.960230 0.882574 0.384781 F F F P
0.831241 0.629274 0.359295 F F F P
0.513328 0.199857 0.476139 F F F P
0.819809 0.895325 0.476269 F F F P
0.376896 0.715908 0.468114 F F F P
0.247908 0.462608 0.442628 F F F P
0.929995 0.033190 0.559473 T T T P
0.236476 0.728659 0.559603 F F F P
0.793563 0.549241 0.551447 T T T P
0.664574 0.295941 0.525961 F F F P
0.184330 0.978887 0.068929 F F F O
0.307747 0.875992 0.003631 F F F O
0.302145 0.465026 0.075860 F F F O
0.898266 0.306519 0.038367 T T T O
0.309850 0.445671 0.027164 T T T O
0.664016 0.904005 0.047998 F F F O
0.600500 0.109620 0.079702 F F F O
0.533007 0.642811 0.044082 F F F O
0.021909 0.677690 0.045668 F F F O
0.403265 0.158074 0.036450 F F F O
0.600997 0.812220 0.152263 F F F O
0.724413 0.709326 0.086964 F F F O
0.718811 0.298360 0.159193 F F F O
0.314932 0.139853 0.121701 F F F O
0.726516 0.279005 0.110498 F F F O
0.080683 0.737338 0.131331 F F F O
0.017167 0.942953 0.163036 F F F O
0.949674 0.476144 0.127416 F F F O
0.438576 0.511023 0.129001 F F F O
0.819931 0.991408 0.119784 F F F O
0.017664 0.645554 0.235596 F F F O
0.141080 0.542659 0.170298 F F F O
0.135478 0.131693 0.242526 F F F O
0.731599 0.973186 0.205034 F F F O
0.143183 0.112338 0.193831 F F F O
0.497350 0.570671 0.214664 F F F O
0.433833 0.776287 0.246369 F F F O
0.366341 0.309477 0.210749 F F F O
0.855243 0.344356 0.212334 F F F O
0.236598 0.824741 0.203117 F F F O
0.434330 0.478887 0.318930 F F F O
0.557747 0.375992 0.253631 F F F O
0.552145 0.965026 0.325860 F F F O
0.148266 0.806519 0.288367 F F F O
0.559850 0.945671 0.277164 F F F O
0.914016 0.404005 0.297998 F F F O
0.850500 0.609620 0.329702 F F F O
0.783007 0.142811 0.294082 F F F O
0.271909 0.177690 0.295668 F F F O
0.653265 0.658074 0.286450 F F F O
0.850997 0.312220 0.402263 F F F O
0.974413 0.209326 0.336964 F F F O
0.968811 0.798360 0.409193 F F F O
0.564932 0.639853 0.371701 F F F O
0.976516 0.779005 0.360498 F F F O
0.330683 0.237338 0.381331 F F F O
0.267167 0.442953 0.413036 F F F O
0.199674 0.976144 0.377416 F F F O
0.688576 0.011023 0.379001 F F F O
0.069931 0.491408 0.369784 F F F O
0.267664 0.145554 0.485596 F F F O
0.391080 0.042659 0.420298 F F F O
0.385478 0.631693 0.492526 F F F O
0.981599 0.473186 0.455034 F F F O
0.393183 0.612338 0.443831 F F F O
0.747350 0.070671 0.464664 F F F O
0.683833 0.276287 0.496369 F F F O
0.616341 0.809477 0.460749 F F F O
0.105243 0.844356 0.462334 F F F O
0.486598 0.324741 0.453117 F F F O
0.684330 0.978887 0.568929 T T T O
0.807747 0.875992 0.503631 F F F O
0.802145 0.465026 0.575860 T T T O
0.398266 0.306519 0.538367 F F F O
0.809850 0.445671 0.527164 F F F O
0.164016 0.904005 0.547998 F F F O
0.100500 0.109620 0.579702 F F F O
0.033007 0.642811 0.544082 F F F O
0.521909 0.677690 0.545668 F F F O
0.903265 0.158074 0.536450 F F F O
