Li140 P140 O420
1.0
13.312980 0.000000 -5.521558
2.677750 16.540545 0.000000
0.000000 0.000000 60.737138
Li P O
140 140 420
direct
0.944698 0.181780 0.032652 Li+
0.444698 0.681780 0.077126 Li+
0.822834 0.065996 0.022500 Li+
0.322834 0.565996 0.065121 Li+
0.702414 0.950543 0.009610 Li+
0.202414 0.450543 0.056116 Li+
0.582845 0.835452 0.089519 Li+
0.082845 0.335452 0.045377 Li+
0.512460 0.758434 0.038978 Li+
0.012460 0.258434 0.083120 Li+
0.942549 0.681714 0.030040 Li+
0.442549 0.181714 0.079348 Li+
0.821455 0.566270 0.023111 Li+
0.321455 0.066270 0.064259 Li+
0.702271 0.449547 0.007100 Li+
0.202271 0.949547 0.058600 Li+
0.582496 0.332984 0.001258 Li+
0.082496 0.832984 0.042665 Li+
0.510463 0.256366 0.041696 Li+
0.010463 0.756366 0.080040 Li+
0.944698 0.181780 0.123561 Li+
0.444698 0.681780 0.168035 Li+
0.822834 0.065996 0.113409 Li+
0.322834 0.565996 0.156031 Li+
0.702414 0.950543 0.100519 Li+
0.202414 0.450543 0.147026 Li+
0.582845 0.835452 0.180428 Li+
0.082845 0.335452 0.136287 Li+
0.512460 0.758434 0.129887 Li+
0.012460 0.258434 0.174030 Li+
0.942549 0.681714 0.120949 Li+
0.442549 0.181714 0.170257 Li+
0.821455 0.566270 0.114020 Li+
0.321455 0.066270 0.155168 Li+
0.702271 0.449547 0.098009 Li+
0.202271 0.949547 0.149509 Li+
0.582496 0.332984 0.092167 Li+
0.082496 0.832984 0.133574 Li+
0.510463 0.256366 0.132605 Li+
0.010463 0.756366 0.170949 Li+
0.944698 0.181780 0.214470 Li+
0.444698 0.681780 0.258944 Li+
0.822834 0.065996 0.204318 Li+
0.322834 0.565996 0.246940 Li+
0.702414 0.950543 0.191428 Li+
0.202414 0.450543 0.237935 Li+
0.582845 0.835452 0.271337 Li+
0.082845 0.335452 0.227196 Li+
0.512460 0.758434 0.220796 Li+
0.012460 0.258434 0.264939 Li+
0.942549 0.681714 0.211858 Li+
0.442549 0.181714 0.261166 Li+
0.821455 0.566270 0.204929 Li+
0.321455 0.066270 0.246077 Li+
0.702271 0.449547 0.188919 Li+
0.202271 0.949547 0.240419 Li+
0.582496 0.332984 0.183077 Li+
0.082496 0.832984 0.224483 Li+
0.510463 0.256366 0.223514 Li+
0.010463 0.756366 0.261858 Li+
0.944698 0.181780 0.305379 Li+
0.444698 0.681780 0.349853 Li+
0.822834 0.065996 0.295227 Li+
0.322834 0.565996 0.337849 Li+
0.702414 0.950543 0.282337 Li+
0.202414 0.450543 0.328844 Li+
0.582845 0.835452 0.362246 Li+
0.082845 0.335452 0.318105 Li+
0.512460 0.758434 0.311705 Li+
0.012460 0.258434 0.355848 Li+
0.942549 0.681714 0.302767 Li+
0.442549 0.181714 0.352075 Li+
0.821455 0.566270 0.295839 Li+
0.321455 0.066270 0.336986 Li+
0.702271 0.449547 0.279828 Li+
0.202271 0.949547 0.331328 Li+
0.582496 0.332984 0.273986 Li+
0.082496 0.832984 0.315392 Li+
0.510463 0.256366 0.314423 Li+
0.010463 0.756366 0.352767 Li+
0.944698 0.181780 0.396289 Li+
0.444698 0.681780 0.440763 Li+
0.822834 0.065996 0.386136 Li+
0.322834 0.565996 0.428758 Li+
0.702414 0.950543 0.373247 Li+
0.202414 0.450543 0.419753 Li+
0.582845 0.835452 0.453155 Li+
0.082845 0.335452 0.409014 Li+
0.512460 0.758434 0.402614 Li+
0.012460 0.258434 0.446757 Li+
0.942549 0.681714 0.393676 Li+
0.442549 0.181714 0.442984 Li+
0.821455 0.566270 0.386748 Li+
0.321455 0.066270 0.427895 Li+
0.702271 0.449547 0.370737 Li+
0.202271 0.949547 0.422237 Li+
0.582496 0.332984 0.364895 Li+
0.082496 0.832984 0.406301 Li+
0.510463 0.256366 0.405332 Li+
0.010463 0.756366 0.443676 Li+
0.944698 0.181780 0.487198 Li+
0.444698 0.681780 0.531672 Li+
0.822834 0.065996 0.477045 Li+
0.322834 0.565996 0.519667 Li+
0.702414 0.950543 0.464156 Li+
0.202414 0.450543 0.510662 Li+
0.582845 0.835452 0.544064 Li+
0.082845 0.335452 0.499923 Li+
0.512460 0.758434 0.493524 Li+
0.012460 0.258434 0.537666 Li+
0.942549 0.681714 0.484585 Li+
0.442549 0.181714 0.533893 Li+
0.821455 0.566270 0.477657 Li+
0.321455 0.066270 0.518805 Li+
0.702271 0.449547 0.461646 Li+
0.202271 0.949547 0.513146 Li+
0.582496 0.332984 0.455804 Li+
0.082496 0.832984 0.497210 Li+
0.510463 0.256366 0.496242 Li+
0.010463 0.756366 0.534585 Li+
0.944698 0.181780 0.578107 Li+
0.444698 0.681780 0.622581 Li+
0.822834 0.065996 0.567954 Li+
0.322834 0.565996 0.610576 Li+
0.702414 0.950543 0.555065 Li+
0.202414 0.450543 0.601571 Li+
0.582845 0.835452 0.634973 Li+
0.082845 0.335452 0.590832 Li+
0.512460 0.758434 0.584433 Li+
0.012460 0.258434 0.628575 Li+
0.942549 0.681714 0.575494 Li+
0.442549 0.181714 0.624802 Li+
0.821455 0.566270 0.568566 Li+
0.321455 0.066270 0.609714 Li+
0.702271 0.449547 0.552555 Li+
0.202271 0.949547 0.604055 Li+
0.582496 0.332984 0.546713 Li+
0.082496 0.832984 0.588120 Li+
0.510463 0.256366 0.587151 Li+
0.010463 0.756366 0.625494 Li+
0.001192 0.999587 0.065900 P5+
0.501192 0.499587 0.054150 P5+
0.887667 0.906720 0.086676 P5+
0.387667 0.406720 0.012733 P5+
0.795924 0.802939 0.046960 P5+
0.295924 0.302939 0.035768 P5+
0.716706 0.691689 0.072437 P5+
0.216706 0.191689 0.086797 P5+
0.616650 0.591751 0.033272 P5+
0.116650 0.091751 0.016861 P5+
0.909487 0.425433 0.088604 P5+
0.409487 0.925433 0.014773 P5+
0.808986 0.325562 0.049431 P5+
0.308986 0.825562 0.035672 P5+
0.730132 0.213545 0.075176 P5+
0.230132 0.713545 0.086499 P5+
0.637722 0.110144 0.035900 P5+
0.137722 0.610144 0.018064 P5+
0.524425 0.017155 0.056695 P5+
0.024425 0.517155 0.067580 P5+
0.001192 0.999587 0.156809 P5+
0.501192 0.499587 0.145059 P5+
0.887667 0.906720 0.177585 P5+
0.387667 0.406720 0.103642 P5+
0.795924 0.802939 0.137869 P5+
0.295924 0.302939 0.126677 P5+
0.716706 0.691689 0.163347 P5+
0.216706 0.191689 0.177706 P5+
0.616650 0.591751 0.124181 P5+
0.116650 0.091751 0.107770 P5+
0.909487 0.425433 0.179513 P5+
0.409487 0.925433 0.105682 P5+
0.808986 0.325562 0.140341 P5+
0.308986 0.825562 0.126581 P5+
0.730132 0.213545 0.166085 P5+
0.230132 0.713545 0.177408 P5+
0.637722 0.110144 0.126809 P5+
0.137722 0.610144 0.108973 P5+
0.524425 0.017155 0.147604 P5+
0.024425 0.517155 0.158489 P5+
0.001192 0.999587 0.247718 P5+
0.501192 0.499587 0.235968 P5+
0.887667 0.906720 0.268494 P5+
0.387667 0.406720 0.194552 P5+
0.795924 0.802939 0.228778 P5+
0.295924 0.302939 0.217586 P5+
0.716706 0.691689 0.254256 P5+
0.216706 0.191689 0.268615 P5+
0.616650 0.591751 0.215090 P5+
0.116650 0.091751 0.198679 P5+
0.909487 0.425433 0.270422 P5+
0.409487 0.925433 0.196591 P5+
0.808986 0.325562 0.231250 P5+
0.308986 0.825562 0.217490 P5+
0.730132 0.213545 0.256994 P5+
0.230132 0.713545 0.268317 P5+
0.637722 0.110144 0.217719 P5+
0.137722 0.610144 0.199882 P5+
0.524425 0.017155 0.238513 P5+
0.024425 0.517155 0.249398 P5+
0.001192 0.999587 0.338627 P5+
0.501192 0.499587 0.326877 P5+
0.887667 0.906720 0.359403 P5+
0.387667 0.406720 0.285461 P5+
0.795924 0.802939 0.319688 P5+
0.295924 0.302939 0.308495 P5+
0.716706 0.691689 0.345165 P5+
0.216706 0.191689 0.359524 P5+
0.616650 0.591751 0.305999 P5+
0.116650 0.091751 0.289588 P5+
0.909487 0.425433 0.361331 P5+
0.409487 0.925433 0.287500 P5+
0.808986 0.325562 0.322159 P5+
0.308986 0.825562 0.308399 P5+
0.730132 0.213545 0.347903 P5+
0.230132 0.713545 0.359227 P5+
0.637722 0.110144 0.308628 P5+
0.137722 0.610144 0.290791 P5+
0.524425 0.017155 0.329422 P5+
0.024425 0.517155 0.340307 P5+
0.001192 0.999587 0.429536 P5+
0.501192 0.499587 0.417787 P5+
0.887667 0.906720 0.450312 P5+
0.387667 0.406720 0.376370 P5+
0.795924 0.802939 0.410597 P5+
0.295924 0.302939 0.399405 P5+
0.716706 0.691689 0.436074 P5+
0.216706 0.191689 0.450433 P5+
0.616650 0.591751 0.396908 P5+
0.116650 0.091751 0.380497 P5+
0.909487 0.425433 0.452240 P5+
0.409487 0.925433 0.378409 P5+
0.808986 0.325562 0.413068 P5+
0.308986 0.825562 0.399308 P5+
0.730132 0.213545 0.438812 P5+
0.230132 0.713545 0.450136 P5+
0.637722 0.110144 0.399537 P5+
0.137722 0.610144 0.381701 P5+
0.524425 0.017155 0.420331 P5+
0.024425 0.517155 0.431216 P5+
0.001192 0.999587 0.520445 P5+
0.501192 0.499587 0.508696 P5+
0.887667 0.906720 0.541221 P5+
0.387667 0.406720 0.467279 P5+
0.795924 0.802939 0.501506 P5+
0.295924 0.302939 0.490314 P5+
0.716706 0.691689 0.526983 P5+
0.216706 0.191689 0.541342 P5+
0.616650 0.591751 0.487818 P5+
0.116650 0.091751 0.471406 P5+
0.909487 0.425433 0.543149 P5+
0.409487 0.925433 0.469318 P5+
0.808986 0.325562 0.503977 P5+
0.308986 0.825562 0.490217 P5+
0.730132 0.213545 0.529721 P5+
0.230132 0.713545 0.541045 P5+
0.637722 0.110144 0.490446 P5+
0.137722 0.610144 0.472610 P5+
0.524425 0.017155 0.511240 P5+
0.024425 0.517155 0.522125 P5+
0.001192 0.999587 0.611354 P5+
0.501192 0.499587 0.599605 P5+
0.887667 0.906720 0.632130 P5+
0.387667 0.406720 0.558188 P5+
0.795924 0.802939 0.592415 P5+
0.295924 0.302939 0.581223 P5+
0.716706 0.691689 0.617892 P5+
0.216706 0.191689 0.632251 P5+
0.616650 0.591751 0.578727 P5+
0.116650 0.091751 0.562316 P5+
0.909487 0.425433 0.634058 P5+
0.409487 0.925433 0.560227 P5+
0.808986 0.325562 0.594886 P5+
0.308986 0.825562 0.581126 P5+
0.730132 0.213545 0.620631 P5+
0.230132 0.713545 0.631954 P5+
0.637722 0.110144 0.581355 P5+
0.137722 0.610144 0.563519 P5+
0.524425 0.017155 0.602149 P5+
0.024425 0.517155 0.613034 P5+
0.905428 0.964587 0.067774 O2-
0.405428 0.464587 0.034865 O2-
0.800449 0.859372 0.068949 O2-
0.300449 0.359372 0.014602 O2-
0.757206 0.724144 0.053297 O2-
0.257206 0.224144 0.022391 O2-
0.685355 0.607741 0.060705 O2-
0.185355 0.107741 0.001920 O2-
0.058300 0.021852 0.002306 O2-
0.558300 0.521852 0.037219 O2-
0.840686 0.409378 0.061181 O2-
0.340686 0.909378 0.029686 O2-
0.772630 0.290596 0.069079 O2-
0.272630 0.790596 0.009414 O2-
0.726756 0.156445 0.053325 O2-
0.226756 0.656445 0.016828 O2-
0.618048 0.056520 0.055304 O2-
0.118048 0.556520 0.085993 O2-
0.967956 0.495673 0.084759 O2-
0.467956 0.995673 0.029248 O2-
0.955284 0.073889 0.049234 O2-
0.455284 0.573889 0.062469 O2-
0.071165 0.933926 0.060575 O2-
0.571165 0.433926 0.072197 O2-
0.836724 0.958651 0.009294 O2-
0.336724 0.458651 0.080853 O2-
0.982201 0.846743 0.008725 O2-
0.482201 0.346743 0.016963 O2-
0.714989 0.845353 0.024736 O2-
0.214989 0.345353 0.043277 O2-
0.902007 0.775410 0.048119 O2-
0.402007 0.275410 0.053897 O2-
0.622035 0.747295 0.070870 O2-
0.122035 0.247295 0.071151 O2-
0.803128 0.669352 0.005084 O2-
0.303128 0.169352 0.078955 O2-
0.542257 0.667159 0.021474 O2-
0.042257 0.167159 0.015133 O2-
0.685603 0.553292 0.021719 O2-
0.185603 0.053292 0.040951 O2-
0.839056 0.463335 0.008932 O2-
0.339056 0.963335 0.081639 O2-
0.984307 0.350606 0.009763 O2-
0.484307 0.850606 0.016308 O2-
0.720379 0.348215 0.026243 O2-
0.220379 0.848215 0.042750 O2-
0.903854 0.271458 0.050445 O2-
0.403854 0.771458 0.051907 O2-
0.623095 0.241625 0.073313 O2-
0.123095 0.741625 0.068901 O2-
0.808921 0.171199 0.006823 O2-
0.308921 0.671199 0.078268 O2-
0.543593 0.170027 0.022491 O2-
0.043593 0.670027 0.014359 O2-
0.687356 0.055640 0.022649 O2-
0.187356 0.555640 0.040339 O2-
0.452378 0.080441 0.062181 O2-
0.952378 0.580441 0.048994 O2-
0.572944 0.942366 0.073010 O2-
0.072944 0.442366 0.060086 O2-
0.905428 0.964587 0.158683 O2-
0.405428 0.464587 0.125774 O2-
0.800449 0.859372 0.159859 O2-
0.300449 0.359372 0.105511 O2-
0.757206 0.724144 0.144206 O2-
0.257206 0.224144 0.113301 O2-
0.685355 0.607741 0.151614 O2-
0.185355 0.107741 0.092829 O2-
0.058300 0.021852 0.093215 O2-
0.558300 0.521852 0.128128 O2-
0.840686 0.409378 0.152090 O2-
0.340686 0.909378 0.120595 O2-
0.772630 0.290596 0.159988 O2-
0.272630 0.790596 0.100323 O2-
0.726756 0.156445 0.144234 O2-
0.226756 0.656445 0.107737 O2-
0.618048 0.056520 0.146213 O2-
0.118048 0.556520 0.176902 O2-
0.967956 0.495673 0.175668 O2-
0.467956 0.995673 0.120157 O2-
0.955284 0.073889 0.140143 O2-
0.455284 0.573889 0.153378 O2-
0.071165 0.933926 0.151484 O2-
0.571165 0.433926 0.163106 O2-
0.836724 0.958651 0.100203 O2-
0.336724 0.458651 0.171762 O2-
0.982201 0.846743 0.099634 O2-
0.482201 0.346743 0.107872 O2-
0.714989 0.845353 0.115645 O2-
0.214989 0.345353 0.134186 O2-
0.902007 0.775410 0.139028 O2-
0.402007 0.275410 0.144806 O2-
0.622035 0.747295 0.161779 O2-
0.122035 0.247295 0.162060 O2-
0.803128 0.669352 0.095993 O2-
0.303128 0.169352 0.169864 O2-
0.542257 0.667159 0.112384 O2-
0.042257 0.167159 0.106042 O2-
0.685603 0.553292 0.112628 O2-
0.185603 0.053292 0.131860 O2-
0.839056 0.463335 0.099841 O2-
0.339056 0.963335 0.172548 O2-
0.984307 0.350606 0.100672 O2-
0.484307 0.850606 0.107217 O2-
0.720379 0.348215 0.117152 O2-
0.220379 0.848215 0.133660 O2-
0.903854 0.271458 0.141354 O2-
0.403854 0.771458 0.142816 O2-
0.623095 0.241625 0.164222 O2-
0.123095 0.741625 0.159810 O2-
0.808921 0.171199 0.097732 O2-
0.308921 0.671199 0.169178 O2-
0.543593 0.170027 0.113400 O2-
0.043593 0.670027 0.105268 O2-
0.687356 0.055640 0.113559 O2-
0.187356 0.555640 0.131249 O2-
0.452378 0.080441 0.153090 O2-
0.952378 0.580441 0.139903 O2-
0.572944 0.942366 0.163919 O2-
0.072944 0.442366 0.150995 O2-
0.905428 0.964587 0.249592 O2-
0.405428 0.464587 0.216683 O2-
0.800449 0.859372 0.250768 O2-
0.300449 0.359372 0.196420 O2-
0.757206 0.724144 0.235115 O2-
0.257206 0.224144 0.204210 O2-
0.685355 0.607741 0.242523 O2-
0.185355 0.107741 0.183738 O2-
0.058300 0.021852 0.184124 O2-
0.558300 0.521852 0.219037 O2-
0.840686 0.409378 0.242999 O2-
0.340686 0.909378 0.211505 O2-
0.772630 0.290596 0.250897 O2-
0.272630 0.790596 0.191232 O2-
0.726756 0.156445 0.235143 O2-
0.226756 0.656445 0.198646 O2-
0.618048 0.056520 0.237122 O2-
0.118048 0.556520 0.267811 O2-
0.967956 0.495673 0.266577 O2-
0.467956 0.995673 0.211066 O2-
0.955284 0.073889 0.231052 O2-
0.455284 0.573889 0.244287 O2-
0.071165 0.933926 0.242394 O2-
0.571165 0.433926 0.254015 O2-
0.836724 0.958651 0.191112 O2-
0.336724 0.458651 0.262671 O2-
0.982201 0.846743 0.190544 O2-
0.482201 0.346743 0.198781 O2-
0.714989 0.845353 0.206554 O2-
0.214989 0.345353 0.225095 O2-
0.902007 0.775410 0.229937 O2-
0.402007 0.275410 0.235715 O2-
0.622035 0.747295 0.252688 O2-
0.122035 0.247295 0.252969 O2-
0.803128 0.669352 0.186902 O2-
0.303128 0.169352 0.260773 O2-
0.542257 0.667159 0.203293 O2-
0.042257 0.167159 0.196951 O2-
0.685603 0.553292 0.203537 O2-
0.185603 0.053292 0.222769 O2-
0.839056 0.463335 0.190750 O2-
0.339056 0.963335 0.263457 O2-
0.984307 0.350606 0.191581 O2-
0.484307 0.850606 0.198126 O2-
0.720379 0.348215 0.208061 O2-
0.220379 0.848215 0.224569 O2-
0.903854 0.271458 0.232263 O2-
0.403854 0.771458 0.233726 O2-
0.623095 0.241625 0.255131 O2-
0.123095 0.741625 0.250719 O2-
0.808921 0.171199 0.188641 O2-
0.308921 0.671199 0.260087 O2-
0.543593 0.170027 0.204309 O2-
0.043593 0.670027 0.196177 O2-
0.687356 0.055640 0.204468 O2-
0.187356 0.555640 0.222158 O2-
0.452378 0.080441 0.243999 O2-
0.952378 0.580441 0.230812 O2-
0.572944 0.942366 0.254828 O2-
0.072944 0.442366 0.241904 O2-
0.905428 0.964587 0.340501 O2-
0.405428 0.464587 0.307592 O2-
0.800449 0.859372 0.341677 O2-
0.300449 0.359372 0.287329 O2-
0.757206 0.724144 0.326025 O2-
0.257206 0.224144 0.295119 O2-
0.685355 0.607741 0.333432 O2-
0.185355 0.107741 0.274647 O2-
0.058300 0.021852 0.275033 O2-
0.558300 0.521852 0.309946 O2-
0.840686 0.409378 0.333908 O2-
0.340686 0.909378 0.302414 O2-
0.772630 0.290596 0.341807 O2-
0.272630 0.790596 0.282141 O2-
0.726756 0.156445 0.326052 O2-
0.226756 0.656445 0.289555 O2-
0.618048 0.056520 0.328031 O2-
0.118048 0.556520 0.358720 O2-
0.967956 0.495673 0.357486 O2-
0.467956 0.995673 0.301975 O2-
0.955284 0.073889 0.321961 O2-
0.455284 0.573889 0.335197 O2-
0.071165 0.933926 0.333303 O2-
0.571165 0.433926 0.344924 O2-
0.836724 0.958651 0.282021 O2-
0.336724 0.458651 0.353580 O2-
0.982201 0.846743 0.281453 O2-
0.482201 0.346743 0.289690 O2-
0.714989 0.845353 0.297463 O2-
0.214989 0.345353 0.316004 O2-
0.902007 0.775410 0.320846 O2-
0.402007 0.275410 0.326625 O2-
0.622035 0.747295 0.343597 O2-
0.122035 0.247295 0.343878 O2-
0.803128 0.669352 0.277811 O2-
0.303128 0.169352 0.351682 O2-
0.542257 0.667159 0.294202 O2-
0.042257 0.167159 0.287860 O2-
0.685603 0.553292 0.294446 O2-
0.185603 0.053292 0.313678 O2-
0.839056 0.463335 0.281659 O2-
0.339056 0.963335 0.354366 O2-
0.984307 0.350606 0.282490 O2-
0.484307 0.850606 0.289035 O2-
0.720379 0.348215 0.298970 O2-
0.220379 0.848215 0.315478 O2-
0.903854 0.271458 0.323172 O2-
0.403854 0.771458 0.324635 O2-
0.623095 0.241625 0.346040 O2-
0.123095 0.741625 0.341628 O2-
0.808921 0.171199 0.279550 O2-
0.308921 0.671199 0.350996 O2-
0.543593 0.170027 0.295218 O2-
0.043593 0.670027 0.287086 O2-
0.687356 0.055640 0.295377 O2-
0.187356 0.555640 0.313067 O2-
0.452378 0.080441 0.334908 O2-
0.952378 0.580441 0.321721 O2-
0.572944 0.942366 0.345738 O2-
0.072944 0.442366 0.332813 O2-
0.905428 0.964587 0.431410 O2-
0.405428 0.464587 0.398501 O2-
0.800449 0.859372 0.432586 O2-
0.300449 0.359372 0.378238 O2-
0.757206 0.724144 0.416934 O2-
0.257206 0.224144 0.386028 O2-
0.685355 0.607741 0.424342 O2-
0.185355 0.107741 0.365556 O2-
0.058300 0.021852 0.365942 O2-
0.558300 0.521852 0.400855 O2-
0.840686 0.409378 0.424817 O2-
0.340686 0.909378 0.393323 O2-
0.772630 0.290596 0.432716 O2-
0.272630 0.790596 0.373050 O2-
0.726756 0.156445 0.416961 O2-
0.226756 0.656445 0.380464 O2-
0.618048 0.056520 0.418940 O2-
0.118048 0.556520 0.449629 O2-
0.967956 0.495673 0.448395 O2-
0.467956 0.995673 0.392885 O2-
0.955284 0.073889 0.412870 O2-
0.455284 0.573889 0.426106 O2-
0.071165 0.933926 0.424212 O2-
0.571165 0.433926 0.435833 O2-
0.836724 0.958651 0.372930 O2-
0.336724 0.458651 0.444489 O2-
0.982201 0.846743 0.372362 O2-
0.482201 0.346743 0.380599 O2-
0.714989 0.845353 0.388373 O2-
0.214989 0.345353 0.406913 O2-
0.902007 0.775410 0.411755 O2-
0.402007 0.275410 0.417534 O2-
0.622035 0.747295 0.434507 O2-
0.122035 0.247295 0.434788 O2-
0.803128 0.669352 0.368720 O2-
0.303128 0.169352 0.442591 O2-
0.542257 0.667159 0.385111 O2-
0.042257 0.167159 0.378769 O2-
0.685603 0.553292 0.385355 O2-
0.185603 0.053292 0.404587 O2-
0.839056 0.463335 0.372568 O2-
0.339056 0.963335 0.445275 O2-
0.984307 0.350606 0.373399 O2-
0.484307 0.850606 0.379944 O2-
0.720379 0.348215 0.389879 O2-
0.220379 0.848215 0.406387 O2-
0.903854 0.271458 0.414081 O2-
0.403854 0.771458 0.415544 O2-
0.623095 0.241625 0.436949 O2-
0.123095 0.741625 0.432537 O2-
0.808921 0.171199 0.370459 O2-
0.308921 0.671199 0.441905 O2-
0.543593 0.170027 0.386128 O2-
0.043593 0.670027 0.377995 O2-
0.687356 0.055640 0.386286 O2-
0.187356 0.555640 0.403976 O2-
0.452378 0.080441 0.425817 O2-
0.952378 0.580441 0.412630 O2-
0.572944 0.942366 0.436647 O2-
0.072944 0.442366 0.423722 O2-
0.905428 0.964587 0.522319 O2-
0.405428 0.464587 0.489410 O2-
0.800449 0.859372 0.523495 O2-
0.300449 0.359372 0.469147 O2-
0.757206 0.724144 0.507843 O2-
0.257206 0.224144 0.476937 O2-
0.685355 0.607741 0.515251 O2-
0.185355 0.107741 0.456465 O2-
0.058300 0.021852 0.456851 O2-
0.558300 0.521852 0.491764 O2-
0.840686 0.409378 0.515726 O2-
0.340686 0.909378 0.484232 O2-
0.772630 0.290596 0.523625 O2-
0.272630 0.790596 0.463959 O2-
0.726756 0.156445 0.507870 O2-
0.226756 0.656445 0.471373 O2-
0.618048 0.056520 0.509849 O2-
0.118048 0.556520 0.540538 O2-
0.967956 0.495673 0.539304 O2-
0.467956 0.995673 0.483794 O2-
0.955284 0.073889 0.503779 O2-
0.455284 0.573889 0.517015 O2-
0.071165 0.933926 0.515121 O2-
0.571165 0.433926 0.526742 O2-
0.836724 0.958651 0.463839 O2-
0.336724 0.458651 0.535398 O2-
0.982201 0.846743 0.463271 O2-
0.482201 0.346743 0.471508 O2-
0.714989 0.845353 0.479282 O2-
0.214989 0.345353 0.497822 O2-
0.902007 0.775410 0.502664 O2-
0.402007 0.275410 0.508443 O2-
0.622035 0.747295 0.525416 O2-
0.122035 0.247295 0.525697 O2-
0.803128 0.669352 0.459629 O2-
0.303128 0.169352 0.533500 O2-
0.542257 0.667159 0.476020 O2-
0.042257 0.167159 0.469678 O2-
0.685603 0.553292 0.476264 O2-
0.185603 0.053292 0.495497 O2-
0.839056 0.463335 0.463477 O2-
0.339056 0.963335 0.536184 O2-
0.984307 0.350606 0.464309 O2-
0.484307 0.850606 0.470853 O2-
0.720379 0.348215 0.480788 O2-
0.220379 0.848215 0.497296 O2-
0.903854 0.271458 0.504990 O2-
0.403854 0.771458 0.506453 O2-
0.623095 0.241625 0.527859 O2-
0.123095 0.741625 0.523447 O2-
0.808921 0.171199 0.461368 O2-
0.308921 0.671199 0.532814 O2-
0.543593 0.170027 0.477037 O2-
0.043593 0.670027 0.468904 O2-
0.687356 0.055640 0.477195 O2-
0.187356 0.555640 0.494885 O2-
0.452378 0.080441 0.516726 O2-
0.952378 0.580441 0.503539 O2-
0.572944 0.942366 0.527556 O2-
0.072944 0.442366 0.514631 O2-
0.905428 0.964587 0.613228 O2-
0.405428 0.464587 0.580319 O2-
0.800449 0.859372 0.614404 O2-
0.300449 0.359372 0.560056 O2-
0.757206 0.724144 0.598752 O2-
0.257206 0.224144 0.567846 O2-
0.685355 0.607741 0.606160 O2-
0.185355 0.107741 0.547374 O2-
0.058300 0.021852 0.547760 O2-
0.558300 0.521852 0.582673 O2-
0.840686 0.409378 0.606635 O2-
0.340686 0.909378 0.575141 O2-
0.772630 0.290596 0.614534 O2-
0.272630 0.790596 0.554868 O2-
0.726756 0.156445 0.598779 O2-
0.226756 0.656445 0.562282 O2-
0.618048 0.056520 0.600758 O2-
0.118048 0.556520 0.631447 O2-
0.967956 0.495673 0.630213 O2-
0.467956 0.995673 0.574703 O2-
0.955284 0.073889 0.594688 O2-
0.455284 0.573889 0.607924 O2-
0.071165 0.933926 0.606030 O2-
0.571165 0.433926 0.617651 O2-
0.836724 0.958651 0.554748 O2-
0.336724 0.458651 0.626308 O2-
0.982201 0.846743 0.554180 O2-
0.482201 0.346743 0.562417 O2-
0.714989 0.845353 0.570191 O2-
0.214989 0.345353 0.588731 O2-
0.902007 0.775410 0.593573 O2-
0.402007 0.275410 0.599352 O2-
0.622035 0.747295 0.616325 O2-
0.122035 0.247295 0.616606 O2-
0.803128 0.669352 0.550538 O2-
0.303128 0.169352 0.624409 O2-
0.542257 0.667159 0.566929 O2-
0.042257 0.167159 0.560587 O2-
0.685603 0.553292 0.567173 O2-
0.185603 0.053292 0.586406 O2-
0.839056 0.463335 0.554386 O2-
0.339056 0.963335 0.627093 O2-
0.984307 0.350606 0.555218 O2-
0.484307 0.850606 0.561762 O2-
0.720379 0.348215 0.571697 O2-
0.220379 0.848215 0.588205 O2-
0.903854 0.271458 0.595899 O2-
0.403854 0.771458 0.597362 O2-
0.623095 0.241625 0.618768 O2-
0.123095 0.741625 0.614356 O2-
0.808921 0.171199 0.552278 O2-
0.308921 0.671199 0.623723 O2-
0.543593 0.170027 0.567946 O2-
0.043593 0.670027 0.559813 O2-
0.687356 0.055640 0.568104 O2-
0.187356 0.555640 0.585794 O2-
0.452378 0.080441 0.607635 O2-
0.952378 0.580441 0.594448 O2-
0.572944 0.942366 0.618465 O2-
0.072944 0.442366 0.605540 O2-
