Li61 P7 N32                             
   1.00000000000000     
    -0.0766846255425548    9.6442869625981746    0.0072353402441445
     0.0294145797915902    0.0074958038353549    9.6151179792461967
     9.6005208110931797   -0.0764845667491210    0.0295910333594542
   Li   P    N 
    61     7    32
Direct
  0.4909680614780670  0.9963053459293540  0.4970735957821697
  0.0018496705116176  0.5065780936731112  0.0016978989617267
  0.5070084043812879  0.0110592874995569  0.9968928000215813
  0.9992939078282220  0.9984756573417729  0.4972203289785049
  0.4990961430589435  0.5102261856554602  0.0113536878951134
  0.9735672012581060  0.4963353434660316  0.5021334759291343
  0.7510746117105783  0.0084554867557979  0.4915113032297255
  0.2461457645315295  0.0015064120133325  0.4943095781063609
  0.6821257207421929  0.5393015276466840  0.4758114011742778
  0.2238984683359630  0.5033380759932208  0.4950478731214499
  0.2693096084559104  0.9951469437044926  0.9910256558234242
  0.7585382504855044  0.9743097621714830  0.9285406552812769
  0.4605582013187988  0.5612303685214191  0.5745482475190767
  0.4905208597849253  0.2538326806750074  0.9902142242380905
  0.5339370136954422  0.7747051203918769  0.0249502831121805
  0.0332737966244180  0.5096054392128035  0.2577889946384563
  0.0083209589794752  0.5010880885415943  0.7497748692783955
  0.1970282327197791  0.2356197394251310  0.2406266833565791
  0.2339092143995629  0.7705613237995839  0.7872846013108582
  0.2900817159058192  0.2535002476796019  0.7357865410756278
  0.2206284854880344  0.7193389837779876  0.2880864217105789
  0.6865086151611755  0.1812777783291894  0.3304118700676200
  0.8284913904110001  0.6576375675627442  0.6663967518783613
  0.7888877578306114  0.1476744730009024  0.7061104848520571
  0.7237085819772874  0.7469326399379069  0.2461129465709864
  0.9266626427050835  0.2838938640346071  0.2647646441355700
  0.9962891178214214  0.7733130275890874  0.7595277390743995
  0.2555061557535436  0.2571287322289176  0.4984468031218505
  0.2533927456216193  0.7534452617017139  0.5242737575256515
  0.7614914099609679  0.3080965812388575  0.4937165886363560
  0.7347707838526853  0.7710613210681622  0.4783882474663216
  0.7844321297633093  0.5087497577994732  0.2626957953212996
  0.7075937958414555  0.4737361821235833  0.7212229880974511
  0.2869155097736565  0.5059636752990342  0.2424457224989476
  0.2485669324784809  0.4989826382241968  0.7372968562554963
  0.4590690595856052  0.7703932346577718  0.2845001530876360
  0.5302039626168558  0.2467223430319364  0.7483030483617538
  0.2394495954281191  0.9828157930394821  0.2386446157539874
  0.2327625512252647  0.0179230727598780  0.7420896138034411
  0.2485013601822477  0.2365056864977752  0.9864888087547123
  0.2973850831653270  0.7454047267755608  0.0462644135793998
  0.6999561504657670  0.8722486887189974  0.6859907396048975
  0.7455382551475331  0.9884256257145569  0.1945165527522256
  0.8097769231404911  0.7391887097283012  0.0131112310002774
  0.7511557258311993  0.2094633646492860  0.0110581370201810
  0.0513274079858947  0.2476693886173693  0.7668461574412682
  0.9772952903686772  0.7804863627399503  0.2454061300039680
  0.4547571982323961  0.2660155245122082  0.2395074422168054
  0.4662937408254164  0.7398767210365823  0.7603948772164613
  0.0091155946910750  0.2654339462670680  0.0190283373974428
  0.0516031277842626  0.7549367868795599  0.0108052664657243
  0.5079981903833948  0.2344589636846137  0.5150076841766592
  0.4976671175275913  0.7638676682706632  0.5145116264986153
  0.5322678377043925  0.5356824003861754  0.2563111327403906
  0.4765121083110696  0.4757159468278656  0.7837774306054213
  0.9931979232725727  0.0253902527833320  0.2575897404627643
  0.9920889392420845  0.0057796025327999  0.7313860966315413
  0.4484844112484119  0.4294578902596300  0.4316600887877607
  0.8538267264413956  0.3308261727897012  0.8366257007930842
  0.6603963173322790  0.3350932072132107  0.1683339255364432
  0.6663593704360680  0.6890264493458944  0.8316851686470569
  0.0077348556936434  0.0089801298888025  0.9919886507019713
  0.7539719766751914  0.4954175066299011  0.9948797794405304
  0.2485616725154279  0.4965652040491886  0.9958254976767273
  0.9931127668564195  0.7536661658766225  0.4954751205084647
  0.0003806665697275  0.2444284716069202  0.5118878454127352
  0.4948630559621476  0.0103894040370584  0.2435910885338358
  0.4903730218419751  0.9937338440205732  0.7520346687911008
  0.6287957156246190  0.6521817266602630  0.6360230192162485
  0.6264636172836487  0.3784220703909497  0.3593414674825369
  0.9036827976678339  0.9031624516538911  0.0874046594100290
  0.9077257433838375  0.1176438321202862  0.8923648134267521
  0.1040600779158986  0.9078130772860378  0.8867349494939287
  0.1105071183025788  0.1010881409377155  0.0991123155489023
  0.3741830672169602  0.6230526887903878  0.3889933343607713
  0.3852614809969940  0.3786275419449665  0.6202377106020199
  0.0840192293874539  0.3494933921198526  0.3982259887113868
  0.0810055548039885  0.6495665288989775  0.6083339596814984
  0.1122775880796658  0.1412221514523154  0.6004303663133994
  0.0989926571268967  0.8512572045615390  0.3966188648299013
  0.8839702301835699  0.1505589827323031  0.4174581676882680
  0.8896126926042123  0.8549474008945106  0.5943451329756206
  0.8548229650608680  0.3939650471535236  0.0972357955570866
  0.8498342109139091  0.5854609034344325  0.8790484374136756
  0.1563771233146942  0.5988707877565441  0.1068877038571709
  0.1438230828751532  0.3990873950000440  0.8936331096324999
  0.4027652052313391  0.9019149568528023  0.1402835431762795
  0.3994082350688728  0.1078890345636856  0.8483928392395914
  0.3856142358000207  0.0988879885664944  0.3460495616529115
  0.3783351123100723  0.8975348866547275  0.6522612629730281
  0.3504648062756909  0.3874362151119405  0.0921821082585270
  0.3464698535236794  0.6052254126818466  0.8979853564802280
  0.6040691653362341  0.0769069665259409  0.6483609132035000
  0.6096616402459379  0.9104683067535427  0.3399710282582920
  0.6665393862444148  0.6113954718285565  0.0929514440589224
  0.6459906725750976  0.3873793562904313  0.9078193065228912
  0.9088188686985416  0.3385901950702385  0.6321638196201954
  0.8868967146652467  0.6579801332631475  0.3861611460455829
  0.5928566459613193  0.1231508598796213  0.1476107524964793
  0.5850256599843852  0.8856950223255667  0.8578250353596562
 
  0.00000000E+00  0.00000000E+00  0.00000000E+00
  0.00000000E+00  0.00000000E+00  0.00000000E+00
  0.00000000E+00  0.00000000E+00  0.00000000E+00
  0.00000000E+00  0.00000000E+00  0.00000000E+00
  0.00000000E+00  0.00000000E+00  0.00000000E+00
  0.00000000E+00  0.00000000E+00  0.00000000E+00
  0.00000000E+00  0.00000000E+00  0.00000000E+00
  0.00000000E+00  0.00000000E+00  0.00000000E+00
  0.00000000E+00  0.00000000E+00  0.00000000E+00
  0.00000000E+00  0.00000000E+00  0.00000000E+00
  0.00000000E+00  0.00000000E+00  0.00000000E+00
  0.00000000E+00  0.00000000E+00  0.00000000E+00
  0.00000000E+00  0.00000000E+00  0.00000000E+00
  0.00000000E+00  0.00000000E+00  0.00000000E+00
  0.00000000E+00  0.00000000E+00  0.00000000E+00
  0.00000000E+00  0.00000000E+00  0.00000000E+00
  0.00000000E+00  0.00000000E+00  0.00000000E+00
  0.00000000E+00  0.00000000E+00  0.00000000E+00
  0.00000000E+00  0.00000000E+00  0.00000000E+00
  0.00000000E+00  0.00000000E+00  0.00000000E+00
  0.00000000E+00  0.00000000E+00  0.00000000E+00
  0.00000000E+00  0.00000000E+00  0.00000000E+00
  0.00000000E+00  0.00000000E+00  0.00000000E+00
  0.00000000E+00  0.00000000E+00  0.00000000E+00
  0.00000000E+00  0.00000000E+00  0.00000000E+00
  0.00000000E+00  0.00000000E+00  0.00000000E+00
  0.00000000E+00  0.00000000E+00  0.00000000E+00
  0.00000000E+00  0.00000000E+00  0.00000000E+00
  0.00000000E+00  0.00000000E+00  0.00000000E+00
  0.00000000E+00  0.00000000E+00  0.00000000E+00
  0.00000000E+00  0.00000000E+00  0.00000000E+00
  0.00000000E+00  0.00000000E+00  0.00000000E+00
  0.00000000E+00  0.00000000E+00  0.00000000E+00
  0.00000000E+00  0.00000000E+00  0.00000000E+00
  0.00000000E+00  0.00000000E+00  0.00000000E+00
  0.00000000E+00  0.00000000E+00  0.00000000E+00
  0.00000000E+00  0.00000000E+00  0.00000000E+00
  0.00000000E+00  0.00000000E+00  0.00000000E+00
  0.00000000E+00  0.00000000E+00  0.00000000E+00
  0.00000000E+00  0.00000000E+00  0.00000000E+00
  0.00000000E+00  0.00000000E+00  0.00000000E+00
  0.00000000E+00  0.00000000E+00  0.00000000E+00
  0.00000000E+00  0.00000000E+00  0.00000000E+00
  0.00000000E+00  0.00000000E+00  0.00000000E+00
  0.00000000E+00  0.00000000E+00  0.00000000E+00
  0.00000000E+00  0.00000000E+00  0.00000000E+00
  0.00000000E+00  0.00000000E+00  0.00000000E+00
  0.00000000E+00  0.00000000E+00  0.00000000E+00
  0.00000000E+00  0.00000000E+00  0.00000000E+00
  0.00000000E+00  0.00000000E+00  0.00000000E+00
  0.00000000E+00  0.00000000E+00  0.00000000E+00
  0.00000000E+00  0.00000000E+00  0.00000000E+00
  0.00000000E+00  0.00000000E+00  0.00000000E+00
  0.00000000E+00  0.00000000E+00  0.00000000E+00
  0.00000000E+00  0.00000000E+00  0.00000000E+00
  0.00000000E+00  0.00000000E+00  0.00000000E+00
  0.00000000E+00  0.00000000E+00  0.00000000E+00
  0.00000000E+00  0.00000000E+00  0.00000000E+00
  0.00000000E+00  0.00000000E+00  0.00000000E+00
  0.00000000E+00  0.00000000E+00  0.00000000E+00
  0.00000000E+00  0.00000000E+00  0.00000000E+00
  0.00000000E+00  0.00000000E+00  0.00000000E+00
  0.00000000E+00  0.00000000E+00  0.00000000E+00
  0.00000000E+00  0.00000000E+00  0.00000000E+00
  0.00000000E+00  0.00000000E+00  0.00000000E+00
  0.00000000E+00  0.00000000E+00  0.00000000E+00
  0.00000000E+00  0.00000000E+00  0.00000000E+00
  0.00000000E+00  0.00000000E+00  0.00000000E+00
  0.00000000E+00  0.00000000E+00  0.00000000E+00
  0.00000000E+00  0.00000000E+00  0.00000000E+00
  0.00000000E+00  0.00000000E+00  0.00000000E+00
  0.00000000E+00  0.00000000E+00  0.00000000E+00
  0.00000000E+00  0.00000000E+00  0.00000000E+00
  0.00000000E+00  0.00000000E+00  0.00000000E+00
  0.00000000E+00  0.00000000E+00  0.00000000E+00
  0.00000000E+00  0.00000000E+00  0.00000000E+00
  0.00000000E+00  0.00000000E+00  0.00000000E+00
  0.00000000E+00  0.00000000E+00  0.00000000E+00
  0.00000000E+00  0.00000000E+00  0.00000000E+00
  0.00000000E+00  0.00000000E+00  0.00000000E+00
  0.00000000E+00  0.00000000E+00  0.00000000E+00
  0.00000000E+00  0.00000000E+00  0.00000000E+00
  0.00000000E+00  0.00000000E+00  0.00000000E+00
  0.00000000E+00  0.00000000E+00  0.00000000E+00
  0.00000000E+00  0.00000000E+00  0.00000000E+00
  0.00000000E+00  0.00000000E+00  0.00000000E+00
  0.00000000E+00  0.00000000E+00  0.00000000E+00
  0.00000000E+00  0.00000000E+00  0.00000000E+00
  0.00000000E+00  0.00000000E+00  0.00000000E+00
  0.00000000E+00  0.00000000E+00  0.00000000E+00
  0.00000000E+00  0.00000000E+00  0.00000000E+00
  0.00000000E+00  0.00000000E+00  0.00000000E+00
  0.00000000E+00  0.00000000E+00  0.00000000E+00
  0.00000000E+00  0.00000000E+00  0.00000000E+00
  0.00000000E+00  0.00000000E+00  0.00000000E+00
  0.00000000E+00  0.00000000E+00  0.00000000E+00
  0.00000000E+00  0.00000000E+00  0.00000000E+00
  0.00000000E+00  0.00000000E+00  0.00000000E+00
  0.00000000E+00  0.00000000E+00  0.00000000E+00
  0.00000000E+00  0.00000000E+00  0.00000000E+00
