Li56 P8 N32
1.0
9.497557 -0.000000 0.000000
0.000000 9.497557 0.000000
-0.000000 0.000000 9.497557
Li P N
56 8 32
direct
-0.000000 0.500000 0.500000 Li
0.500000 0.000000 0.000000 Li
-0.000000 0.000000 0.500000 Li
-0.000000 0.500000 0.000000 Li
0.500000 0.000000 0.500000 Li
0.500000 0.500000 0.000000 Li
0.250000 0.000000 0.500000 Li
-0.000000 0.500000 0.750000 Li
-0.000000 0.500000 0.250000 Li
0.500000 0.250000 0.000000 Li
0.500000 0.750000 0.000000 Li
0.750000 0.000000 0.500000 Li
0.225042 0.225042 0.225042 Li
0.274958 0.725042 0.274958 Li
0.274958 0.274958 0.725042 Li
0.725042 0.274958 0.274958 Li
0.774958 0.774958 0.225042 Li
0.225042 0.774958 0.774958 Li
0.774958 0.225042 0.774958 Li
0.725042 0.725042 0.725042 Li
0.253456 0.238009 0.975067 Li
0.246544 0.475067 0.261991 Li
0.246544 0.524933 0.738009 Li
0.524933 0.261991 0.753456 Li
0.475067 0.261991 0.246544 Li
0.738009 0.246544 0.524933 Li
0.261991 0.753456 0.524933 Li
0.975067 0.253456 0.238009 Li
0.238009 0.975067 0.253456 Li
0.761991 0.024933 0.253456 Li
0.975067 0.746544 0.761991 Li
0.761991 0.975067 0.746544 Li
0.024933 0.746544 0.238009 Li
0.024933 0.253456 0.761991 Li
0.238009 0.024933 0.746544 Li
0.253456 0.761991 0.024933 Li
0.746544 0.238009 0.024933 Li
0.746544 0.761991 0.975067 Li
0.261991 0.246544 0.475067 Li
0.738009 0.753456 0.475067 Li
0.524933 0.738009 0.246544 Li
0.475067 0.738009 0.753456 Li
0.753456 0.524933 0.261991 Li
0.753456 0.475067 0.738009 Li
0.263574 0.000000 0.000000 Li
0.236426 0.500000 0.500000 Li
0.500000 0.500000 0.763574 Li
0.500000 0.500000 0.236426 Li
0.500000 0.236426 0.500000 Li
0.500000 0.763574 0.500000 Li
-0.000000 0.263574 0.000000 Li
-0.000000 0.000000 0.263574 Li
-0.000000 0.736426 0.000000 Li
-0.000000 0.000000 0.736426 Li
0.736426 0.000000 0.000000 Li
0.763574 0.500000 0.500000 Li
0.500000 0.500000 0.500000 P
-0.000000 0.000000 0.000000 P
0.500000 0.000000 0.750000 P
0.750000 0.500000 0.000000 P
0.250000 0.500000 0.000000 P
-0.000000 0.250000 0.500000 P
-0.000000 0.750000 0.500000 P
0.500000 0.000000 0.250000 P
0.603727 0.603727 0.603727 N
0.896273 0.103727 0.896273 N
0.103727 0.896273 0.896273 N
0.896273 0.896273 0.103727 N
0.603727 0.396273 0.396273 N
0.396273 0.396273 0.603727 N
0.396273 0.603727 0.396273 N
0.103727 0.103727 0.103727 N
0.350955 0.387048 0.099633 N
0.149045 0.599633 0.112952 N
0.149045 0.400367 0.887048 N
0.400367 0.112952 0.850955 N
0.599633 0.112952 0.149045 N
0.887048 0.149045 0.400367 N
0.112952 0.850955 0.400367 N
0.099633 0.350955 0.387048 N
0.387048 0.099633 0.350955 N
0.612952 0.900367 0.350955 N
0.099633 0.649045 0.612952 N
0.612952 0.099633 0.649045 N
0.900367 0.649045 0.387048 N
0.900367 0.350955 0.612952 N
0.387048 0.900367 0.649045 N
0.350955 0.612952 0.900367 N
0.649045 0.387048 0.900367 N
0.649045 0.612952 0.099633 N
0.112952 0.149045 0.599633 N
0.887048 0.850955 0.599633 N
0.400367 0.887048 0.149045 N
0.599633 0.887048 0.850955 N
0.850955 0.400367 0.112952 N
0.850955 0.599633 0.887048 N
