Li73 P24 N1 O95                         
   1.00000000000000     
    14.7048488666302521    0.0050358760058896   -0.0304084956515079
     0.0036040987784102   10.5827902267945770   -0.0062070836231112
    -0.0255457815877862   -0.0072505551906334   12.3338624792786007
   Li   P    N    O 
    73    24     1    95
Direct
  0.1615751898397948  0.4155829131212196 -0.0051377986162580
  0.1663484008077130  0.4203251125394867  0.5013987637700090
  0.1692750046735751  0.9234375426652300  0.0003156325797943
  0.1652424054461025  0.9258814848256267  0.5004179888937073
  0.5135747031714317  0.4291864074807448 -0.0093024398680159
  0.5027255464438957  0.4226873021123917  0.5005189705386186
  0.5038247848489303  0.9214488607627985 -0.0018314567757292
  0.5044571129591463  0.9239530837247195  0.5006912579217498
  0.8359790204047134  0.4223240167580324  0.0000786011511569
  0.8369962693800287  0.4223729993707918  0.5004636248365359
  0.8374224965274351  0.9229005599938087  0.0005187988703651
  0.8371856807629761  0.9230234859881388  0.5016496618164749
  0.0049324986772225  0.0767586262999509  0.2528744474853846
  0.0020337302543675  0.0754261169750940  0.7468861562933160
 -0.0027138751285602  0.5844598699528528  0.2523039472177059
  0.0021645609935935  0.5767938734308008  0.7486980561394342
  0.3357046057947154  0.0765131431950656  0.2520997883447241
  0.3358248430819163  0.0780192881323448  0.7480987544134823
  0.3412265045330896  0.5991883274150538  0.2632577645480232
  0.3348174767158466  0.5764311033228166  0.7473150321227221
  0.6756116461251526  0.0769624161862560  0.2544881547757436
  0.6710577370855990  0.0768565766313695  0.7486141920951623
  0.6715437832618587  0.5803142979154264  0.2505342454551954
  0.6706701518248783  0.5777712227068507  0.7487621025504396
  0.1690532419852951  0.1617880192616756  0.1285625041425962
  0.1651463297100462  0.1610709959875330  0.6247303660371099
  0.1663824784786856  0.6661518641792401  0.1251343227037275
  0.1680134767778750  0.6643228213679661  0.6263847612243496
  0.5122121197326771  0.1508134695045935  0.1288997244247506
  0.5034208721005490  0.1631465933182924  0.6258360957242939
  0.5049544265550904  0.6670082509410027  0.1249380290889974
  0.5031879209865281  0.6638694147952288  0.6263240373488785
  0.8364339728750694  0.1635162676444812  0.1274979003924455
  0.8370213069171049  0.1608784884180997  0.6273061327724807
  0.8350268751336136  0.6646413261593909  0.1253787447205631
  0.8364063068456015  0.6633701297987314  0.6269276569023089
  0.0007865299931163  0.3364291787172546  0.1277052622814976
  0.0025697018958610  0.3306426754827423  0.6209350263076810
  0.0014131776228508  0.8375308005159056  0.1235696853737019
  0.0016893666392437  0.8397764099383170  0.6239598259120875
  0.3971208234978325  0.3175343245100474  0.1048942874121414
  0.3354054276436987  0.3363816718569261  0.6227297567862488
  0.3365224107381817  0.8398682459645558  0.1227456234725450
  0.3357525678695725  0.8382883635602294  0.6229857027809844
  0.6698427683368703  0.3368712564901098  0.1226998198761903
  0.6702849221277223  0.3355594200104363  0.6228546457316655
  0.6701469656075857  0.8381721663186120  0.1233630777038755
  0.6702976347626393  0.8373028212340469  0.6234057672461569
  0.0014502431176358  0.3373284348731395  0.3785480090646030
  0.0005189201119592  0.3349240942548070  0.8745773870414342
  0.0031177545308230  0.8432111921064008  0.3795709056144342
  0.0020662092253186  0.8367190976961061  0.8769995702630494
  0.3335343357293856  0.3366234848681697  0.3752031094771740
  0.3347114682557590  0.3350929738363280  0.8737644405232284
  0.3363016142422303  0.8414446790812403  0.3791485201079112
  0.3356794599876926  0.8388016764566042  0.8728787436839012
  0.6727462782724610  0.3349213398632628  0.3765842953691772
  0.6711963186183573  0.3359013462713369  0.8741766499165027
  0.6710619149170817  0.8376505057498316  0.3773463279086234
  0.6702226525178875  0.8375591404763597  0.8763109811638640
  0.1603017798715075  0.1615266796610131  0.3753443188581791
  0.1685839307072355  0.1614423166213027  0.8734017867401025
  0.1674581738210462  0.6650115660570798  0.3751824646565627
  0.1680170447859577  0.6625634555762516  0.8733631891062439
  0.5033871403554655  0.1622882707998359  0.3749129909932295
  0.5040838485559999  0.1627214716020460  0.8720412744036429
  0.5052121742687783  0.6656068239302978  0.3764400898449476
  0.5051327921136408  0.6663410313616828  0.8696637835310130
  0.8652598760413130  0.1631945075180928  0.3745180187103753
  0.8367343941658860  0.1627194048490335  0.8736948320112962
  0.8354554164575402  0.6650693243076085  0.3747335469310284
  0.8364092179422874  0.6635954784300792  0.8728934228385743
  0.2895268035170831  0.4599741992937177  0.1402737710811736
  0.1622314594409966  0.4127271411109035  0.2531369497942134
  0.1661935457967726  0.4114468546383179  0.7497352355410294
  0.1682157248097439  0.9101051480713648  0.2492309776443069
  0.1672561651294779  0.9109072925625435  0.7512949192215476
  0.4976475993391782  0.4162913245202093  0.2485837103529709
  0.5003735838263879  0.4125304467373967  0.7489593908250292
  0.5015102780156959  0.9112227701376677  0.2510975308105394
  0.5007319477831254  0.9129580611564698  0.7492758831013333
  0.8305322461674706  0.4149292018168265  0.2501433668027834
  0.8329338455210620  0.4122758398201614  0.7497538195005465
  0.8332969882096315  0.9110165210943032  0.2491971188415925
  0.8328113030227313  0.9110162753900687  0.7519892389893087
  0.0002207246368963  0.0886198593083160  0.0002342153779638
 -0.0002411656808987  0.0890303664565910  0.4981695266949335
 -0.0012613704715197  0.5871169345923956  0.0001321945093394
 -0.0002558130435327  0.5899346270571441  0.5012683236218441
  0.3355341207109289  0.0849670627135526 -0.0003416410568896
  0.3339508013465731  0.0893338796838074  0.5000531714578890
  0.3365242346907718  0.5904818571572509 -0.0039456256552393
  0.3336305694152784  0.5885856078034005  0.5021181028242695
  0.6675014395646536  0.0877643072857493 -0.0005901211370770
  0.6670616043228239  0.0883113003717395  0.5001447536071303
  0.6666941456919995  0.5899842930684590 -0.0010209484763663
  0.6665624251952759  0.5873578501205071  0.5003926937639183
  0.0279854161276632  0.1601996443991740  0.3919767993856382
  0.0352735174787838  0.1567840008344628  0.8961700434357275
  0.0350386777110974  0.6590808687659092  0.3975681132010475
  0.0351245207214497  0.6552821355735292  0.8968087052403193
  0.3694093780375053  0.1585621495211675  0.3962479670510271
  0.3704900629096337  0.1576557558093157  0.8977838359045246
  0.3709652146816563  0.6615258746588881  0.4012128753777696
  0.3698335755918121  0.6577306369522343  0.8930051289474805
  0.7007678165773795  0.1575354568656959  0.3968488351492335
  0.7024897970972196  0.1572873071785814  0.8963412375564013
  0.7009512733899822  0.6568184371418545  0.3967513025529125
  0.7024949100933880  0.6572395661213078  0.8954163362699864
  0.2025269148410995  0.0492929918616015  0.2490599894957645
  0.2016127315459754  0.0504650315718172  0.7517814369024404
  0.2063981811666559  0.5491817722028927  0.2461607938789331
  0.2003559370875846  0.5513449993990858  0.7509002027551952
  0.5361655133305537  0.0503896334866997  0.2528034385694365
  0.5346046092923348  0.0524437831484106  0.7495578802873646
  0.5327771433734146  0.5543349705148793  0.2480672099459755
  0.5340961928028702  0.5522411444928492  0.7497741944954791
  0.8657661727644339  0.0505027956638002  0.2468703535624448
  0.8660906415925220  0.0505327540101961  0.7532836806261848
  0.8628893574317340  0.5555058865667351  0.2487675746748766
  0.8667360557970473  0.5520061782470325  0.7505417123463320
  0.0577924665655397  0.4208462001148605  0.2531044322629064
  0.0605704231386807  0.4089305093281514  0.7499221165426343
  0.0627705629037109  0.9048069922933779  0.2481643388313930
  0.0616874886915031  0.9073393311958988  0.7524701469325490
  0.3903525892601191  0.4168812076765348  0.2433483195622425
  0.3943653252992493  0.4096520589971240  0.7501547187144972
  0.3954864960682336  0.9081656711645739  0.2506445453900617
  0.3948023424303357  0.9106301716970437  0.7490733528545374
  0.7242407329624442  0.4112978808847184  0.2483383910233575
  0.7268323414496309  0.4102489495675901  0.7493883481479620
  0.7271639356266907  0.9068584388178639  0.2495900808549136
  0.7266829005147901  0.9084451529763876  0.7511555945524194
  0.2300121130821350  0.0910658443517701  0.0017530065624117
  0.2285375625893531  0.0909369864744632  0.4999303024028798
  0.2305793020747447  0.5841659416552288  0.0014409633011846
  0.2279423661268253  0.5908781830027623  0.4996516436916844
  0.5613577747459949  0.0890218616566671 -0.0019954366404914
  0.5605789075647067  0.0909202089988932  0.5007256238978197
  0.5604815002831159  0.5960102248345606 -0.0018943052284439
  0.5604282873868016  0.5898151950010905  0.5004240628333508
  0.8942549829774590  0.0915690954464176  0.0004635714584312
  0.8918738758025267  0.0826815647570156  0.5094611514668537
  0.8929884029552512  0.5908537093402542 -0.0001940074790970
  0.8937370613875528  0.5924054295321767  0.5004042448157797
  0.1948309053276458  0.3434175874063688  0.1472928541252138
  0.2022337498884454  0.3428763910059363  0.6465099186484154
  0.2041729353272073  0.8410055281982690  0.1450329618326598
  0.2030385321122211  0.8422187845460664  0.6477742437761139
  0.5279115256538059  0.3437578085351394  0.1426907658955914
  0.5350755793175104  0.3436810442415064  0.6453969898469727
  0.5359257779564575  0.8439932762684337  0.1460301222995606
  0.5356778331426196  0.8429179114752932  0.6461222676717534
  0.8663129551132660  0.3450904972909599  0.1469032136178703
  0.8679883351326270  0.3432586032425669  0.6465808252389006
  0.8680169880475251  0.8414192206520462  0.1452078496989205
  0.8676963344003751  0.8407118490899326  0.6492940902010691
  0.0359589770037667  0.1580319074884893  0.1035206556107733
  0.0342297576143758  0.1530018999069130  0.6090837220012639
  0.0346893090424011  0.6563634700256951  0.1037425234100023
  0.0348534415356502  0.6587068596442263  0.6054346964508688
  0.3751474576494440  0.1478071980136301  0.1046568138740160
  0.3696261985661724  0.1586173611049606  0.6039015239980543
  0.3697467746701772  0.6568794747272769  0.1024066828394133
  0.3683965687963708  0.6557171337630138  0.6069236945062292
  0.7003019191256118  0.1577979910486354  0.1041085984286213
  0.7014454920422337  0.1566151997392285  0.6049887946012522
  0.7015064433553055  0.6579067114050555  0.1031887913806374
  0.7017594303873400  0.6564908337515523  0.6041482941071914
  0.0312755381973486  0.4466285033865858  0.0004417020818953
  0.0336125422169446  0.4506272201805749  0.5017917350697021
  0.0339124653389604  0.9485023854403550  0.0005090112865203
  0.0338449218099954  0.9451749218332434  0.5045351435577501
  0.3708883695777429  0.4493723494348198  0.0010856487461280
  0.3677096094053136  0.4490074129498413  0.4987164487528438
  0.3679166066333996  0.9447560282524853 -0.0032922472340192
  0.3691322407281228  0.9499671468357083  0.5003378032454420
  0.6969557484860317  0.4485109000104772 -0.0005114218609005
  0.6998191302563583  0.4475567374939621  0.4998979219343514
  0.7016197212813489  0.9484494244659956  0.0002056902496990
  0.6996064981358326  0.9478085704829269  0.5004646050470092
  0.1997952028430835  0.3448495461709843  0.3550405394828241
  0.2019088213004495  0.3422942289372399  0.8539330539493356
  0.2043698305440677  0.8407624960982335  0.3526885236862140
  0.2030839251437265  0.8414231732507379  0.8553864087366335
  0.5309872877083108  0.3450083990231209  0.3506839609200841
  0.5363377332111023  0.3432962587454764  0.8526863071007920
  0.5367691978393357  0.8413741724416814  0.3541705892858297
  0.5359038772798544  0.8439180333482271  0.8533530251810305
  0.8652751337673366  0.3493472734570995  0.3547158327418329
  0.8671710501010481  0.3433362359734515  0.8543097164318992
  0.8688738806437442  0.8425447680827638  0.3528636348940926
  0.8678690241203146  0.8421377606802302  0.8563013985630706
 
  0.00000000E+00  0.00000000E+00  0.00000000E+00
  0.00000000E+00  0.00000000E+00  0.00000000E+00
  0.00000000E+00  0.00000000E+00  0.00000000E+00
  0.00000000E+00  0.00000000E+00  0.00000000E+00
  0.00000000E+00  0.00000000E+00  0.00000000E+00
  0.00000000E+00  0.00000000E+00  0.00000000E+00
  0.00000000E+00  0.00000000E+00  0.00000000E+00
  0.00000000E+00  0.00000000E+00  0.00000000E+00
  0.00000000E+00  0.00000000E+00  0.00000000E+00
  0.00000000E+00  0.00000000E+00  0.00000000E+00
  0.00000000E+00  0.00000000E+00  0.00000000E+00
  0.00000000E+00  0.00000000E+00  0.00000000E+00
  0.00000000E+00  0.00000000E+00  0.00000000E+00
  0.00000000E+00  0.00000000E+00  0.00000000E+00
  0.00000000E+00  0.00000000E+00  0.00000000E+00
  0.00000000E+00  0.00000000E+00  0.00000000E+00
  0.00000000E+00  0.00000000E+00  0.00000000E+00
  0.00000000E+00  0.00000000E+00  0.00000000E+00
  0.00000000E+00  0.00000000E+00  0.00000000E+00
  0.00000000E+00  0.00000000E+00  0.00000000E+00
  0.00000000E+00  0.00000000E+00  0.00000000E+00
  0.00000000E+00  0.00000000E+00  0.00000000E+00
  0.00000000E+00  0.00000000E+00  0.00000000E+00
  0.00000000E+00  0.00000000E+00  0.00000000E+00
  0.00000000E+00  0.00000000E+00  0.00000000E+00
  0.00000000E+00  0.00000000E+00  0.00000000E+00
  0.00000000E+00  0.00000000E+00  0.00000000E+00
  0.00000000E+00  0.00000000E+00  0.00000000E+00
  0.00000000E+00  0.00000000E+00  0.00000000E+00
  0.00000000E+00  0.00000000E+00  0.00000000E+00
  0.00000000E+00  0.00000000E+00  0.00000000E+00
  0.00000000E+00  0.00000000E+00  0.00000000E+00
  0.00000000E+00  0.00000000E+00  0.00000000E+00
  0.00000000E+00  0.00000000E+00  0.00000000E+00
  0.00000000E+00  0.00000000E+00  0.00000000E+00
  0.00000000E+00  0.00000000E+00  0.00000000E+00
  0.00000000E+00  0.00000000E+00  0.00000000E+00
  0.00000000E+00  0.00000000E+00  0.00000000E+00
  0.00000000E+00  0.00000000E+00  0.00000000E+00
  0.00000000E+00  0.00000000E+00  0.00000000E+00
  0.00000000E+00  0.00000000E+00  0.00000000E+00
  0.00000000E+00  0.00000000E+00  0.00000000E+00
  0.00000000E+00  0.00000000E+00  0.00000000E+00
  0.00000000E+00  0.00000000E+00  0.00000000E+00
  0.00000000E+00  0.00000000E+00  0.00000000E+00
  0.00000000E+00  0.00000000E+00  0.00000000E+00
  0.00000000E+00  0.00000000E+00  0.00000000E+00
  0.00000000E+00  0.00000000E+00  0.00000000E+00
  0.00000000E+00  0.00000000E+00  0.00000000E+00
  0.00000000E+00  0.00000000E+00  0.00000000E+00
  0.00000000E+00  0.00000000E+00  0.00000000E+00
  0.00000000E+00  0.00000000E+00  0.00000000E+00
  0.00000000E+00  0.00000000E+00  0.00000000E+00
  0.00000000E+00  0.00000000E+00  0.00000000E+00
  0.00000000E+00  0.00000000E+00  0.00000000E+00
  0.00000000E+00  0.00000000E+00  0.00000000E+00
  0.00000000E+00  0.00000000E+00  0.00000000E+00
  0.00000000E+00  0.00000000E+00  0.00000000E+00
  0.00000000E+00  0.00000000E+00  0.00000000E+00
  0.00000000E+00  0.00000000E+00  0.00000000E+00
  0.00000000E+00  0.00000000E+00  0.00000000E+00
  0.00000000E+00  0.00000000E+00  0.00000000E+00
  0.00000000E+00  0.00000000E+00  0.00000000E+00
  0.00000000E+00  0.00000000E+00  0.00000000E+00
  0.00000000E+00  0.00000000E+00  0.00000000E+00
  0.00000000E+00  0.00000000E+00  0.00000000E+00
  0.00000000E+00  0.00000000E+00  0.00000000E+00
  0.00000000E+00  0.00000000E+00  0.00000000E+00
  0.00000000E+00  0.00000000E+00  0.00000000E+00
  0.00000000E+00  0.00000000E+00  0.00000000E+00
  0.00000000E+00  0.00000000E+00  0.00000000E+00
  0.00000000E+00  0.00000000E+00  0.00000000E+00
  0.00000000E+00  0.00000000E+00  0.00000000E+00
  0.00000000E+00  0.00000000E+00  0.00000000E+00
  0.00000000E+00  0.00000000E+00  0.00000000E+00
  0.00000000E+00  0.00000000E+00  0.00000000E+00
  0.00000000E+00  0.00000000E+00  0.00000000E+00
  0.00000000E+00  0.00000000E+00  0.00000000E+00
  0.00000000E+00  0.00000000E+00  0.00000000E+00
  0.00000000E+00  0.00000000E+00  0.00000000E+00
  0.00000000E+00  0.00000000E+00  0.00000000E+00
  0.00000000E+00  0.00000000E+00  0.00000000E+00
  0.00000000E+00  0.00000000E+00  0.00000000E+00
  0.00000000E+00  0.00000000E+00  0.00000000E+00
  0.00000000E+00  0.00000000E+00  0.00000000E+00
  0.00000000E+00  0.00000000E+00  0.00000000E+00
  0.00000000E+00  0.00000000E+00  0.00000000E+00
  0.00000000E+00  0.00000000E+00  0.00000000E+00
  0.00000000E+00  0.00000000E+00  0.00000000E+00
  0.00000000E+00  0.00000000E+00  0.00000000E+00
  0.00000000E+00  0.00000000E+00  0.00000000E+00
  0.00000000E+00  0.00000000E+00  0.00000000E+00
  0.00000000E+00  0.00000000E+00  0.00000000E+00
  0.00000000E+00  0.00000000E+00  0.00000000E+00
  0.00000000E+00  0.00000000E+00  0.00000000E+00
  0.00000000E+00  0.00000000E+00  0.00000000E+00
  0.00000000E+00  0.00000000E+00  0.00000000E+00
  0.00000000E+00  0.00000000E+00  0.00000000E+00
  0.00000000E+00  0.00000000E+00  0.00000000E+00
  0.00000000E+00  0.00000000E+00  0.00000000E+00
  0.00000000E+00  0.00000000E+00  0.00000000E+00
  0.00000000E+00  0.00000000E+00  0.00000000E+00
  0.00000000E+00  0.00000000E+00  0.00000000E+00
  0.00000000E+00  0.00000000E+00  0.00000000E+00
  0.00000000E+00  0.00000000E+00  0.00000000E+00
  0.00000000E+00  0.00000000E+00  0.00000000E+00
  0.00000000E+00  0.00000000E+00  0.00000000E+00
  0.00000000E+00  0.00000000E+00  0.00000000E+00
  0.00000000E+00  0.00000000E+00  0.00000000E+00
  0.00000000E+00  0.00000000E+00  0.00000000E+00
  0.00000000E+00  0.00000000E+00  0.00000000E+00
  0.00000000E+00  0.00000000E+00  0.00000000E+00
  0.00000000E+00  0.00000000E+00  0.00000000E+00
  0.00000000E+00  0.00000000E+00  0.00000000E+00
  0.00000000E+00  0.00000000E+00  0.00000000E+00
  0.00000000E+00  0.00000000E+00  0.00000000E+00
  0.00000000E+00  0.00000000E+00  0.00000000E+00
  0.00000000E+00  0.00000000E+00  0.00000000E+00
  0.00000000E+00  0.00000000E+00  0.00000000E+00
  0.00000000E+00  0.00000000E+00  0.00000000E+00
  0.00000000E+00  0.00000000E+00  0.00000000E+00
  0.00000000E+00  0.00000000E+00  0.00000000E+00
  0.00000000E+00  0.00000000E+00  0.00000000E+00
  0.00000000E+00  0.00000000E+00  0.00000000E+00
  0.00000000E+00  0.00000000E+00  0.00000000E+00
  0.00000000E+00  0.00000000E+00  0.00000000E+00
  0.00000000E+00  0.00000000E+00  0.00000000E+00
  0.00000000E+00  0.00000000E+00  0.00000000E+00
  0.00000000E+00  0.00000000E+00  0.00000000E+00
  0.00000000E+00  0.00000000E+00  0.00000000E+00
  0.00000000E+00  0.00000000E+00  0.00000000E+00
  0.00000000E+00  0.00000000E+00  0.00000000E+00
  0.00000000E+00  0.00000000E+00  0.00000000E+00
  0.00000000E+00  0.00000000E+00  0.00000000E+00
  0.00000000E+00  0.00000000E+00  0.00000000E+00
  0.00000000E+00  0.00000000E+00  0.00000000E+00
  0.00000000E+00  0.00000000E+00  0.00000000E+00
  0.00000000E+00  0.00000000E+00  0.00000000E+00
  0.00000000E+00  0.00000000E+00  0.00000000E+00
  0.00000000E+00  0.00000000E+00  0.00000000E+00
  0.00000000E+00  0.00000000E+00  0.00000000E+00
  0.00000000E+00  0.00000000E+00  0.00000000E+00
  0.00000000E+00  0.00000000E+00  0.00000000E+00
  0.00000000E+00  0.00000000E+00  0.00000000E+00
  0.00000000E+00  0.00000000E+00  0.00000000E+00
  0.00000000E+00  0.00000000E+00  0.00000000E+00
  0.00000000E+00  0.00000000E+00  0.00000000E+00
  0.00000000E+00  0.00000000E+00  0.00000000E+00
  0.00000000E+00  0.00000000E+00  0.00000000E+00
  0.00000000E+00  0.00000000E+00  0.00000000E+00
  0.00000000E+00  0.00000000E+00  0.00000000E+00
  0.00000000E+00  0.00000000E+00  0.00000000E+00
  0.00000000E+00  0.00000000E+00  0.00000000E+00
  0.00000000E+00  0.00000000E+00  0.00000000E+00
  0.00000000E+00  0.00000000E+00  0.00000000E+00
  0.00000000E+00  0.00000000E+00  0.00000000E+00
  0.00000000E+00  0.00000000E+00  0.00000000E+00
  0.00000000E+00  0.00000000E+00  0.00000000E+00
  0.00000000E+00  0.00000000E+00  0.00000000E+00
  0.00000000E+00  0.00000000E+00  0.00000000E+00
  0.00000000E+00  0.00000000E+00  0.00000000E+00
  0.00000000E+00  0.00000000E+00  0.00000000E+00
  0.00000000E+00  0.00000000E+00  0.00000000E+00
  0.00000000E+00  0.00000000E+00  0.00000000E+00
  0.00000000E+00  0.00000000E+00  0.00000000E+00
  0.00000000E+00  0.00000000E+00  0.00000000E+00
  0.00000000E+00  0.00000000E+00  0.00000000E+00
  0.00000000E+00  0.00000000E+00  0.00000000E+00
  0.00000000E+00  0.00000000E+00  0.00000000E+00
  0.00000000E+00  0.00000000E+00  0.00000000E+00
  0.00000000E+00  0.00000000E+00  0.00000000E+00
  0.00000000E+00  0.00000000E+00  0.00000000E+00
  0.00000000E+00  0.00000000E+00  0.00000000E+00
  0.00000000E+00  0.00000000E+00  0.00000000E+00
  0.00000000E+00  0.00000000E+00  0.00000000E+00
  0.00000000E+00  0.00000000E+00  0.00000000E+00
  0.00000000E+00  0.00000000E+00  0.00000000E+00
  0.00000000E+00  0.00000000E+00  0.00000000E+00
  0.00000000E+00  0.00000000E+00  0.00000000E+00
  0.00000000E+00  0.00000000E+00  0.00000000E+00
  0.00000000E+00  0.00000000E+00  0.00000000E+00
  0.00000000E+00  0.00000000E+00  0.00000000E+00
  0.00000000E+00  0.00000000E+00  0.00000000E+00
  0.00000000E+00  0.00000000E+00  0.00000000E+00
  0.00000000E+00  0.00000000E+00  0.00000000E+00
  0.00000000E+00  0.00000000E+00  0.00000000E+00
  0.00000000E+00  0.00000000E+00  0.00000000E+00
  0.00000000E+00  0.00000000E+00  0.00000000E+00
  0.00000000E+00  0.00000000E+00  0.00000000E+00
  0.00000000E+00  0.00000000E+00  0.00000000E+00
  0.00000000E+00  0.00000000E+00  0.00000000E+00
  0.00000000E+00  0.00000000E+00  0.00000000E+00
  0.00000000E+00  0.00000000E+00  0.00000000E+00
