P28 O70
1.0
4.936987 0.000000 0.023070
1.557664 8.595798 0.415402
0.000000 0.000000 53.147410
P O
28 70
direct
0.818671 0.144240 0.003948 P5+
0.125151 0.839709 0.004078 P5+
0.098905 0.493625 0.079256 P5+
0.969917 0.240325 0.053770 P5+
0.235337 0.977574 0.087281 P5+
0.541818 0.673042 0.087411 P5+
0.515572 0.326958 0.162589 P5+
0.386583 0.073658 0.137103 P5+
0.652004 0.810907 0.170614 P5+
0.958485 0.506375 0.170744 P5+
0.932239 0.160291 0.245922 P5+
0.803250 0.906991 0.220436 P5+
0.068671 0.644240 0.253948 P5+
0.375151 0.339709 0.254078 P5+
0.348905 0.993625 0.329256 P5+
0.219917 0.740325 0.303770 P5+
0.485337 0.477574 0.337281 P5+
0.791818 0.173042 0.337411 P5+
0.765572 0.826958 0.412589 P5+
0.636583 0.573658 0.387103 P5+
0.902004 0.310907 0.420614 P5+
0.208485 0.006375 0.420744 P5+
0.182239 0.660291 0.495922 P5+
0.053250 0.406991 0.470436 P5+
0.318671 0.144240 0.503948 P5+
0.625151 0.839709 0.504078 P5+
0.598905 0.493625 0.579256 P5+
0.469917 0.240325 0.553770 P5+
0.573006 0.089937 0.013404 O2-
0.113089 0.820376 0.031439 O2-
0.690820 0.576077 0.020335 O2-
0.703608 0.250903 0.066176 O2-
0.115192 0.390055 0.054973 O2-
0.469359 0.848388 0.075806 O2-
0.989176 0.220670 0.024177 O2-
0.338350 0.587194 0.071891 O2-
0.827252 0.622073 0.073476 O2-
0.208607 0.102458 0.064259 O2-
0.989673 0.923270 0.096738 O2-
0.529756 0.653709 0.114772 O2-
0.107487 0.409410 0.103668 O2-
0.120275 0.084236 0.149509 O2-
0.531859 0.223388 0.138306 O2-
0.886025 0.681722 0.159139 O2-
0.405842 0.054004 0.107511 O2-
0.755016 0.420527 0.155224 O2-
0.243918 0.455406 0.156809 O2-
0.625274 0.935791 0.147592 O2-
0.406339 0.756604 0.180071 O2-
0.946422 0.487042 0.198106 O2-
0.524154 0.242743 0.187001 O2-
0.536941 0.917570 0.232842 O2-
0.948525 0.056722 0.221639 O2-
0.302692 0.515055 0.242473 O2-
0.822509 0.887337 0.190844 O2-
0.171683 0.253861 0.238557 O2-
0.660585 0.288740 0.240143 O2-
0.041940 0.769125 0.230925 O2-
0.823006 0.589937 0.263404 O2-
0.363089 0.320376 0.281439 O2-
0.940820 0.076077 0.270335 O2-
0.953608 0.750903 0.316176 O2-
0.365192 0.890055 0.304973 O2-
0.719359 0.348388 0.325806 O2-
0.239176 0.720670 0.274177 O2-
0.588350 0.087194 0.321891 O2-
0.077252 0.122073 0.323476 O2-
0.458607 0.602458 0.314259 O2-
0.239673 0.423270 0.346738 O2-
0.779755 0.153709 0.364772 O2-
0.357487 0.909410 0.353668 O2-
0.370275 0.584236 0.399509 O2-
0.781859 0.723388 0.388306 O2-
0.136025 0.181722 0.409139 O2-
0.655842 0.554004 0.357511 O2-
0.005016 0.920527 0.405224 O2-
0.493918 0.955406 0.406809 O2-
0.875274 0.435791 0.397592 O2-
0.656339 0.256604 0.430071 O2-
0.196422 0.987042 0.448106 O2-
0.774154 0.742743 0.437001 O2-
0.786941 0.417570 0.482842 O2-
0.198525 0.556721 0.471639 O2-
0.552692 0.015055 0.492473 O2-
0.072509 0.387337 0.440844 O2-
0.421683 0.753861 0.488557 O2-
0.910585 0.788740 0.490143 O2-
0.291940 0.269125 0.480925 O2-
0.073006 0.089937 0.513404 O2-
0.613089 0.820376 0.531439 O2-
0.190820 0.576077 0.520335 O2-
0.203608 0.250903 0.566176 O2-
0.615192 0.390055 0.554973 O2-
0.969359 0.848388 0.575806 O2-
0.489176 0.220670 0.524177 O2-
0.838349 0.587194 0.571891 O2-
0.327252 0.622073 0.573476 O2-
0.708607 0.102458 0.564259 O2-
