Li42 P14 O56
1.0
6.176136 0.000000 0.000000
0.000000 5.296402 -4.922448
0.000000 0.000000 63.991824
Li P O
42 14 56
direct
0.000000 0.155480 0.067799 Li+
0.500000 0.844520 0.005418 Li+
0.252873 0.673566 0.030810 Li+
0.247127 0.326434 0.042569 Li+
0.752873 0.326434 0.042569 Li+
0.747127 0.673566 0.030810 Li+
0.000000 0.155480 0.144723 Li+
0.500000 0.844520 0.082341 Li+
0.252873 0.673566 0.107733 Li+
0.247127 0.326434 0.119492 Li+
0.752873 0.326434 0.119492 Li+
0.747127 0.673566 0.107733 Li+
0.000000 0.155480 0.221646 Li+
0.500000 0.844520 0.159264 Li+
0.252873 0.673566 0.184656 Li+
0.247127 0.326434 0.196415 Li+
0.752873 0.326434 0.196415 Li+
0.747127 0.673566 0.184656 Li+
0.000000 0.155480 0.298569 Li+
0.500000 0.844520 0.236187 Li+
0.252873 0.673566 0.261579 Li+
0.247127 0.326434 0.273339 Li+
0.752873 0.326434 0.273339 Li+
0.747127 0.673566 0.261579 Li+
0.000000 0.155480 0.375492 Li+
0.500000 0.844520 0.313110 Li+
0.252873 0.673566 0.338503 Li+
0.247127 0.326434 0.350262 Li+
0.752873 0.326434 0.350262 Li+
0.747127 0.673566 0.338503 Li+
0.000000 0.155480 0.452415 Li+
0.500000 0.844520 0.390033 Li+
0.252873 0.673566 0.415426 Li+
0.247127 0.326434 0.427185 Li+
0.752873 0.326434 0.427185 Li+
0.747127 0.673566 0.415426 Li+
0.000000 0.155480 0.529338 Li+
0.500000 0.844520 0.466956 Li+
0.252873 0.673566 0.492349 Li+
0.247127 0.326434 0.504108 Li+
0.752873 0.326434 0.504108 Li+
0.747127 0.673566 0.492349 Li+
0.500000 0.175739 0.069973 P5+
0.000000 0.824261 0.004475 P5+
0.500000 0.175739 0.146896 P5+
0.000000 0.824261 0.081398 P5+
0.500000 0.175739 0.223819 P5+
0.000000 0.824261 0.158321 P5+
0.500000 0.175739 0.300742 P5+
0.000000 0.824261 0.235244 P5+
0.500000 0.175739 0.377665 P5+
0.000000 0.824261 0.312167 P5+
0.500000 0.175739 0.454588 P5+
0.000000 0.824261 0.389090 P5+
0.500000 0.175739 0.531511 P5+
0.000000 0.824261 0.466013 P5+
0.792862 0.686491 0.062678 O2-
0.500000 0.896492 0.040746 O2-
0.500000 0.181604 0.017826 O2-
0.000000 0.818396 0.028349 O2-
0.292862 0.313509 0.072448 O2-
0.207138 0.686491 0.062678 O2-
0.000000 0.103508 0.018209 O2-
0.707138 0.313509 0.072448 O2-
0.792862 0.686491 0.139601 O2-
0.500000 0.896492 0.117669 O2-
0.500000 0.181604 0.094749 O2-
0.000000 0.818396 0.105272 O2-
0.292862 0.313509 0.149371 O2-
0.207138 0.686491 0.139601 O2-
0.000000 0.103508 0.095132 O2-
0.707138 0.313509 0.149371 O2-
0.792862 0.686491 0.216524 O2-
0.500000 0.896492 0.194592 O2-
0.500000 0.181604 0.171673 O2-
0.000000 0.818396 0.182195 O2-
0.292862 0.313509 0.226295 O2-
0.207138 0.686491 0.216524 O2-
0.000000 0.103508 0.172055 O2-
0.707138 0.313509 0.226295 O2-
0.792862 0.686491 0.293447 O2-
0.500000 0.896492 0.271515 O2-
0.500000 0.181604 0.248596 O2-
0.000000 0.818396 0.259118 O2-
0.292862 0.313509 0.303218 O2-
0.207138 0.686491 0.293447 O2-
0.000000 0.103508 0.248978 O2-
0.707138 0.313509 0.303218 O2-
0.792862 0.686491 0.370370 O2-
0.500000 0.896492 0.348438 O2-
0.500000 0.181604 0.325519 O2-
0.000000 0.818396 0.336041 O2-
0.292862 0.313509 0.380141 O2-
0.207138 0.686491 0.370370 O2-
0.000000 0.103508 0.325901 O2-
0.707138 0.313509 0.380141 O2-
0.792862 0.686491 0.447293 O2-
0.500000 0.896492 0.425361 O2-
0.500000 0.181604 0.402442 O2-
0.000000 0.818396 0.412964 O2-
0.292862 0.313509 0.457064 O2-
0.207138 0.686491 0.447293 O2-
0.000000 0.103508 0.402824 O2-
0.707138 0.313509 0.457064 O2-
0.792862 0.686491 0.524216 O2-
0.500000 0.896492 0.502284 O2-
0.500000 0.181604 0.479365 O2-
0.000000 0.818396 0.489887 O2-
0.292862 0.313509 0.533987 O2-
0.207138 0.686491 0.524216 O2-
0.000000 0.103508 0.479747 O2-
0.707138 0.313509 0.533987 O2-
