Li73 P24 N1 O95                         
   1.00000000000000     
    14.6893472366380085    0.0022133148872840   -0.0127856933052636
     0.0015983628449038   10.5795445250482061    0.0118316476906608
    -0.0107018745270643    0.0138073661942654   12.3260251082819412
   Li   P    N    O 
    73    24     1    95
Direct
  0.1651715720936978  0.4115421953108353 -0.0008254815884423
  0.1686047569817415  0.4247323832642309  0.5002570689152822
  0.1688317388566829  0.9204542189286083  0.0001040802077058
  0.1690187650431230  0.9223726418506097  0.4996479291416528
  0.5046062761989182  0.4230859227321863 -0.0012447106792650
  0.5024107053057801  0.4229613957577213  0.5001774191134860
  0.5041464310873550  0.9208830743918249 -0.0012515939167277
  0.5036417616392438  0.9235702672306764  0.4998200441690504
  0.8377490598137227  0.4222964122605537  0.0007965620498413
  0.8370749682695205  0.4226556115413342  0.4997755494192483
  0.8370911480524637  0.9222022980831373 -0.0000853557088208
  0.8366992122477332  0.9229244627912963  0.4999558378724877
  0.0037430418891540  0.0770560923277764  0.2500136146846313
  0.0032836341181049  0.0780367831758135  0.7499621819220978
  0.0023055833753963  0.5772674138429976  0.2513013623750252
  0.0027299481255083  0.5769173457440114  0.7499691717656233
  0.3353167915025742  0.0735882156421737  0.2504557962707697
  0.3364041754454447  0.0786328584595527  0.7487410295013601
  0.3436572049275798  0.5922700156855437  0.2691103673168251
  0.3359053376187879  0.5754115420714311  0.7485466408762129
  0.6705353007825061  0.0774056491213760  0.2502749950495303
  0.6703709253703418  0.0782335655116741  0.7493739612728503
  0.6707440930782672  0.5774915390347496  0.2498983835104036
  0.6706822086869144  0.5768640526290421  0.7495120241366947
  0.1704011085534583  0.1636788772136166  0.1257956818676782
  0.1693530749040241  0.1637684398663708  0.6256474418704987
  0.1650220801969107  0.6662491794958048  0.1279405608056647
  0.1686583358391785  0.6642611775844692  0.6276150571327364
  0.5058453362577855  0.1601911223252392  0.1259339930688244
  0.5027332195129174  0.1638178624052781  0.6255677190801410
  0.5053898898593907  0.6651580903736428  0.1252856903336826
  0.5036986702699475  0.6635605962911948  0.6274228798996436
  0.8374910278471469  0.1640441894274945  0.1260269496248286
  0.8363631868650671  0.1634229656572066  0.6259515698229363
  0.8362302305080804  0.6634813029162943  0.1264162799257512
  0.8364719722008913  0.6637189837697052  0.6266177899819161
  0.0088920080996648  0.3372752624490258  0.1263541297657973
  0.0026646739618766  0.3364649693885364  0.6239212547913886
  0.0020450909862791  0.8368460489093913  0.1237499836513605
  0.0024056767145188  0.8372536722880108  0.6236512032590004
  0.3392434594846472  0.3084800879840576  0.1276135749840709
  0.3358995057865257  0.3375357606903751  0.6233036365413738
  0.3362629139401477  0.8370732494463482  0.1226541778589858
  0.3362398513409199  0.8379487820119729  0.6237443604435630
  0.6694478660264551  0.3368062588525362  0.1235605057220561
  0.6696566508409931  0.3365567216829525  0.6234053394101400
  0.6704851452971167  0.8372445268523010  0.1236352194690913
  0.6701704894493241  0.8370443105161360  0.6231659745388894
  0.0045523184976774  0.3381802392072503  0.3773704663369258
  0.0020346091997157  0.3358167715336236  0.8764394560334677
  0.0026757653605799  0.8365886488256236  0.3769077811771282
  0.0024794435494823  0.8368686644392399  0.8757833015190277
  0.3319119753760357  0.3391167625332430  0.3755430787629345
  0.3360043739110277  0.3347000671202888  0.8770625410424239
  0.3359921768391817  0.8400737757124500  0.3788893487975682
  0.3357456644279149  0.8383442930585875  0.8716127518185304
  0.6686079098000616  0.3372146282767297  0.3757582825525697
  0.6703132616951134  0.3365219870987028  0.8763465462677871
  0.6705987567414831  0.8372486025843708  0.3767178170811548
  0.6705957703527189  0.8375204929604639  0.8759678638984960
  0.1695636885562790  0.1659342749027837  0.3725429067372112
  0.1700407253794306  0.1615816695514137  0.8751710926274522
  0.1687635646694563  0.6608655499783955  0.3737588763414789
  0.1682193448812047  0.6622136248383911  0.8739323425054161
  0.5016250283423561  0.1638082143721071  0.3731899440309924
  0.5037731080970484  0.1624222345653598  0.8729927799023257
  0.5063872238627336  0.6656764459804468  0.3762590442033262
  0.5067291889056175  0.6646150732911972  0.8704009521071703
  0.8366893243453246  0.1640937475313542  0.3734568489006539
  0.8364962317270688  0.1630724009245847  0.8731988532744160
  0.8359670902903895  0.6634693018654040  0.3737310354611501
  0.8360253809067556  0.6636102728210864  0.8728660473889096
  0.2776500613696175  0.4901320963347481  0.1357672228204917
  0.1672077987573326  0.4069341125461326  0.2497534659117175
  0.1668993203259776  0.4114184786001907  0.7501729039707653
  0.1671345861723144  0.9104460529587955  0.2506655110707153
  0.1667107570163454  0.9121761033732938  0.7496601556287962
  0.4982745073490062  0.4151332338731250  0.2484168583094526
  0.5007959572908098  0.4114889848998112  0.7499968194508465
  0.5011811456367474  0.9117725294543242  0.2503051649013998
  0.5013144940752799  0.9132842328058735  0.7487072086487421
  0.8337251395209742  0.4122631459013242  0.2501770246248973
  0.8335107174488854  0.4119780664598905  0.7499704016928985
  0.8336604586207217  0.9124279171482894  0.2501801469587989
  0.8336435088559006  0.9126514644078346  0.7496677102167575
 -0.0000717576313383  0.0868379111455021  0.0002070786365911
  0.0001021276089645  0.0877820642301705  0.4997896272906041
 -0.0007991106245814  0.5879618717656462 -0.0005980845492226
 -0.0003932906836722  0.5886671645215138  0.5011617544661873
  0.3352796938145815  0.0807916008604052 -0.0016620099402748
  0.3332299660482828  0.0891944006772536  0.4994714139745989
  0.3382112080070114  0.5928841272971227 -0.0070651686601030
  0.3345047514244641  0.5902477859033480  0.5044374681422750
  0.6677180377260773  0.0874759951266886 -0.0004044569298822
  0.6669771247015089  0.0886279825925545  0.4995174946398652
  0.6672868846746615  0.5880786797054485 -0.0004919631547093
  0.6672611756036880  0.5873759172233494  0.5004245860663379
  0.2059165792586034  0.3405856877499205  0.1448181634096402
  0.0350661378197482  0.1563672142414294  0.3957966021835518
  0.0358074279044919  0.1564179528659191  0.8967219431001354
  0.0351729217280268  0.6576804116088435  0.3975282005742678
  0.0350406547958265  0.6572069233754375  0.8957786698041775
  0.3678395360018694  0.1581724900529388  0.3950992255411626
  0.3698868370002690  0.1543486868923558  0.8963330540357866
  0.3725619141841515  0.6634293247339386  0.4037856708669924
  0.3715788400019286  0.6603884492797852  0.8894590827712525
  0.7019678794217152  0.1578826672112419  0.3955886371661818
  0.7027907219101388  0.1568722572040575  0.8958679688953410
  0.7016283737727200  0.6567884244788883  0.3962646419922245
  0.7023038547219964  0.6571314030473249  0.8955577180094961
  0.2011405941604045  0.0496337078416234  0.2508586145163932
  0.2009095762767716  0.0517975370053469  0.7502165974284549
  0.2049917801271140  0.5526628339400321  0.2518806038384509
  0.2005414719531142  0.5514813299171191  0.7512445613267388
  0.5341240746599023  0.0519245502911722  0.2506104923923040
  0.5352324108639895  0.0529342785229393  0.7487713668503558
  0.5331727365459158  0.5544424485777917  0.2495752801779293
  0.5350683675517346  0.5510969033487375  0.7498393728292498
  0.8673495942744155  0.0521702341535631  0.2500311352075807
  0.8675673195295149  0.0523549211061499  0.7496976635579610
  0.8661501844743684  0.5528049658928298  0.2502228361362764
  0.8671395101955166  0.5518877121557788  0.7499966250963924
  0.0601840946751744  0.4150324255213900  0.2544125837026667
  0.0609049997995905  0.4086826927222403  0.7504813560810539
  0.0610885563130957  0.9074260790443692  0.2502225865742751
  0.0607223077698625  0.9098719618771439  0.7496619090684167
  0.3914746342579138  0.4166157472514671  0.2460024187326423
  0.3946991175285069  0.4086478083170466  0.7505710450690708
  0.3950855141884527  0.9063784165434368  0.2504587668662523
  0.3953126562777081  0.9114571279798331  0.7482862122395787
  0.7273845812177513  0.4087478298791077  0.2496881807865215
  0.7274621727678755  0.4091273246549133  0.7497719439783084
  0.7276018910011025  0.9095760360163283  0.2500731953806810
  0.7276079161557668  0.9101677245338443  0.7495081369152694
  0.2296124138991008  0.0845908290839210 -0.0002575102564692
  0.2273293415643941  0.0901976683835799  0.4998624124367070
  0.2316673139464278  0.5918749461210911  0.0005282335268554
  0.2287860833999404  0.5940322454919005  0.5020025257926344
  0.5616891931188118  0.0892722312213148 -0.0009645232358307
  0.5609051806816246  0.0917051291646611  0.4994265182606846
  0.5611419935488413  0.5913423205248314 -0.0010223111830191
  0.5612121674667570  0.5899447298927725  0.5012131850236595
  0.8938336269999031  0.0898333318192839 -0.0008694383668739
  0.8940153326702115  0.0906122288238976  0.5000488252842220
  0.8932205454249927  0.5919268463325037 -0.0005500259624264
  0.8935395863703894  0.5917843849438373  0.5004494412011741
  0.2022619546209251  0.3438780787480319  0.6459793553608769
  0.2024540218163245  0.8413769989923088  0.1467229804279901
  0.2020983227656598  0.8436124765527920  0.6458558314401515
  0.5332156518461355  0.3444450003056215  0.1454575463864748
  0.5355877755516031  0.3427537153529117  0.6460508766509960
  0.5367571688684847  0.8436842788140042  0.1463586672492177
  0.5363217302335244  0.8436361460545668  0.6452207583814499
  0.8696458569018672  0.3436597965046952  0.1467650038259392
  0.8687863855219290  0.3429752774433847  0.6463905347585224
  0.8687101658113786  0.8431462435445682  0.1465430449274860
  0.8686379941266642  0.8434826500534942  0.6459894867560088
  0.0345533250973975  0.1543291404175585  0.1044939403080727
  0.0354644537799348  0.1568554379500708  0.6035912960749227
  0.0346260772670422  0.6569816869049826  0.1031667214397170
  0.0348243444702724  0.6578440448527453  0.6050379151950193
  0.3738908755481541  0.1433532616644998  0.1033911125772450
  0.3686613529174160  0.1588605430238003  0.6029157655163445
  0.3715784406748358  0.6582125802692658  0.0999707270896996
  0.3692395317001742  0.6566468567001699  0.6094214633237831
  0.7020654099938386  0.1570605925689242  0.1036072306383029
  0.7024070235388757  0.1574437914127644  0.6032772061043329
  0.7020924442442965  0.6571412287406276  0.1034297111652643
  0.7027631314539182  0.6566046098399037  0.6039354986728723
  0.0320104075431797  0.4480432951673717 -0.0012341284605035
  0.0329593025946841  0.4489372873338283  0.5024033880571785
  0.0334421002464109  0.9466630177118519 -0.0004724707258664
  0.0336871677921638  0.9477573334395889  0.5002080964861509
  0.3697502095826722  0.4518804409682153 -0.0016005722224312
  0.3680123442352081  0.4505050877825233  0.5006580505191107
  0.3686748280354639  0.9409623286347077 -0.0044416618212874
  0.3682200855043204  0.9498220941409654  0.5001825521952510
  0.7006178793925858  0.4480932976832500 -0.0000333142109991
  0.7008159609007776  0.4475218323874047  0.4998224245876512
  0.7018172557308161  0.9478078844487936 -0.0000394485220266
  0.7007539832434762  0.9487758302479489  0.4996987885142504
  0.1986357497028604  0.3463811727728706  0.3615010406689574
  0.2026513318376321  0.3412032829799972  0.8533558945875412
  0.2025585214314372  0.8408236086871924  0.3544491414426912
  0.2018369667633586  0.8416953745463001  0.8531822400718631
  0.5318004810629440  0.3449593317397646  0.3525225231182266
  0.5362185654374036  0.3422957135563636  0.8539034562906270
  0.5371536419805554  0.8434367240294472  0.3542549220783422
  0.5368009389052983  0.8438738289018068  0.8524836628585390
  0.8688174935323784  0.3437797709572423  0.3544913030576808
  0.8686197939946734  0.3428702332496645  0.8539946612557248
  0.8687093030509897  0.8431750578218855  0.3542120369625596
  0.8687014344916784  0.8431222928866201  0.8535271988310908
 
  0.00000000E+00  0.00000000E+00  0.00000000E+00
  0.00000000E+00  0.00000000E+00  0.00000000E+00
  0.00000000E+00  0.00000000E+00  0.00000000E+00
  0.00000000E+00  0.00000000E+00  0.00000000E+00
  0.00000000E+00  0.00000000E+00  0.00000000E+00
  0.00000000E+00  0.00000000E+00  0.00000000E+00
  0.00000000E+00  0.00000000E+00  0.00000000E+00
  0.00000000E+00  0.00000000E+00  0.00000000E+00
  0.00000000E+00  0.00000000E+00  0.00000000E+00
  0.00000000E+00  0.00000000E+00  0.00000000E+00
  0.00000000E+00  0.00000000E+00  0.00000000E+00
  0.00000000E+00  0.00000000E+00  0.00000000E+00
  0.00000000E+00  0.00000000E+00  0.00000000E+00
  0.00000000E+00  0.00000000E+00  0.00000000E+00
  0.00000000E+00  0.00000000E+00  0.00000000E+00
  0.00000000E+00  0.00000000E+00  0.00000000E+00
  0.00000000E+00  0.00000000E+00  0.00000000E+00
  0.00000000E+00  0.00000000E+00  0.00000000E+00
  0.00000000E+00  0.00000000E+00  0.00000000E+00
  0.00000000E+00  0.00000000E+00  0.00000000E+00
  0.00000000E+00  0.00000000E+00  0.00000000E+00
  0.00000000E+00  0.00000000E+00  0.00000000E+00
  0.00000000E+00  0.00000000E+00  0.00000000E+00
  0.00000000E+00  0.00000000E+00  0.00000000E+00
  0.00000000E+00  0.00000000E+00  0.00000000E+00
  0.00000000E+00  0.00000000E+00  0.00000000E+00
  0.00000000E+00  0.00000000E+00  0.00000000E+00
  0.00000000E+00  0.00000000E+00  0.00000000E+00
  0.00000000E+00  0.00000000E+00  0.00000000E+00
  0.00000000E+00  0.00000000E+00  0.00000000E+00
  0.00000000E+00  0.00000000E+00  0.00000000E+00
  0.00000000E+00  0.00000000E+00  0.00000000E+00
  0.00000000E+00  0.00000000E+00  0.00000000E+00
  0.00000000E+00  0.00000000E+00  0.00000000E+00
  0.00000000E+00  0.00000000E+00  0.00000000E+00
  0.00000000E+00  0.00000000E+00  0.00000000E+00
  0.00000000E+00  0.00000000E+00  0.00000000E+00
  0.00000000E+00  0.00000000E+00  0.00000000E+00
  0.00000000E+00  0.00000000E+00  0.00000000E+00
  0.00000000E+00  0.00000000E+00  0.00000000E+00
  0.00000000E+00  0.00000000E+00  0.00000000E+00
  0.00000000E+00  0.00000000E+00  0.00000000E+00
  0.00000000E+00  0.00000000E+00  0.00000000E+00
  0.00000000E+00  0.00000000E+00  0.00000000E+00
  0.00000000E+00  0.00000000E+00  0.00000000E+00
  0.00000000E+00  0.00000000E+00  0.00000000E+00
  0.00000000E+00  0.00000000E+00  0.00000000E+00
  0.00000000E+00  0.00000000E+00  0.00000000E+00
  0.00000000E+00  0.00000000E+00  0.00000000E+00
  0.00000000E+00  0.00000000E+00  0.00000000E+00
  0.00000000E+00  0.00000000E+00  0.00000000E+00
  0.00000000E+00  0.00000000E+00  0.00000000E+00
  0.00000000E+00  0.00000000E+00  0.00000000E+00
  0.00000000E+00  0.00000000E+00  0.00000000E+00
  0.00000000E+00  0.00000000E+00  0.00000000E+00
  0.00000000E+00  0.00000000E+00  0.00000000E+00
  0.00000000E+00  0.00000000E+00  0.00000000E+00
  0.00000000E+00  0.00000000E+00  0.00000000E+00
  0.00000000E+00  0.00000000E+00  0.00000000E+00
  0.00000000E+00  0.00000000E+00  0.00000000E+00
  0.00000000E+00  0.00000000E+00  0.00000000E+00
  0.00000000E+00  0.00000000E+00  0.00000000E+00
  0.00000000E+00  0.00000000E+00  0.00000000E+00
  0.00000000E+00  0.00000000E+00  0.00000000E+00
  0.00000000E+00  0.00000000E+00  0.00000000E+00
  0.00000000E+00  0.00000000E+00  0.00000000E+00
  0.00000000E+00  0.00000000E+00  0.00000000E+00
  0.00000000E+00  0.00000000E+00  0.00000000E+00
  0.00000000E+00  0.00000000E+00  0.00000000E+00
  0.00000000E+00  0.00000000E+00  0.00000000E+00
  0.00000000E+00  0.00000000E+00  0.00000000E+00
  0.00000000E+00  0.00000000E+00  0.00000000E+00
  0.00000000E+00  0.00000000E+00  0.00000000E+00
  0.00000000E+00  0.00000000E+00  0.00000000E+00
  0.00000000E+00  0.00000000E+00  0.00000000E+00
  0.00000000E+00  0.00000000E+00  0.00000000E+00
  0.00000000E+00  0.00000000E+00  0.00000000E+00
  0.00000000E+00  0.00000000E+00  0.00000000E+00
  0.00000000E+00  0.00000000E+00  0.00000000E+00
  0.00000000E+00  0.00000000E+00  0.00000000E+00
  0.00000000E+00  0.00000000E+00  0.00000000E+00
  0.00000000E+00  0.00000000E+00  0.00000000E+00
  0.00000000E+00  0.00000000E+00  0.00000000E+00
  0.00000000E+00  0.00000000E+00  0.00000000E+00
  0.00000000E+00  0.00000000E+00  0.00000000E+00
  0.00000000E+00  0.00000000E+00  0.00000000E+00
  0.00000000E+00  0.00000000E+00  0.00000000E+00
  0.00000000E+00  0.00000000E+00  0.00000000E+00
  0.00000000E+00  0.00000000E+00  0.00000000E+00
  0.00000000E+00  0.00000000E+00  0.00000000E+00
  0.00000000E+00  0.00000000E+00  0.00000000E+00
  0.00000000E+00  0.00000000E+00  0.00000000E+00
  0.00000000E+00  0.00000000E+00  0.00000000E+00
  0.00000000E+00  0.00000000E+00  0.00000000E+00
  0.00000000E+00  0.00000000E+00  0.00000000E+00
  0.00000000E+00  0.00000000E+00  0.00000000E+00
  0.00000000E+00  0.00000000E+00  0.00000000E+00
  0.00000000E+00  0.00000000E+00  0.00000000E+00
  0.00000000E+00  0.00000000E+00  0.00000000E+00
  0.00000000E+00  0.00000000E+00  0.00000000E+00
  0.00000000E+00  0.00000000E+00  0.00000000E+00
  0.00000000E+00  0.00000000E+00  0.00000000E+00
  0.00000000E+00  0.00000000E+00  0.00000000E+00
  0.00000000E+00  0.00000000E+00  0.00000000E+00
  0.00000000E+00  0.00000000E+00  0.00000000E+00
  0.00000000E+00  0.00000000E+00  0.00000000E+00
  0.00000000E+00  0.00000000E+00  0.00000000E+00
  0.00000000E+00  0.00000000E+00  0.00000000E+00
  0.00000000E+00  0.00000000E+00  0.00000000E+00
  0.00000000E+00  0.00000000E+00  0.00000000E+00
  0.00000000E+00  0.00000000E+00  0.00000000E+00
  0.00000000E+00  0.00000000E+00  0.00000000E+00
  0.00000000E+00  0.00000000E+00  0.00000000E+00
  0.00000000E+00  0.00000000E+00  0.00000000E+00
  0.00000000E+00  0.00000000E+00  0.00000000E+00
  0.00000000E+00  0.00000000E+00  0.00000000E+00
  0.00000000E+00  0.00000000E+00  0.00000000E+00
  0.00000000E+00  0.00000000E+00  0.00000000E+00
  0.00000000E+00  0.00000000E+00  0.00000000E+00
  0.00000000E+00  0.00000000E+00  0.00000000E+00
  0.00000000E+00  0.00000000E+00  0.00000000E+00
  0.00000000E+00  0.00000000E+00  0.00000000E+00
  0.00000000E+00  0.00000000E+00  0.00000000E+00
  0.00000000E+00  0.00000000E+00  0.00000000E+00
  0.00000000E+00  0.00000000E+00  0.00000000E+00
  0.00000000E+00  0.00000000E+00  0.00000000E+00
  0.00000000E+00  0.00000000E+00  0.00000000E+00
  0.00000000E+00  0.00000000E+00  0.00000000E+00
  0.00000000E+00  0.00000000E+00  0.00000000E+00
  0.00000000E+00  0.00000000E+00  0.00000000E+00
  0.00000000E+00  0.00000000E+00  0.00000000E+00
  0.00000000E+00  0.00000000E+00  0.00000000E+00
  0.00000000E+00  0.00000000E+00  0.00000000E+00
  0.00000000E+00  0.00000000E+00  0.00000000E+00
  0.00000000E+00  0.00000000E+00  0.00000000E+00
  0.00000000E+00  0.00000000E+00  0.00000000E+00
  0.00000000E+00  0.00000000E+00  0.00000000E+00
  0.00000000E+00  0.00000000E+00  0.00000000E+00
  0.00000000E+00  0.00000000E+00  0.00000000E+00
  0.00000000E+00  0.00000000E+00  0.00000000E+00
  0.00000000E+00  0.00000000E+00  0.00000000E+00
  0.00000000E+00  0.00000000E+00  0.00000000E+00
  0.00000000E+00  0.00000000E+00  0.00000000E+00
  0.00000000E+00  0.00000000E+00  0.00000000E+00
  0.00000000E+00  0.00000000E+00  0.00000000E+00
  0.00000000E+00  0.00000000E+00  0.00000000E+00
  0.00000000E+00  0.00000000E+00  0.00000000E+00
  0.00000000E+00  0.00000000E+00  0.00000000E+00
  0.00000000E+00  0.00000000E+00  0.00000000E+00
  0.00000000E+00  0.00000000E+00  0.00000000E+00
  0.00000000E+00  0.00000000E+00  0.00000000E+00
  0.00000000E+00  0.00000000E+00  0.00000000E+00
  0.00000000E+00  0.00000000E+00  0.00000000E+00
  0.00000000E+00  0.00000000E+00  0.00000000E+00
  0.00000000E+00  0.00000000E+00  0.00000000E+00
  0.00000000E+00  0.00000000E+00  0.00000000E+00
  0.00000000E+00  0.00000000E+00  0.00000000E+00
  0.00000000E+00  0.00000000E+00  0.00000000E+00
  0.00000000E+00  0.00000000E+00  0.00000000E+00
  0.00000000E+00  0.00000000E+00  0.00000000E+00
  0.00000000E+00  0.00000000E+00  0.00000000E+00
  0.00000000E+00  0.00000000E+00  0.00000000E+00
  0.00000000E+00  0.00000000E+00  0.00000000E+00
  0.00000000E+00  0.00000000E+00  0.00000000E+00
  0.00000000E+00  0.00000000E+00  0.00000000E+00
  0.00000000E+00  0.00000000E+00  0.00000000E+00
  0.00000000E+00  0.00000000E+00  0.00000000E+00
  0.00000000E+00  0.00000000E+00  0.00000000E+00
  0.00000000E+00  0.00000000E+00  0.00000000E+00
  0.00000000E+00  0.00000000E+00  0.00000000E+00
  0.00000000E+00  0.00000000E+00  0.00000000E+00
  0.00000000E+00  0.00000000E+00  0.00000000E+00
  0.00000000E+00  0.00000000E+00  0.00000000E+00
  0.00000000E+00  0.00000000E+00  0.00000000E+00
  0.00000000E+00  0.00000000E+00  0.00000000E+00
  0.00000000E+00  0.00000000E+00  0.00000000E+00
  0.00000000E+00  0.00000000E+00  0.00000000E+00
  0.00000000E+00  0.00000000E+00  0.00000000E+00
  0.00000000E+00  0.00000000E+00  0.00000000E+00
  0.00000000E+00  0.00000000E+00  0.00000000E+00
  0.00000000E+00  0.00000000E+00  0.00000000E+00
  0.00000000E+00  0.00000000E+00  0.00000000E+00
  0.00000000E+00  0.00000000E+00  0.00000000E+00
  0.00000000E+00  0.00000000E+00  0.00000000E+00
  0.00000000E+00  0.00000000E+00  0.00000000E+00
  0.00000000E+00  0.00000000E+00  0.00000000E+00
  0.00000000E+00  0.00000000E+00  0.00000000E+00
  0.00000000E+00  0.00000000E+00  0.00000000E+00
  0.00000000E+00  0.00000000E+00  0.00000000E+00
  0.00000000E+00  0.00000000E+00  0.00000000E+00
  0.00000000E+00  0.00000000E+00  0.00000000E+00
  0.00000000E+00  0.00000000E+00  0.00000000E+00
  0.00000000E+00  0.00000000E+00  0.00000000E+00
