Li56 P28 O98
1.0
6.730959 0.000000 -7.860032
-2.035903 8.419349 -5.257546
0.000000 0.000000 73.647588
Li P O
56 28 98
direct
0.144977 0.012029 0.024325 Li+
0.855023 0.987971 0.036819 Li+
0.588727 0.248347 0.026386 Li+
0.411273 0.751653 0.034758 Li+
0.327738 0.208724 0.031193 Li+
0.672262 0.791276 0.029951 Li+
0.241886 0.549204 0.047297 Li+
0.758114 0.450796 0.013848 Li+
0.144977 0.012029 0.095754 Li+
0.855023 0.987971 0.108248 Li+
0.588727 0.248347 0.097815 Li+
0.411273 0.751653 0.106187 Li+
0.327738 0.208724 0.102622 Li+
0.672262 0.791276 0.101380 Li+
0.241886 0.549204 0.118725 Li+
0.758114 0.450796 0.085277 Li+
0.144977 0.012029 0.167183 Li+
0.855023 0.987971 0.179676 Li+
0.588727 0.248347 0.169244 Li+
0.411273 0.751653 0.177615 Li+
0.327738 0.208724 0.174050 Li+
0.672262 0.791276 0.172809 Li+
0.241886 0.549204 0.190154 Li+
0.758114 0.450796 0.156705 Li+
0.144977 0.012029 0.238611 Li+
0.855023 0.987971 0.251105 Li+
0.588727 0.248347 0.240672 Li+
0.411273 0.751653 0.249044 Li+
0.327738 0.208724 0.245479 Li+
0.672262 0.791276 0.244237 Li+
0.241886 0.549204 0.261582 Li+
0.758114 0.450796 0.228134 Li+
0.144977 0.012029 0.310040 Li+
0.855023 0.987971 0.322534 Li+
0.588727 0.248347 0.312101 Li+
0.411273 0.751653 0.320473 Li+
0.327738 0.208724 0.316908 Li+
0.672262 0.791276 0.315666 Li+
0.241886 0.549204 0.333011 Li+
0.758114 0.450796 0.299563 Li+
0.144977 0.012029 0.381468 Li+
0.855023 0.987971 0.393962 Li+
0.588727 0.248347 0.383529 Li+
0.411273 0.751653 0.391901 Li+
0.327738 0.208724 0.388336 Li+
0.672262 0.791276 0.387094 Li+
0.241886 0.549204 0.404439 Li+
0.758114 0.450796 0.370991 Li+
0.144977 0.012029 0.452897 Li+
0.855023 0.987971 0.465391 Li+
0.588727 0.248347 0.454958 Li+
0.411273 0.751653 0.463330 Li+
0.327738 0.208724 0.459765 Li+
0.672262 0.791276 0.458523 Li+
0.241886 0.549204 0.475868 Li+
0.758114 0.450796 0.442420 Li+
0.213298 0.368044 0.066812 P5+
0.786702 0.631956 0.065762 P5+
0.779241 0.154498 0.005534 P5+
0.220759 0.845502 0.055610 P5+
0.213298 0.368044 0.138240 P5+
0.786702 0.631956 0.137190 P5+
0.779241 0.154498 0.076963 P5+
0.220759 0.845502 0.127039 P5+
0.213298 0.368044 0.209669 P5+
0.786702 0.631956 0.208619 P5+
0.779241 0.154498 0.148391 P5+
0.220759 0.845502 0.198468 P5+
0.213298 0.368044 0.281098 P5+
0.786702 0.631956 0.280047 P5+
0.779241 0.154498 0.219820 P5+
0.220759 0.845502 0.269896 P5+
0.213298 0.368044 0.352526 P5+
0.786702 0.631956 0.351476 P5+
0.779241 0.154498 0.291249 P5+
0.220759 0.845502 0.341325 P5+
0.213298 0.368044 0.423955 P5+
0.786702 0.631956 0.422904 P5+
0.779241 0.154498 0.362677 P5+
0.220759 0.845502 0.412753 P5+
0.213298 0.368044 0.495383 P5+
0.786702 0.631956 0.494333 P5+
0.779241 0.154498 0.434106 P5+
0.220759 0.845502 0.484182 P5+
0.741759 0.125660 0.019680 O2-
0.605720 0.209316 0.052637 O2-
0.394280 0.790684 0.008508 O2-
0.848591 0.018024 0.065123 O2-
0.743350 0.623545 0.040168 O2-
0.256650 0.376455 0.020977 O2-
0.732189 0.473810 0.058512 O2-
0.267811 0.526190 0.002633 O2-
0.702403 0.763496 0.003978 O2-
0.297597 0.236504 0.057167 O2-
0.962384 0.316106 0.033817 O2-
0.037616 0.683894 0.027328 O2-
0.151409 0.981976 0.067451 O2-
0.258241 0.874340 0.041465 O2-
0.741759 0.125660 0.091109 O2-
0.605720 0.209316 0.124066 O2-
0.394280 0.790684 0.079936 O2-
0.848591 0.018024 0.136551 O2-
0.743350 0.623545 0.111596 O2-
0.256650 0.376455 0.092406 O2-
0.732189 0.473810 0.129941 O2-
0.267811 0.526190 0.074061 O2-
0.702403 0.763496 0.075406 O2-
0.297597 0.236504 0.128595 O2-
0.962384 0.316106 0.105245 O2-
0.037616 0.683894 0.098757 O2-
0.151409 0.981976 0.138879 O2-
0.258241 0.874340 0.112893 O2-
0.741759 0.125660 0.162537 O2-
0.605720 0.209316 0.195494 O2-
0.394280 0.790684 0.151365 O2-
0.848591 0.018024 0.207980 O2-
0.743350 0.623545 0.183025 O2-
0.256650 0.376455 0.163834 O2-
0.732189 0.473810 0.201369 O2-
0.267811 0.526190 0.145490 O2-
0.702403 0.763496 0.146835 O2-
0.297597 0.236504 0.200024 O2-
0.962384 0.316106 0.176674 O2-
0.037616 0.683894 0.170185 O2-
0.151409 0.981976 0.210308 O2-
0.258241 0.874340 0.184322 O2-
0.741759 0.125660 0.233966 O2-
0.605720 0.209316 0.266923 O2-
0.394280 0.790684 0.222793 O2-
0.848591 0.018024 0.279408 O2-
0.743350 0.623545 0.254453 O2-
0.256650 0.376455 0.235263 O2-
0.732189 0.473810 0.272798 O2-
0.267811 0.526190 0.216918 O2-
0.702403 0.763496 0.218264 O2-
0.297597 0.236504 0.271453 O2-
0.962384 0.316106 0.248102 O2-
0.037616 0.683894 0.241614 O2-
0.151409 0.981976 0.281736 O2-
0.258241 0.874340 0.255750 O2-
0.741759 0.125660 0.305394 O2-
0.605720 0.209316 0.338351 O2-
0.394280 0.790684 0.294222 O2-
0.848591 0.018024 0.350837 O2-
0.743350 0.623545 0.325882 O2-
0.256650 0.376455 0.306691 O2-
0.732189 0.473810 0.344226 O2-
0.267811 0.526190 0.288347 O2-
0.702403 0.763496 0.289692 O2-
0.297597 0.236504 0.342881 O2-
0.962384 0.316106 0.319531 O2-
0.037616 0.683894 0.313042 O2-
0.151409 0.981976 0.353165 O2-
0.258241 0.874340 0.327179 O2-
0.741759 0.125660 0.376823 O2-
0.605720 0.209316 0.409780 O2-
0.394280 0.790684 0.365651 O2-
0.848591 0.018024 0.422266 O2-
0.743350 0.623545 0.397311 O2-
0.256650 0.376455 0.378120 O2-
0.732189 0.473810 0.415655 O2-
0.267811 0.526190 0.359776 O2-
0.702403 0.763496 0.361121 O2-
0.297597 0.236504 0.414310 O2-
0.962384 0.316106 0.390960 O2-
0.037616 0.683894 0.384471 O2-
0.151409 0.981976 0.424594 O2-
0.258241 0.874340 0.398608 O2-
0.741759 0.125660 0.448251 O2-
0.605720 0.209316 0.481209 O2-
0.394280 0.790684 0.437079 O2-
0.848591 0.018024 0.493694 O2-
0.743350 0.623545 0.468739 O2-
0.256650 0.376455 0.449549 O2-
0.732189 0.473810 0.487083 O2-
0.267811 0.526190 0.431204 O2-
0.702403 0.763496 0.432549 O2-
0.297597 0.236504 0.485738 O2-
0.962384 0.316106 0.462388 O2-
0.037616 0.683894 0.455899 O2-
0.151409 0.981976 0.496022 O2-
0.258241 0.874340 0.470036 O2-
