Li73 P24 N1 O95                         
   1.00000000000000     
    14.7027597860742372   -0.0075188341860061    0.0100726803274443
    -0.0053626738682171   10.5746076229052317   -0.0023763100204481
     0.0084420287820764   -0.0027847708384078   12.3257579871479876
   Li   P    N    O 
    73    24     1    95
Direct
  0.1166145281919635  0.4957966028733244  0.1009674951074110
  0.1713793515399037  0.4207998503707642  0.4974595755848481
  0.1702855216677620  0.9256916085094395  0.9991888539287042
  0.1703192143619821  0.9192089645932995  0.4998068429208378
  0.5032303681961010  0.4200049747214981  0.0004657639445014
  0.5045131571393284  0.4223327998701986  0.4989458095211327
  0.5033021407018133  0.9223435923572662  0.9996016390964297
  0.5048151237108988  0.9212852222566239  0.4997387692643376
  0.8356352207208004  0.4227355079633636 -0.0007054003337288
  0.8397861257036086  0.4212647174015178  0.4986028711476613
  0.8363828190406589  0.9212054483802280  0.9995329508522599
  0.8369258812338016  0.9203030971372577  0.4995942685976758
  0.0043159966064635  0.0752330026528727  0.2500918368022192
  0.0036418358236456  0.0762718617542357  0.7484950877981492
  0.0020190927575801  0.5769536166721688  0.2537208442167317
  0.0033604217922760  0.5736765613331882  0.7469378974664048
  0.3361340567851679  0.0790369553385662  0.2531109868425851
  0.3370903321126185  0.0756518156292326  0.7489505658765939
  0.3342985440622149  0.5729823864463816  0.2534741731338095
  0.3368079247379658  0.5765067669892510  0.7472821355176299
  0.6714584613819994  0.0764785074916173  0.2503183393637486
  0.6704511170784585  0.0766419710387391  0.7491999574084062
  0.6705700945572068  0.5764392006893657  0.2506468629084466
  0.6703696832874517  0.5763050425464999  0.7489864803274298
  0.1698269901139923  0.1671528445163000  0.1291338880949884
  0.1709415616190372  0.1617484866820225  0.6235013626399160
  0.1805091340956289  0.6802721385190615  0.1296594613714153
  0.1700645316644435  0.6612547281252922  0.6259233067760733
  0.5044098502313521  0.1624159603123004  0.1270071087186124
  0.5040307889861922  0.1622668024896249  0.6256269426826073
  0.5030634312412351  0.6622830464742087  0.1273795791752216
  0.5040927044778468  0.6627305163110977  0.6254082600158859
  0.8361322803958630  0.1617560850120188  0.1257652606311568
  0.8372299099759415  0.1618325291605741  0.6259349744844913
  0.8334427667881468  0.6637548810404331  0.1270252693109110
  0.8369242491531593  0.6624270333811045  0.6261365128935822
  0.9979979255430471  0.3293267778047452  0.1229476288970109
  0.0044803486710363  0.3341103919114032  0.6223961284618839
  0.0035668062099436  0.8355772942488896  0.1225912170205284
  0.0031294987751700  0.8350315318144291  0.6235517205703096
  0.3376855365829063  0.3326721108383443  0.1321562409476552
  0.3367694838410019  0.3357324957016067  0.6195256338398616
  0.3390909158259361  0.8391329501298399  0.1243432074671974
  0.3370812225418081  0.8356081802013127  0.6234071269898185
  0.6705441003558636  0.3359643080983760  0.1241564021307596
  0.6716017002783304  0.3354953195502688  0.6224715960267436
  0.6689351458736343  0.8363147460489609  0.1232541838337175
  0.6703279318447974  0.8356454685024254  0.6232633355816899
  0.0153904519034670  0.3359130085314814  0.3724862153252866
  0.0036699482349223  0.3340837026203765  0.8756349470850280
  0.0041893713116453  0.8353016692940344  0.3759366455506741
  0.0019954414924428  0.8371984216189757  0.8742707618298714
  0.3340715962947409  0.3346910607097983  0.3788316230799550
  0.3444080547917187  0.3300571030235476  0.8677764567013060
  0.3375501148842548  0.8360646307410171  0.3769529489313529
  0.3357145838403441  0.8364118806109850  0.8759569041933992
  0.6713895028854022  0.3354711421519095  0.3768449054031419
  0.6694298293736595  0.3356719970398477  0.8758943799565063
  0.6706166759504987  0.8355760370311575  0.3758735219552203
  0.6691518954837001  0.8364105361286247  0.8758994795793587
  0.1709133509118287  0.1629823443373340  0.3769092004201905
  0.1697011932014650  0.1602876120930018  0.8719277449662665
  0.1708113563483711  0.6584873178876761  0.3721424024592562
  0.1678479479705725  0.6606445896521399  0.8722783972318238
  0.5043240616423903  0.1627920756619942  0.3739156432119218
  0.5047855315594484  0.1612770514057756  0.8729368709582660
  0.5038644958755624  0.6625281818574313  0.3735834768591406
  0.5028735691684714  0.6624348150295757  0.8729989537957630
  0.8393253056761020  0.1626683982864212  0.3734882813982255
  0.8365170882627976  0.1623841828945809  0.8732968955829555
  0.8371349759715544  0.6625642183441196  0.3732191405370507
  0.8337239091249603  0.6642860033048582  0.8711148564282510
  0.2187496739642444  0.3980260262102568  0.9900437089325248
  0.1706240301982621  0.4075575870949931  0.2563989196883706
  0.1693227542124587  0.4089235341472133  0.7476251899036339
  0.1684387117741084  0.9137918444510787  0.2499193425719357
  0.1673483764476843  0.9102943730032467  0.7499259909458775
  0.5022304573489763  0.4118057985995758  0.2505128558139191
  0.5018402951370267  0.4119427932346987  0.7482328635043723
  0.5012708573860508  0.9121256883615767  0.2499881432089586
  0.5008722860465294  0.9111092211462299  0.7499718776502374
  0.8345697558930649  0.4113957875719249  0.2494194556900893
  0.8340443075915006  0.4108369167324663  0.7498672082259317
  0.8345631345123442  0.9109273435275541  0.2492135490601545
  0.8336432584525183  0.9117059160405644  0.7497184220139292
  0.0005835019780063  0.0858509347851902  0.9993779356099253
  0.0004331785266775  0.0846575460774306  0.4993128431552457
  0.9961206538768038  0.5896499464536282  0.9942144943709014
  0.0004731257179329  0.5868175550420757  0.5001295092728163
  0.3348405689876729  0.0877717007542046  0.0003153129924935
  0.3358493757665327  0.0845825375945349  0.5007722081141700
  0.3314243084203269  0.5863915083423183  0.0005018969885459
  0.3354496275495388  0.5881356723523201  0.5002188347623541
  0.6673743560626217  0.0869500911125313  0.9997521150003901
  0.6686302759705602  0.0865972985740145  0.4996594578566716
  0.6655090816582081  0.5869507818714066  0.9995568412674155
  0.6688098027537466  0.5869820231284536  0.4997300261447514
  0.2021166907499156  0.3387292464686020  0.3598326626828953
  0.0344505435265025  0.1520254063277770  0.3946695286587093
  0.0362098649848352  0.1549629415069238  0.8956602366614986
  0.0362684195340027  0.6556527140695021  0.3963070216361192
  0.0323074443007166  0.6562615735506592  0.8904856573491824
  0.3721354773727965  0.1536503744171471  0.3977162830203935
  0.3714360197477752  0.1549670950799068  0.8960927294545602
  0.3703792490176493  0.6570661810632303  0.3959026764919287
  0.3666310609706026  0.6543327006257414  0.8968108559256373
  0.7044592490209889  0.1556578680611328  0.3960474176358835
  0.7024519934875642  0.1560896084840515  0.8957651142119825
  0.7040081121790396  0.6563877421622258  0.3959608356376741
  0.7004948350174012  0.6561597161137808  0.8955906677296823
  0.2008097270138566  0.0535154362549449  0.2516358965022675
  0.2016474912672284  0.0499102442287974  0.7499212713304718
  0.1986909727056691  0.5544916444040041  0.2424409346701084
  0.2019377859606834  0.5493764163477241  0.7503617572721178
  0.5361754458604351  0.0514544951692306  0.2497418360688147
  0.5348776876736613  0.0509381560024728  0.7498516421852984
  0.5360590240281701  0.5517544998591918  0.2499239079380571
  0.5355254415548577  0.5517741371996653  0.7495130494707438
  0.8680908599141965  0.0508539669921915  0.2488379570944265
  0.8677241901491718  0.0514311667863809  0.7498697050040890
  0.8678175646418270  0.5518400794813213  0.2483483097711018
  0.8676153167486496  0.5509201296584355  0.7498615704647902
  0.0620899986012494  0.4144497589564350  0.2375472014875926
  0.0634718259508299  0.4051411165846417  0.7507437311130365
  0.0625213456895241  0.9069541999534609  0.2483378197602670
  0.0614091553798623  0.9084699381158602  0.7494744228310288
  0.3965798281961603  0.4092584867400094  0.2518132149121324
  0.3959351653382807  0.4099185133803076  0.7460214206661617
  0.3953603484328229  0.9104961082110976  0.2508246017400137
  0.3949376490951850  0.9081467432870194  0.7501180446685309
  0.7285888427606690  0.4087418002742870  0.2507162845486404
  0.7280957627295830  0.4079879744638842  0.7498193045130985
  0.7286141916384535  0.9076756588193162  0.2490946872698358
  0.7277155775756252  0.9088544066161308  0.7497114461380081
  0.2289003365315215  0.0937462275634710 -0.0000189769268867
  0.2301343158303822  0.0838034204844475  0.5010867036828195
  0.2244952234207462  0.5874929131527705  0.0018995312193362
  0.2296902390160201  0.5919223134402938  0.5008190011329252
  0.5614324199540733  0.0899005039031892  0.9999318568518046
  0.5627492447031278  0.0897651151252653  0.4996302254658854
  0.5594099718267990  0.5889511340188772 -0.0002261488718649
  0.5628928408461429  0.5897961619956342  0.4995550708611361
  0.8946533958625790  0.0890784737602699  0.9993037684594551
  0.8944357051770249  0.0872201599165029  0.5006857620983984
  0.8911373657958670  0.5966236738066307 -0.0009564057425002
  0.8945057529631835  0.5914196088861733  0.4997524001933317
  0.2026217568189055  0.3490287703231602  0.1402280914168475
  0.2033716985909449  0.3422373239173276  0.6427836128426955
  0.2055980981893245  0.8500190841169497  0.1440871294735311
  0.2028760694039305  0.8403465170096780  0.6468258451021093
  0.5363251307006812  0.3428212315951881  0.1457322578011045
  0.5383085568906086  0.3422941687012401  0.6455427294661960
  0.5350100636981883  0.8425679010751522  0.1453756241677446
  0.5367272328725320  0.8419363622736890  0.6465613834756413
  0.8675259804915206  0.3424779575476787  0.1441313379177810
  0.8698903631094819  0.3416585413459412  0.6464310296933418
  0.8699282750459203  0.8415164288639796  0.1453593341179904
  0.8691222888002222  0.8420980572836929  0.6463144226340753
  0.0356918557786831  0.1543799144081658  0.1034436923939855
  0.0363396538700839  0.1543727290767471  0.6026447591768544
  0.0392833449680736  0.6536847177974933  0.0976103796388291
  0.0359371583330034  0.6555705766296773  0.6041216927101113
  0.3705086923323628  0.1560799262959724  0.1042715589812226
  0.3702140875299842  0.1549176999741567  0.6047611830420045
  0.3672127195924694  0.6541284489887952  0.1039674929945911
  0.3708430561979167  0.6577988440666089  0.6040125524210588
  0.7027109859401464  0.1559242897493278  0.1035522849628497
  0.7037249947185346  0.1554526932252672  0.6036938460228365
  0.7005551205264218  0.6563160608576075  0.1033355290917160
  0.7035887309320796  0.6561568227865945  0.6037860154987250
  0.0275395395051819  0.4484508452504663  0.9971704797667520
  0.0328110157330463  0.4469622124411775  0.5005652769485474
  0.0342314252637314  0.9459105862031663  0.9990361332618702
  0.0343408766424017  0.9447010841978970  0.5000253497791360
  0.3602951886076904  0.4434223994125195  0.9988924064508201
  0.3708194852327791  0.4494205857219868  0.5007736974047713
  0.3672647038918296  0.9472677319643734  0.9999458757284513
  0.3706738088749332  0.9450683471819898  0.5011723487506663
  0.6997091113261904  0.4473168827242273  0.9995281676316647
  0.7029366750522781  0.4473193202465239  0.4997106761815122
  0.7008928233271083  0.9469864483860299  0.9996073806045316
  0.7017215327797662  0.9463978819682801  0.4995767005268274
  0.2083010317340021  0.3364987032843292  0.8480155183868799
  0.2036164016516147  0.8413995499079855  0.3518164366416784
  0.2017254250886986  0.8413660203324902  0.8544716066805416
  0.5384203709607158  0.3424214812635243  0.3534851864678960
  0.5345229485562917  0.3426790005416684  0.8533628472461388
  0.5369404656656691  0.8422174636345319  0.3530211247153398
  0.5354064632583080  0.8422007629564034  0.8542635856925773
  0.8719019670242836  0.3426326316378315  0.3518561404333342
  0.8690271273827720  0.3424480668645180  0.8541260023649039
  0.8699985391166408  0.8420054259080529  0.3528390676646515
  0.8683483505765424  0.8427934399312108  0.8537931006439174
 
  0.00000000E+00  0.00000000E+00  0.00000000E+00
  0.00000000E+00  0.00000000E+00  0.00000000E+00
  0.00000000E+00  0.00000000E+00  0.00000000E+00
  0.00000000E+00  0.00000000E+00  0.00000000E+00
  0.00000000E+00  0.00000000E+00  0.00000000E+00
  0.00000000E+00  0.00000000E+00  0.00000000E+00
  0.00000000E+00  0.00000000E+00  0.00000000E+00
  0.00000000E+00  0.00000000E+00  0.00000000E+00
  0.00000000E+00  0.00000000E+00  0.00000000E+00
  0.00000000E+00  0.00000000E+00  0.00000000E+00
  0.00000000E+00  0.00000000E+00  0.00000000E+00
  0.00000000E+00  0.00000000E+00  0.00000000E+00
  0.00000000E+00  0.00000000E+00  0.00000000E+00
  0.00000000E+00  0.00000000E+00  0.00000000E+00
  0.00000000E+00  0.00000000E+00  0.00000000E+00
  0.00000000E+00  0.00000000E+00  0.00000000E+00
  0.00000000E+00  0.00000000E+00  0.00000000E+00
  0.00000000E+00  0.00000000E+00  0.00000000E+00
  0.00000000E+00  0.00000000E+00  0.00000000E+00
  0.00000000E+00  0.00000000E+00  0.00000000E+00
  0.00000000E+00  0.00000000E+00  0.00000000E+00
  0.00000000E+00  0.00000000E+00  0.00000000E+00
  0.00000000E+00  0.00000000E+00  0.00000000E+00
  0.00000000E+00  0.00000000E+00  0.00000000E+00
  0.00000000E+00  0.00000000E+00  0.00000000E+00
  0.00000000E+00  0.00000000E+00  0.00000000E+00
  0.00000000E+00  0.00000000E+00  0.00000000E+00
  0.00000000E+00  0.00000000E+00  0.00000000E+00
  0.00000000E+00  0.00000000E+00  0.00000000E+00
  0.00000000E+00  0.00000000E+00  0.00000000E+00
  0.00000000E+00  0.00000000E+00  0.00000000E+00
  0.00000000E+00  0.00000000E+00  0.00000000E+00
  0.00000000E+00  0.00000000E+00  0.00000000E+00
  0.00000000E+00  0.00000000E+00  0.00000000E+00
  0.00000000E+00  0.00000000E+00  0.00000000E+00
  0.00000000E+00  0.00000000E+00  0.00000000E+00
  0.00000000E+00  0.00000000E+00  0.00000000E+00
  0.00000000E+00  0.00000000E+00  0.00000000E+00
  0.00000000E+00  0.00000000E+00  0.00000000E+00
  0.00000000E+00  0.00000000E+00  0.00000000E+00
  0.00000000E+00  0.00000000E+00  0.00000000E+00
  0.00000000E+00  0.00000000E+00  0.00000000E+00
  0.00000000E+00  0.00000000E+00  0.00000000E+00
  0.00000000E+00  0.00000000E+00  0.00000000E+00
  0.00000000E+00  0.00000000E+00  0.00000000E+00
  0.00000000E+00  0.00000000E+00  0.00000000E+00
  0.00000000E+00  0.00000000E+00  0.00000000E+00
  0.00000000E+00  0.00000000E+00  0.00000000E+00
  0.00000000E+00  0.00000000E+00  0.00000000E+00
  0.00000000E+00  0.00000000E+00  0.00000000E+00
  0.00000000E+00  0.00000000E+00  0.00000000E+00
  0.00000000E+00  0.00000000E+00  0.00000000E+00
  0.00000000E+00  0.00000000E+00  0.00000000E+00
  0.00000000E+00  0.00000000E+00  0.00000000E+00
  0.00000000E+00  0.00000000E+00  0.00000000E+00
  0.00000000E+00  0.00000000E+00  0.00000000E+00
  0.00000000E+00  0.00000000E+00  0.00000000E+00
  0.00000000E+00  0.00000000E+00  0.00000000E+00
  0.00000000E+00  0.00000000E+00  0.00000000E+00
  0.00000000E+00  0.00000000E+00  0.00000000E+00
  0.00000000E+00  0.00000000E+00  0.00000000E+00
  0.00000000E+00  0.00000000E+00  0.00000000E+00
  0.00000000E+00  0.00000000E+00  0.00000000E+00
  0.00000000E+00  0.00000000E+00  0.00000000E+00
  0.00000000E+00  0.00000000E+00  0.00000000E+00
  0.00000000E+00  0.00000000E+00  0.00000000E+00
  0.00000000E+00  0.00000000E+00  0.00000000E+00
  0.00000000E+00  0.00000000E+00  0.00000000E+00
  0.00000000E+00  0.00000000E+00  0.00000000E+00
  0.00000000E+00  0.00000000E+00  0.00000000E+00
  0.00000000E+00  0.00000000E+00  0.00000000E+00
  0.00000000E+00  0.00000000E+00  0.00000000E+00
  0.00000000E+00  0.00000000E+00  0.00000000E+00
  0.00000000E+00  0.00000000E+00  0.00000000E+00
  0.00000000E+00  0.00000000E+00  0.00000000E+00
  0.00000000E+00  0.00000000E+00  0.00000000E+00
  0.00000000E+00  0.00000000E+00  0.00000000E+00
  0.00000000E+00  0.00000000E+00  0.00000000E+00
  0.00000000E+00  0.00000000E+00  0.00000000E+00
  0.00000000E+00  0.00000000E+00  0.00000000E+00
  0.00000000E+00  0.00000000E+00  0.00000000E+00
  0.00000000E+00  0.00000000E+00  0.00000000E+00
  0.00000000E+00  0.00000000E+00  0.00000000E+00
  0.00000000E+00  0.00000000E+00  0.00000000E+00
  0.00000000E+00  0.00000000E+00  0.00000000E+00
  0.00000000E+00  0.00000000E+00  0.00000000E+00
  0.00000000E+00  0.00000000E+00  0.00000000E+00
  0.00000000E+00  0.00000000E+00  0.00000000E+00
  0.00000000E+00  0.00000000E+00  0.00000000E+00
  0.00000000E+00  0.00000000E+00  0.00000000E+00
  0.00000000E+00  0.00000000E+00  0.00000000E+00
  0.00000000E+00  0.00000000E+00  0.00000000E+00
  0.00000000E+00  0.00000000E+00  0.00000000E+00
  0.00000000E+00  0.00000000E+00  0.00000000E+00
  0.00000000E+00  0.00000000E+00  0.00000000E+00
  0.00000000E+00  0.00000000E+00  0.00000000E+00
  0.00000000E+00  0.00000000E+00  0.00000000E+00
  0.00000000E+00  0.00000000E+00  0.00000000E+00
  0.00000000E+00  0.00000000E+00  0.00000000E+00
  0.00000000E+00  0.00000000E+00  0.00000000E+00
  0.00000000E+00  0.00000000E+00  0.00000000E+00
  0.00000000E+00  0.00000000E+00  0.00000000E+00
  0.00000000E+00  0.00000000E+00  0.00000000E+00
  0.00000000E+00  0.00000000E+00  0.00000000E+00
  0.00000000E+00  0.00000000E+00  0.00000000E+00
  0.00000000E+00  0.00000000E+00  0.00000000E+00
  0.00000000E+00  0.00000000E+00  0.00000000E+00
  0.00000000E+00  0.00000000E+00  0.00000000E+00
  0.00000000E+00  0.00000000E+00  0.00000000E+00
  0.00000000E+00  0.00000000E+00  0.00000000E+00
  0.00000000E+00  0.00000000E+00  0.00000000E+00
  0.00000000E+00  0.00000000E+00  0.00000000E+00
  0.00000000E+00  0.00000000E+00  0.00000000E+00
  0.00000000E+00  0.00000000E+00  0.00000000E+00
  0.00000000E+00  0.00000000E+00  0.00000000E+00
  0.00000000E+00  0.00000000E+00  0.00000000E+00
  0.00000000E+00  0.00000000E+00  0.00000000E+00
  0.00000000E+00  0.00000000E+00  0.00000000E+00
  0.00000000E+00  0.00000000E+00  0.00000000E+00
  0.00000000E+00  0.00000000E+00  0.00000000E+00
  0.00000000E+00  0.00000000E+00  0.00000000E+00
  0.00000000E+00  0.00000000E+00  0.00000000E+00
  0.00000000E+00  0.00000000E+00  0.00000000E+00
  0.00000000E+00  0.00000000E+00  0.00000000E+00
  0.00000000E+00  0.00000000E+00  0.00000000E+00
  0.00000000E+00  0.00000000E+00  0.00000000E+00
  0.00000000E+00  0.00000000E+00  0.00000000E+00
  0.00000000E+00  0.00000000E+00  0.00000000E+00
  0.00000000E+00  0.00000000E+00  0.00000000E+00
  0.00000000E+00  0.00000000E+00  0.00000000E+00
  0.00000000E+00  0.00000000E+00  0.00000000E+00
  0.00000000E+00  0.00000000E+00  0.00000000E+00
  0.00000000E+00  0.00000000E+00  0.00000000E+00
  0.00000000E+00  0.00000000E+00  0.00000000E+00
  0.00000000E+00  0.00000000E+00  0.00000000E+00
  0.00000000E+00  0.00000000E+00  0.00000000E+00
  0.00000000E+00  0.00000000E+00  0.00000000E+00
  0.00000000E+00  0.00000000E+00  0.00000000E+00
  0.00000000E+00  0.00000000E+00  0.00000000E+00
  0.00000000E+00  0.00000000E+00  0.00000000E+00
  0.00000000E+00  0.00000000E+00  0.00000000E+00
  0.00000000E+00  0.00000000E+00  0.00000000E+00
  0.00000000E+00  0.00000000E+00  0.00000000E+00
  0.00000000E+00  0.00000000E+00  0.00000000E+00
  0.00000000E+00  0.00000000E+00  0.00000000E+00
  0.00000000E+00  0.00000000E+00  0.00000000E+00
  0.00000000E+00  0.00000000E+00  0.00000000E+00
  0.00000000E+00  0.00000000E+00  0.00000000E+00
  0.00000000E+00  0.00000000E+00  0.00000000E+00
  0.00000000E+00  0.00000000E+00  0.00000000E+00
  0.00000000E+00  0.00000000E+00  0.00000000E+00
  0.00000000E+00  0.00000000E+00  0.00000000E+00
  0.00000000E+00  0.00000000E+00  0.00000000E+00
  0.00000000E+00  0.00000000E+00  0.00000000E+00
  0.00000000E+00  0.00000000E+00  0.00000000E+00
  0.00000000E+00  0.00000000E+00  0.00000000E+00
  0.00000000E+00  0.00000000E+00  0.00000000E+00
  0.00000000E+00  0.00000000E+00  0.00000000E+00
  0.00000000E+00  0.00000000E+00  0.00000000E+00
  0.00000000E+00  0.00000000E+00  0.00000000E+00
  0.00000000E+00  0.00000000E+00  0.00000000E+00
  0.00000000E+00  0.00000000E+00  0.00000000E+00
  0.00000000E+00  0.00000000E+00  0.00000000E+00
  0.00000000E+00  0.00000000E+00  0.00000000E+00
  0.00000000E+00  0.00000000E+00  0.00000000E+00
  0.00000000E+00  0.00000000E+00  0.00000000E+00
  0.00000000E+00  0.00000000E+00  0.00000000E+00
  0.00000000E+00  0.00000000E+00  0.00000000E+00
  0.00000000E+00  0.00000000E+00  0.00000000E+00
  0.00000000E+00  0.00000000E+00  0.00000000E+00
  0.00000000E+00  0.00000000E+00  0.00000000E+00
  0.00000000E+00  0.00000000E+00  0.00000000E+00
  0.00000000E+00  0.00000000E+00  0.00000000E+00
  0.00000000E+00  0.00000000E+00  0.00000000E+00
  0.00000000E+00  0.00000000E+00  0.00000000E+00
  0.00000000E+00  0.00000000E+00  0.00000000E+00
  0.00000000E+00  0.00000000E+00  0.00000000E+00
  0.00000000E+00  0.00000000E+00  0.00000000E+00
  0.00000000E+00  0.00000000E+00  0.00000000E+00
  0.00000000E+00  0.00000000E+00  0.00000000E+00
  0.00000000E+00  0.00000000E+00  0.00000000E+00
  0.00000000E+00  0.00000000E+00  0.00000000E+00
  0.00000000E+00  0.00000000E+00  0.00000000E+00
  0.00000000E+00  0.00000000E+00  0.00000000E+00
  0.00000000E+00  0.00000000E+00  0.00000000E+00
  0.00000000E+00  0.00000000E+00  0.00000000E+00
  0.00000000E+00  0.00000000E+00  0.00000000E+00
  0.00000000E+00  0.00000000E+00  0.00000000E+00
  0.00000000E+00  0.00000000E+00  0.00000000E+00
  0.00000000E+00  0.00000000E+00  0.00000000E+00
  0.00000000E+00  0.00000000E+00  0.00000000E+00
  0.00000000E+00  0.00000000E+00  0.00000000E+00
  0.00000000E+00  0.00000000E+00  0.00000000E+00
