Li56 P56
1.0
4.931949 0.000000 -2.639560
0.000000 4.970385 0.000000
0.000000 0.000000 102.507508
Li P
56 56
Selective dynamics
direct
0.217008 0.388247 0.007930 T T T Li+
0.782992 0.888247 0.092070 T T T Li+
0.782992 0.611753 0.042070 T T T Li+
0.217008 0.111753 0.057930 T T T Li+
0.225768 0.658316 0.077979 T T T Li+
0.774232 0.158316 0.022021 T T T Li+
0.774232 0.341684 0.072021 T T T Li+
0.225768 0.841684 0.027979 T T T Li+
0.217008 0.388247 0.107930 F F F Li+
0.782992 0.888247 0.192070 F F F Li+
0.782992 0.611753 0.142070 F F F Li+
0.217008 0.111753 0.157930 F F F Li+
0.225768 0.658316 0.177979 F F F Li+
0.774232 0.158316 0.122021 F F F Li+
0.774232 0.341684 0.172021 F F F Li+
0.225768 0.841684 0.127979 F F F Li+
0.217008 0.388247 0.207930 F F F Li+
0.782992 0.888247 0.292070 F F F Li+
0.782992 0.611753 0.242070 F F F Li+
0.217008 0.111753 0.257930 F F F Li+
0.225768 0.658316 0.277979 F F F Li+
0.774232 0.158316 0.222021 F F F Li+
0.774232 0.341684 0.272021 F F F Li+
0.225768 0.841684 0.227979 F F F Li+
0.217008 0.388247 0.307930 F F F Li+
0.782992 0.888247 0.392070 F F F Li+
0.782992 0.611753 0.342070 F F F Li+
0.217008 0.111753 0.357930 F F F Li+
0.225768 0.658316 0.377979 F F F Li+
0.774232 0.158316 0.322021 F F F Li+
0.774232 0.341684 0.372021 F F F Li+
0.225768 0.841684 0.327979 F F F Li+
0.217008 0.388247 0.407930 F F F Li+
0.782992 0.888247 0.492070 F F F Li+
0.782992 0.611753 0.442070 F F F Li+
0.217008 0.111753 0.457930 F F F Li+
0.225768 0.658316 0.477979 F F F Li+
0.774232 0.158316 0.422021 F F F Li+
0.774232 0.341684 0.472021 F F F Li+
0.225768 0.841684 0.427979 F F F Li+
0.217008 0.388247 0.507930 F F F Li+
0.782992 0.888247 0.592070 F F F Li+
0.782992 0.611753 0.542070 F F F Li+
0.217008 0.111753 0.557930 F F F Li+
0.225768 0.658316 0.577979 F F F Li+
0.774232 0.158316 0.522021 F F F Li+
0.774232 0.341684 0.572021 F F F Li+
0.225768 0.841684 0.527979 F F F Li+
0.217008 0.388247 0.607930 T T T Li+
0.782992 0.888247 0.692070 T T T Li+
0.782992 0.611753 0.642070 T T T Li+
0.217008 0.111753 0.657930 T T T Li+
0.225768 0.658316 0.677979 T T T Li+
0.774232 0.158316 0.622021 T T T Li+
0.774232 0.341684 0.672021 T T T Li+
0.225768 0.841684 0.627979 T T T Li+
0.316645 0.894904 0.004292 T T T P-
0.683355 0.394904 0.095708 T T T P-
0.683355 0.105096 0.045708 T T T P-
0.316645 0.605096 0.054292 T T T P-
0.303182 0.156027 0.086174 T T T P-
0.696818 0.656027 0.013826 T T T P-
0.696818 0.843973 0.063826 T T T P-
0.303182 0.343973 0.036174 T T T P-
0.316645 0.894904 0.104292 F F F P-
0.683355 0.394904 0.195708 F F F P-
0.683355 0.105096 0.145708 F F F P-
0.316645 0.605096 0.154292 F F F P-
0.303182 0.156027 0.186174 F F F P-
0.696818 0.656027 0.113826 F F F P-
0.696818 0.843973 0.163826 F F F P-
0.303182 0.343973 0.136174 F F F P-
0.316645 0.894904 0.204292 F F F P-
0.683355 0.394904 0.295708 F F F P-
0.683355 0.105096 0.245708 F F F P-
0.316645 0.605096 0.254292 F F F P-
0.303182 0.156027 0.286174 F F F P-
0.696818 0.656027 0.213826 F F F P-
0.696818 0.843973 0.263826 F F F P-
0.303182 0.343973 0.236174 F F F P-
0.316645 0.894904 0.304292 F F F P-
0.683355 0.394904 0.395708 F F F P-
0.683355 0.105096 0.345708 F F F P-
0.316645 0.605096 0.354292 F F F P-
0.303182 0.156027 0.386174 F F F P-
0.696818 0.656027 0.313826 F F F P-
0.696818 0.843973 0.363826 F F F P-
0.303182 0.343973 0.336174 F F F P-
0.316645 0.894904 0.404292 F F F P-
0.683355 0.394904 0.495708 F F F P-
0.683355 0.105096 0.445708 F F F P-
0.316645 0.605096 0.454292 F F F P-
0.303182 0.156027 0.486174 F F F P-
0.696818 0.656027 0.413826 F F F P-
0.696818 0.843973 0.463826 F F F P-
0.303182 0.343973 0.436174 F F F P-
0.316645 0.894904 0.504292 F F F P-
0.683355 0.394904 0.595708 F F F P-
0.683355 0.105096 0.545708 F F F P-
0.316645 0.605096 0.554292 F F F P-
0.303182 0.156027 0.586174 F F F P-
0.696818 0.656027 0.513826 F F F P-
0.696818 0.843973 0.563826 F F F P-
0.303182 0.343973 0.536174 F F F P-
0.316645 0.894904 0.604292 T T T P-
0.683355 0.394904 0.695708 T T T P-
0.683355 0.105096 0.645708 T T T P-
0.316645 0.605096 0.654292 T T T P-
0.303182 0.156027 0.686174 T T T P-
0.696818 0.656027 0.613826 T T T P-
0.696818 0.843973 0.663826 T T T P-
0.303182 0.343973 0.636174 T T T P-
