(2, 0, 1)                               
   1.00000000000000     
     3.6390949792148786    0.0001608648357875   -2.1010134017702518
     0.0178996747007887   15.0178879889715340   -4.1721348666391656
     0.0659739474790290    0.0921670222993697   42.1346109090362333
   Li   P 
    48    16
Selective dynamics
Direct
  0.0055925345356362  0.1212705670482108 -0.0117255337880039   T   T   T
 -0.0021734274912855  0.8696417304467582  0.0614334175346727   T   T   T
  0.0000000000000000  0.1250000000000000  0.0874999999999986   F   F   F
  0.0036468625804997  0.5942443065361754  0.0351782686773225   T   T   T
  0.3333330000000032  0.0420599999999993  0.0458730000000003   F   F   F
  0.3333330000000032  0.5420599999999993  0.0958729999999974   F   F   F
  0.6815131226230278  0.2836958798011522  0.0396499822082274   T   T   T
  0.6666669999999968  0.7920599999999993  0.0875389999999996   F   F   F
  0.6888702069991417  0.4577333051107720  0.0585865817694971   T   T   T
  0.6867653567589961  0.9442614268825837  0.0067414969820081   T   T   T
  0.3333330000000032  0.2079400000000007  0.0624609999999990   F   F   F
  0.3540563021348026  0.7248069785525880  0.0183132459431868   T   T   T
  0.0000000000000000  0.3750000000000000  0.1124999999999972   F   F   F
  0.0000000000000000  0.8750000000000000  0.1625000000000014   F   F   F
  0.0000000000000000  0.1250000000000000  0.1875000000000000   F   F   F
  0.0000000000000000  0.6250000000000000  0.1375000000000028   F   F   F
  0.3333330000000032  0.0420599999999993  0.1458730000000017   F   F   F
  0.3333330000000032  0.5420599999999993  0.1958729999999989   F   F   F
  0.6666669999999968  0.2920599999999993  0.1375389999999967   F   F   F
  0.6666669999999968  0.7920599999999993  0.1875390000000010   F   F   F
  0.6666669999999968  0.4579400000000007  0.1541270000000026   F   F   F
  0.6666669999999968  0.9579400000000007  0.1041269999999983   F   F   F
  0.3333330000000032  0.2079400000000007  0.1624610000000004   F   F   F
  0.3333330000000032  0.7079409999999982  0.1124610000000033   F   F   F
  0.0000000000000000  0.3750000000000000  0.2124999999999986   F   F   F
  0.0000000000000000  0.8750000000000000  0.2625000000000028   F   F   F
  0.0000000000000000  0.1250000000000000  0.2875000000000014   F   F   F
  0.0000000000000000  0.6250000000000000  0.2374999999999972   F   F   F
  0.3333330000000032  0.0420599999999993  0.2458730000000031   F   F   F
  0.3333330000000032  0.5420599999999993  0.2958730000000003   F   F   F
  0.6666669999999968  0.2920599999999993  0.2375389999999982   F   F   F
  0.6666669999999968  0.7920599999999993  0.2875390000000024   F   F   F
  0.6666669999999968  0.4579400000000007  0.2541269999999969   F   F   F
  0.6666669999999968  0.9579400000000007  0.2041269999999997   F   F   F
  0.3333330000000032  0.2079400000000007  0.2624610000000018   F   F   F
  0.3333330000000032  0.7079409999999982  0.2124609999999976   F   F   F
  0.0000000000000000  0.3750000000000000  0.3125000000000000   F   F   F
 -0.0036710157850022  0.9057438875277586  0.3648149582354687   T   T   T
 -0.0056196067068339  0.3787353548838466  0.4117233531530827   T   T   T
  0.0021770098321319  0.6303524453855548  0.3385670564048686   T   T   T
  0.3111523661855751  0.0422603777271753  0.3414187432522162   T   T   T
  0.3132094780630949  0.5557405392754009  0.3932584072284853   T   T   T
  0.6666669999999968  0.2920599999999993  0.3375389999999996   F   F   F
  0.6459922775816447  0.7751905738643262  0.3816854608632770   T   T   T
  0.6666669999999968  0.4579400000000007  0.3541269999999983   F   F   F
  0.6666669999999968  0.9579400000000007  0.3041270000000011   F   F   F
  0.3184954423481960  0.2163111708923574  0.3603350534396855   T   T   T
  0.3333330000000032  0.7079409999999982  0.3124609999999990   F   F   F
  0.3333330000000032  0.3750000000000000  0.0791669999999982   F   F   F
  0.3430983496254310  0.8793444101326383  0.0314540381717703   T   T   T
  0.6674174386062355  0.1227556413591615  0.0207890107340280   T   T   T
  0.6484963360402882  0.6227346034988840  0.0669813848217722   T   T   T
  0.3333330000000032  0.3750000000000000  0.1791669999999996   F   F   F
  0.3333330000000032  0.8750000000000000  0.1291670000000025   F   F   F
  0.6666669999999968  0.1250000000000000  0.1208329999999975   F   F   F
  0.6666669999999968  0.6250000000000000  0.1708330000000018   F   F   F
  0.3333330000000032  0.3750000000000000  0.2791670000000011   F   F   F
  0.3333330000000032  0.8750000000000000  0.2291669999999968   F   F   F
  0.6666669999999968  0.1250000000000000  0.2208329999999989   F   F   F
  0.6666669999999968  0.6250000000000000  0.2708330000000032   F   F   F
  0.3325563737446232  0.3772586821172813  0.3792083695000354   T   T   T
  0.3515232479616041  0.8772566785017581  0.3330172859466513   T   T   T
  0.6666669999999968  0.1250000000000000  0.3208330000000004   F   F   F
  0.6568917982478690  0.6206636329598163  0.3685488174089994   T   T   T
 
  0.00000000E+00  0.00000000E+00  0.00000000E+00
  0.00000000E+00  0.00000000E+00  0.00000000E+00
  0.00000000E+00  0.00000000E+00  0.00000000E+00
  0.00000000E+00  0.00000000E+00  0.00000000E+00
  0.00000000E+00  0.00000000E+00  0.00000000E+00
  0.00000000E+00  0.00000000E+00  0.00000000E+00
  0.00000000E+00  0.00000000E+00  0.00000000E+00
  0.00000000E+00  0.00000000E+00  0.00000000E+00
  0.00000000E+00  0.00000000E+00  0.00000000E+00
  0.00000000E+00  0.00000000E+00  0.00000000E+00
  0.00000000E+00  0.00000000E+00  0.00000000E+00
  0.00000000E+00  0.00000000E+00  0.00000000E+00
  0.00000000E+00  0.00000000E+00  0.00000000E+00
  0.00000000E+00  0.00000000E+00  0.00000000E+00
  0.00000000E+00  0.00000000E+00  0.00000000E+00
  0.00000000E+00  0.00000000E+00  0.00000000E+00
  0.00000000E+00  0.00000000E+00  0.00000000E+00
  0.00000000E+00  0.00000000E+00  0.00000000E+00
  0.00000000E+00  0.00000000E+00  0.00000000E+00
  0.00000000E+00  0.00000000E+00  0.00000000E+00
  0.00000000E+00  0.00000000E+00  0.00000000E+00
  0.00000000E+00  0.00000000E+00  0.00000000E+00
  0.00000000E+00  0.00000000E+00  0.00000000E+00
  0.00000000E+00  0.00000000E+00  0.00000000E+00
  0.00000000E+00  0.00000000E+00  0.00000000E+00
  0.00000000E+00  0.00000000E+00  0.00000000E+00
  0.00000000E+00  0.00000000E+00  0.00000000E+00
  0.00000000E+00  0.00000000E+00  0.00000000E+00
  0.00000000E+00  0.00000000E+00  0.00000000E+00
  0.00000000E+00  0.00000000E+00  0.00000000E+00
  0.00000000E+00  0.00000000E+00  0.00000000E+00
  0.00000000E+00  0.00000000E+00  0.00000000E+00
  0.00000000E+00  0.00000000E+00  0.00000000E+00
  0.00000000E+00  0.00000000E+00  0.00000000E+00
  0.00000000E+00  0.00000000E+00  0.00000000E+00
  0.00000000E+00  0.00000000E+00  0.00000000E+00
  0.00000000E+00  0.00000000E+00  0.00000000E+00
  0.00000000E+00  0.00000000E+00  0.00000000E+00
  0.00000000E+00  0.00000000E+00  0.00000000E+00
  0.00000000E+00  0.00000000E+00  0.00000000E+00
  0.00000000E+00  0.00000000E+00  0.00000000E+00
  0.00000000E+00  0.00000000E+00  0.00000000E+00
  0.00000000E+00  0.00000000E+00  0.00000000E+00
  0.00000000E+00  0.00000000E+00  0.00000000E+00
  0.00000000E+00  0.00000000E+00  0.00000000E+00
  0.00000000E+00  0.00000000E+00  0.00000000E+00
  0.00000000E+00  0.00000000E+00  0.00000000E+00
  0.00000000E+00  0.00000000E+00  0.00000000E+00
  0.00000000E+00  0.00000000E+00  0.00000000E+00
  0.00000000E+00  0.00000000E+00  0.00000000E+00
  0.00000000E+00  0.00000000E+00  0.00000000E+00
  0.00000000E+00  0.00000000E+00  0.00000000E+00
  0.00000000E+00  0.00000000E+00  0.00000000E+00
  0.00000000E+00  0.00000000E+00  0.00000000E+00
  0.00000000E+00  0.00000000E+00  0.00000000E+00
  0.00000000E+00  0.00000000E+00  0.00000000E+00
  0.00000000E+00  0.00000000E+00  0.00000000E+00
  0.00000000E+00  0.00000000E+00  0.00000000E+00
  0.00000000E+00  0.00000000E+00  0.00000000E+00
  0.00000000E+00  0.00000000E+00  0.00000000E+00
  0.00000000E+00  0.00000000E+00  0.00000000E+00
  0.00000000E+00  0.00000000E+00  0.00000000E+00
  0.00000000E+00  0.00000000E+00  0.00000000E+00
  0.00000000E+00  0.00000000E+00  0.00000000E+00
