Li1 N3
1.0
1.659854 2.812847 0.000371
-1.659854 2.812847 0.000371
0.000000 1.466007 4.715388
Li N
1 3
direct
-0.000000 -0.000000 -0.000000 Li
0.605876 0.605876 0.256533 N
0.394124 0.394124 0.743467 N
0.500000 0.500000 0.500000 N
