Li56 P56
1.0
5.593872 0.000000 -4.970385
0.756887 9.037780 0.000000
0.000000 0.000000 64.615005
Li P
56 56
direct
0.112292 0.670700 0.018662 Li+
0.387708 0.829300 0.001386 Li+
0.887708 0.329300 0.061117 Li+
0.612292 0.170700 0.001469 Li+
0.804018 0.970214 0.051097 Li+
0.695982 0.529786 0.004325 Li+
0.195982 0.029786 0.028682 Li+
0.304018 0.470214 0.075454 Li+
0.112292 0.670700 0.095585 Li+
0.387708 0.829300 0.078310 Li+
0.887708 0.329300 0.138040 Li+
0.612292 0.170700 0.078393 Li+
0.804018 0.970214 0.128020 Li+
0.695982 0.529786 0.081248 Li+
0.195982 0.029786 0.105605 Li+
0.304018 0.470214 0.152377 Li+
0.112292 0.670700 0.172508 Li+
0.387708 0.829300 0.155233 Li+
0.887708 0.329300 0.214963 Li+
0.612292 0.170700 0.155316 Li+
0.804018 0.970214 0.204944 Li+
0.695982 0.529786 0.158171 Li+
0.195982 0.029786 0.182528 Li+
0.304018 0.470214 0.229300 Li+
0.112292 0.670700 0.249431 Li+
0.387708 0.829300 0.232156 Li+
0.887708 0.329300 0.291886 Li+
0.612292 0.170700 0.232239 Li+
0.804018 0.970214 0.281867 Li+
0.695982 0.529786 0.235095 Li+
0.195982 0.029786 0.259451 Li+
0.304018 0.470214 0.306223 Li+
0.112292 0.670700 0.326355 Li+
0.387708 0.829300 0.309079 Li+
0.887708 0.329300 0.368809 Li+
0.612292 0.170700 0.309162 Li+
0.804018 0.970214 0.358790 Li+
0.695982 0.529786 0.312018 Li+
0.195982 0.029786 0.336374 Li+
0.304018 0.470214 0.383146 Li+
0.112292 0.670700 0.403278 Li+
0.387708 0.829300 0.386002 Li+
0.887708 0.329300 0.445732 Li+
0.612292 0.170700 0.386085 Li+
0.804018 0.970214 0.435713 Li+
0.695982 0.529786 0.388941 Li+
0.195982 0.029786 0.413297 Li+
0.304018 0.470214 0.460069 Li+
0.112292 0.670700 0.480201 Li+
0.387708 0.829300 0.462925 Li+
0.887708 0.329300 0.522655 Li+
0.612292 0.170700 0.463008 Li+
0.804018 0.970214 0.512636 Li+
0.695982 0.529786 0.465864 Li+
0.195982 0.029786 0.490220 Li+
0.304018 0.470214 0.536992 Li+
0.976271 0.707084 0.046148 P-
0.523729 0.792916 0.049799 P-
0.023729 0.292916 0.033630 P-
0.476271 0.207084 0.029980 P-
0.808560 0.888258 0.013161 P-
0.691440 0.611742 0.042614 P-
0.191440 0.111742 0.066618 P-
0.308560 0.388258 0.037165 P-
0.976271 0.707084 0.123072 P-
0.523729 0.792916 0.126722 P-
0.023729 0.292916 0.110554 P-
0.476271 0.207084 0.106903 P-
0.808560 0.888258 0.090084 P-
0.691440 0.611742 0.119537 P-
0.191440 0.111742 0.143541 P-
0.308560 0.388258 0.114089 P-
0.976271 0.707084 0.199995 P-
0.523729 0.792916 0.203645 P-
0.023729 0.292916 0.187477 P-
0.476271 0.207084 0.183826 P-
0.808560 0.888258 0.167007 P-
0.691440 0.611742 0.196460 P-
0.191440 0.111742 0.220464 P-
0.308560 0.388258 0.191012 P-
0.976271 0.707084 0.276918 P-
0.523729 0.792916 0.280568 P-
0.023729 0.292916 0.264400 P-
0.476271 0.207084 0.260749 P-
0.808560 0.888258 0.243931 P-
0.691440 0.611742 0.273383 P-
0.191440 0.111742 0.297387 P-
0.308560 0.388258 0.267935 P-
0.976271 0.707084 0.353841 P-
0.523729 0.792916 0.357491 P-
0.023729 0.292916 0.341323 P-
0.476271 0.207084 0.337672 P-
0.808560 0.888258 0.320854 P-
0.691440 0.611742 0.350306 P-
0.191440 0.111742 0.374310 P-
0.308560 0.388258 0.344858 P-
0.976271 0.707084 0.430764 P-
0.523729 0.792916 0.434414 P-
0.023729 0.292916 0.418246 P-
0.476271 0.207084 0.414595 P-
0.808560 0.888258 0.397777 P-
0.691440 0.611742 0.427229 P-
0.191440 0.111742 0.451233 P-
0.308560 0.388258 0.421781 P-
0.976271 0.707084 0.507687 P-
0.523729 0.792916 0.511338 P-
0.023729 0.292916 0.495169 P-
0.476271 0.207084 0.491518 P-
0.808560 0.888258 0.474700 P-
0.691440 0.611742 0.504152 P-
0.191440 0.111742 0.528156 P-
0.308560 0.388258 0.498704 P-
