Li56 P56
1.0
4.970385 0.000000 0.000000
0.000000 9.037780 0.756887
0.000000 0.000000 61.532592
Li P
56 56
direct
0.388247 0.329300 0.057973 Li+
0.888247 0.170700 0.032936 Li+
0.611753 0.670700 0.078390 Li+
0.111753 0.829300 0.012519 Li+
0.658316 0.029786 0.085998 Li+
0.158316 0.470214 0.004911 Li+
0.341684 0.970214 0.050365 Li+
0.841684 0.529786 0.040544 Li+
0.388247 0.329300 0.148883 Li+
0.888247 0.170700 0.123845 Li+
0.611753 0.670700 0.169299 Li+
0.111753 0.829300 0.103428 Li+
0.658316 0.029786 0.176907 Li+
0.158316 0.470214 0.095820 Li+
0.341684 0.970214 0.141274 Li+
0.841684 0.529786 0.131453 Li+
0.388247 0.329300 0.239792 Li+
0.888247 0.170700 0.214754 Li+
0.611753 0.670700 0.260208 Li+
0.111753 0.829300 0.194337 Li+
0.658316 0.029786 0.267817 Li+
0.158316 0.470214 0.186729 Li+
0.341684 0.970214 0.232183 Li+
0.841684 0.529786 0.222362 Li+
0.388247 0.329300 0.330701 Li+
0.888247 0.170700 0.305663 Li+
0.611753 0.670700 0.351117 Li+
0.111753 0.829300 0.285246 Li+
0.658316 0.029786 0.358726 Li+
0.158316 0.470214 0.277638 Li+
0.341684 0.970214 0.323093 Li+
0.841684 0.529786 0.313271 Li+
0.388247 0.329300 0.421610 Li+
0.888247 0.170700 0.396572 Li+
0.611753 0.670700 0.442027 Li+
0.111753 0.829300 0.376155 Li+
0.658316 0.029786 0.449635 Li+
0.158316 0.470214 0.368547 Li+
0.341684 0.970214 0.414002 Li+
0.841684 0.529786 0.404180 Li+
0.388247 0.329300 0.512519 Li+
0.888247 0.170700 0.487481 Li+
0.611753 0.670700 0.532936 Li+
0.111753 0.829300 0.467064 Li+
0.658316 0.029786 0.540544 Li+
0.158316 0.470214 0.459456 Li+
0.341684 0.970214 0.504911 Li+
0.841684 0.529786 0.495089 Li+
0.388247 0.329300 0.603428 Li+
0.888247 0.170700 0.578390 Li+
0.611753 0.670700 0.623845 Li+
0.111753 0.829300 0.557973 Li+
0.658316 0.029786 0.631453 Li+
0.158316 0.470214 0.550365 Li+
0.341684 0.970214 0.595820 Li+
0.841684 0.529786 0.585998 Li+
0.894904 0.292916 0.070339 P-
0.394904 0.207084 0.020570 P-
0.105096 0.707084 0.066025 P-
0.605096 0.792916 0.024884 P-
0.156027 0.111742 0.085585 P-
0.656027 0.388258 0.005324 P-
0.843973 0.888258 0.050778 P-
0.343973 0.611742 0.040131 P-
0.894904 0.292916 0.161248 P-
0.394904 0.207084 0.111479 P-
0.105096 0.707084 0.156934 P-
0.605096 0.792916 0.115794 P-
0.156027 0.111742 0.176495 P-
0.656027 0.388258 0.096233 P-
0.843973 0.888258 0.141687 P-
0.343973 0.611742 0.131040 P-
0.894904 0.292916 0.252157 P-
0.394904 0.207084 0.202388 P-
0.105096 0.707084 0.247843 P-
0.605096 0.792916 0.206703 P-
0.156027 0.111742 0.267404 P-
0.656027 0.388258 0.187142 P-
0.843973 0.888258 0.232596 P-
0.343973 0.611742 0.221949 P-
0.894904 0.292916 0.343066 P-
0.394904 0.207084 0.293297 P-
0.105096 0.707084 0.338752 P-
0.605096 0.792916 0.297612 P-
0.156027 0.111742 0.358313 P-
0.656027 0.388258 0.278051 P-
0.843973 0.888258 0.323505 P-
0.343973 0.611742 0.312858 P-
0.894904 0.292916 0.433975 P-
0.394904 0.207084 0.384206 P-
0.105096 0.707084 0.429661 P-
0.605096 0.792916 0.388521 P-
0.156027 0.111742 0.449222 P-
0.656027 0.388258 0.368960 P-
0.843973 0.888258 0.414415 P-
0.343973 0.611742 0.403767 P-
0.894904 0.292916 0.524884 P-
0.394904 0.207084 0.475116 P-
0.105096 0.707084 0.520570 P-
0.605096 0.792916 0.479430 P-
0.156027 0.111742 0.540131 P-
0.656027 0.388258 0.459869 P-
0.843973 0.888258 0.505324 P-
0.343973 0.611742 0.494676 P-
0.894904 0.292916 0.615794 P-
0.394904 0.207084 0.566025 P-
0.105096 0.707084 0.611479 P-
0.605096 0.792916 0.570339 P-
0.156027 0.111742 0.631040 P-
0.656027 0.388258 0.550778 P-
0.843973 0.888258 0.596233 P-
0.343973 0.611742 0.585585 P-
