Li5 P2 N1 O6                            
   1.00000000000000     
    -0.0037133727138325    0.0677284928725032    5.2713311796998088
     5.9679882154100143    0.0064505026909416   -0.0042126659483080
     0.0057540972863510    5.6898360029680015    0.0696379331842221
   Li   P    N    O 
     5     2     1     6
Direct
  0.6278962728597542  0.0002597211407587  0.8647176239072200
  0.4030505475731029  0.6941301763085352  0.3045307033801173
  0.0643069167781165  0.6917356959010335  0.6514856034748826
  0.0640143262625416  0.3080857216216257  0.6511198204768672
  0.4039051933603542  0.3057366260070414  0.3051979625315515
  0.5628806919829924  0.5003077568311738  0.7968154284121740
 -0.1192702904337114 -0.0004845251623893  0.2933162157969233
  0.3562987539282242  0.5001186146133803  0.5970137782649146
  0.0229715924876597  0.2135678756706223  0.3174964807540310
  0.7428699976207397  0.7178565913008186  0.7769206846584598
  0.0226471850381427  0.7853421142671909  0.3161207167215458
  0.7429069162913184  0.2834623544193768  0.7775839535443881
  0.4502495538501273  0.5001257481465012  0.0530919082360117
  0.6015293424006705 -0.0002444710656692  0.2426171198409136
 
  0.00000000E+00  0.00000000E+00  0.00000000E+00
  0.00000000E+00  0.00000000E+00  0.00000000E+00
  0.00000000E+00  0.00000000E+00  0.00000000E+00
  0.00000000E+00  0.00000000E+00  0.00000000E+00
  0.00000000E+00  0.00000000E+00  0.00000000E+00
  0.00000000E+00  0.00000000E+00  0.00000000E+00
  0.00000000E+00  0.00000000E+00  0.00000000E+00
  0.00000000E+00  0.00000000E+00  0.00000000E+00
  0.00000000E+00  0.00000000E+00  0.00000000E+00
  0.00000000E+00  0.00000000E+00  0.00000000E+00
  0.00000000E+00  0.00000000E+00  0.00000000E+00
  0.00000000E+00  0.00000000E+00  0.00000000E+00
  0.00000000E+00  0.00000000E+00  0.00000000E+00
  0.00000000E+00  0.00000000E+00  0.00000000E+00
