Li61 P7 N32                             
   1.00000000000000     
     0.0022308289480523    9.4872712295072077    0.0006212993102920
    -0.0191977156999300    0.0005735364337037    9.5476806108552932
     9.5360141682457122    0.0022829945395646   -0.0191964444071220
   Li   P    N 
    61     7    32
Direct
  0.4957172375742777  0.0028199291355291  0.5015571128386358
  0.0068102892176022  0.4991712934720652  0.0011584577495738
  0.4977269663808293 -0.0040984588326099  0.0024570277455195
  0.0003632092256898  0.0016896713391674  0.5012563147483711
  0.4911297585068878  0.5029453810659410  0.0022577291721949
  0.0023459541347634  0.5026231558354249  0.5029480512210254
  0.7470063034751400 -0.0095105220601269  0.5005697781648732
  0.2477961363415099  0.0003134806775260  0.5012875318397433
  0.7661328634725036  0.5020080645555265  0.4959717529231838
  0.2359057414946556  0.5015669227404816  0.4997664166397017
  0.2614939764576103  0.0014926514385256  0.0014002965467658
  0.7329504867754629 -0.0030701828116259  0.0013531972988684
  0.8202143685931194  0.3977620222974975 -0.0734826016398572
  0.5072396545520789  0.2425760787980649 -0.0094035793586877
  0.5031092435008279  0.7545515344661393  0.0148075580800251
 -0.0059780814744295  0.4893028051269783  0.2577704198253620
  0.0121215936751270  0.5129821959834187  0.7529959085255667
  0.2397564583503169  0.2164961332932705  0.2119404947846867
  0.2309457617060348  0.7911240637383741  0.7802329583653426
  0.2383126804452825  0.3011631835824490  0.7082077850129279
  0.2597430720889302  0.7183187373300526  0.2812245625413256
  0.7608794936804201  0.3006035848896345  0.3075623186106038
  0.7391601348747681  0.7274025616079652  0.7055775313120188
  0.7229440261713980  0.1986084773040974  0.8130779140690343
  0.7385539284053257  0.8002804213821109  0.2019796549303682
  0.9889275854988101  0.2468466038601706  0.2449469601270301
  0.9796587128691696  0.7509390189523677  0.7541342221780973
  0.2629350332655574  0.2434202060685736  0.4686132845865901
  0.2622155381532283  0.7563183955358040  0.5261642769241945
  0.7558908959465425  0.2150870389447268  0.5495192807641937
  0.7429927332162700  0.7591834699820897  0.4565057397060941
  0.7371430164798894  0.5490428155182702  0.2781876553036099
  0.7871816050116172  0.4928444661844990  0.7296705701732070
  0.2352242151357334  0.4655530541173312  0.2584707949232148
  0.2386354499385551  0.5472780793636601  0.7409270334087399
  0.5115562565745934  0.7454475889175973  0.2555942514531647
  0.4827614713784190  0.2478649945261540  0.7543116747285803
  0.2351925772290820  0.9728458177259505  0.2555503922733809
  0.2367262529385601  0.0353400317681098  0.7469163767912401
  0.2651755337130476  0.2437031381596972  0.9602330637382427
  0.2602395572199112  0.7622361059903303  0.0336605602258694
  0.7611742612426953  0.9703823088891792  0.7423289920328919
  0.7550614104460045  0.0413022067778367  0.2684836354723907
  0.7641324131373171  0.7783514719537752  0.9549575107646593
  0.7754571961517730  0.2073528870332073  0.0680447753246444
 -0.0038885277111976  0.2468137804352417  0.7626388547034043
  0.0098277311935730  0.7478191091784463  0.2364317050212067
  0.4871255995891854  0.2648266281503642  0.2454473688748784
  0.4786669829353084  0.7376878768001545  0.7590868190495826
  0.0161011138833896  0.2617756142020223  0.0136696520004879
  0.0120907058394291  0.7399461270975193 -0.0146564235064668
  0.5006686021612178  0.2379464561708446  0.4881544784084341
  0.5018756479284198  0.7649241362293592  0.5081443225423559
  0.4857265723079147  0.5166463112004908  0.2390624430600413
  0.4730373290768657  0.4949571940136242  0.7696905831886123
 -0.0036301029216756 -0.0041313612887123  0.2626864031398919
 -0.0010263442163735  0.0018714111437862  0.7394325261028077
  0.6239981931386612  0.3767238316154750  0.6602714649995711
  0.8255366151819740  0.5874949931071577  0.0766821740087130
  0.6697944603247822  0.4177060584955268  0.0920005510471662
  0.6703211405796929  0.5773835898581705  0.9087838235304995
  0.4943079374061953  0.5050138255576456  0.4973414712381346
  0.0003636519662870  0.0007974779828003  0.0009239423674220
  0.2499717989230790  0.5029930330733710  0.0003740539659193
  0.0013060265952960  0.7509688351042682  0.4979666678148741
  0.0021375052092469  0.2529577831825237  0.5021852148508047
  0.4967055231106710  0.0028392648293121  0.2507900633134462
  0.4972025536911792 -0.0042847366201561  0.7526083323036332
  0.6021523995775340  0.5974407368756466  0.6057762156642146
  0.5996336786402011  0.4042890973431938  0.3958003223900267
  0.8960446442409957  0.8963811940151649  0.0992276256200418
  0.8938599087719825  0.1051876394163575  0.9020808072768601
  0.1038044329421419  0.9051836009733915  0.8942271118467550
  0.1036750702313471  0.0980438199692465  0.1072770236888059
  0.3913163828979903  0.6100666302031189  0.4038643711273165
  0.3963590699098372  0.3953482191528055  0.5982668926240375
  0.1021780115095399  0.3512957083254043  0.3950000330895643
  0.1024136986699547  0.6541132976080526  0.6085016586912475
  0.1095644290626058  0.1537049174659686  0.6041425949744852
  0.1104982766007020  0.8512137581378302  0.3988071154289420
  0.8908980965076828  0.1490186778645931  0.4072622000691437
  0.8871360606127778  0.8525008494457945  0.5932056468112054
  0.8664102518702717  0.3811764034085230  0.1319381816620240
  0.8688864998887152  0.6160136528463909  0.8709187746989657
  0.1508224362220774  0.6001146517954777  0.1131803104575172
  0.1533352725141230  0.4054893303133097  0.8846566374650431
  0.3970717234343227  0.8931089329267022  0.1529386713371391
  0.3980693353451186  0.0997323172269042  0.8568244152261125
  0.3873013460345122  0.1041713610484904  0.3499245259620137
  0.3873716916957278  0.8990264454243534  0.6508620983249943
  0.3485000758889023  0.3888313227520939  0.0981193999307778
  0.3488741320735712  0.6168173985140976  0.9029197705397891
  0.6069092039175000  0.0986005486297690  0.6522210313144872
  0.6086846537637823  0.9077898063239024  0.3535767131077524
  0.6309635138316751  0.6295331005684468  0.1179861720787746
  0.6241251477660016  0.3750634482169786  0.8702141152690882
  0.8990058424695969  0.3557138962607101  0.6080866475403038
  0.9032823946816082  0.6468857698873738  0.3915682576253657
  0.5979306776225493  0.1083109801625575  0.1484693125907900
  0.6008629514386189  0.8882593607529063  0.8492782106937837
 
  0.00000000E+00  0.00000000E+00  0.00000000E+00
  0.00000000E+00  0.00000000E+00  0.00000000E+00
  0.00000000E+00  0.00000000E+00  0.00000000E+00
  0.00000000E+00  0.00000000E+00  0.00000000E+00
  0.00000000E+00  0.00000000E+00  0.00000000E+00
  0.00000000E+00  0.00000000E+00  0.00000000E+00
  0.00000000E+00  0.00000000E+00  0.00000000E+00
  0.00000000E+00  0.00000000E+00  0.00000000E+00
  0.00000000E+00  0.00000000E+00  0.00000000E+00
  0.00000000E+00  0.00000000E+00  0.00000000E+00
  0.00000000E+00  0.00000000E+00  0.00000000E+00
  0.00000000E+00  0.00000000E+00  0.00000000E+00
  0.00000000E+00  0.00000000E+00  0.00000000E+00
  0.00000000E+00  0.00000000E+00  0.00000000E+00
  0.00000000E+00  0.00000000E+00  0.00000000E+00
  0.00000000E+00  0.00000000E+00  0.00000000E+00
  0.00000000E+00  0.00000000E+00  0.00000000E+00
  0.00000000E+00  0.00000000E+00  0.00000000E+00
  0.00000000E+00  0.00000000E+00  0.00000000E+00
  0.00000000E+00  0.00000000E+00  0.00000000E+00
  0.00000000E+00  0.00000000E+00  0.00000000E+00
  0.00000000E+00  0.00000000E+00  0.00000000E+00
  0.00000000E+00  0.00000000E+00  0.00000000E+00
  0.00000000E+00  0.00000000E+00  0.00000000E+00
  0.00000000E+00  0.00000000E+00  0.00000000E+00
  0.00000000E+00  0.00000000E+00  0.00000000E+00
  0.00000000E+00  0.00000000E+00  0.00000000E+00
  0.00000000E+00  0.00000000E+00  0.00000000E+00
  0.00000000E+00  0.00000000E+00  0.00000000E+00
  0.00000000E+00  0.00000000E+00  0.00000000E+00
  0.00000000E+00  0.00000000E+00  0.00000000E+00
  0.00000000E+00  0.00000000E+00  0.00000000E+00
  0.00000000E+00  0.00000000E+00  0.00000000E+00
  0.00000000E+00  0.00000000E+00  0.00000000E+00
  0.00000000E+00  0.00000000E+00  0.00000000E+00
  0.00000000E+00  0.00000000E+00  0.00000000E+00
  0.00000000E+00  0.00000000E+00  0.00000000E+00
  0.00000000E+00  0.00000000E+00  0.00000000E+00
  0.00000000E+00  0.00000000E+00  0.00000000E+00
  0.00000000E+00  0.00000000E+00  0.00000000E+00
  0.00000000E+00  0.00000000E+00  0.00000000E+00
  0.00000000E+00  0.00000000E+00  0.00000000E+00
  0.00000000E+00  0.00000000E+00  0.00000000E+00
  0.00000000E+00  0.00000000E+00  0.00000000E+00
  0.00000000E+00  0.00000000E+00  0.00000000E+00
  0.00000000E+00  0.00000000E+00  0.00000000E+00
  0.00000000E+00  0.00000000E+00  0.00000000E+00
  0.00000000E+00  0.00000000E+00  0.00000000E+00
  0.00000000E+00  0.00000000E+00  0.00000000E+00
  0.00000000E+00  0.00000000E+00  0.00000000E+00
  0.00000000E+00  0.00000000E+00  0.00000000E+00
  0.00000000E+00  0.00000000E+00  0.00000000E+00
  0.00000000E+00  0.00000000E+00  0.00000000E+00
  0.00000000E+00  0.00000000E+00  0.00000000E+00
  0.00000000E+00  0.00000000E+00  0.00000000E+00
  0.00000000E+00  0.00000000E+00  0.00000000E+00
  0.00000000E+00  0.00000000E+00  0.00000000E+00
  0.00000000E+00  0.00000000E+00  0.00000000E+00
  0.00000000E+00  0.00000000E+00  0.00000000E+00
  0.00000000E+00  0.00000000E+00  0.00000000E+00
  0.00000000E+00  0.00000000E+00  0.00000000E+00
  0.00000000E+00  0.00000000E+00  0.00000000E+00
  0.00000000E+00  0.00000000E+00  0.00000000E+00
  0.00000000E+00  0.00000000E+00  0.00000000E+00
  0.00000000E+00  0.00000000E+00  0.00000000E+00
  0.00000000E+00  0.00000000E+00  0.00000000E+00
  0.00000000E+00  0.00000000E+00  0.00000000E+00
  0.00000000E+00  0.00000000E+00  0.00000000E+00
  0.00000000E+00  0.00000000E+00  0.00000000E+00
  0.00000000E+00  0.00000000E+00  0.00000000E+00
  0.00000000E+00  0.00000000E+00  0.00000000E+00
  0.00000000E+00  0.00000000E+00  0.00000000E+00
  0.00000000E+00  0.00000000E+00  0.00000000E+00
  0.00000000E+00  0.00000000E+00  0.00000000E+00
  0.00000000E+00  0.00000000E+00  0.00000000E+00
  0.00000000E+00  0.00000000E+00  0.00000000E+00
  0.00000000E+00  0.00000000E+00  0.00000000E+00
  0.00000000E+00  0.00000000E+00  0.00000000E+00
  0.00000000E+00  0.00000000E+00  0.00000000E+00
  0.00000000E+00  0.00000000E+00  0.00000000E+00
  0.00000000E+00  0.00000000E+00  0.00000000E+00
  0.00000000E+00  0.00000000E+00  0.00000000E+00
  0.00000000E+00  0.00000000E+00  0.00000000E+00
  0.00000000E+00  0.00000000E+00  0.00000000E+00
  0.00000000E+00  0.00000000E+00  0.00000000E+00
  0.00000000E+00  0.00000000E+00  0.00000000E+00
  0.00000000E+00  0.00000000E+00  0.00000000E+00
  0.00000000E+00  0.00000000E+00  0.00000000E+00
  0.00000000E+00  0.00000000E+00  0.00000000E+00
  0.00000000E+00  0.00000000E+00  0.00000000E+00
  0.00000000E+00  0.00000000E+00  0.00000000E+00
  0.00000000E+00  0.00000000E+00  0.00000000E+00
  0.00000000E+00  0.00000000E+00  0.00000000E+00
  0.00000000E+00  0.00000000E+00  0.00000000E+00
  0.00000000E+00  0.00000000E+00  0.00000000E+00
  0.00000000E+00  0.00000000E+00  0.00000000E+00
  0.00000000E+00  0.00000000E+00  0.00000000E+00
  0.00000000E+00  0.00000000E+00  0.00000000E+00
  0.00000000E+00  0.00000000E+00  0.00000000E+00
  0.00000000E+00  0.00000000E+00  0.00000000E+00
