Li1
1.0
-1.741503 1.741503 1.741503
1.741503 -1.741503 1.741503
1.741503 1.741503 -1.741503
Li
1
direct
0.000000 0.000000 0.000000 Li
