Li7 N21
1.0
3.300349 0.000000 -0.010298
-0.321486 5.213677 -0.271752
0.000000 0.000000 39.592117
Li N
7 21
Selective dynamics
direct
0.266667 0.100000 0.966667 T T T Li
0.800000 0.300000 0.900000 F F F Li
0.333333 0.500000 0.833333 F F F Li
0.866667 0.700000 0.766667 F F F Li
0.400000 0.900000 0.700000 F F F Li
0.933333 0.100000 0.633333 F F F Li
0.466667 0.300000 0.566667 T T T Li
0.725014 0.815797 0.975832 T T T N
0.808319 0.384203 0.957501 T T T N
0.766667 0.600000 0.966667 T T T N
0.258347 0.015797 0.909165 F F F N
0.341653 0.584203 0.890835 F F F N
0.300000 0.800000 0.900000 F F F N
0.791681 0.215797 0.842499 F F F N
0.874986 0.784203 0.824168 F F F N
0.833333 0.000000 0.833333 F F F N
0.325014 0.415797 0.775832 F F F N
0.408319 0.984203 0.757501 F F F N
0.366667 0.200000 0.766667 F F F N
0.858347 0.615797 0.709165 F F F N
0.941653 0.184203 0.690835 F F F N
0.900000 0.400000 0.700000 F F F N
0.391681 0.815797 0.642499 F F F N
0.474986 0.384203 0.624168 F F F N
0.433333 0.600000 0.633333 F F F N
0.925014 0.015797 0.575832 T T T N
0.008319 0.584203 0.557501 T T T N
0.966667 0.800000 0.566667 T T T N
