Li21 N7
1.0
3.161590 0.000000 -1.825345
-0.000000 3.888635 -3.650690
0.000000 0.000000 58.411038
Li N
21 7
Selective dynamics
direct
0.000000 0.500000 0.005208 T T T Li+
0.333333 0.000000 0.015625 T T T Li+
0.666667 0.000000 0.057292 T T T Li+
0.000000 0.500000 0.067708 T T T Li+
0.333333 0.000000 0.078125 T T T Li+
0.666667 0.000000 0.119792 F F F Li+
0.000000 0.500000 0.130208 F F F Li+
0.333333 0.000000 0.140625 F F F Li+
0.666667 0.000000 0.182292 F F F Li+
0.000000 0.500000 0.192708 F F F Li+
0.333333 0.000000 0.203125 F F F Li+
0.666667 0.000000 0.244792 F F F Li+
0.000000 0.500000 0.255208 F F F Li+
0.333333 0.000000 0.265625 F F F Li+
0.666667 0.000000 0.307292 F F F Li+
0.000000 0.500000 0.317708 F F F Li+
0.333333 0.000000 0.328125 F F F Li+
0.666667 0.000000 0.369792 T T T Li+
0.000000 0.500000 0.380208 T T T Li+
0.333333 0.000000 0.390625 T T T Li+
0.666667 0.000000 0.432292 T T T Li+
0.000000 0.000000 0.036458 T T T N3-
0.000000 0.000000 0.098958 F F F N3-
0.000000 0.000000 0.161458 F F F N3-
0.000000 0.000000 0.223958 F F F N3-
0.000000 0.000000 0.286458 F F F N3-
0.000000 0.000000 0.348958 T T T N3-
0.000000 0.000000 0.411458 T T T N3-
