Li61 P7 N32                             
   1.00000000000000     
    -0.0060333527001794    9.4758313663040479    0.0127446364818286
    -0.0139154983105922    0.0129384893747724    9.5565593993835094
     9.5640450705447115   -0.0054020341846727   -0.0139175850613202
   Li   P    N 
    61     7    32
Direct
  0.5053850463542595  0.9931945483651208  0.4991090115900335
  0.0157137769713907  0.4967522395255894  0.0095990372201683
  0.5026811425021991 -0.0019536544749702 -0.0011802586774695
  0.0097432456256004  0.9965368660603727  0.5014743490643121
  0.5012639019426733  0.4721292925301774  0.9878214555997177
  0.0134065341371652  0.4963069471866282  0.5052939659856253
  0.7578172308859983  0.0003143934235539  0.4989457303205013
  0.2568707116319617  0.9952916445114830  0.4974099769537726
  0.7752796880873974  0.4968859075751298  0.5037565276595430
  0.2471103594706297  0.4949340037537141  0.5010782381342527
  0.2706833915507034  0.9979308224860527 -0.0032472257125404
  0.7423831149853168  0.0005644484701776  0.0001463206494618
  0.8272010318647285  0.5936948001015089  0.0774989171561813
  0.5167654248294538  0.2324708768955402  0.9872175719805163
  0.5380472657072195  0.7730710370421607  0.0103653670574282
  0.0043345417271913  0.4856277460658455  0.2622911293934660
  0.0062737028279260  0.5085573185804168  0.7494890751924004
  0.2462617743634025  0.2069151274508603  0.2195845171220574
  0.2384854007833128  0.7805933687001239  0.7703168102419360
  0.2709162644413138  0.2769775102216054  0.7177112149900359
  0.2569976650612490  0.7096530346312725  0.2928703237261039
  0.7705705043715179  0.2958171729952646  0.3024657045975112
  0.7669782649520802  0.6959297078122121  0.6974703835136291
  0.7516179275759538  0.1958139692954236  0.7970835522169294
  0.7429280077346599  0.8007301993022488  0.1962093162359164
  0.9964609745770294  0.2449601257338667  0.2473326485028743
 -0.0060416441067648  0.7491605477613186  0.7560853802912264
  0.2718742356590831  0.2408128102784260  0.4743567427684303
  0.2748394970483007  0.7508723311872165  0.5278554288842606
  0.7509364509196425  0.2371849270060349  0.5417658954228465
  0.7571444694210492  0.7658518607292002  0.4529951000948245
  0.7529221482571925  0.5450078924829624  0.2833458658196660
  0.6763966666093799  0.5782586510110014  0.9108378172688800
  0.0212505191148139  0.2558346971733758  0.0172409622492385
  0.2497917273220446  0.5289063375714813  0.7415203185130110
  0.5275606294834548  0.7391128834660894  0.2760989756814426
  0.5219965580404629  0.2503912103898621  0.7468970754712131
  0.2468390289800797  0.9621058430227126  0.2515408471447880
  0.2447128098132233  0.0251010040163697  0.7428816360705920
  0.2712807288662784  0.2353338213719107  0.9665362096364721
  0.2520175189755899  0.7653320945088598  0.0158184244514207
  0.7629557407865499  0.9536846193965663  0.7302011421360179
  0.7663822612711851  0.0407242188421804  0.2635017920881148
  0.7850141568401879  0.7887385167219636  0.9353611982927755
  0.6821566398178180  0.4200555379122010  0.0933584477096776
  0.0208542209334863  0.2491346494549254  0.7659470067226484
  0.0136054787190925  0.7469775605749206  0.2390472893707373
  0.4963215355724367  0.2516901614016898  0.2459593166674380
  0.4916390820619021  0.7312716896138992  0.7614924413898911
  0.7721686598311864  0.2193481835160359  0.0475359059593351
  0.0165473071541604  0.7345428077955346  0.9867060996988086
  0.5109696028209625  0.2307523863068447  0.4964515208681555
  0.5138700556271241  0.7543041603022523  0.5178850578826186
  0.4114245584171420  0.6412687640309658  0.1160530120470844
  0.5002331550909263  0.4795634513602043  0.7574821047907211
  0.0070150790206588  0.9936830698050731  0.2632790463666119
  0.0050398977510105  0.0008212845137179  0.7403221546680344
  0.2468085042698355  0.4556831360886712  0.2612202366302639
  0.7491222541580921  0.4464050453605298  0.7229680038944579
  0.5094452663662568  0.4948792317439021  0.2544319050820654
  0.8365613383706133  0.4090469798658657  0.9248069034985478
  0.5071936058081346  0.4929320104580635  0.5040461006314753
  0.0110195948749846 -0.0044759465575953  0.0012195486040669
  0.2569881296289586  0.4918186729264304 -0.0007656637687924
  0.0122511407407097  0.7458505780310718  0.4999069553422995
  0.0115548996133015  0.2469965878633924  0.5050375491547974
  0.5075185620540319  0.9943292895368354  0.2487030381504010
  0.5058012819844928  0.9933967299585305  0.7497844028604748
  0.6099239022112328  0.5909811461921574  0.6097598265877927
  0.6134510586877052  0.3930442245973592  0.4020467625767783
  0.9055141694744291  0.8913494715558539  0.0988999774171586
  0.9076096173815296  0.1011497996495348  0.9038207297186744
  0.1140483932897236  0.8966503050351450  0.8948823647456338
  0.1161167581339195  0.0905534507405493  0.1072088411603897
  0.4052477842488195  0.6004401385577590  0.4039713893613363
  0.4017373988343477  0.3880170162296595  0.5984910209734665
  0.1118990986456503  0.3450268912397231  0.3960780252828102
  0.1137210385000293  0.6497477877271269  0.6102974222262085
  0.1210877999732323  0.1458589194991568  0.6037719797074931
  0.1203626527615068  0.8452337770459785  0.3990079843326256
  0.8987948585358676  0.1464142487495688  0.4084152900603811
  0.8984317109681348  0.8476686688427687  0.5940118488791359
  0.8769804972670946  0.3825951344626008  0.1337377064731196
  0.8747524289716625  0.6153376627396350  0.8721766633691320
  0.1675931687974677  0.5967879244941270  0.1146805980096863
  0.1574673611922672  0.3963855310232680  0.8891567846309234
  0.4101384591272457  0.8797273244527333  0.1504615791822429
  0.4052749404987383  0.1023315048266850  0.8484823029597239
  0.3957614424657093  0.0931909043758092  0.3471469635549729
  0.3966577926405019  0.8918160768909208  0.6513144100568570
  0.3575732468208470  0.3818407867939768  0.0995421983614954
  0.3599286808220373  0.6049012713492181  0.9053582949553559
  0.6168804481579424  0.0880994207406192  0.6478599551029103
  0.6222868699310481  0.9041172390276789  0.3519271103612455
  0.6285790400139526  0.6224913179109597  0.1248540196148294
  0.6428541268138535  0.3621789919226338  0.8840012589048706
  0.9126628395551351  0.3494574112157563  0.6119621937463517
  0.9135270923055394  0.6420201039490775  0.3945255528003481
  0.6045979951094890  0.1007096977000326  0.1452631135831113
  0.6077060789119292  0.8887651074190758  0.8525179740815150
 
  0.00000000E+00  0.00000000E+00  0.00000000E+00
  0.00000000E+00  0.00000000E+00  0.00000000E+00
  0.00000000E+00  0.00000000E+00  0.00000000E+00
  0.00000000E+00  0.00000000E+00  0.00000000E+00
  0.00000000E+00  0.00000000E+00  0.00000000E+00
  0.00000000E+00  0.00000000E+00  0.00000000E+00
  0.00000000E+00  0.00000000E+00  0.00000000E+00
  0.00000000E+00  0.00000000E+00  0.00000000E+00
  0.00000000E+00  0.00000000E+00  0.00000000E+00
  0.00000000E+00  0.00000000E+00  0.00000000E+00
  0.00000000E+00  0.00000000E+00  0.00000000E+00
  0.00000000E+00  0.00000000E+00  0.00000000E+00
  0.00000000E+00  0.00000000E+00  0.00000000E+00
  0.00000000E+00  0.00000000E+00  0.00000000E+00
  0.00000000E+00  0.00000000E+00  0.00000000E+00
  0.00000000E+00  0.00000000E+00  0.00000000E+00
  0.00000000E+00  0.00000000E+00  0.00000000E+00
  0.00000000E+00  0.00000000E+00  0.00000000E+00
  0.00000000E+00  0.00000000E+00  0.00000000E+00
  0.00000000E+00  0.00000000E+00  0.00000000E+00
  0.00000000E+00  0.00000000E+00  0.00000000E+00
  0.00000000E+00  0.00000000E+00  0.00000000E+00
  0.00000000E+00  0.00000000E+00  0.00000000E+00
  0.00000000E+00  0.00000000E+00  0.00000000E+00
  0.00000000E+00  0.00000000E+00  0.00000000E+00
  0.00000000E+00  0.00000000E+00  0.00000000E+00
  0.00000000E+00  0.00000000E+00  0.00000000E+00
  0.00000000E+00  0.00000000E+00  0.00000000E+00
  0.00000000E+00  0.00000000E+00  0.00000000E+00
  0.00000000E+00  0.00000000E+00  0.00000000E+00
  0.00000000E+00  0.00000000E+00  0.00000000E+00
  0.00000000E+00  0.00000000E+00  0.00000000E+00
  0.00000000E+00  0.00000000E+00  0.00000000E+00
  0.00000000E+00  0.00000000E+00  0.00000000E+00
  0.00000000E+00  0.00000000E+00  0.00000000E+00
  0.00000000E+00  0.00000000E+00  0.00000000E+00
  0.00000000E+00  0.00000000E+00  0.00000000E+00
  0.00000000E+00  0.00000000E+00  0.00000000E+00
  0.00000000E+00  0.00000000E+00  0.00000000E+00
  0.00000000E+00  0.00000000E+00  0.00000000E+00
  0.00000000E+00  0.00000000E+00  0.00000000E+00
  0.00000000E+00  0.00000000E+00  0.00000000E+00
  0.00000000E+00  0.00000000E+00  0.00000000E+00
  0.00000000E+00  0.00000000E+00  0.00000000E+00
  0.00000000E+00  0.00000000E+00  0.00000000E+00
  0.00000000E+00  0.00000000E+00  0.00000000E+00
  0.00000000E+00  0.00000000E+00  0.00000000E+00
  0.00000000E+00  0.00000000E+00  0.00000000E+00
  0.00000000E+00  0.00000000E+00  0.00000000E+00
  0.00000000E+00  0.00000000E+00  0.00000000E+00
  0.00000000E+00  0.00000000E+00  0.00000000E+00
  0.00000000E+00  0.00000000E+00  0.00000000E+00
  0.00000000E+00  0.00000000E+00  0.00000000E+00
  0.00000000E+00  0.00000000E+00  0.00000000E+00
  0.00000000E+00  0.00000000E+00  0.00000000E+00
  0.00000000E+00  0.00000000E+00  0.00000000E+00
  0.00000000E+00  0.00000000E+00  0.00000000E+00
  0.00000000E+00  0.00000000E+00  0.00000000E+00
  0.00000000E+00  0.00000000E+00  0.00000000E+00
  0.00000000E+00  0.00000000E+00  0.00000000E+00
  0.00000000E+00  0.00000000E+00  0.00000000E+00
  0.00000000E+00  0.00000000E+00  0.00000000E+00
  0.00000000E+00  0.00000000E+00  0.00000000E+00
  0.00000000E+00  0.00000000E+00  0.00000000E+00
  0.00000000E+00  0.00000000E+00  0.00000000E+00
  0.00000000E+00  0.00000000E+00  0.00000000E+00
  0.00000000E+00  0.00000000E+00  0.00000000E+00
  0.00000000E+00  0.00000000E+00  0.00000000E+00
  0.00000000E+00  0.00000000E+00  0.00000000E+00
  0.00000000E+00  0.00000000E+00  0.00000000E+00
  0.00000000E+00  0.00000000E+00  0.00000000E+00
  0.00000000E+00  0.00000000E+00  0.00000000E+00
  0.00000000E+00  0.00000000E+00  0.00000000E+00
  0.00000000E+00  0.00000000E+00  0.00000000E+00
  0.00000000E+00  0.00000000E+00  0.00000000E+00
  0.00000000E+00  0.00000000E+00  0.00000000E+00
  0.00000000E+00  0.00000000E+00  0.00000000E+00
  0.00000000E+00  0.00000000E+00  0.00000000E+00
  0.00000000E+00  0.00000000E+00  0.00000000E+00
  0.00000000E+00  0.00000000E+00  0.00000000E+00
  0.00000000E+00  0.00000000E+00  0.00000000E+00
  0.00000000E+00  0.00000000E+00  0.00000000E+00
  0.00000000E+00  0.00000000E+00  0.00000000E+00
  0.00000000E+00  0.00000000E+00  0.00000000E+00
  0.00000000E+00  0.00000000E+00  0.00000000E+00
  0.00000000E+00  0.00000000E+00  0.00000000E+00
  0.00000000E+00  0.00000000E+00  0.00000000E+00
  0.00000000E+00  0.00000000E+00  0.00000000E+00
  0.00000000E+00  0.00000000E+00  0.00000000E+00
  0.00000000E+00  0.00000000E+00  0.00000000E+00
  0.00000000E+00  0.00000000E+00  0.00000000E+00
  0.00000000E+00  0.00000000E+00  0.00000000E+00
  0.00000000E+00  0.00000000E+00  0.00000000E+00
  0.00000000E+00  0.00000000E+00  0.00000000E+00
  0.00000000E+00  0.00000000E+00  0.00000000E+00
  0.00000000E+00  0.00000000E+00  0.00000000E+00
  0.00000000E+00  0.00000000E+00  0.00000000E+00
  0.00000000E+00  0.00000000E+00  0.00000000E+00
  0.00000000E+00  0.00000000E+00  0.00000000E+00
  0.00000000E+00  0.00000000E+00  0.00000000E+00
