Li1
1.0
-1.860725 1.713409 1.713409
1.860725 -1.713409 1.713409
1.566093 1.713409 -1.713409
Li
1
direct
0.000000 0.000000 0.000000 Li
