Li7 P2 N1 O7                            
   1.00000000000000     
     4.8976154465980937    0.0001783496794155    0.0318909493863617
     0.0002193377757930    6.0838575146660361    0.0019859374422521
     0.0321900491983945    0.0018084202780062    5.5150917639214354
   Li   P    N    O 
     7     2     1     7
Direct
  0.0422091215980882  0.4998382223770674  0.1497526687911253
  0.5484111501223460  0.7062457317026866  0.3204427038023249
  0.5482293013312332  0.2936674348729857  0.3215929545491333
 -0.0005653918586663  0.7404975317565076  0.7025677428693454
 -0.0002189325197575  0.2594954710935509  0.7022887972669669
  0.5400642848120297  0.0029354202071106  0.9279036142660269
  0.4247336165528969 -0.0009099638974301  0.5263294792772836
  0.5148522961474876  0.4999144003541774  0.8297208689042951
  0.0209980501728660 -0.0000885270383300  0.2104018719565950
  0.6448968152337737  0.4995506319096982  0.0860215708493727
  0.1424412171427556  0.2036887989684885  0.3434715757296287
  0.1424107797399247  0.7959188187148493  0.3433696310338773
  0.1934487827888945  0.4999910413729209  0.8216742867638110
  0.7023882980528741 -0.0000713164694623  0.2399648011879457
  0.6014605065612381  0.7165890490739772  0.6729726995725842
  0.6010969973600545  0.2825631499721256  0.6737227597566957
  0.1012931067619867  0.0001741050290764  0.9353119734229888
 
  0.00000000E+00  0.00000000E+00  0.00000000E+00
  0.00000000E+00  0.00000000E+00  0.00000000E+00
  0.00000000E+00  0.00000000E+00  0.00000000E+00
  0.00000000E+00  0.00000000E+00  0.00000000E+00
  0.00000000E+00  0.00000000E+00  0.00000000E+00
  0.00000000E+00  0.00000000E+00  0.00000000E+00
  0.00000000E+00  0.00000000E+00  0.00000000E+00
  0.00000000E+00  0.00000000E+00  0.00000000E+00
  0.00000000E+00  0.00000000E+00  0.00000000E+00
  0.00000000E+00  0.00000000E+00  0.00000000E+00
  0.00000000E+00  0.00000000E+00  0.00000000E+00
  0.00000000E+00  0.00000000E+00  0.00000000E+00
  0.00000000E+00  0.00000000E+00  0.00000000E+00
  0.00000000E+00  0.00000000E+00  0.00000000E+00
  0.00000000E+00  0.00000000E+00  0.00000000E+00
  0.00000000E+00  0.00000000E+00  0.00000000E+00
  0.00000000E+00  0.00000000E+00  0.00000000E+00
