Li5 P2 N1 O6                            
   1.00000000000000     
     0.1781160660259573    0.1915106573694009    5.1385279949297287
     5.6990187703099826   -0.4886728415574798    0.2524545528973944
    -0.3859599658518108    5.5014087999872503    0.1717029168418688
   Li   P    N    O 
     5     2     1     6
Direct
  0.5113615895640231  0.3124978505824224  0.2798405034707397
 -0.1177952017358399  0.4802883057694716  0.0435535380340617
  0.5507322353639961  0.7907119734820683  0.3192814617445565
 -0.0917950994996398  0.6235527146963705  0.5685065882173054
  0.1973364819496799  0.1235415852302376  0.6797524171693550
  0.3489767303965695  0.6210973245641559  0.8240802389823817
  0.0712502756384885 -0.0182260644914000  0.1777096436066815
  0.1983668963470695 -0.1120124272532189  0.8952148739905983
  0.2988660501161640  0.0545290702217423  0.3420912142757056
  0.5356374768107595  0.6034441836787505  0.5871264239600172
 -0.0666294660169529  0.7797007714982334  0.2839262815449614
  0.5023239467598128  0.5458169908551146  0.0373089674214002
  0.1293662334055826  0.4500062122979739  0.7647036639114170
  0.8744288509003101  0.1993165088680765  0.1839791836708237
 
  0.00000000E+00  0.00000000E+00  0.00000000E+00
  0.00000000E+00  0.00000000E+00  0.00000000E+00
  0.00000000E+00  0.00000000E+00  0.00000000E+00
  0.00000000E+00  0.00000000E+00  0.00000000E+00
  0.00000000E+00  0.00000000E+00  0.00000000E+00
  0.00000000E+00  0.00000000E+00  0.00000000E+00
  0.00000000E+00  0.00000000E+00  0.00000000E+00
  0.00000000E+00  0.00000000E+00  0.00000000E+00
  0.00000000E+00  0.00000000E+00  0.00000000E+00
  0.00000000E+00  0.00000000E+00  0.00000000E+00
  0.00000000E+00  0.00000000E+00  0.00000000E+00
  0.00000000E+00  0.00000000E+00  0.00000000E+00
  0.00000000E+00  0.00000000E+00  0.00000000E+00
  0.00000000E+00  0.00000000E+00  0.00000000E+00
