Li7 P2 N1 O7                            
   1.00000000000000     
     4.8673618600060919    0.0042900877344423   -0.0282549619403127
     0.0051397202381512    5.4481650473385699    0.0756076358464308
    -0.0350028428871195    0.0887599588668946    6.3039986160694239
   Li   P    N    O 
     7     2     1     7
Direct
  0.0287457128273196  0.6244367081556987  0.2442741852482988
  0.0042781190469255  0.6799592827246812  0.7501337059018605
  0.5147043000473033  0.3305134073762771  0.7438501377950317
  0.5082858393909196  0.8379244802833704 -0.0014830398089879
  0.0265348798440118  0.1815049143208352  0.5342251824741279
  0.5105702638635859  0.3366187768370481  0.2534427714470662
  0.8629403767530709  0.9713326555778996  0.2875915808162723
  0.5015673363555021  0.8163468314794253  0.4930850331859039
  0.0037088763765917  0.1771333241275461 -0.0085635242140069
  0.6168038609868878  0.6899203506977954  0.2894122030605548
  0.1122280257464209  0.3226018269677112  0.7917389925475293
  0.6122897392390214  0.0994943766078918  0.5012301164279845
  0.1735913547649856  0.8341298638128455  0.4980624061577721
  0.6835556144833564  0.1828551295755479 -0.0029274214088245
  0.1074811129757573  0.2969297864437812  0.2022955032696068
  0.0992629183700010  0.9036061653303613  0.0004318551186117
  0.5934816689283708  0.6907721196812866  0.7123103119811993
 
  0.00000000E+00  0.00000000E+00  0.00000000E+00
  0.00000000E+00  0.00000000E+00  0.00000000E+00
  0.00000000E+00  0.00000000E+00  0.00000000E+00
  0.00000000E+00  0.00000000E+00  0.00000000E+00
  0.00000000E+00  0.00000000E+00  0.00000000E+00
  0.00000000E+00  0.00000000E+00  0.00000000E+00
  0.00000000E+00  0.00000000E+00  0.00000000E+00
  0.00000000E+00  0.00000000E+00  0.00000000E+00
  0.00000000E+00  0.00000000E+00  0.00000000E+00
  0.00000000E+00  0.00000000E+00  0.00000000E+00
  0.00000000E+00  0.00000000E+00  0.00000000E+00
  0.00000000E+00  0.00000000E+00  0.00000000E+00
  0.00000000E+00  0.00000000E+00  0.00000000E+00
  0.00000000E+00  0.00000000E+00  0.00000000E+00
  0.00000000E+00  0.00000000E+00  0.00000000E+00
  0.00000000E+00  0.00000000E+00  0.00000000E+00
  0.00000000E+00  0.00000000E+00  0.00000000E+00
