Li71 P24 N1 O94                         
   1.00000000000000     
    14.7267883374560817   -0.0078132958055264   -0.0077400466443205
    -0.0056072358879344   10.5585689541797620   -0.0080082809045684
    -0.0064608454685082   -0.0093304490158149   12.3276722931035803
   Li   P    N    O 
    71    24     1    94
Direct
  0.1745034177160097  0.4223539038502210 -0.0025342072864456
  0.1684733765242568  0.4211269756971555  0.4983333841911121
  0.1736569487622750  0.9180290264504910  0.0010773084753340
  0.1700390208876615  0.9220652076819698  0.4979291977581020
  0.5030272540783756  0.4223318743746123 -0.0003227280055695
  0.5029524401051234  0.4220416090292279  0.4998931618317647
  0.5030242875339784  0.9215963984397774 -0.0003190226185202
  0.5033778537900472  0.9227916175869949  0.5000412887956994
  0.8374036149570931  0.4253757577426150  0.0000457982136405
  0.8367333488790405  0.4230476635648813  0.5000785833698206
  0.8326668565925913  0.9193837600053073  0.0022097397954879
  0.8371493373204903  0.9249369135745513  0.4989152995139332
  0.0013267651656128  0.0724882346256429  0.7454976957625957
  0.0029853564050558  0.5807682281893660  0.2522077075027803
  0.0028098975445367  0.5777880415331788  0.7484384635058570
  0.3380644593852091  0.0742483169169649  0.2542940574687939
  0.3372454401326524  0.0769412718718202  0.7484808576609708
  0.3363788430199669  0.5783973748375214  0.2502365592296470
  0.3367636841801753  0.5780752731602392  0.7495724512132790
  0.6742533407681790  0.0747258115346956  0.2513446634346083
  0.6688242766041129  0.0776184662910335  0.7491910783458222
  0.6694353947852429  0.5794542172367811  0.2507754074407214
  0.6695766508867671  0.5777273713762472  0.7495149160517277
  0.1946687244404253  0.1616856785173722  0.1331482275759618
  0.1684778892860525  0.1621439231188724  0.6257841256723031
  0.1702001071749100  0.6638719276922439  0.1257587166759266
  0.1695266255531065  0.6624064191163429  0.6253356307894742
  0.5029808863610787  0.1627208748750700  0.1274048074187281
  0.5028429206985449  0.1633798948600624  0.6258192017500216
  0.5037620364607902  0.6624965498181419  0.1264394197121650
  0.5026160262924356  0.6631282573505979  0.6259905630388723
  0.8326690654328883  0.1631442623134015  0.1295533535850199
  0.8365600227393446  0.1641476778856044  0.6260757961757957
  0.8345860732226326  0.6657127853126782  0.1271292440633240
  0.8361956666798879  0.6644158324048380  0.6260383916555279
 -0.0053843768072250  0.3448172558857888  0.1287026990649073
  0.0036197645005672  0.3357861316571621  0.6234149059724877
 -0.0009107574593337  0.8423259428698215  0.1297958889822181
  0.0036242583916971  0.8376072592192034  0.6219515185652762
  0.3384401098487916  0.3390538656545052  0.1233868497033658
  0.3355755847468752  0.3366665154254563  0.6230719092947854
  0.3385989993272121  0.8359710336813917  0.1242665659855962
  0.3362413139966838  0.8362682829333575  0.6227755448748422
  0.6690451981884012  0.3375652915316083  0.1238686810533670
  0.6696159603376834  0.3363649064547972  0.6239209739829356
  0.6673578899069779  0.8350380248794380  0.1228553583678418
  0.6694511917593032  0.8366230025001369  0.6233519857683247
  0.0025825571690061  0.3352903183258117  0.3762480053422146
  0.0020197580840989  0.3312295773934983  0.8721129016609677
  0.0016369692491081  0.8463590662267413  0.3737965934176995
  0.0012135422624919  0.8341230385765385  0.8722912563138208
  0.3359086495642516  0.3359074138018888  0.3763064310844714
  0.3375310585151388  0.3371492472113037  0.8752025971979451
  0.3377266461457945  0.8358872485995558  0.3767991195930726
  0.3370438606878527  0.8356329658238661  0.8754544261306249
  0.6697997728331032  0.3362122665345527  0.3769088602212093
  0.6687975359296675  0.3373019337514788  0.8760718401994788
  0.6685486490394836  0.8348009462958367  0.3780678935146484
  0.6684532912494915  0.8367234119673027  0.8758327452112091
  0.1656120723233560  0.1598056214040355  0.3727344859759503
  0.1731146021429043  0.1624292241447292  0.8704516414745435
  0.1691213893754917  0.6642562841443691  0.3735036748352365
  0.1694051944873198  0.6620912964472053  0.8737151277562548
  0.5041299910865781  0.1628715779345503  0.3739412964771363
  0.5028249576557839  0.1635004966948178  0.8727985118735608
  0.5029206341466009  0.6627257635444310  0.3741129050806482
  0.5036681904857295  0.6630697551528514  0.8732685245535481
  0.8403053157098794  0.1620241229971961  0.3727852461328900
  0.8324406439232365  0.1662923063514193  0.8719905569601426
  0.8362513920535077  0.6657163982004199  0.3737611203618116
  0.8345749744253960  0.6653228054629545  0.8725941963631109
  0.1670623591854928  0.4113813163874278  0.2487790599903087
  0.1674818358058469  0.4119991520176222  0.7495448664880628
  0.1690857265057849  0.9082533447614810  0.2496245253623428
  0.1679061447406404  0.9106946378386068  0.7497348864030025
  0.5003659392791761  0.4124261816074249  0.2502946202836011
  0.5004077026473499  0.4123999586321354  0.7494576662093398
  0.5011621986040717  0.9118167564375349  0.2502890561470311
  0.5002902100361487  0.9120387108545511  0.7496085258732708
  0.8324209139500818  0.4132790679560727  0.2510172635531719
  0.8338498923772414  0.4131801851610888  0.7498908191662974
  0.8288705981592464  0.9131541048409096  0.2499657789905378
  0.8328474244981586  0.9132694959863802  0.7506906895759788
  0.0002391680175605  0.0840773482637498 -0.0075258573036592
  0.0017143992684189  0.0909667571924550  0.5040714645950708
 -0.0010752400752698  0.5918996586845832 -0.0005669180055901
  0.0000685252586786  0.5891731913252433  0.5000129818418459
  0.3338721314433092  0.0868336357001019 -0.0009429976470554
  0.3341923158841002  0.0877419551095493  0.5003032220962325
  0.3349861492066426  0.5883079388951543 -0.0003075368116894
  0.3337017423097099  0.5868370455848817  0.4996890601650135
  0.6652958376587963  0.0882074469486113 -0.0004272741565404
  0.6673921186381410  0.0879496637244029  0.5007113720990845
  0.6669109033144709  0.5874262555924838 -0.0005641147060944
  0.6671177092456958  0.5870825602840192  0.5007046827541227
  0.0376328839635444  0.4472762654441007  0.0034318278398533
  0.0398028248795733  0.1678359368101876  0.4087695183311656
  0.0370021249242104  0.1541062348555245  0.8906884848295005
  0.0351647910652455  0.6589079460852003  0.3966934119195643
  0.0339665945682888  0.6595588958894633  0.8946777801782217
  0.3700870963546892  0.1568244724505397  0.3967896736712476
  0.3691441952701174  0.1570424409893996  0.8962309312332315
  0.3695763665687103  0.6557268156093222  0.3962338574450205
  0.3705129003839268  0.6569229742184279  0.8959508490997444
  0.7026797803533767  0.1574638297465780  0.3976134345425378
  0.7007283509841251  0.1569807409602125  0.8956057301359633
  0.7025035922342601  0.6558510405711694  0.3970842074203061
  0.7016238131123957  0.6571661370313475  0.8956877254038339
  0.2027822943307169  0.0491546388150936  0.2503486322340384
  0.2020931065837673  0.0505578372866089  0.7494739504779988
  0.2003615353715214  0.5514914162221588  0.2485474636399703
  0.2011245732002301  0.5520688551683157  0.7499756582919208
  0.5352416558132909  0.0517662314298269  0.2501769494466072
  0.5337022526789673  0.0523222391841257  0.7497089159911370
  0.5343277783126822  0.5523861812075387  0.2502490300219153
  0.5343423536324453  0.5523910158235622  0.7496099559390290
  0.8523404742986840  0.0551545121322837  0.2487853119325963
  0.8661445912182543  0.0536651726036329  0.7519230318832104
  0.8672135059181429  0.5529267266399550  0.2491120310645491
  0.8673429228166434  0.5533262996012992  0.7504081651919050
  0.0610190621731528  0.4086648586004726  0.2476262553545638
  0.0615249130345910  0.4097307731588422  0.7515746339186730
  0.0651624739361010  0.8989467921730677  0.2489207028826872
  0.0619837917845376  0.9078808997094496  0.7505754077191311
  0.3945331574735370  0.4098832581669259  0.2504953080275895
  0.3946401421305344  0.4097610846458469  0.7491287845565801
  0.3954207302205376  0.9093914151772033  0.2505293859974502
  0.3945390768281877  0.9088651478139688  0.7495082709977747
  0.7267952523094948  0.4109999342824349  0.2506062715268804
  0.7281562258230655  0.4094337942913463  0.7504825641769065
  0.7231480680246113  0.8991340005683250  0.2501932736985927
  0.7272200024903285  0.9092367995672122  0.7502029060636863
  0.2276906640554637  0.0885915198680257 -0.0018425872405717
  0.2286100946172753  0.0902740478022084  0.4999321676184311
  0.2293765838460239  0.5921029429278049 -0.0004227837804885
  0.2279421830766024  0.5892919940257978  0.4991707844208345
  0.5595877509893133  0.0906111007036640 -0.0005679285066966
  0.5615059156672199  0.0904530706180216  0.5005465669668764
  0.5611435636691011  0.5895937544746985 -0.0005543754782425
  0.5613051362176406  0.5900913401490706  0.5004391975817314
  0.8953356067059147  0.0931937065285991  0.0004646207858674
  0.8955955388129573  0.0916399634599489  0.5017487762969257
  0.8929291333403848  0.5973254551093472 -0.0010995974657394
  0.8942338430677256  0.5919545366103992  0.5001874121840035
  0.2027381632418584  0.3413020978874823  0.1451343481212787
  0.2011492093049415  0.3432817690461582  0.6449145785676367
  0.2071149931319311  0.8415069417951824  0.1451869725898015
  0.2025486329148226  0.8416229959468641  0.6458180683609653
  0.5347949321823419  0.3432222463837769  0.1459583092206096
  0.5358830092710459  0.3429436200245565  0.6460180254363008
  0.5350470027157543  0.8425015226336253  0.1458377673498412
  0.5357461123646540  0.8428146795351362  0.6460251484450988
  0.8667356025057513  0.3424844125687398  0.1469331899943483
  0.8693244391351304  0.3442455736022343  0.6463573318635454
  0.8665261471603277  0.8454648501026419  0.1458451497914965
  0.8692028413529459  0.8444741315484929  0.6474773369966393
  0.0339258606889943  0.1543496204160713  0.6129977688806193
  0.0348847414209928  0.6588454379230417  0.1040788615704768
  0.0354212464704651  0.6576635673996997  0.6044125830233067
  0.3659493268018271  0.1565854710168261  0.1045288981794069
  0.3693022385608821  0.1572882860042585  0.6042792179890554
  0.3708623405737427  0.6561385671544226  0.1037722967482708
  0.3687896843539472  0.6563501163258660  0.6036373520096749
  0.7004853214856729  0.1579245589006799  0.1028828234700107
  0.7023503042881643  0.1566934237861675  0.6051727437222418
  0.7017706639613258  0.6565771069612627  0.1033300596430282
  0.7023641693475913  0.6567170599640886  0.6045217327991009
  0.0336835203730338  0.4491086732743959  0.4999183959306067
  0.0351739219045659  0.9459764238209435  0.0000930058654184
  0.0354055826279412  0.9504128042641868  0.5011756424898947
  0.3675821417391179  0.4475220292901246 -0.0006970190231173
  0.3675117943519723  0.4468171282250755  0.4999527949972474
  0.3681359928198704  0.9474783578902833 -0.0006378736771201
  0.3684252107091585  0.9478901072167276  0.5005041145054444
  0.7011780523901393  0.4476386847304166 -0.0007340008056876
  0.7006829066867892  0.4470359606586290  0.5010664261772063
  0.6992374484057334  0.9481866441350595 -0.0003639157575682
  0.7009492634311052  0.9477853347792596  0.5007199064938105
  0.2021618819216473  0.3423691283376235  0.3521726730933547
  0.2041792665297867  0.3417019090546569  0.8520109975742324
  0.2066014321996913  0.8412029335005599  0.3537734957537803
  0.2031811284017409  0.8416293677099753  0.8536112176674616
  0.5357896189054981  0.3430801521519139  0.3537279038528064
  0.5352294507967368  0.3433590546310691  0.8535531770136674
  0.5356805460733177  0.8422830968683206  0.3541183731762237
  0.5354751691939341  0.8432369767865183  0.8535770486518484
  0.8682489726060503  0.3450627125021961  0.3544319967283490
  0.8695292400693062  0.3438647913062459  0.8538180315983144
  0.8674785364804807  0.8458769491030121  0.3531758408167201
  0.8682802674063244  0.8452573073239996  0.8551658335596969
 
  0.00000000E+00  0.00000000E+00  0.00000000E+00
  0.00000000E+00  0.00000000E+00  0.00000000E+00
  0.00000000E+00  0.00000000E+00  0.00000000E+00
  0.00000000E+00  0.00000000E+00  0.00000000E+00
  0.00000000E+00  0.00000000E+00  0.00000000E+00
  0.00000000E+00  0.00000000E+00  0.00000000E+00
  0.00000000E+00  0.00000000E+00  0.00000000E+00
  0.00000000E+00  0.00000000E+00  0.00000000E+00
  0.00000000E+00  0.00000000E+00  0.00000000E+00
  0.00000000E+00  0.00000000E+00  0.00000000E+00
  0.00000000E+00  0.00000000E+00  0.00000000E+00
  0.00000000E+00  0.00000000E+00  0.00000000E+00
  0.00000000E+00  0.00000000E+00  0.00000000E+00
  0.00000000E+00  0.00000000E+00  0.00000000E+00
  0.00000000E+00  0.00000000E+00  0.00000000E+00
  0.00000000E+00  0.00000000E+00  0.00000000E+00
  0.00000000E+00  0.00000000E+00  0.00000000E+00
  0.00000000E+00  0.00000000E+00  0.00000000E+00
  0.00000000E+00  0.00000000E+00  0.00000000E+00
  0.00000000E+00  0.00000000E+00  0.00000000E+00
  0.00000000E+00  0.00000000E+00  0.00000000E+00
  0.00000000E+00  0.00000000E+00  0.00000000E+00
  0.00000000E+00  0.00000000E+00  0.00000000E+00
  0.00000000E+00  0.00000000E+00  0.00000000E+00
  0.00000000E+00  0.00000000E+00  0.00000000E+00
  0.00000000E+00  0.00000000E+00  0.00000000E+00
  0.00000000E+00  0.00000000E+00  0.00000000E+00
  0.00000000E+00  0.00000000E+00  0.00000000E+00
  0.00000000E+00  0.00000000E+00  0.00000000E+00
  0.00000000E+00  0.00000000E+00  0.00000000E+00
  0.00000000E+00  0.00000000E+00  0.00000000E+00
  0.00000000E+00  0.00000000E+00  0.00000000E+00
  0.00000000E+00  0.00000000E+00  0.00000000E+00
  0.00000000E+00  0.00000000E+00  0.00000000E+00
  0.00000000E+00  0.00000000E+00  0.00000000E+00
  0.00000000E+00  0.00000000E+00  0.00000000E+00
  0.00000000E+00  0.00000000E+00  0.00000000E+00
  0.00000000E+00  0.00000000E+00  0.00000000E+00
  0.00000000E+00  0.00000000E+00  0.00000000E+00
  0.00000000E+00  0.00000000E+00  0.00000000E+00
  0.00000000E+00  0.00000000E+00  0.00000000E+00
  0.00000000E+00  0.00000000E+00  0.00000000E+00
  0.00000000E+00  0.00000000E+00  0.00000000E+00
  0.00000000E+00  0.00000000E+00  0.00000000E+00
  0.00000000E+00  0.00000000E+00  0.00000000E+00
  0.00000000E+00  0.00000000E+00  0.00000000E+00
  0.00000000E+00  0.00000000E+00  0.00000000E+00
  0.00000000E+00  0.00000000E+00  0.00000000E+00
  0.00000000E+00  0.00000000E+00  0.00000000E+00
  0.00000000E+00  0.00000000E+00  0.00000000E+00
  0.00000000E+00  0.00000000E+00  0.00000000E+00
  0.00000000E+00  0.00000000E+00  0.00000000E+00
  0.00000000E+00  0.00000000E+00  0.00000000E+00
  0.00000000E+00  0.00000000E+00  0.00000000E+00
  0.00000000E+00  0.00000000E+00  0.00000000E+00
  0.00000000E+00  0.00000000E+00  0.00000000E+00
  0.00000000E+00  0.00000000E+00  0.00000000E+00
  0.00000000E+00  0.00000000E+00  0.00000000E+00
  0.00000000E+00  0.00000000E+00  0.00000000E+00
  0.00000000E+00  0.00000000E+00  0.00000000E+00
  0.00000000E+00  0.00000000E+00  0.00000000E+00
  0.00000000E+00  0.00000000E+00  0.00000000E+00
  0.00000000E+00  0.00000000E+00  0.00000000E+00
  0.00000000E+00  0.00000000E+00  0.00000000E+00
  0.00000000E+00  0.00000000E+00  0.00000000E+00
  0.00000000E+00  0.00000000E+00  0.00000000E+00
  0.00000000E+00  0.00000000E+00  0.00000000E+00
  0.00000000E+00  0.00000000E+00  0.00000000E+00
  0.00000000E+00  0.00000000E+00  0.00000000E+00
  0.00000000E+00  0.00000000E+00  0.00000000E+00
  0.00000000E+00  0.00000000E+00  0.00000000E+00
  0.00000000E+00  0.00000000E+00  0.00000000E+00
  0.00000000E+00  0.00000000E+00  0.00000000E+00
  0.00000000E+00  0.00000000E+00  0.00000000E+00
  0.00000000E+00  0.00000000E+00  0.00000000E+00
  0.00000000E+00  0.00000000E+00  0.00000000E+00
  0.00000000E+00  0.00000000E+00  0.00000000E+00
  0.00000000E+00  0.00000000E+00  0.00000000E+00
  0.00000000E+00  0.00000000E+00  0.00000000E+00
  0.00000000E+00  0.00000000E+00  0.00000000E+00
  0.00000000E+00  0.00000000E+00  0.00000000E+00
  0.00000000E+00  0.00000000E+00  0.00000000E+00
  0.00000000E+00  0.00000000E+00  0.00000000E+00
  0.00000000E+00  0.00000000E+00  0.00000000E+00
  0.00000000E+00  0.00000000E+00  0.00000000E+00
  0.00000000E+00  0.00000000E+00  0.00000000E+00
  0.00000000E+00  0.00000000E+00  0.00000000E+00
  0.00000000E+00  0.00000000E+00  0.00000000E+00
  0.00000000E+00  0.00000000E+00  0.00000000E+00
  0.00000000E+00  0.00000000E+00  0.00000000E+00
  0.00000000E+00  0.00000000E+00  0.00000000E+00
  0.00000000E+00  0.00000000E+00  0.00000000E+00
  0.00000000E+00  0.00000000E+00  0.00000000E+00
  0.00000000E+00  0.00000000E+00  0.00000000E+00
  0.00000000E+00  0.00000000E+00  0.00000000E+00
  0.00000000E+00  0.00000000E+00  0.00000000E+00
  0.00000000E+00  0.00000000E+00  0.00000000E+00
  0.00000000E+00  0.00000000E+00  0.00000000E+00
  0.00000000E+00  0.00000000E+00  0.00000000E+00
  0.00000000E+00  0.00000000E+00  0.00000000E+00
  0.00000000E+00  0.00000000E+00  0.00000000E+00
  0.00000000E+00  0.00000000E+00  0.00000000E+00
  0.00000000E+00  0.00000000E+00  0.00000000E+00
  0.00000000E+00  0.00000000E+00  0.00000000E+00
  0.00000000E+00  0.00000000E+00  0.00000000E+00
  0.00000000E+00  0.00000000E+00  0.00000000E+00
  0.00000000E+00  0.00000000E+00  0.00000000E+00
  0.00000000E+00  0.00000000E+00  0.00000000E+00
  0.00000000E+00  0.00000000E+00  0.00000000E+00
  0.00000000E+00  0.00000000E+00  0.00000000E+00
  0.00000000E+00  0.00000000E+00  0.00000000E+00
  0.00000000E+00  0.00000000E+00  0.00000000E+00
  0.00000000E+00  0.00000000E+00  0.00000000E+00
  0.00000000E+00  0.00000000E+00  0.00000000E+00
  0.00000000E+00  0.00000000E+00  0.00000000E+00
  0.00000000E+00  0.00000000E+00  0.00000000E+00
  0.00000000E+00  0.00000000E+00  0.00000000E+00
  0.00000000E+00  0.00000000E+00  0.00000000E+00
  0.00000000E+00  0.00000000E+00  0.00000000E+00
  0.00000000E+00  0.00000000E+00  0.00000000E+00
  0.00000000E+00  0.00000000E+00  0.00000000E+00
  0.00000000E+00  0.00000000E+00  0.00000000E+00
  0.00000000E+00  0.00000000E+00  0.00000000E+00
  0.00000000E+00  0.00000000E+00  0.00000000E+00
  0.00000000E+00  0.00000000E+00  0.00000000E+00
  0.00000000E+00  0.00000000E+00  0.00000000E+00
  0.00000000E+00  0.00000000E+00  0.00000000E+00
  0.00000000E+00  0.00000000E+00  0.00000000E+00
  0.00000000E+00  0.00000000E+00  0.00000000E+00
  0.00000000E+00  0.00000000E+00  0.00000000E+00
  0.00000000E+00  0.00000000E+00  0.00000000E+00
  0.00000000E+00  0.00000000E+00  0.00000000E+00
  0.00000000E+00  0.00000000E+00  0.00000000E+00
  0.00000000E+00  0.00000000E+00  0.00000000E+00
  0.00000000E+00  0.00000000E+00  0.00000000E+00
  0.00000000E+00  0.00000000E+00  0.00000000E+00
  0.00000000E+00  0.00000000E+00  0.00000000E+00
  0.00000000E+00  0.00000000E+00  0.00000000E+00
  0.00000000E+00  0.00000000E+00  0.00000000E+00
  0.00000000E+00  0.00000000E+00  0.00000000E+00
  0.00000000E+00  0.00000000E+00  0.00000000E+00
  0.00000000E+00  0.00000000E+00  0.00000000E+00
  0.00000000E+00  0.00000000E+00  0.00000000E+00
  0.00000000E+00  0.00000000E+00  0.00000000E+00
  0.00000000E+00  0.00000000E+00  0.00000000E+00
  0.00000000E+00  0.00000000E+00  0.00000000E+00
  0.00000000E+00  0.00000000E+00  0.00000000E+00
  0.00000000E+00  0.00000000E+00  0.00000000E+00
  0.00000000E+00  0.00000000E+00  0.00000000E+00
  0.00000000E+00  0.00000000E+00  0.00000000E+00
  0.00000000E+00  0.00000000E+00  0.00000000E+00
  0.00000000E+00  0.00000000E+00  0.00000000E+00
  0.00000000E+00  0.00000000E+00  0.00000000E+00
  0.00000000E+00  0.00000000E+00  0.00000000E+00
  0.00000000E+00  0.00000000E+00  0.00000000E+00
  0.00000000E+00  0.00000000E+00  0.00000000E+00
  0.00000000E+00  0.00000000E+00  0.00000000E+00
  0.00000000E+00  0.00000000E+00  0.00000000E+00
  0.00000000E+00  0.00000000E+00  0.00000000E+00
  0.00000000E+00  0.00000000E+00  0.00000000E+00
  0.00000000E+00  0.00000000E+00  0.00000000E+00
  0.00000000E+00  0.00000000E+00  0.00000000E+00
  0.00000000E+00  0.00000000E+00  0.00000000E+00
  0.00000000E+00  0.00000000E+00  0.00000000E+00
  0.00000000E+00  0.00000000E+00  0.00000000E+00
  0.00000000E+00  0.00000000E+00  0.00000000E+00
  0.00000000E+00  0.00000000E+00  0.00000000E+00
  0.00000000E+00  0.00000000E+00  0.00000000E+00
  0.00000000E+00  0.00000000E+00  0.00000000E+00
  0.00000000E+00  0.00000000E+00  0.00000000E+00
  0.00000000E+00  0.00000000E+00  0.00000000E+00
  0.00000000E+00  0.00000000E+00  0.00000000E+00
  0.00000000E+00  0.00000000E+00  0.00000000E+00
  0.00000000E+00  0.00000000E+00  0.00000000E+00
  0.00000000E+00  0.00000000E+00  0.00000000E+00
  0.00000000E+00  0.00000000E+00  0.00000000E+00
  0.00000000E+00  0.00000000E+00  0.00000000E+00
  0.00000000E+00  0.00000000E+00  0.00000000E+00
  0.00000000E+00  0.00000000E+00  0.00000000E+00
  0.00000000E+00  0.00000000E+00  0.00000000E+00
  0.00000000E+00  0.00000000E+00  0.00000000E+00
  0.00000000E+00  0.00000000E+00  0.00000000E+00
  0.00000000E+00  0.00000000E+00  0.00000000E+00
  0.00000000E+00  0.00000000E+00  0.00000000E+00
  0.00000000E+00  0.00000000E+00  0.00000000E+00
  0.00000000E+00  0.00000000E+00  0.00000000E+00
  0.00000000E+00  0.00000000E+00  0.00000000E+00
  0.00000000E+00  0.00000000E+00  0.00000000E+00
  0.00000000E+00  0.00000000E+00  0.00000000E+00
  0.00000000E+00  0.00000000E+00  0.00000000E+00
