Li392 P56 N224
1.0
9.402378 0.000000 -9.402378
-0.000000 9.402378 -9.402378
0.000000 0.000000 103.426158
Li P N
392 56 224
direct
0.500000 0.500000 0.049872 Li+
0.000000 0.000000 0.004417 Li+
0.000000 0.500000 0.004417 Li+
0.500000 0.000000 0.004417 Li+
0.000000 0.500000 0.049872 Li+
0.500000 0.000000 0.049872 Li+
0.000000 0.500000 0.027145 Li+
0.500000 0.750000 0.072599 Li+
0.500000 0.250000 0.027145 Li+
0.250000 0.000000 0.027145 Li+
0.750000 0.000000 0.072599 Li+
0.000000 0.500000 0.072599 Li+
0.225374 0.225374 0.020429 Li+
0.725374 0.274626 0.074838 Li+
0.274626 0.725374 0.074838 Li+
0.274626 0.274626 0.074838 Li+
0.774626 0.225374 0.029383 Li+
0.774626 0.774626 0.029383 Li+
0.225374 0.774626 0.029383 Li+
0.725374 0.725374 0.065883 Li+
0.237083 0.975164 0.001289 Li+
0.475164 0.262917 0.048485 Li+
0.524836 0.737083 0.005198 Li+
0.262917 0.753336 0.008153 Li+
0.262917 0.246664 0.048485 Li+
0.246664 0.524836 0.005198 Li+
0.753336 0.524836 0.008153 Li+
0.253336 0.237083 0.001289 Li+
0.975164 0.253336 0.001289 Li+
0.024836 0.253336 0.053607 Li+
0.746664 0.762917 0.003031 Li+
0.975164 0.746664 0.003031 Li+
0.746664 0.237083 0.050652 Li+
0.253336 0.762917 0.053607 Li+
0.024836 0.746664 0.050652 Li+
0.762917 0.024836 0.053607 Li+
0.237083 0.024836 0.050652 Li+
0.762917 0.975164 0.003031 Li+
0.246664 0.475164 0.048485 Li+
0.753336 0.475164 0.046743 Li+
0.737083 0.246664 0.005198 Li+
0.737083 0.753336 0.046743 Li+
0.524836 0.262917 0.008153 Li+
0.475164 0.737083 0.046743 Li+
0.000000 0.000000 0.073907 Li+
0.500000 0.500000 0.071291 Li+
0.500000 0.764387 0.028453 Li+
0.500000 0.235613 0.071291 Li+
0.235613 0.500000 0.071291 Li+
0.764387 0.500000 0.028453 Li+
0.264387 0.000000 0.073907 Li+
0.000000 0.264387 0.073907 Li+
0.735613 0.000000 0.025837 Li+
0.000000 0.735613 0.025837 Li+
0.000000 0.000000 0.025837 Li+
0.500000 0.500000 0.028453 Li+
0.500000 0.500000 0.140781 Li+
0.000000 0.000000 0.095327 Li+
0.000000 0.500000 0.095327 Li+
0.500000 0.000000 0.095327 Li+
0.000000 0.500000 0.140781 Li+
0.500000 0.000000 0.140781 Li+
0.000000 0.500000 0.118054 Li+
0.500000 0.750000 0.163508 Li+
0.500000 0.250000 0.118054 Li+
0.250000 0.000000 0.118054 Li+
0.750000 0.000000 0.163508 Li+
0.000000 0.500000 0.163508 Li+
0.225374 0.225374 0.111338 Li+
0.725374 0.274626 0.165747 Li+
0.274626 0.725374 0.165747 Li+
0.274626 0.274626 0.165747 Li+
0.774626 0.225374 0.120293 Li+
0.774626 0.774626 0.120293 Li+
0.225374 0.774626 0.120293 Li+
0.725374 0.725374 0.156792 Li+
0.237083 0.975164 0.092198 Li+
0.475164 0.262917 0.139394 Li+
0.524836 0.737083 0.096107 Li+
0.262917 0.753336 0.099062 Li+
0.262917 0.246664 0.139394 Li+
0.246664 0.524836 0.096107 Li+
0.753336 0.524836 0.099062 Li+
0.253336 0.237083 0.092198 Li+
0.975164 0.253336 0.092198 Li+
0.024836 0.253336 0.144516 Li+
0.746664 0.762917 0.093940 Li+
0.975164 0.746664 0.093940 Li+
0.746664 0.237083 0.141561 Li+
0.253336 0.762917 0.144516 Li+
0.024836 0.746664 0.141561 Li+
0.762917 0.024836 0.144516 Li+
0.237083 0.024836 0.141561 Li+
0.762917 0.975164 0.093940 Li+
0.246664 0.475164 0.139394 Li+
0.753336 0.475164 0.137652 Li+
0.737083 0.246664 0.096107 Li+
0.737083 0.753336 0.137652 Li+
0.524836 0.262917 0.099062 Li+
0.475164 0.737083 0.137652 Li+
0.000000 0.000000 0.164816 Li+
0.500000 0.500000 0.162200 Li+
0.500000 0.764387 0.119362 Li+
0.500000 0.235613 0.162200 Li+
0.235613 0.500000 0.162200 Li+
0.764387 0.500000 0.119362 Li+
0.264387 0.000000 0.164816 Li+
0.000000 0.264387 0.164816 Li+
0.735613 0.000000 0.116746 Li+
0.000000 0.735613 0.116746 Li+
0.000000 0.000000 0.116746 Li+
0.500000 0.500000 0.119362 Li+
0.500000 0.500000 0.231690 Li+
0.000000 0.000000 0.186236 Li+
0.000000 0.500000 0.186236 Li+
0.500000 0.000000 0.186236 Li+
0.000000 0.500000 0.231690 Li+
0.500000 0.000000 0.231690 Li+
0.000000 0.500000 0.208963 Li+
0.500000 0.750000 0.254417 Li+
0.500000 0.250000 0.208963 Li+
0.250000 0.000000 0.208963 Li+
0.750000 0.000000 0.254417 Li+
0.000000 0.500000 0.254417 Li+
0.225374 0.225374 0.202247 Li+
0.725374 0.274626 0.256656 Li+
0.274626 0.725374 0.256656 Li+
0.274626 0.274626 0.256656 Li+
0.774626 0.225374 0.211202 Li+
0.774626 0.774626 0.211202 Li+
0.225374 0.774626 0.211202 Li+
0.725374 0.725374 0.247701 Li+
0.237083 0.975164 0.183107 Li+
0.475164 0.262917 0.230303 Li+
0.524836 0.737083 0.187016 Li+
0.262917 0.753336 0.189971 Li+
0.262917 0.246664 0.230303 Li+
0.246664 0.524836 0.187016 Li+
0.753336 0.524836 0.189971 Li+
0.253336 0.237083 0.183107 Li+
0.975164 0.253336 0.183107 Li+
0.024836 0.253336 0.235426 Li+
0.746664 0.762917 0.184849 Li+
0.975164 0.746664 0.184849 Li+
0.746664 0.237083 0.232470 Li+
0.253336 0.762917 0.235426 Li+
0.024836 0.746664 0.232470 Li+
0.762917 0.024836 0.235426 Li+
0.237083 0.024836 0.232470 Li+
0.762917 0.975164 0.184849 Li+
0.246664 0.475164 0.230303 Li+
0.753336 0.475164 0.228561 Li+
0.737083 0.246664 0.187016 Li+
0.737083 0.753336 0.228561 Li+
0.524836 0.262917 0.189971 Li+
0.475164 0.737083 0.228561 Li+
0.000000 0.000000 0.255725 Li+
0.500000 0.500000 0.253110 Li+
0.500000 0.764387 0.210271 Li+
0.500000 0.235613 0.253110 Li+
0.235613 0.500000 0.253110 Li+
0.764387 0.500000 0.210271 Li+
0.264387 0.000000 0.255725 Li+
0.000000 0.264387 0.255725 Li+
0.735613 0.000000 0.207655 Li+
0.000000 0.735613 0.207655 Li+
0.000000 0.000000 0.207655 Li+
0.500000 0.500000 0.210271 Li+
0.500000 0.500000 0.322599 Li+
0.000000 0.000000 0.277145 Li+
0.000000 0.500000 0.277145 Li+
0.500000 0.000000 0.277145 Li+
0.000000 0.500000 0.322599 Li+
0.500000 0.000000 0.322599 Li+
0.000000 0.500000 0.299872 Li+
0.500000 0.750000 0.345327 Li+
0.500000 0.250000 0.299872 Li+
0.250000 0.000000 0.299872 Li+
0.750000 0.000000 0.345327 Li+
0.000000 0.500000 0.345327 Li+
0.225374 0.225374 0.293156 Li+
0.725374 0.274626 0.347565 Li+
0.274626 0.725374 0.347565 Li+
0.274626 0.274626 0.347565 Li+
0.774626 0.225374 0.302111 Li+
0.774626 0.774626 0.302111 Li+
0.225374 0.774626 0.302111 Li+
0.725374 0.725374 0.338610 Li+
0.237083 0.975164 0.274016 Li+
0.475164 0.262917 0.321212 Li+
0.524836 0.737083 0.277925 Li+
0.262917 0.753336 0.280880 Li+
0.262917 0.246664 0.321212 Li+
0.246664 0.524836 0.277925 Li+
0.753336 0.524836 0.280880 Li+
0.253336 0.237083 0.274016 Li+
0.975164 0.253336 0.274016 Li+
0.024836 0.253336 0.326335 Li+
0.746664 0.762917 0.275758 Li+
0.975164 0.746664 0.275758 Li+
0.746664 0.237083 0.323380 Li+
0.253336 0.762917 0.326335 Li+
0.024836 0.746664 0.323380 Li+
0.762917 0.024836 0.326335 Li+
0.237083 0.024836 0.323380 Li+
0.762917 0.975164 0.275758 Li+
0.246664 0.475164 0.321212 Li+
0.753336 0.475164 0.319470 Li+
0.737083 0.246664 0.277925 Li+
0.737083 0.753336 0.319470 Li+
0.524836 0.262917 0.280880 Li+
0.475164 0.737083 0.319470 Li+
0.000000 0.000000 0.346634 Li+
0.500000 0.500000 0.344019 Li+
0.500000 0.764387 0.301180 Li+
0.500000 0.235613 0.344019 Li+
0.235613 0.500000 0.344019 Li+
0.764387 0.500000 0.301180 Li+
0.264387 0.000000 0.346634 Li+
0.000000 0.264387 0.346634 Li+
0.735613 0.000000 0.298564 Li+
0.000000 0.735613 0.298564 Li+
0.000000 0.000000 0.298564 Li+
0.500000 0.500000 0.301180 Li+
0.500000 0.500000 0.413508 Li+
0.000000 0.000000 0.368054 Li+
0.000000 0.500000 0.368054 Li+
0.500000 0.000000 0.368054 Li+
0.000000 0.500000 0.413508 Li+
0.500000 0.000000 0.413508 Li+
0.000000 0.500000 0.390781 Li+
0.500000 0.750000 0.436236 Li+
0.500000 0.250000 0.390781 Li+
0.250000 0.000000 0.390781 Li+
0.750000 0.000000 0.436236 Li+
0.000000 0.500000 0.436236 Li+
0.225374 0.225374 0.384065 Li+
0.725374 0.274626 0.438474 Li+
0.274626 0.725374 0.438474 Li+
0.274626 0.274626 0.438474 Li+
0.774626 0.225374 0.393020 Li+
0.774626 0.774626 0.393020 Li+
0.225374 0.774626 0.393020 Li+
0.725374 0.725374 0.429519 Li+
0.237083 0.975164 0.364925 Li+
0.475164 0.262917 0.412122 Li+
0.524836 0.737083 0.368834 Li+
0.262917 0.753336 0.371789 Li+
0.262917 0.246664 0.412122 Li+
0.246664 0.524836 0.368834 Li+
0.753336 0.524836 0.371789 Li+
0.253336 0.237083 0.364925 Li+
0.975164 0.253336 0.364925 Li+
0.024836 0.253336 0.417244 Li+
0.746664 0.762917 0.366667 Li+
0.975164 0.746664 0.366667 Li+
0.746664 0.237083 0.414289 Li+
0.253336 0.762917 0.417244 Li+
0.024836 0.746664 0.414289 Li+
0.762917 0.024836 0.417244 Li+
0.237083 0.024836 0.414289 Li+
0.762917 0.975164 0.366667 Li+
0.246664 0.475164 0.412122 Li+
0.753336 0.475164 0.410380 Li+
0.737083 0.246664 0.368834 Li+
0.737083 0.753336 0.410380 Li+
0.524836 0.262917 0.371789 Li+
0.475164 0.737083 0.410380 Li+
0.000000 0.000000 0.437544 Li+
0.500000 0.500000 0.434928 Li+
0.500000 0.764387 0.392089 Li+
0.500000 0.235613 0.434928 Li+
0.235613 0.500000 0.434928 Li+
0.764387 0.500000 0.392089 Li+
0.264387 0.000000 0.437544 Li+
0.000000 0.264387 0.437544 Li+
0.735613 0.000000 0.389473 Li+
0.000000 0.735613 0.389473 Li+
0.000000 0.000000 0.389473 Li+
0.500000 0.500000 0.392089 Li+
0.500000 0.500000 0.504417 Li+
0.000000 0.000000 0.458963 Li+
0.000000 0.500000 0.458963 Li+
0.500000 0.000000 0.458963 Li+
0.000000 0.500000 0.504417 Li+
0.500000 0.000000 0.504417 Li+
0.000000 0.500000 0.481690 Li+
0.500000 0.750000 0.527145 Li+
0.500000 0.250000 0.481690 Li+
0.250000 0.000000 0.481690 Li+
0.750000 0.000000 0.527145 Li+
0.000000 0.500000 0.527145 Li+
0.225374 0.225374 0.474974 Li+
0.725374 0.274626 0.529383 Li+
0.274626 0.725374 0.529383 Li+
0.274626 0.274626 0.529383 Li+
0.774626 0.225374 0.483929 Li+
0.774626 0.774626 0.483929 Li+
0.225374 0.774626 0.483929 Li+
0.725374 0.725374 0.520429 Li+
0.237083 0.975164 0.455834 Li+
0.475164 0.262917 0.503031 Li+
0.524836 0.737083 0.459743 Li+
0.262917 0.753336 0.462698 Li+
0.262917 0.246664 0.503031 Li+
0.246664 0.524836 0.459743 Li+
0.753336 0.524836 0.462698 Li+
0.253336 0.237083 0.455834 Li+
0.975164 0.253336 0.455834 Li+
0.024836 0.253336 0.508153 Li+
0.746664 0.762917 0.457576 Li+
0.975164 0.746664 0.457576 Li+
0.746664 0.237083 0.505198 Li+
0.253336 0.762917 0.508153 Li+
0.024836 0.746664 0.505198 Li+
0.762917 0.024836 0.508153 Li+
0.237083 0.024836 0.505198 Li+
0.762917 0.975164 0.457576 Li+
0.246664 0.475164 0.503031 Li+
0.753336 0.475164 0.501289 Li+
0.737083 0.246664 0.459743 Li+
0.737083 0.753336 0.501289 Li+
0.524836 0.262917 0.462698 Li+
0.475164 0.737083 0.501289 Li+
0.000000 0.000000 0.528453 Li+
0.500000 0.500000 0.525837 Li+
0.500000 0.764387 0.482998 Li+
0.500000 0.235613 0.525837 Li+
0.235613 0.500000 0.525837 Li+
0.764387 0.500000 0.482998 Li+
0.264387 0.000000 0.528453 Li+
0.000000 0.264387 0.528453 Li+
0.735613 0.000000 0.480382 Li+
0.000000 0.735613 0.480382 Li+
0.000000 0.000000 0.480382 Li+
0.500000 0.500000 0.482998 Li+
0.500000 0.500000 0.595327 Li+
0.000000 0.000000 0.549872 Li+
0.000000 0.500000 0.549872 Li+
0.500000 0.000000 0.549872 Li+
0.000000 0.500000 0.595327 Li+
0.500000 0.000000 0.595327 Li+
0.000000 0.500000 0.572599 Li+
0.500000 0.750000 0.618054 Li+
0.500000 0.250000 0.572599 Li+
0.250000 0.000000 0.572599 Li+
0.750000 0.000000 0.618054 Li+
0.000000 0.500000 0.618054 Li+
0.225374 0.225374 0.565883 Li+
0.725374 0.274626 0.620293 Li+
0.274626 0.725374 0.620293 Li+
0.274626 0.274626 0.620293 Li+
0.774626 0.225374 0.574838 Li+
0.774626 0.774626 0.574838 Li+
0.225374 0.774626 0.574838 Li+
0.725374 0.725374 0.611338 Li+
0.237083 0.975164 0.546743 Li+
0.475164 0.262917 0.593940 Li+
0.524836 0.737083 0.550652 Li+
0.262917 0.753336 0.553607 Li+
0.262917 0.246664 0.593940 Li+
0.246664 0.524836 0.550652 Li+
0.753336 0.524836 0.553607 Li+
0.253336 0.237083 0.546743 Li+
0.975164 0.253336 0.546743 Li+
0.024836 0.253336 0.599062 Li+
0.746664 0.762917 0.548485 Li+
0.975164 0.746664 0.548485 Li+
0.746664 0.237083 0.596107 Li+
0.253336 0.762917 0.599062 Li+
0.024836 0.746664 0.596107 Li+
0.762917 0.024836 0.599062 Li+
0.237083 0.024836 0.596107 Li+
0.762917 0.975164 0.548485 Li+
0.246664 0.475164 0.593940 Li+
0.753336 0.475164 0.592198 Li+
0.737083 0.246664 0.550652 Li+
0.737083 0.753336 0.592198 Li+
0.524836 0.262917 0.553607 Li+
0.475164 0.737083 0.592198 Li+
0.000000 0.000000 0.619362 Li+
0.500000 0.500000 0.616746 Li+
0.500000 0.764387 0.573907 Li+
0.500000 0.235613 0.616746 Li+
0.235613 0.500000 0.616746 Li+
0.764387 0.500000 0.573907 Li+
0.264387 0.000000 0.619362 Li+
0.000000 0.264387 0.619362 Li+
0.735613 0.000000 0.571291 Li+
0.000000 0.735613 0.571291 Li+
0.000000 0.000000 0.571291 Li+
0.500000 0.500000 0.573907 Li+
0.500000 0.500000 0.004417 P4+
0.000000 0.000000 0.049872 P4+
0.000000 0.750000 0.072599 P4+
0.500000 0.000000 0.072599 P4+
0.500000 0.000000 0.027145 P4+
0.250000 0.500000 0.027145 P4+
0.750000 0.500000 0.072599 P4+
0.000000 0.250000 0.027145 P4+
0.500000 0.500000 0.095327 P4+
0.000000 0.000000 0.140781 P4+
0.000000 0.750000 0.163508 P4+
0.500000 0.000000 0.163508 P4+
0.500000 0.000000 0.118054 P4+
0.250000 0.500000 0.118054 P4+
0.750000 0.500000 0.163508 P4+
0.000000 0.250000 0.118054 P4+
0.500000 0.500000 0.186236 P4+
0.000000 0.000000 0.231690 P4+
0.000000 0.750000 0.254417 P4+
0.500000 0.000000 0.254417 P4+
0.500000 0.000000 0.208963 P4+
0.250000 0.500000 0.208963 P4+
0.750000 0.500000 0.254417 P4+
0.000000 0.250000 0.208963 P4+
0.500000 0.500000 0.277145 P4+
0.000000 0.000000 0.322599 P4+
0.000000 0.750000 0.345327 P4+
0.500000 0.000000 0.345327 P4+
0.500000 0.000000 0.299872 P4+
0.250000 0.500000 0.299872 P4+
0.750000 0.500000 0.345327 P4+
0.000000 0.250000 0.299872 P4+
0.500000 0.500000 0.368054 P4+
0.000000 0.000000 0.413508 P4+
0.000000 0.750000 0.436236 P4+
0.500000 0.000000 0.436236 P4+
0.500000 0.000000 0.390781 P4+
0.250000 0.500000 0.390781 P4+
0.750000 0.500000 0.436236 P4+
0.000000 0.250000 0.390781 P4+
0.500000 0.500000 0.458963 P4+
0.000000 0.000000 0.504417 P4+
0.000000 0.750000 0.527145 P4+
0.500000 0.000000 0.527145 P4+
0.500000 0.000000 0.481690 P4+
0.250000 0.500000 0.481690 P4+
0.750000 0.500000 0.527145 P4+
0.000000 0.250000 0.481690 P4+
0.500000 0.500000 0.549872 P4+
0.000000 0.000000 0.595327 P4+
0.000000 0.750000 0.618054 P4+
0.500000 0.000000 0.618054 P4+
0.500000 0.000000 0.572599 P4+
0.250000 0.500000 0.572599 P4+
0.750000 0.500000 0.618054 P4+
0.000000 0.250000 0.572599 P4+
0.603461 0.603461 0.032634 N2-
0.103461 0.896539 0.040466 N2-
0.896539 0.896539 0.040466 N2-
0.896539 0.103461 0.040466 N2-
0.396539 0.396539 0.085921 N2-
0.396539 0.603461 0.085921 N2-
0.603461 0.396539 0.085921 N2-
0.103461 0.103461 0.078089 N2-
0.603461 0.603461 0.123543 N2-
0.103461 0.896539 0.131376 N2-
0.896539 0.896539 0.131376 N2-
0.896539 0.103461 0.131376 N2-
0.396539 0.396539 0.176830 N2-
0.396539 0.603461 0.176830 N2-
0.603461 0.396539 0.176830 N2-
0.103461 0.103461 0.168998 N2-
0.603461 0.603461 0.214452 N2-
0.103461 0.896539 0.222285 N2-
0.896539 0.896539 0.222285 N2-
0.896539 0.103461 0.222285 N2-
0.396539 0.396539 0.267739 N2-
0.396539 0.603461 0.267739 N2-
0.603461 0.396539 0.267739 N2-
0.103461 0.103461 0.259907 N2-
0.603461 0.603461 0.305361 N2-
0.103461 0.896539 0.313194 N2-
0.896539 0.896539 0.313194 N2-
0.896539 0.103461 0.313194 N2-
0.396539 0.396539 0.358648 N2-
0.396539 0.603461 0.358648 N2-
0.603461 0.396539 0.358648 N2-
0.103461 0.103461 0.350816 N2-
0.603461 0.603461 0.396270 N2-
0.103461 0.896539 0.404103 N2-
0.896539 0.896539 0.404103 N2-
0.896539 0.103461 0.404103 N2-
0.396539 0.396539 0.449557 N2-
0.396539 0.603461 0.449557 N2-
0.603461 0.396539 0.449557 N2-
0.103461 0.103461 0.441725 N2-
0.603461 0.603461 0.487180 N2-
0.103461 0.896539 0.495012 N2-
0.896539 0.896539 0.495012 N2-
0.896539 0.103461 0.495012 N2-
0.396539 0.396539 0.540466 N2-
0.396539 0.603461 0.540466 N2-
0.603461 0.396539 0.540466 N2-
0.103461 0.103461 0.532634 N2-
0.603461 0.603461 0.578089 N2-
0.103461 0.896539 0.585921 N2-
0.896539 0.896539 0.585921 N2-
0.896539 0.103461 0.585921 N2-
0.396539 0.396539 0.631376 N2-
0.396539 0.603461 0.631376 N2-
0.603461 0.396539 0.631376 N2-
0.103461 0.103461 0.623543 N2-
0.387385 0.099421 0.035103 N3-
0.599421 0.112615 0.037263 N3-
0.400579 0.887385 0.089620 N3-
0.112615 0.850731 0.082956 N3-
0.112615 0.149269 0.037263 N3-
0.149269 0.400579 0.089620 N3-
0.850731 0.400579 0.082956 N3-
0.350731 0.387385 0.035103 N3-
0.099421 0.350731 0.035103 N3-
0.900579 0.350731 0.037502 N3-
0.649269 0.612615 0.082718 N3-
0.099421 0.649269 0.082718 N3-
0.649269 0.387385 0.044166 N3-
0.350731 0.612615 0.037502 N3-
0.900579 0.649269 0.044166 N3-
0.612615 0.900579 0.037502 N3-
0.387385 0.900579 0.044166 N3-
0.612615 0.099421 0.082718 N3-
0.149269 0.599421 0.037263 N3-
0.850731 0.599421 0.080557 N3-
0.887385 0.149269 0.089620 N3-
0.887385 0.850731 0.080557 N3-
0.400579 0.112615 0.082956 N3-
0.599421 0.887385 0.080557 N3-
0.387385 0.099421 0.126012 N3-
0.599421 0.112615 0.128172 N3-
0.400579 0.887385 0.180530 N3-
0.112615 0.850731 0.173865 N3-
0.112615 0.149269 0.128172 N3-
0.149269 0.400579 0.180530 N3-
0.850731 0.400579 0.173865 N3-
0.350731 0.387385 0.126012 N3-
0.099421 0.350731 0.126012 N3-
0.900579 0.350731 0.128411 N3-
0.649269 0.612615 0.173627 N3-
0.099421 0.649269 0.173627 N3-
0.649269 0.387385 0.135075 N3-
0.350731 0.612615 0.128411 N3-
0.900579 0.649269 0.135075 N3-
0.612615 0.900579 0.128411 N3-
0.387385 0.900579 0.135075 N3-
0.612615 0.099421 0.173627 N3-
0.149269 0.599421 0.128172 N3-
0.850731 0.599421 0.171466 N3-
0.887385 0.149269 0.180530 N3-
0.887385 0.850731 0.171466 N3-
0.400579 0.112615 0.173865 N3-
0.599421 0.887385 0.171466 N3-
0.387385 0.099421 0.216921 N3-
0.599421 0.112615 0.219082 N3-
0.400579 0.887385 0.271439 N3-
0.112615 0.850731 0.264774 N3-
0.112615 0.149269 0.219082 N3-
0.149269 0.400579 0.271439 N3-
0.850731 0.400579 0.264774 N3-
0.350731 0.387385 0.216921 N3-
0.099421 0.350731 0.216921 N3-
0.900579 0.350731 0.219320 N3-
0.649269 0.612615 0.264536 N3-
0.099421 0.649269 0.264536 N3-
0.649269 0.387385 0.225984 N3-
0.350731 0.612615 0.219320 N3-
0.900579 0.649269 0.225984 N3-
0.612615 0.900579 0.219320 N3-
0.387385 0.900579 0.225984 N3-
0.612615 0.099421 0.264536 N3-
0.149269 0.599421 0.219082 N3-
0.850731 0.599421 0.262375 N3-
0.887385 0.149269 0.271439 N3-
0.887385 0.850731 0.262375 N3-
0.400579 0.112615 0.264774 N3-
0.599421 0.887385 0.262375 N3-
0.387385 0.099421 0.307830 N3-
0.599421 0.112615 0.309991 N3-
0.400579 0.887385 0.362348 N3-
0.112615 0.850731 0.355683 N3-
0.112615 0.149269 0.309991 N3-
0.149269 0.400579 0.362348 N3-
0.850731 0.400579 0.355683 N3-
0.350731 0.387385 0.307830 N3-
0.099421 0.350731 0.307830 N3-
0.900579 0.350731 0.310229 N3-
0.649269 0.612615 0.355445 N3-
0.099421 0.649269 0.355445 N3-
0.649269 0.387385 0.316893 N3-
0.350731 0.612615 0.310229 N3-
0.900579 0.649269 0.316893 N3-
0.612615 0.900579 0.310229 N3-
0.387385 0.900579 0.316893 N3-
0.612615 0.099421 0.355445 N3-
0.149269 0.599421 0.309991 N3-
0.850731 0.599421 0.353284 N3-
0.887385 0.149269 0.362348 N3-
0.887385 0.850731 0.353284 N3-
0.400579 0.112615 0.355683 N3-
0.599421 0.887385 0.353284 N3-
0.387385 0.099421 0.398739 N3-
0.599421 0.112615 0.400900 N3-
0.400579 0.887385 0.453257 N3-
0.112615 0.850731 0.446592 N3-
0.112615 0.149269 0.400900 N3-
0.149269 0.400579 0.453257 N3-
0.850731 0.400579 0.446592 N3-
0.350731 0.387385 0.398739 N3-
0.099421 0.350731 0.398739 N3-
0.900579 0.350731 0.401138 N3-
0.649269 0.612615 0.446354 N3-
0.099421 0.649269 0.446354 N3-
0.649269 0.387385 0.407802 N3-
0.350731 0.612615 0.401138 N3-
0.900579 0.649269 0.407802 N3-
0.612615 0.900579 0.401138 N3-
0.387385 0.900579 0.407802 N3-
0.612615 0.099421 0.446354 N3-
0.149269 0.599421 0.400900 N3-
0.850731 0.599421 0.444194 N3-
0.887385 0.149269 0.453257 N3-
0.887385 0.850731 0.444194 N3-
0.400579 0.112615 0.446592 N3-
0.599421 0.887385 0.444194 N3-
0.387385 0.099421 0.489648 N3-
0.599421 0.112615 0.491809 N3-
0.400579 0.887385 0.544166 N3-
0.112615 0.850731 0.537502 N3-
0.112615 0.149269 0.491809 N3-
0.149269 0.400579 0.544166 N3-
0.850731 0.400579 0.537502 N3-
0.350731 0.387385 0.489648 N3-
0.099421 0.350731 0.489648 N3-
0.900579 0.350731 0.492047 N3-
0.649269 0.612615 0.537263 N3-
0.099421 0.649269 0.537263 N3-
0.649269 0.387385 0.498711 N3-
0.350731 0.612615 0.492047 N3-
0.900579 0.649269 0.498711 N3-
0.612615 0.900579 0.492047 N3-
0.387385 0.900579 0.498711 N3-
0.612615 0.099421 0.537263 N3-
0.149269 0.599421 0.491809 N3-
0.850731 0.599421 0.535103 N3-
0.887385 0.149269 0.544166 N3-
0.887385 0.850731 0.535103 N3-
0.400579 0.112615 0.537502 N3-
0.599421 0.887385 0.535103 N3-
0.387385 0.099421 0.580557 N3-
0.599421 0.112615 0.582718 N3-
0.400579 0.887385 0.635075 N3-
0.112615 0.850731 0.628411 N3-
0.112615 0.149269 0.582718 N3-
0.149269 0.400579 0.635075 N3-
0.850731 0.400579 0.628411 N3-
0.350731 0.387385 0.580557 N3-
0.099421 0.350731 0.580557 N3-
0.900579 0.350731 0.582956 N3-
0.649269 0.612615 0.628172 N3-
0.099421 0.649269 0.628172 N3-
0.649269 0.387385 0.589620 N3-
0.350731 0.612615 0.582956 N3-
0.900579 0.649269 0.589620 N3-
0.612615 0.900579 0.582956 N3-
0.387385 0.900579 0.589620 N3-
0.612615 0.099421 0.628172 N3-
0.149269 0.599421 0.582718 N3-
0.850731 0.599421 0.626012 N3-
0.887385 0.149269 0.635075 N3-
0.887385 0.850731 0.626012 N3-
0.400579 0.112615 0.628411 N3-
0.599421 0.887385 0.626012 N3-
