Li61 P7 N32                             
   1.00000000000000     
    -0.0691873267690240    9.6392169489230835    0.0041370487447592
     0.0242783888219833    0.0044001006037222    9.6032461634021313
     9.5945506998145742   -0.0690460070680784    0.0244685589779534
   Li   P    N 
    61     7    32
Direct
  0.4912541004067447 -0.0034043155149864  0.4962964748127151
  0.0005619615806776  0.5070937638493397  0.0023613580502340
  0.5058114831087582  0.0119048001971434 -0.0042860589027863
 -0.0006934312787430 -0.0019730133478688  0.4979240256879495
  0.4972299836960135  0.5096332940166876  0.0148633001993004
 -0.0254580254064616  0.4959243355250217  0.5028748982842167
  0.7518106802727066  0.0088505868126411  0.4938671692312523
  0.2461018810017656  0.0013806882279746  0.4922267686160300
  0.6916634671584568  0.5375999049234921  0.4778942599528345
  0.2253887135010092  0.5040223413772962  0.4942943214293767
  0.2682748104479210 -0.0061695144363678 -0.0108747218441779
  0.7568522439954950 -0.0274049352245649 -0.0677300602788041
  0.4671433299693581  0.5572427753893232  0.5707938078497958
  0.4885573581365391  0.2541088009186366 -0.0100012155452869
  0.5357745592113806  0.7762483019165120  0.0257523079524156
  0.0354680872913206  0.5070540718558741  0.2586117977477284
  0.0083952756752815  0.5027968443166229  0.7496675395880140
  0.1970528088180074  0.2390698177862539  0.2371585834959176
  0.2341683252967725  0.7708329642618839  0.7864793231298326
  0.2886337975666670  0.2531013368117834  0.7338755915178948
  0.2209952715257132  0.7197977247666021  0.2879520017683860
  0.6834244499394968  0.1804093016734952  0.3325371812167156
  0.8286255261235661  0.6592209441380541  0.6693548441400021
  0.7850764311216947  0.1501431116227195  0.7129455422149744
  0.7260202096236877  0.7505750867516430  0.2448715131320566
  0.9252388322239180  0.2822587680869922  0.2649443498060580
 -0.0025580636391024  0.7757852284347053  0.7579486949122339
  0.2542815300504884  0.2571978442441248  0.4972453831190502
  0.2538825579823351  0.7532859601018744  0.5237968710623707
  0.7611750204306384  0.3049608328522807  0.4953936276573156
  0.7346325764621650  0.7705307409889990  0.4785464375105633
  0.7866738074724831  0.5093648755322427  0.2622922708663134
  0.7077944396732112  0.4731256397986912  0.7227286050597137
  0.2908164792289131  0.5083813340299138  0.2398170272882714
  0.2482363142479055  0.4998041960998561  0.7356960296328869
  0.4590482198847484  0.7718832163084755  0.2842889906306793
  0.5280702788170315  0.2470590195669617  0.7485994961659526
  0.2412421698895303  0.9855240617140645  0.2360290349993533
  0.2311479210407601  0.0180536531500839  0.7399414361710034
  0.2463014897971179  0.2344231795377909  0.9836283590290243
  0.2999752406978803  0.7430429911144957  0.0469621359058406
  0.6996161689702585  0.8724827670815943  0.6867082420011908
  0.7489476567530425 -0.0076265984377541  0.1977940201858933
  0.8123413341775391  0.7368322869917810  0.0133440676790404
  0.7480593011548441  0.2099994556228142  0.0093164899066798
  0.0508110323450997  0.2484305763037833  0.7659709843758074
 -0.0210693185993392  0.7766759161016016  0.2447063791129723
  0.4539038804733763  0.2660944660334169  0.2373880570458559
  0.4661435346088205  0.7391651672343822  0.7584085920747058
  0.0073895635459017  0.2643428554986708  0.0203388482222977
  0.0540409602906742  0.7557547957701609  0.0105690906346659
  0.5076681017685845  0.2357622375804944  0.5163670556559787
  0.4976948272480382  0.7629862531373487  0.5142291491589231
  0.5386697443848268  0.5408438088986441  0.2626753233636246
  0.4752629141563452  0.4761017662434723  0.7844379731742116
 -0.0039177222960037  0.0219315947148923  0.2589952559134102
 -0.0105317790066051  0.0078241399093005  0.7318513430859243
  0.4464811778310364  0.4275537336732088  0.4282144898250419
  0.8576688815324577  0.3351464331471709  0.8391090618977628
  0.6613945259455190  0.3345376275813006  0.1701321886489010
  0.6648749866650303  0.6883447686269998  0.8329663749110054
  0.0067525243030298  0.0084950760028390 -0.0076664956002211
  0.7524641590136711  0.4949938859973307 -0.0045049845038123
  0.2466516572305540  0.4952096178067250 -0.0049956734334218
 -0.0070259691044280  0.7533440417970232  0.4956713065714365
 -0.0002389407763677  0.2437798903237172  0.5116568903439624
  0.4956021585084858  0.0107610297333117  0.2427477064291245
  0.4892764296348671 -0.0061859921736688  0.7513146525470940
  0.6300475689188066  0.6523581108026175  0.6358106403188134
  0.6276932345099492  0.3790719853621540  0.3610354306776816
  0.9041233159248849  0.9015897700597906  0.0883992950546122
  0.9055326042702280  0.1171068864896087  0.8941064969939484
  0.1029899020707201  0.9084158010618432  0.8857450799534281
  0.1102235837535618  0.1006166835854594  0.0986967156979564
  0.3749692294735530  0.6232617690783478  0.3875869471926470
  0.3846362817012421  0.3786262896389558  0.6191907540826547
  0.0831333383747787  0.3488213378454535  0.3979051727232535
  0.0816790670624260  0.6500087224723916  0.6086744495223443
  0.1119957369595320  0.1413220161619211  0.6001876938293168
  0.0986519984311543  0.8509172407341252  0.3964144577141074
  0.8838217319999929  0.1493937223408161  0.4174909618345934
  0.8894923171043093  0.8550430632333522  0.5945921738902756
  0.8537354808649587  0.3932892055288392  0.0967703691608999
  0.8484754829205764  0.5839318487080319  0.8789433842489731
  0.1557402556473940  0.5988080644100694  0.1068082478578328
  0.1412091603800657  0.3990987464306071  0.8925149640002396
  0.4033424467760477  0.9021976095853629  0.1394969898970712
  0.3976011077911141  0.1078288372607334  0.8475669468540352
  0.3863186172561625  0.0995211750111690  0.3450851906906777
  0.3778289608492174  0.8974609799620193  0.6509574423831109
  0.3467705189595118  0.3846203505551036  0.0912955862206242
  0.3455111307676724  0.6036372076268421  0.8978438076724430
  0.6031372778330452  0.0776640114521480  0.6482058651688036
  0.6103392605699735  0.9114907972965433  0.3392370981870635
  0.6666573608279202  0.6120613460882182  0.0938398621120784
  0.6439076993857434  0.3875330705117358  0.9086115877687722
  0.9082047896998812  0.3386320396231322  0.6322624747572078
  0.8870074630394142  0.6570230685887626  0.3870448620942034
  0.5932583579926568  0.1235522006674764  0.1465817836414855
  0.5836118140804037  0.8860528804490485  0.8572465753075713
 
  0.00000000E+00  0.00000000E+00  0.00000000E+00
  0.00000000E+00  0.00000000E+00  0.00000000E+00
  0.00000000E+00  0.00000000E+00  0.00000000E+00
  0.00000000E+00  0.00000000E+00  0.00000000E+00
  0.00000000E+00  0.00000000E+00  0.00000000E+00
  0.00000000E+00  0.00000000E+00  0.00000000E+00
  0.00000000E+00  0.00000000E+00  0.00000000E+00
  0.00000000E+00  0.00000000E+00  0.00000000E+00
  0.00000000E+00  0.00000000E+00  0.00000000E+00
  0.00000000E+00  0.00000000E+00  0.00000000E+00
  0.00000000E+00  0.00000000E+00  0.00000000E+00
  0.00000000E+00  0.00000000E+00  0.00000000E+00
  0.00000000E+00  0.00000000E+00  0.00000000E+00
  0.00000000E+00  0.00000000E+00  0.00000000E+00
  0.00000000E+00  0.00000000E+00  0.00000000E+00
  0.00000000E+00  0.00000000E+00  0.00000000E+00
  0.00000000E+00  0.00000000E+00  0.00000000E+00
  0.00000000E+00  0.00000000E+00  0.00000000E+00
  0.00000000E+00  0.00000000E+00  0.00000000E+00
  0.00000000E+00  0.00000000E+00  0.00000000E+00
  0.00000000E+00  0.00000000E+00  0.00000000E+00
  0.00000000E+00  0.00000000E+00  0.00000000E+00
  0.00000000E+00  0.00000000E+00  0.00000000E+00
  0.00000000E+00  0.00000000E+00  0.00000000E+00
  0.00000000E+00  0.00000000E+00  0.00000000E+00
  0.00000000E+00  0.00000000E+00  0.00000000E+00
  0.00000000E+00  0.00000000E+00  0.00000000E+00
  0.00000000E+00  0.00000000E+00  0.00000000E+00
  0.00000000E+00  0.00000000E+00  0.00000000E+00
  0.00000000E+00  0.00000000E+00  0.00000000E+00
  0.00000000E+00  0.00000000E+00  0.00000000E+00
  0.00000000E+00  0.00000000E+00  0.00000000E+00
  0.00000000E+00  0.00000000E+00  0.00000000E+00
  0.00000000E+00  0.00000000E+00  0.00000000E+00
  0.00000000E+00  0.00000000E+00  0.00000000E+00
  0.00000000E+00  0.00000000E+00  0.00000000E+00
  0.00000000E+00  0.00000000E+00  0.00000000E+00
  0.00000000E+00  0.00000000E+00  0.00000000E+00
  0.00000000E+00  0.00000000E+00  0.00000000E+00
  0.00000000E+00  0.00000000E+00  0.00000000E+00
  0.00000000E+00  0.00000000E+00  0.00000000E+00
  0.00000000E+00  0.00000000E+00  0.00000000E+00
  0.00000000E+00  0.00000000E+00  0.00000000E+00
  0.00000000E+00  0.00000000E+00  0.00000000E+00
  0.00000000E+00  0.00000000E+00  0.00000000E+00
  0.00000000E+00  0.00000000E+00  0.00000000E+00
  0.00000000E+00  0.00000000E+00  0.00000000E+00
  0.00000000E+00  0.00000000E+00  0.00000000E+00
  0.00000000E+00  0.00000000E+00  0.00000000E+00
  0.00000000E+00  0.00000000E+00  0.00000000E+00
  0.00000000E+00  0.00000000E+00  0.00000000E+00
  0.00000000E+00  0.00000000E+00  0.00000000E+00
  0.00000000E+00  0.00000000E+00  0.00000000E+00
  0.00000000E+00  0.00000000E+00  0.00000000E+00
  0.00000000E+00  0.00000000E+00  0.00000000E+00
  0.00000000E+00  0.00000000E+00  0.00000000E+00
  0.00000000E+00  0.00000000E+00  0.00000000E+00
  0.00000000E+00  0.00000000E+00  0.00000000E+00
  0.00000000E+00  0.00000000E+00  0.00000000E+00
  0.00000000E+00  0.00000000E+00  0.00000000E+00
  0.00000000E+00  0.00000000E+00  0.00000000E+00
  0.00000000E+00  0.00000000E+00  0.00000000E+00
  0.00000000E+00  0.00000000E+00  0.00000000E+00
  0.00000000E+00  0.00000000E+00  0.00000000E+00
  0.00000000E+00  0.00000000E+00  0.00000000E+00
  0.00000000E+00  0.00000000E+00  0.00000000E+00
  0.00000000E+00  0.00000000E+00  0.00000000E+00
  0.00000000E+00  0.00000000E+00  0.00000000E+00
  0.00000000E+00  0.00000000E+00  0.00000000E+00
  0.00000000E+00  0.00000000E+00  0.00000000E+00
  0.00000000E+00  0.00000000E+00  0.00000000E+00
  0.00000000E+00  0.00000000E+00  0.00000000E+00
  0.00000000E+00  0.00000000E+00  0.00000000E+00
  0.00000000E+00  0.00000000E+00  0.00000000E+00
  0.00000000E+00  0.00000000E+00  0.00000000E+00
  0.00000000E+00  0.00000000E+00  0.00000000E+00
  0.00000000E+00  0.00000000E+00  0.00000000E+00
  0.00000000E+00  0.00000000E+00  0.00000000E+00
  0.00000000E+00  0.00000000E+00  0.00000000E+00
  0.00000000E+00  0.00000000E+00  0.00000000E+00
  0.00000000E+00  0.00000000E+00  0.00000000E+00
  0.00000000E+00  0.00000000E+00  0.00000000E+00
  0.00000000E+00  0.00000000E+00  0.00000000E+00
  0.00000000E+00  0.00000000E+00  0.00000000E+00
  0.00000000E+00  0.00000000E+00  0.00000000E+00
  0.00000000E+00  0.00000000E+00  0.00000000E+00
  0.00000000E+00  0.00000000E+00  0.00000000E+00
  0.00000000E+00  0.00000000E+00  0.00000000E+00
  0.00000000E+00  0.00000000E+00  0.00000000E+00
  0.00000000E+00  0.00000000E+00  0.00000000E+00
  0.00000000E+00  0.00000000E+00  0.00000000E+00
  0.00000000E+00  0.00000000E+00  0.00000000E+00
  0.00000000E+00  0.00000000E+00  0.00000000E+00
  0.00000000E+00  0.00000000E+00  0.00000000E+00
  0.00000000E+00  0.00000000E+00  0.00000000E+00
  0.00000000E+00  0.00000000E+00  0.00000000E+00
  0.00000000E+00  0.00000000E+00  0.00000000E+00
  0.00000000E+00  0.00000000E+00  0.00000000E+00
  0.00000000E+00  0.00000000E+00  0.00000000E+00
  0.00000000E+00  0.00000000E+00  0.00000000E+00
