Li5 P2 N1 O6                            
   1.00000000000000     
     0.0663718375051912    0.0665730392103548    5.0582640129790137
     6.2884081409527832    0.0775131061839487    0.0843325210746138
     0.0693144229319667    5.3175010055954548    0.0734390991722917
   Li   P    N    O 
     5     2     1     6
Direct
  0.4711510887282113  0.0112311088856644  0.7589718279837191
  0.4449160878855241  0.6889363014633835  0.3504124167652818
 -0.0167459527402273  0.7422699834821602  0.6897541296575039
  0.0096946738549126  0.2688853831641645  0.6860394748646483
  0.5629030599044030  0.2812648010309439  0.3347702565460124
  0.4930794409065873  0.5062276882467633  0.8237989768015386
  0.0338509584000600  0.0051853394457726  0.1811629785761754
  0.1879823084627042  0.1749315386350347  0.3457140773748123
  0.6000685995788653  0.7141648111518698  0.6858824791667808
  0.0870245508508155  0.7939406376742678  0.3299422577660233
  0.6249918157520928  0.3037482122992073  0.6954591565681576
  0.5673733956304008  0.5062941481542264  0.1028339169082398
  0.1031995705591853 -0.0011919675711649  0.8937132743045590
  0.1937024022264918  0.5041120139377074  0.7844607767165501
 
  0.00000000E+00  0.00000000E+00  0.00000000E+00
  0.00000000E+00  0.00000000E+00  0.00000000E+00
  0.00000000E+00  0.00000000E+00  0.00000000E+00
  0.00000000E+00  0.00000000E+00  0.00000000E+00
  0.00000000E+00  0.00000000E+00  0.00000000E+00
  0.00000000E+00  0.00000000E+00  0.00000000E+00
  0.00000000E+00  0.00000000E+00  0.00000000E+00
  0.00000000E+00  0.00000000E+00  0.00000000E+00
  0.00000000E+00  0.00000000E+00  0.00000000E+00
  0.00000000E+00  0.00000000E+00  0.00000000E+00
  0.00000000E+00  0.00000000E+00  0.00000000E+00
  0.00000000E+00  0.00000000E+00  0.00000000E+00
  0.00000000E+00  0.00000000E+00  0.00000000E+00
  0.00000000E+00  0.00000000E+00  0.00000000E+00
