Li112 P784
1.0
13.629780 0.000000 0.000000
0.000000 13.629780 0.000000
0.000000 0.000000 133.491132
Li P
112 784
Selective dynamics
direct
0.368757 0.368757 0.071420 F F F Li
0.131243 0.368757 0.043642 F F F Li
0.368757 0.131243 0.099198 F F F Li
0.131243 0.131243 0.015865 T T T Li
0.131243 0.631243 0.099198 F F F Li
0.868757 0.131243 0.071420 F F F Li
0.131243 0.868757 0.071420 F F F Li
0.368757 0.868757 0.043642 F F F Li
0.868757 0.868757 0.015865 T T T Li
0.631243 0.868757 0.099198 F F F Li
0.868757 0.631243 0.043642 F F F Li
0.631243 0.631243 0.071420 F F F Li
0.631243 0.131243 0.043642 F F F Li
0.368757 0.631243 0.015865 T T T Li
0.631243 0.368757 0.015865 T T T Li
0.868757 0.368757 0.099198 F F F Li
0.368757 0.368757 0.182531 F F F Li
0.131243 0.368757 0.154754 F F F Li
0.368757 0.131243 0.210309 F F F Li
0.131243 0.131243 0.126976 F F F Li
0.131243 0.631243 0.210309 F F F Li
0.868757 0.131243 0.182531 F F F Li
0.131243 0.868757 0.182531 F F F Li
0.368757 0.868757 0.154754 F F F Li
0.868757 0.868757 0.126976 F F F Li
0.631243 0.868757 0.210309 F F F Li
0.868757 0.631243 0.154754 F F F Li
0.631243 0.631243 0.182531 F F F Li
0.631243 0.131243 0.154754 F F F Li
0.368757 0.631243 0.126976 F F F Li
0.631243 0.368757 0.126976 F F F Li
0.868757 0.368757 0.210309 F F F Li
0.368757 0.368757 0.293642 F F F Li
0.131243 0.368757 0.265865 F F F Li
0.368757 0.131243 0.321420 F F F Li
0.131243 0.131243 0.238087 F F F Li
0.131243 0.631243 0.321420 F F F Li
0.868757 0.131243 0.293642 F F F Li
0.131243 0.868757 0.293642 F F F Li
0.368757 0.868757 0.265865 F F F Li
0.868757 0.868757 0.238087 F F F Li
0.631243 0.868757 0.321420 F F F Li
0.868757 0.631243 0.265865 F F F Li
0.631243 0.631243 0.293642 F F F Li
0.631243 0.131243 0.265865 F F F Li
0.368757 0.631243 0.238087 F F F Li
0.631243 0.368757 0.238087 F F F Li
0.868757 0.368757 0.321420 F F F Li
0.368757 0.368757 0.404754 F F F Li
0.131243 0.368757 0.376976 F F F Li
0.368757 0.131243 0.432531 F F F Li
0.131243 0.131243 0.349198 F F F Li
0.131243 0.631243 0.432531 F F F Li
0.868757 0.131243 0.404754 F F F Li
0.131243 0.868757 0.404754 F F F Li
0.368757 0.868757 0.376976 F F F Li
0.868757 0.868757 0.349198 F F F Li
0.631243 0.868757 0.432531 F F F Li
0.868757 0.631243 0.376976 F F F Li
0.631243 0.631243 0.404754 F F F Li
0.631243 0.131243 0.376976 F F F Li
0.368757 0.631243 0.349198 F F F Li
0.631243 0.368757 0.349198 F F F Li
0.868757 0.368757 0.432531 F F F Li
0.368757 0.368757 0.515865 F F F Li
0.131243 0.368757 0.488087 F F F Li
0.368757 0.131243 0.543642 F F F Li
0.131243 0.131243 0.460309 F F F Li
0.131243 0.631243 0.543642 F F F Li
0.868757 0.131243 0.515865 F F F Li
0.131243 0.868757 0.515865 F F F Li
0.368757 0.868757 0.488087 F F F Li
0.868757 0.868757 0.460309 F F F Li
0.631243 0.868757 0.543642 F F F Li
0.868757 0.631243 0.488087 F F F Li
0.631243 0.631243 0.515865 F F F Li
0.631243 0.131243 0.488087 F F F Li
0.368757 0.631243 0.460309 F F F Li
0.631243 0.368757 0.460309 F F F Li
0.868757 0.368757 0.543642 F F F Li
0.368757 0.368757 0.626976 F F F Li
0.131243 0.368757 0.599198 F F F Li
0.368757 0.131243 0.654754 F F F Li
0.131243 0.131243 0.571420 F F F Li
0.131243 0.631243 0.654754 F F F Li
0.868757 0.131243 0.626976 F F F Li
0.131243 0.868757 0.626976 F F F Li
0.368757 0.868757 0.599198 F F F Li
0.868757 0.868757 0.571420 F F F Li
0.631243 0.868757 0.654754 F F F Li
0.868757 0.631243 0.599198 F F F Li
0.631243 0.631243 0.626976 F F F Li
0.631243 0.131243 0.599198 F F F Li
0.368757 0.631243 0.571420 F F F Li
0.631243 0.368757 0.571420 F F F Li
0.868757 0.368757 0.654754 F F F Li
0.368757 0.368757 0.738087 F F F Li
0.131243 0.368757 0.710309 F F F Li
0.368757 0.131243 0.765865 T T T Li
0.131243 0.131243 0.682531 F F F Li
0.131243 0.631243 0.765865 T T T Li
0.868757 0.131243 0.738087 F F F Li
0.131243 0.868757 0.738087 F F F Li
0.368757 0.868757 0.710309 F F F Li
0.868757 0.868757 0.682531 F F F Li
0.631243 0.868757 0.765865 T T T Li
0.868757 0.631243 0.710309 F F F Li
0.631243 0.631243 0.738087 F F F Li
0.631243 0.131243 0.710309 F F F Li
0.368757 0.631243 0.682531 F F F Li
0.631243 0.368757 0.682531 F F F Li
0.868757 0.368757 0.765865 T T T Li
0.178297 0.204492 0.053580 F F F P
0.295508 0.178297 0.025802 F F F P
0.204492 0.321703 0.081358 F F F P
0.321703 0.204492 0.061483 F F F P
0.178297 0.295508 0.005927 T T T P
0.321703 0.295508 0.109135 F F F P
0.295508 0.321703 0.033705 F F F P
0.204492 0.178297 0.089261 F F F P
0.821703 0.295508 0.061483 F F F P
0.204492 0.821703 0.033705 F F F P
0.295508 0.678297 0.089261 F F F P
0.178297 0.795508 0.109135 F F F P
0.321703 0.704492 0.053580 F F F P
0.678297 0.204492 0.005927 T T T P
0.704492 0.178297 0.081358 F F F P
0.795508 0.321703 0.025802 F F F P
0.186709 0.059719 0.046223 F F F P
0.440281 0.186709 0.018445 T T T P
0.559719 0.813291 0.018445 T T T P
0.813291 0.559719 0.013284 T T T P
0.186709 0.440281 0.013284 T T T P
0.313291 0.440281 0.101778 F F F P
0.440281 0.313291 0.041062 F F F P
0.059719 0.186709 0.096618 F F F P
0.313291 0.940281 0.013284 T T T P
0.559719 0.313291 0.096618 F F F P
0.940281 0.186709 0.041062 F F F P
0.686709 0.440281 0.046223 F F F P
0.813291 0.059719 0.101778 F F F P
0.686709 0.059719 0.013284 T T T P
0.059719 0.686709 0.018445 T T T P
0.940281 0.313291 0.018445 T T T P
0.423646 0.170523 0.048861 F F F P
0.329477 0.423646 0.021083 T T T P
0.170523 0.076354 0.076639 F F F P
0.076354 0.170523 0.066202 F F F P
0.423646 0.329477 0.010646 T T T P
0.076354 0.329477 0.104417 F F F P
0.329477 0.076354 0.038424 F F F P
0.170523 0.423646 0.093979 F F F P
0.576354 0.329477 0.066202 F F F P
0.670523 0.076354 0.093979 F F F P
0.829477 0.423646 0.038424 F F F P
0.923646 0.329477 0.048861 F F F P
0.576354 0.170523 0.104417 F F F P
0.923646 0.170523 0.010646 T T T P
0.170523 0.923646 0.021083 T T T P
0.329477 0.576354 0.076639 F F F P
0.540130 0.250000 0.029754 F F F P
0.250000 0.540129 0.001976 T T T P
0.250000 0.959871 0.057531 F F F P
0.459871 0.750000 0.029754 F F F P
0.459871 0.250000 0.085309 F F F P
0.750000 0.959871 0.001976 T T T P
0.250000 0.040129 0.001976 T T T P
0.040129 0.250000 0.029754 F F F P
0.678297 0.704492 0.109135 F F F P
0.795508 0.678297 0.081358 F F F P
0.704492 0.821703 0.025802 F F F P
0.821703 0.704492 0.005927 T T T P
0.678297 0.795508 0.061483 F F F P
0.821703 0.795508 0.053580 F F F P
0.795508 0.821703 0.089261 F F F P
0.704492 0.678297 0.033705 F F F P
0.321703 0.795508 0.005927 T T T P
0.704492 0.321703 0.089261 F F F P
0.795508 0.178297 0.033705 F F F P
0.678297 0.295508 0.053580 F F F P
0.821703 0.204492 0.109135 F F F P
0.178297 0.704492 0.061483 F F F P
0.204492 0.678297 0.025802 F F F P
0.295508 0.821703 0.081358 F F F P
0.686709 0.559719 0.101778 F F F P
0.940281 0.686709 0.074000 F F F P
0.059719 0.313291 0.074000 F F F P
0.313291 0.059719 0.068840 F F F P
0.686709 0.940281 0.068840 F F F P
0.813291 0.940281 0.046223 F F F P
0.940281 0.813291 0.096618 F F F P
0.559719 0.686709 0.041062 F F F P
0.813291 0.440281 0.068840 F F F P
0.059719 0.813291 0.041062 F F F P
0.440281 0.686709 0.096618 F F F P
0.186709 0.940281 0.101778 F F F P
0.313291 0.559719 0.046223 F F F P
0.186709 0.559719 0.068840 F F F P
0.559719 0.186709 0.074000 F F F P
0.440281 0.813291 0.074000 F F F P
0.923646 0.670523 0.104417 F F F P
0.829477 0.923646 0.076639 F F F P
0.670523 0.576354 0.021083 T T T P
0.576354 0.670523 0.010646 T T T P
0.923646 0.829477 0.066202 F F F P
0.576354 0.829477 0.048861 F F F P
0.829477 0.576354 0.093979 F F F P
0.670523 0.923646 0.038424 F F F P
0.076354 0.829477 0.010646 T T T P
0.170523 0.576354 0.038424 F F F P
0.329477 0.923646 0.093979 F F F P
0.423646 0.829477 0.104417 F F F P
0.076354 0.670523 0.048861 F F F P
0.423646 0.670523 0.066202 F F F P
0.670523 0.423646 0.076639 F F F P
0.829477 0.076354 0.021083 T T T P
0.040129 0.750000 0.085309 F F F P
0.750000 0.040129 0.057531 F F F P
0.750000 0.459871 0.001976 T T T P
0.959871 0.250000 0.085309 F F F P
0.959871 0.750000 0.029754 F F F P
0.250000 0.459871 0.057531 F F F P
0.750000 0.540129 0.057531 F F F P
0.540129 0.750000 0.085309 F F F P
0.178297 0.204492 0.164691 F F F P
0.295508 0.178297 0.136913 F F F P
0.204492 0.321703 0.192469 F F F P
0.321703 0.204492 0.172594 F F F P
0.178297 0.295508 0.117038 F F F P
0.321703 0.295508 0.220246 F F F P
0.295508 0.321703 0.144816 F F F P
0.204492 0.178297 0.200372 F F F P
0.821703 0.295508 0.172594 F F F P
0.204492 0.821703 0.144816 F F F P
0.295508 0.678297 0.200372 F F F P
0.178297 0.795508 0.220246 F F F P
0.321703 0.704492 0.164691 F F F P
0.678297 0.204492 0.117038 F F F P
0.704492 0.178297 0.192469 F F F P
0.795508 0.321703 0.136913 F F F P
0.186709 0.059719 0.157334 F F F P
0.440281 0.186709 0.129556 F F F P
0.559719 0.813291 0.129556 F F F P
0.813291 0.559719 0.124396 F F F P
0.186709 0.440281 0.124396 F F F P
0.313291 0.440281 0.212889 F F F P
0.440281 0.313291 0.152173 F F F P
0.059719 0.186709 0.207729 F F F P
0.313291 0.940281 0.124396 F F F P
0.559719 0.313291 0.207729 F F F P
0.940281 0.186709 0.152173 F F F P
0.686709 0.440281 0.157334 F F F P
0.813291 0.059719 0.212889 F F F P
0.686709 0.059719 0.124396 F F F P
0.059719 0.686709 0.129556 F F F P
0.940281 0.313291 0.129556 F F F P
0.423646 0.170523 0.159972 F F F P
0.329477 0.423646 0.132194 F F F P
0.170523 0.076354 0.187750 F F F P
0.076354 0.170523 0.177313 F F F P
0.423646 0.329477 0.121757 F F F P
0.076354 0.329477 0.215528 F F F P
0.329477 0.076354 0.149535 F F F P
0.170523 0.423646 0.205090 F F F P
0.576354 0.329477 0.177313 F F F P
0.670523 0.076354 0.205090 F F F P
0.829477 0.423646 0.149535 F F F P
0.923646 0.329477 0.159972 F F F P
0.576354 0.170523 0.215528 F F F P
0.923646 0.170523 0.121757 F F F P
0.170523 0.923646 0.132194 F F F P
0.329477 0.576354 0.187750 F F F P
0.540130 0.250000 0.140865 F F F P
0.250000 0.540129 0.113087 F F F P
0.250000 0.959871 0.168642 F F F P
0.459871 0.750000 0.140865 F F F P
0.459871 0.250000 0.196420 F F F P
0.750000 0.959871 0.113087 F F F P
0.250000 0.040129 0.113087 F F F P
0.040129 0.250000 0.140865 F F F P
0.678297 0.704492 0.220246 F F F P
0.795508 0.678297 0.192469 F F F P
0.704492 0.821703 0.136913 F F F P
0.821703 0.704492 0.117038 F F F P
0.678297 0.795508 0.172594 F F F P
0.821703 0.795508 0.164691 F F F P
0.795508 0.821703 0.200372 F F F P
0.704492 0.678297 0.144816 F F F P
0.321703 0.795508 0.117038 F F F P
0.704492 0.321703 0.200372 F F F P
0.795508 0.178297 0.144816 F F F P
0.678297 0.295508 0.164691 F F F P
0.821703 0.204492 0.220246 F F F P
0.178297 0.704492 0.172594 F F F P
0.204492 0.678297 0.136913 F F F P
0.295508 0.821703 0.192469 F F F P
0.686709 0.559719 0.212889 F F F P
0.940281 0.686709 0.185112 F F F P
0.059719 0.313291 0.185112 F F F P
0.313291 0.059719 0.179951 F F F P
0.686709 0.940281 0.179951 F F F P
0.813291 0.940281 0.157334 F F F P
0.940281 0.813291 0.207729 F F F P
0.559719 0.686709 0.152173 F F F P
0.813291 0.440281 0.179951 F F F P
0.059719 0.813291 0.152173 F F F P
0.440281 0.686709 0.207729 F F F P
0.186709 0.940281 0.212889 F F F P
0.313291 0.559719 0.157334 F F F P
0.186709 0.559719 0.179951 F F F P
0.559719 0.186709 0.185112 F F F P
0.440281 0.813291 0.185112 F F F P
0.923646 0.670523 0.215528 F F F P
0.829477 0.923646 0.187750 F F F P
0.670523 0.576354 0.132194 F F F P
0.576354 0.670523 0.121757 F F F P
0.923646 0.829477 0.177313 F F F P
0.576354 0.829477 0.159972 F F F P
0.829477 0.576354 0.205090 F F F P
0.670523 0.923646 0.149535 F F F P
0.076354 0.829477 0.121757 F F F P
0.170523 0.576354 0.149535 F F F P
0.329477 0.923646 0.205090 F F F P
0.423646 0.829477 0.215528 F F F P
0.076354 0.670523 0.159972 F F F P
0.423646 0.670523 0.177313 F F F P
0.670523 0.423646 0.187750 F F F P
0.829477 0.076354 0.132194 F F F P
0.040129 0.750000 0.196420 F F F P
0.750000 0.040129 0.168642 F F F P
0.750000 0.459871 0.113087 F F F P
0.959871 0.250000 0.196420 F F F P
0.959871 0.750000 0.140865 F F F P
0.250000 0.459871 0.168642 F F F P
0.750000 0.540129 0.168642 F F F P
0.540129 0.750000 0.196420 F F F P
0.178297 0.204492 0.275802 F F F P
0.295508 0.178297 0.248024 F F F P
0.204492 0.321703 0.303580 F F F P
0.321703 0.204492 0.283705 F F F P
0.178297 0.295508 0.228149 F F F P
0.321703 0.295508 0.331358 F F F P
0.295508 0.321703 0.255927 F F F P
0.204492 0.178297 0.311483 F F F P
0.821703 0.295508 0.283705 F F F P
0.204492 0.821703 0.255927 F F F P
0.295508 0.678297 0.311483 F F F P
0.178297 0.795508 0.331358 F F F P
0.321703 0.704492 0.275802 F F F P
0.678297 0.204492 0.228149 F F F P
0.704492 0.178297 0.303580 F F F P
0.795508 0.321703 0.248024 F F F P
0.186709 0.059719 0.268445 F F F P
0.440281 0.186709 0.240667 F F F P
0.559719 0.813291 0.240667 F F F P
0.813291 0.559719 0.235507 F F F P
0.186709 0.440281 0.235507 F F F P
0.313291 0.440281 0.324000 F F F P
0.440281 0.313291 0.263284 F F F P
0.059719 0.186709 0.318840 F F F P
0.313291 0.940281 0.235507 F F F P
0.559719 0.313291 0.318840 F F F P
0.940281 0.186709 0.263284 F F F P
0.686709 0.440281 0.268445 F F F P
0.813291 0.059719 0.324000 F F F P
0.686709 0.059719 0.235507 F F F P
0.059719 0.686709 0.240667 F F F P
0.940281 0.313291 0.240667 F F F P
0.423646 0.170523 0.271083 F F F P
0.329477 0.423646 0.243306 F F F P
0.170523 0.076354 0.298861 F F F P
0.076354 0.170523 0.288424 F F F P
0.423646 0.329477 0.232868 F F F P
0.076354 0.329477 0.326639 F F F P
0.329477 0.076354 0.260646 F F F P
0.170523 0.423646 0.316202 F F F P
0.576354 0.329477 0.288424 F F F P
0.670523 0.076354 0.316202 F F F P
0.829477 0.423646 0.260646 F F F P
0.923646 0.329477 0.271083 F F F P
0.576354 0.170523 0.326639 F F F P
0.923646 0.170523 0.232868 F F F P
0.170523 0.923646 0.243306 F F F P
0.329477 0.576354 0.298861 F F F P
0.540130 0.250000 0.251976 F F F P
0.250000 0.540129 0.224198 F F F P
0.250000 0.959871 0.279754 F F F P
0.459871 0.750000 0.251976 F F F P
0.459871 0.250000 0.307531 F F F P
0.750000 0.959871 0.224198 F F F P
0.250000 0.040129 0.224198 F F F P
0.040129 0.250000 0.251976 F F F P
0.678297 0.704492 0.331358 F F F P
0.795508 0.678297 0.303580 F F F P
0.704492 0.821703 0.248024 F F F P
0.821703 0.704492 0.228149 F F F P
0.678297 0.795508 0.283705 F F F P
0.821703 0.795508 0.275802 F F F P
0.795508 0.821703 0.311483 F F F P
0.704492 0.678297 0.255927 F F F P
0.321703 0.795508 0.228149 F F F P
0.704492 0.321703 0.311483 F F F P
0.795508 0.178297 0.255927 F F F P
0.678297 0.295508 0.275802 F F F P
0.821703 0.204492 0.331358 F F F P
0.178297 0.704492 0.283705 F F F P
0.204492 0.678297 0.248024 F F F P
0.295508 0.821703 0.303580 F F F P
0.686709 0.559719 0.324000 F F F P
0.940281 0.686709 0.296223 F F F P
0.059719 0.313291 0.296223 F F F P
0.313291 0.059719 0.291062 F F F P
0.686709 0.940281 0.291062 F F F P
0.813291 0.940281 0.268445 F F F P
0.940281 0.813291 0.318840 F F F P
0.559719 0.686709 0.263284 F F F P
0.813291 0.440281 0.291062 F F F P
0.059719 0.813291 0.263284 F F F P
0.440281 0.686709 0.318840 F F F P
0.186709 0.940281 0.324000 F F F P
0.313291 0.559719 0.268445 F F F P
0.186709 0.559719 0.291062 F F F P
0.559719 0.186709 0.296223 F F F P
0.440281 0.813291 0.296223 F F F P
0.923646 0.670523 0.326639 F F F P
0.829477 0.923646 0.298861 F F F P
0.670523 0.576354 0.243306 F F F P
0.576354 0.670523 0.232868 F F F P
0.923646 0.829477 0.288424 F F F P
0.576354 0.829477 0.271083 F F F P
0.829477 0.576354 0.316202 F F F P
0.670523 0.923646 0.260646 F F F P
0.076354 0.829477 0.232868 F F F P
0.170523 0.576354 0.260646 F F F P
0.329477 0.923646 0.316202 F F F P
0.423646 0.829477 0.326639 F F F P
0.076354 0.670523 0.271083 F F F P
0.423646 0.670523 0.288424 F F F P
0.670523 0.423646 0.298861 F F F P
0.829477 0.076354 0.243306 F F F P
0.040129 0.750000 0.307531 F F F P
0.750000 0.040129 0.279754 F F F P
0.750000 0.459871 0.224198 F F F P
0.959871 0.250000 0.307531 F F F P
0.959871 0.750000 0.251976 F F F P
0.250000 0.459871 0.279754 F F F P
0.750000 0.540129 0.279754 F F F P
0.540129 0.750000 0.307531 F F F P
0.178297 0.204492 0.386913 F F F P
0.295508 0.178297 0.359135 F F F P
0.204492 0.321703 0.414691 F F F P
0.321703 0.204492 0.394816 F F F P
0.178297 0.295508 0.339261 F F F P
0.321703 0.295508 0.442469 F F F P
0.295508 0.321703 0.367038 F F F P
0.204492 0.178297 0.422594 F F F P
0.821703 0.295508 0.394816 F F F P
0.204492 0.821703 0.367038 F F F P
0.295508 0.678297 0.422594 F F F P
0.178297 0.795508 0.442469 F F F P
0.321703 0.704492 0.386913 F F F P
0.678297 0.204492 0.339261 F F F P
0.704492 0.178297 0.414691 F F F P
0.795508 0.321703 0.359135 F F F P
0.186709 0.059719 0.379556 F F F P
0.440281 0.186709 0.351778 F F F P
0.559719 0.813291 0.351778 F F F P
0.813291 0.559719 0.346618 F F F P
0.186709 0.440281 0.346618 F F F P
0.313291 0.440281 0.435112 F F F P
0.440281 0.313291 0.374396 F F F P
0.059719 0.186709 0.429951 F F F P
0.313291 0.940281 0.346618 F F F P
0.559719 0.313291 0.429951 F F F P
0.940281 0.186709 0.374396 F F F P
0.686709 0.440281 0.379556 F F F P
0.813291 0.059719 0.435112 F F F P
0.686709 0.059719 0.346618 F F F P
0.059719 0.686709 0.351778 F F F P
0.940281 0.313291 0.351778 F F F P
0.423646 0.170523 0.382194 F F F P
0.329477 0.423646 0.354417 F F F P
0.170523 0.076354 0.409972 F F F P
0.076354 0.170523 0.399535 F F F P
0.423646 0.329477 0.343979 F F F P
0.076354 0.329477 0.437750 F F F P
0.329477 0.076354 0.371757 F F F P
0.170523 0.423646 0.427313 F F F P
0.576354 0.329477 0.399535 F F F P
0.670523 0.076354 0.427313 F F F P
0.829477 0.423646 0.371757 F F F P
0.923646 0.329477 0.382194 F F F P
0.576354 0.170523 0.437750 F F F P
0.923646 0.170523 0.343979 F F F P
0.170523 0.923646 0.354417 F F F P
0.329477 0.576354 0.409972 F F F P
0.540130 0.250000 0.363087 F F F P
0.250000 0.540129 0.335309 F F F P
0.250000 0.959871 0.390865 F F F P
0.459871 0.750000 0.363087 F F F P
0.459871 0.250000 0.418642 F F F P
0.750000 0.959871 0.335309 F F F P
0.250000 0.040129 0.335309 F F F P
0.040129 0.250000 0.363087 F F F P
0.678297 0.704492 0.442469 F F F P
0.795508 0.678297 0.414691 F F F P
0.704492 0.821703 0.359135 F F F P
0.821703 0.704492 0.339261 F F F P
0.678297 0.795508 0.394816 F F F P
0.821703 0.795508 0.386913 F F F P
0.795508 0.821703 0.422594 F F F P
0.704492 0.678297 0.367038 F F F P
0.321703 0.795508 0.339261 F F F P
0.704492 0.321703 0.422594 F F F P
0.795508 0.178297 0.367038 F F F P
0.678297 0.295508 0.386913 F F F P
0.821703 0.204492 0.442469 F F F P
0.178297 0.704492 0.394816 F F F P
0.204492 0.678297 0.359135 F F F P
0.295508 0.821703 0.414691 F F F P
0.686709 0.559719 0.435112 F F F P
0.940281 0.686709 0.407334 F F F P
0.059719 0.313291 0.407334 F F F P
0.313291 0.059719 0.402173 F F F P
0.686709 0.940281 0.402173 F F F P
0.813291 0.940281 0.379556 F F F P
0.940281 0.813291 0.429951 F F F P
0.559719 0.686709 0.374396 F F F P
0.813291 0.440281 0.402173 F F F P
0.059719 0.813291 0.374396 F F F P
0.440281 0.686709 0.429951 F F F P
0.186709 0.940281 0.435112 F F F P
0.313291 0.559719 0.379556 F F F P
0.186709 0.559719 0.402173 F F F P
0.559719 0.186709 0.407334 F F F P
0.440281 0.813291 0.407334 F F F P
0.923646 0.670523 0.437750 F F F P
0.829477 0.923646 0.409972 F F F P
0.670523 0.576354 0.354417 F F F P
0.576354 0.670523 0.343979 F F F P
0.923646 0.829477 0.399535 F F F P
0.576354 0.829477 0.382194 F F F P
0.829477 0.576354 0.427313 F F F P
0.670523 0.923646 0.371757 F F F P
0.076354 0.829477 0.343979 F F F P
0.170523 0.576354 0.371757 F F F P
0.329477 0.923646 0.427313 F F F P
0.423646 0.829477 0.437750 F F F P
0.076354 0.670523 0.382194 F F F P
0.423646 0.670523 0.399535 F F F P
0.670523 0.423646 0.409972 F F F P
0.829477 0.076354 0.354417 F F F P
0.040129 0.750000 0.418642 F F F P
0.750000 0.040129 0.390865 F F F P
0.750000 0.459871 0.335309 F F F P
0.959871 0.250000 0.418642 F F F P
0.959871 0.750000 0.363087 F F F P
0.250000 0.459871 0.390865 F F F P
0.750000 0.540129 0.390865 F F F P
0.540129 0.750000 0.418642 F F F P
0.178297 0.204492 0.498024 F F F P
0.295508 0.178297 0.470246 F F F P
0.204492 0.321703 0.525802 F F F P
0.321703 0.204492 0.505927 F F F P
0.178297 0.295508 0.450372 F F F P
0.321703 0.295508 0.553580 F F F P
0.295508 0.321703 0.478149 F F F P
0.204492 0.178297 0.533705 F F F P
0.821703 0.295508 0.505927 F F F P
0.204492 0.821703 0.478149 F F F P
0.295508 0.678297 0.533705 F F F P
0.178297 0.795508 0.553580 F F F P
0.321703 0.704492 0.498024 F F F P
0.678297 0.204492 0.450372 F F F P
0.704492 0.178297 0.525802 F F F P
0.795508 0.321703 0.470246 F F F P
0.186709 0.059719 0.490667 F F F P
0.440281 0.186709 0.462889 F F F P
0.559719 0.813291 0.462889 F F F P
0.813291 0.559719 0.457729 F F F P
0.186709 0.440281 0.457729 F F F P
0.313291 0.440281 0.546223 F F F P
0.440281 0.313291 0.485507 F F F P
0.059719 0.186709 0.541062 F F F P
0.313291 0.940281 0.457729 F F F P
0.559719 0.313291 0.541062 F F F P
0.940281 0.186709 0.485507 F F F P
0.686709 0.440281 0.490667 F F F P
0.813291 0.059719 0.546223 F F F P
0.686709 0.059719 0.457729 F F F P
0.059719 0.686709 0.462889 F F F P
0.940281 0.313291 0.462889 F F F P
0.423646 0.170523 0.493306 F F F P
0.329477 0.423646 0.465528 F F F P
0.170523 0.076354 0.521083 F F F P
0.076354 0.170523 0.510646 F F F P
0.423646 0.329477 0.455090 F F F P
0.076354 0.329477 0.548861 F F F P
0.329477 0.076354 0.482868 F F F P
0.170523 0.423646 0.538424 F F F P
0.576354 0.329477 0.510646 F F F P
0.670523 0.076354 0.538424 F F F P
0.829477 0.423646 0.482868 F F F P
0.923646 0.329477 0.493306 F F F P
0.576354 0.170523 0.548861 F F F P
0.923646 0.170523 0.455090 F F F P
0.170523 0.923646 0.465528 F F F P
0.329477 0.576354 0.521083 F F F P
0.540130 0.250000 0.474198 F F F P
0.250000 0.540129 0.446420 F F F P
0.250000 0.959871 0.501976 F F F P
0.459871 0.750000 0.474198 F F F P
0.459871 0.250000 0.529754 F F F P
0.750000 0.959871 0.446420 F F F P
0.250000 0.040129 0.446420 F F F P
0.040129 0.250000 0.474198 F F F P
0.678297 0.704492 0.553580 F F F P
0.795508 0.678297 0.525802 F F F P
0.704492 0.821703 0.470246 F F F P
0.821703 0.704492 0.450372 F F F P
0.678297 0.795508 0.505927 F F F P
0.821703 0.795508 0.498024 F F F P
0.795508 0.821703 0.533705 F F F P
0.704492 0.678297 0.478149 F F F P
0.321703 0.795508 0.450372 F F F P
0.704492 0.321703 0.533705 F F F P
0.795508 0.178297 0.478149 F F F P
0.678297 0.295508 0.498024 F F F P
0.821703 0.204492 0.553580 F F F P
0.178297 0.704492 0.505927 F F F P
0.204492 0.678297 0.470246 F F F P
0.295508 0.821703 0.525802 F F F P
0.686709 0.559719 0.546223 F F F P
0.940281 0.686709 0.518445 F F F P
0.059719 0.313291 0.518445 F F F P
0.313291 0.059719 0.513284 F F F P
0.686709 0.940281 0.513284 F F F P
0.813291 0.940281 0.490667 F F F P
0.940281 0.813291 0.541062 F F F P
0.559719 0.686709 0.485507 F F F P
0.813291 0.440281 0.513284 F F F P
0.059719 0.813291 0.485507 F F F P
0.440281 0.686709 0.541062 F F F P
0.186709 0.940281 0.546223 F F F P
0.313291 0.559719 0.490667 F F F P
0.186709 0.559719 0.513284 F F F P
0.559719 0.186709 0.518445 F F F P
0.440281 0.813291 0.518445 F F F P
0.923646 0.670523 0.548861 F F F P
0.829477 0.923646 0.521083 F F F P
0.670523 0.576354 0.465528 F F F P
0.576354 0.670523 0.455090 F F F P
0.923646 0.829477 0.510646 F F F P
0.576354 0.829477 0.493306 F F F P
0.829477 0.576354 0.538424 F F F P
0.670523 0.923646 0.482868 F F F P
0.076354 0.829477 0.455090 F F F P
0.170523 0.576354 0.482868 F F F P
0.329477 0.923646 0.538424 F F F P
0.423646 0.829477 0.548861 F F F P
0.076354 0.670523 0.493306 F F F P
0.423646 0.670523 0.510646 F F F P
0.670523 0.423646 0.521083 F F F P
0.829477 0.076354 0.465528 F F F P
0.040129 0.750000 0.529754 F F F P
0.750000 0.040129 0.501976 F F F P
0.750000 0.459871 0.446420 F F F P
0.959871 0.250000 0.529754 F F F P
0.959871 0.750000 0.474198 F F F P
0.250000 0.459871 0.501976 F F F P
0.750000 0.540129 0.501976 F F F P
0.540129 0.750000 0.529754 F F F P
0.178297 0.204492 0.609135 F F F P
0.295508 0.178297 0.581358 F F F P
0.204492 0.321703 0.636913 F F F P
0.321703 0.204492 0.617038 F F F P
0.178297 0.295508 0.561483 F F F P
0.321703 0.295508 0.664691 F F F P
0.295508 0.321703 0.589261 F F F P
0.204492 0.178297 0.644816 F F F P
0.821703 0.295508 0.617038 F F F P
0.204492 0.821703 0.589261 F F F P
0.295508 0.678297 0.644816 F F F P
0.178297 0.795508 0.664691 F F F P
0.321703 0.704492 0.609135 F F F P
0.678297 0.204492 0.561483 F F F P
0.704492 0.178297 0.636913 F F F P
0.795508 0.321703 0.581358 F F F P
0.186709 0.059719 0.601778 F F F P
0.440281 0.186709 0.574000 F F F P
0.559719 0.813291 0.574000 F F F P
0.813291 0.559719 0.568840 F F F P
0.186709 0.440281 0.568840 F F F P
0.313291 0.440281 0.657334 F F F P
0.440281 0.313291 0.596618 F F F P
0.059719 0.186709 0.652173 F F F P
0.313291 0.940281 0.568840 F F F P
0.559719 0.313291 0.652173 F F F P
0.940281 0.186709 0.596618 F F F P
0.686709 0.440281 0.601778 F F F P
0.813291 0.059719 0.657334 F F F P
0.686709 0.059719 0.568840 F F F P
0.059719 0.686709 0.574000 F F F P
0.940281 0.313291 0.574000 F F F P
0.423646 0.170523 0.604417 F F F P
0.329477 0.423646 0.576639 F F F P
0.170523 0.076354 0.632194 F F F P
0.076354 0.170523 0.621757 F F F P
0.423646 0.329477 0.566202 F F F P
0.076354 0.329477 0.659972 F F F P
0.329477 0.076354 0.593979 F F F P
0.170523 0.423646 0.649535 F F F P
0.576354 0.329477 0.621757 F F F P
0.670523 0.076354 0.649535 F F F P
0.829477 0.423646 0.593979 F F F P
0.923646 0.329477 0.604417 F F F P
0.576354 0.170523 0.659972 F F F P
0.923646 0.170523 0.566202 F F F P
0.170523 0.923646 0.576639 F F F P
0.329477 0.576354 0.632194 F F F P
0.540130 0.250000 0.585309 F F F P
0.250000 0.540129 0.557531 F F F P
0.250000 0.959871 0.613087 F F F P
0.459871 0.750000 0.585309 F F F P
0.459871 0.250000 0.640865 F F F P
0.750000 0.959871 0.557531 F F F P
0.250000 0.040129 0.557531 F F F P
0.040129 0.250000 0.585309 F F F P
0.678297 0.704492 0.664691 F F F P
0.795508 0.678297 0.636913 F F F P
0.704492 0.821703 0.581358 F F F P
0.821703 0.704492 0.561483 F F F P
0.678297 0.795508 0.617038 F F F P
0.821703 0.795508 0.609135 F F F P
0.795508 0.821703 0.644816 F F F P
0.704492 0.678297 0.589261 F F F P
0.321703 0.795508 0.561483 F F F P
0.704492 0.321703 0.644816 F F F P
0.795508 0.178297 0.589261 F F F P
0.678297 0.295508 0.609135 F F F P
0.821703 0.204492 0.664691 F F F P
0.178297 0.704492 0.617038 F F F P
0.204492 0.678297 0.581358 F F F P
0.295508 0.821703 0.636913 F F F P
0.686709 0.559719 0.657334 F F F P
0.940281 0.686709 0.629556 F F F P
0.059719 0.313291 0.629556 F F F P
0.313291 0.059719 0.624396 F F F P
0.686709 0.940281 0.624396 F F F P
0.813291 0.940281 0.601778 F F F P
0.940281 0.813291 0.652173 F F F P
0.559719 0.686709 0.596618 F F F P
0.813291 0.440281 0.624396 F F F P
0.059719 0.813291 0.596618 F F F P
0.440281 0.686709 0.652173 F F F P
0.186709 0.940281 0.657334 F F F P
0.313291 0.559719 0.601778 F F F P
0.186709 0.559719 0.624396 F F F P
0.559719 0.186709 0.629556 F F F P
0.440281 0.813291 0.629556 F F F P
0.923646 0.670523 0.659972 F F F P
0.829477 0.923646 0.632194 F F F P
0.670523 0.576354 0.576639 F F F P
0.576354 0.670523 0.566202 F F F P
0.923646 0.829477 0.621757 F F F P
0.576354 0.829477 0.604417 F F F P
0.829477 0.576354 0.649535 F F F P
0.670523 0.923646 0.593979 F F F P
0.076354 0.829477 0.566202 F F F P
0.170523 0.576354 0.593979 F F F P
0.329477 0.923646 0.649535 F F F P
0.423646 0.829477 0.659972 F F F P
0.076354 0.670523 0.604417 F F F P
0.423646 0.670523 0.621757 F F F P
0.670523 0.423646 0.632194 F F F P
0.829477 0.076354 0.576639 F F F P
0.040129 0.750000 0.640865 F F F P
0.750000 0.040129 0.613087 F F F P
0.750000 0.459871 0.557531 F F F P
0.959871 0.250000 0.640865 F F F P
0.959871 0.750000 0.585309 F F F P
0.250000 0.459871 0.613087 F F F P
0.750000 0.540129 0.613087 F F F P
0.540129 0.750000 0.640865 F F F P
0.178297 0.204492 0.720246 F F F P
0.295508 0.178297 0.692469 F F F P
0.204492 0.321703 0.748024 F F F P
0.321703 0.204492 0.728149 F F F P
0.178297 0.295508 0.672594 F F F P
0.321703 0.295508 0.775802 T T T P
0.295508 0.321703 0.700372 F F F P
0.204492 0.178297 0.755927 F F F P
0.821703 0.295508 0.728149 F F F P
0.204492 0.821703 0.700372 F F F P
0.295508 0.678297 0.755927 F F F P
0.178297 0.795508 0.775802 T T T P
0.321703 0.704492 0.720246 F F F P
0.678297 0.204492 0.672594 F F F P
0.704492 0.178297 0.748024 F F F P
0.795508 0.321703 0.692469 F F F P
0.186709 0.059719 0.712889 F F F P
0.440281 0.186709 0.685112 F F F P
0.559719 0.813291 0.685112 F F F P
0.813291 0.559719 0.679951 F F F P
0.186709 0.440281 0.679951 F F F P
0.313291 0.440281 0.768445 T T T P
0.440281 0.313291 0.707729 F F F P
0.059719 0.186709 0.763284 T T T P
0.313291 0.940281 0.679951 F F F P
0.559719 0.313291 0.763284 T T T P
0.940281 0.186709 0.707729 F F F P
0.686709 0.440281 0.712889 F F F P
0.813291 0.059719 0.768445 T T T P
0.686709 0.059719 0.679951 F F F P
0.059719 0.686709 0.685112 F F F P
0.940281 0.313291 0.685112 F F F P
0.423646 0.170523 0.715528 F F F P
0.329477 0.423646 0.687750 F F F P
0.170523 0.076354 0.743306 F F F P
0.076354 0.170523 0.732868 F F F P
0.423646 0.329477 0.677313 F F F P
0.076354 0.329477 0.771083 T T T P
0.329477 0.076354 0.705090 F F F P
0.170523 0.423646 0.760646 T T T P
0.576354 0.329477 0.732868 F F F P
0.670523 0.076354 0.760646 T T T P
0.829477 0.423646 0.705090 F F F P
0.923646 0.329477 0.715528 F F F P
0.576354 0.170523 0.771083 T T T P
0.923646 0.170523 0.677313 F F F P
0.170523 0.923646 0.687750 F F F P
0.329477 0.576354 0.743306 F F F P
0.540130 0.250000 0.696420 F F F P
0.250000 0.540129 0.668642 F F F P
0.250000 0.959871 0.724198 F F F P
0.459871 0.750000 0.696420 F F F P
0.459871 0.250000 0.751976 F F F P
0.750000 0.959871 0.668642 F F F P
0.250000 0.040129 0.668642 F F F P
0.040129 0.250000 0.696420 F F F P
0.678297 0.704492 0.775802 T T T P
0.795508 0.678297 0.748024 F F F P
0.704492 0.821703 0.692469 F F F P
0.821703 0.704492 0.672594 F F F P
0.678297 0.795508 0.728149 F F F P
0.821703 0.795508 0.720246 F F F P
0.795508 0.821703 0.755927 F F F P
0.704492 0.678297 0.700372 F F F P
0.321703 0.795508 0.672594 F F F P