Li5 P2 N1 O6                            
   1.00000000000000     
     0.0891443190295165   -0.0122836565756759    5.0207821823812013
     5.9067902836445780    0.2491954334648626    0.0995904618395851
     0.2277345141629706    5.4917061660593349   -0.0082916157990314
   Li   P    N    O 
     5     2     1     6
Direct
  0.4330128406782651  0.0599089705263123  0.6810448405234394
 -0.0055562499378932  0.4975508657495047  0.1447956026728278
  0.4390558751592190  0.4389970354324668  0.3634950361026249
 -0.0163615045881778  0.7841582626652911  0.6819595754915542
 -0.0080232117880796  0.2906449662656960  0.6909833421334952
  0.5066743693732828  0.5399819110537936  0.8264280241106325
  0.1226570773839972  0.0033084458331013  0.2061869062986549
  0.1535834402156433  0.2014310085838878  0.3667401414160130
  0.5970797238929044  0.7692930881832188  0.7005689504893100
  0.0946434407381919  0.7603500852830455  0.3176390630232786
  0.6130698398608813  0.3451823566475671  0.6702419106480854
  0.6263591187704632  0.5002639121826423  0.0850064874472226
  0.1125480954924907  0.0253026966685222  0.9263494066470092
  0.1955031447488362  0.5307533949249492  0.8305227129958521
 
  0.00000000E+00  0.00000000E+00  0.00000000E+00
  0.00000000E+00  0.00000000E+00  0.00000000E+00
  0.00000000E+00  0.00000000E+00  0.00000000E+00
  0.00000000E+00  0.00000000E+00  0.00000000E+00
  0.00000000E+00  0.00000000E+00  0.00000000E+00
  0.00000000E+00  0.00000000E+00  0.00000000E+00
  0.00000000E+00  0.00000000E+00  0.00000000E+00
  0.00000000E+00  0.00000000E+00  0.00000000E+00
  0.00000000E+00  0.00000000E+00  0.00000000E+00
  0.00000000E+00  0.00000000E+00  0.00000000E+00
  0.00000000E+00  0.00000000E+00  0.00000000E+00
  0.00000000E+00  0.00000000E+00  0.00000000E+00
  0.00000000E+00  0.00000000E+00  0.00000000E+00
  0.00000000E+00  0.00000000E+00  0.00000000E+00
