Li73 P24 N1 O95                         
   1.00000000000000     
    14.7057869104191603   -0.0077185602632865    0.0097427791917848
    -0.0054714841351358   10.5734218172725605   -0.0027923705952499
     0.0080776786818060   -0.0031796077819476   12.3263659512970243
   Li   P    N    O 
    73    24     1    95
Direct
  0.1147971141629792  0.4967825569531858  0.1023628715857402
  0.1714229343325311  0.4215899938285829  0.4977038485117299
  0.1704092165822028  0.9266693151324380 -0.0007756232884892
  0.1700711791076902  0.9200439251563384  0.4996834133383415
  0.5024210070019413  0.4206359525772760  0.0002162907482285
  0.5038217659761066  0.4221656153459711  0.4988831801936162
  0.5032879860841358  0.9226041724165134 -0.0003962678002644
  0.5044555481403847  0.9216469479998017  0.4997775737229740
  0.8353414313637947  0.4231214434614529 -0.0007022712683276
  0.8394670104210087  0.4216325155008769  0.4987661308437852
  0.8363689013614586  0.9217514830621836 -0.0003698657105513
  0.8369494324723432  0.9209664450983117  0.4995944431189909
  0.0043401810150408  0.0758847951834062  0.2502798641781669
  0.0033458323504680  0.0772572421545836  0.7485593943812686
  0.0010858356882711  0.5779712956915413  0.2546403012536892
  0.0029126785943615  0.5746484581036654  0.7467594642797450
  0.3359931010280603  0.0801178291808151  0.2528533269452160
  0.3369621501638130  0.0763787704859888  0.7487490278899064
  0.3343429017298488  0.5736016592867957  0.2532190037084532
  0.3368018797822758  0.5774044221832002  0.7473416488703813
  0.6714136907575414  0.0769182502008802  0.2503126519527047
  0.6701437715595550  0.0771626294481132  0.7491427675233625
  0.6700737806876597  0.5766017618906539  0.2505224603699739
  0.6698711166438506  0.5763615158355658  0.7488996293383398
  0.1697183535046022  0.1681229563009043  0.1293286795492513
  0.1707513414291496  0.1626763011299661  0.6234054364689043
  0.1808256324976427  0.6810895671670454  0.1296835295012777
  0.1698582852069539  0.6620794413131164  0.6258397212247629
  0.5042044747888785  0.1626598344752878  0.1268805513032428
  0.5037018071981417  0.1625697176931367  0.6254781793664853
  0.5031579743144181  0.6626140404259524  0.1272900638718096
  0.5037562579030268  0.6630578746733321  0.6253037783420918
  0.8359793091622372  0.1620684268235452  0.1258911243815392
  0.8368737466294647  0.1623595355397804  0.6260537826558674
  0.8331442406200855  0.6643583980287925  0.1270388704412210
  0.8362900510701645  0.6628112808165194  0.6261862618696198
 -0.0024409194467727  0.3298235287214940  0.1235196016974388
  0.0043589235037791  0.3348434271165872  0.6223241834367222
  0.0035573106874392  0.8361684910892783  0.1225787617667665
  0.0028989604302254  0.8358246223025791  0.6237023027199231
  0.3374891995492423  0.3339832225922512  0.1312366775825854
  0.3364250020463826  0.3362307108843309  0.6196782286143716
  0.3391696025948718  0.8403860704193880  0.1241659684282410
  0.3368378848248496  0.8361935434441329  0.6233941426589281
  0.6701365645788758  0.3362792236013110  0.1240980580521990
  0.6711992863402199  0.3357441072582089  0.6225912396202800
  0.6689904082172066  0.8367184001980940  0.1232941726671696
  0.6701493051177247  0.8360816650279435  0.6230769819842855
  0.0153552122951342  0.3367934988360566  0.3728820858056547
  0.0034758264245284  0.3349119472556951  0.8754555704767206
  0.0040076499710936  0.8360990045480293  0.3760181798575720
  0.0015017671023660  0.8382692218482259  0.8741787150464252
  0.3337708361107220  0.3350975583515224  0.3785497871003187
  0.3431320865205026  0.3311046775165372  0.8677317306778054
  0.3374397501683047  0.8365252910646692  0.3766979643573436
  0.3357640281393335  0.8374339415301363  0.8758266914832639
  0.6709885905583404  0.3357090495156282  0.3768334543588689
  0.6691271125234037  0.3360660127877647  0.8759145057142478
  0.6703952986539989  0.8360489862125571  0.3758400919105866
  0.6692542184184755  0.8367642253910555  0.8758315246963405
  0.1707380729504356  0.1640330446003324  0.3771352078303282
  0.1695137256724429  0.1610810275102219  0.8717934091395784
  0.1706525044225163  0.6594965843519091  0.3721996662106533
  0.1672431697706295  0.6621069389884631  0.8719727242018190
  0.5040914159537668  0.1626571765564218  0.3738643202661243
  0.5044358871563096  0.1617358381548669  0.8730114440929758
  0.5035391548461563  0.6626237786461059  0.3736607937605467
  0.5032196727157102  0.6630129938567435  0.8727877454560868
  0.8391763137457559  0.1632581618916209  0.3737112885160069
  0.8363644327279101  0.1628917461507088  0.8734399350178517
  0.8363909483453797  0.6629291793676817  0.3735808073571025
  0.8333246063653345  0.6647141597996813  0.8708958075393060
  0.2173345245713792  0.4006171132071593 -0.0100691449824718
  0.1704772573110872  0.4085765431210216  0.2565325344541333
  0.1690292545586340  0.4100225625240432  0.7476562723775347
  0.1684204421445233  0.9147499687310369  0.2500178073626402
  0.1671798696683574  0.9113950029026852  0.7497599619063136
  0.5018192880412095  0.4119315562663598  0.2503227790365865
  0.5014639828058179  0.4122536852059306  0.7483051249653160
  0.5012747114538314  0.9124861987651829  0.2500165995102849
  0.5008655776036318  0.9116353569163006  0.7498266884980299
  0.8341489368174960  0.4119089884667583  0.2495256456428866
  0.8338263691040995  0.4113201941341587  0.7498091975601304
  0.8345636786025392  0.9113870857680769  0.2493229070008268
  0.8333505924627321  0.9122915988367359  0.7496741305480416
  0.0005285734747457  0.0865124490893935 -0.0004968332025973
  0.0003288403381085  0.0854659897413780  0.4995435691796999
 -0.0044380208355303  0.5905139840212256 -0.0058924395042341
  0.0002833075734304  0.5876737253169593  0.5003337120362937
  0.3346624051557782  0.0888215794197658  0.0001842738089113
  0.3355640800992258  0.0850944869409452  0.5006792047298169
  0.3312894459722868  0.5876817526744433  0.0001444745054356
  0.3351725930903263  0.5886293518667134  0.5001515107928649
  0.6672846899814575  0.0872570234349799 -0.0002571506092325
  0.6685215535299797  0.0869196392701331  0.4996616568325202
  0.6653272358442250  0.5871582497586604 -0.0004837687268290
  0.6682358269593786  0.5870802301794730  0.4997650483140258
  0.2018002067175125  0.3397265086065801  0.3599742639595130
  0.0343706893925714  0.1528719587315354  0.3949426279742208
  0.0360724709365704  0.1556794177670129  0.8957972128767751
  0.0360768213791999  0.6566697627385343  0.3965906774073725
  0.0316874027579592  0.6572217486867955  0.8903961417643257
  0.3719690006346799  0.1541214090184230  0.3976564349438544
  0.3711013340635746  0.1561318340579652  0.8960171770475009
  0.3701199819776071  0.6573531459533026  0.3957593260518057
  0.3668094678728332  0.6553977185707128  0.8964873503759111
  0.7043758259082618  0.1560823998486654  0.3961216808125121
  0.7023424259574323  0.1564695643722339  0.8958205723319549
  0.7033610571000017  0.6566323700869268  0.3960405720544005
  0.7002342464472815  0.6563501447263518  0.8955111308637285
  0.2006313695989785  0.0545532614408019  0.2517927556951374
  0.2014872011346019  0.0510485414524800  0.7495501406200051
  0.1986113362865085  0.5553724455676654  0.2425018437035911
  0.2017830869995486  0.5504455432817481  0.7504175912224912
  0.5362998489268824  0.0517702285459720  0.2496988308372490
  0.5347935690412937  0.0515390319444911  0.7496676258261062
  0.5356862973574438  0.5518940682739226  0.2499526914506960
  0.5352184531175348  0.5520806444767045  0.7493793421610963
  0.8681155205782513  0.0513362040948240  0.2491230459902763
  0.8675227441943912  0.0519988076899339  0.7498879779003373
  0.8671896456418388  0.5524817247914918  0.2484914554808487
  0.8672797243541842  0.5514766192653686  0.7497337593567441
  0.0618439850782215  0.4156482013621429  0.2380380263595396
  0.0631858982615296  0.4061998183405019  0.7504982424693318
  0.0625325496933594  0.9076552734854787  0.2483964782256145
  0.0612479737104071  0.9094829574966250  0.7495182557090339
  0.3961893796045373  0.4095214263699573  0.2515593509139817
  0.3955768081418479  0.4103168535737038  0.7462166866662127
  0.3953898050255084  0.9112606405625912  0.2507109465932231
  0.3949462173539303  0.9087022097615749  0.7500413926814293
  0.7282046167858087  0.4089765127836321  0.2507902080843084
  0.7279052814192518  0.4082576708847291  0.7498156177778256
  0.7286391285939595  0.9081040323146184  0.2491463147242697
  0.7274370996516627  0.9094581927333052  0.7494961489105284
  0.2287561544300581  0.0946225798751406 -0.0000510774647643
  0.2298829654512949  0.0845995188440166  0.5010508917032751
  0.2243620305363025  0.5892487901472829  0.0013903977457102
  0.2294337269316249  0.5927755743489289  0.5008236556505765
  0.5613756055939486  0.0901122856514370 -0.0000939230814410
  0.5626435516246572  0.0899807450449570  0.4995836327025943
  0.5592541381577746  0.5891932715735719 -0.0002899547492932
  0.5623480755240142  0.5895954097862585  0.4995645329750426
  0.8946341768505098  0.0897421335014689 -0.0005500703383620
  0.8943599830236029  0.0880732618114893  0.5009509919555247
  0.8905990146357378  0.5972043373435659 -0.0011591119236273
  0.8943123984733485  0.5920011971088873  0.4998814754472847
  0.2022342967879976  0.3501575719735145  0.1403587064526532
  0.2031991348884959  0.3430362484076008  0.6429767628608207
  0.2057257310526700  0.8510617265392142  0.1442206650919829
  0.2026030082477323  0.8412641464128305  0.6466924158358210
  0.5358691949303481  0.3431250960749860  0.1454327377958227
  0.5378739268702195  0.3424363050323038  0.6456722615930969
  0.5350583206438080  0.8427783920041932  0.1455059330401902
  0.5366395435960464  0.8424068265511603  0.6464026094981214
  0.8672108493636893  0.3429845654591933  0.1442988788920193
  0.8697266544331577  0.3421679359383933  0.6464101610424617
  0.8699555530718650  0.8421236030340910  0.1454050357145320
  0.8688765020565323  0.8425542280042504  0.6463614211222245
  0.0356429247346533  0.1549987708290234  0.1036085490502447
  0.0362851045499361  0.1551412184327929  0.6028575723053137
  0.0385847043978272  0.6545362366245693  0.0975767122425173
  0.0357120356109922  0.6565342717009879  0.6042766677221554
  0.3703384498237950  0.1572272706633843  0.1040574445689620
  0.3700047914905527  0.1554705486898259  0.6046076849330395
  0.3671248535082898  0.6552450250672833  0.1037337479476514
  0.3706773895022041  0.6583357277047648  0.6038701497318552
  0.7026181995926390  0.1562583058059297  0.1035334312098408
  0.7035160987133235  0.1558631301877191  0.6037042727838575
  0.7003166861341811  0.6566537604796877  0.1032619362209905
  0.7029461786768071  0.6563787830779201  0.6037897930152328
  0.0270739560633949  0.4493067521829711 -0.0028290468548161
  0.0327206024775374  0.4478319082835734  0.5007195836064040
  0.0342105349171391  0.9465711934496638 -0.0009225441805810
  0.0341428695156581  0.9454458355121232  0.5001444511089751
  0.3599796202283028  0.4446380322489329 -0.0014170770772498
  0.3703111654383367  0.4497492406467642  0.5007560484630432
  0.3672810286775017  0.9483977739336596 -0.0001564380547231
  0.3702630715489384  0.9454813020281799  0.5010746318104191
  0.6995472383674497  0.4475531371248139 -0.0004055022571111
  0.7025740437941970  0.4475005820483873  0.4997480971875949
  0.7008843585574226  0.9473179487223630 -0.0003897677411205
  0.7017155949852284  0.9467760854310380  0.4994983204382714
  0.2077186745180241  0.3376661228135525  0.8482721792010109
  0.2036347956554118  0.8424191981122379  0.3519066494045547
  0.2017434022290415  0.8426514758370173  0.8542827012446121
  0.5380089547984769  0.3424107207465126  0.3532000378445035
  0.5342956356894991  0.3431322112332762  0.8534200658787756
  0.5367577990016871  0.8425689278007267  0.3531336769976690
  0.5354989700187727  0.8427841764275039  0.8540786646748931
  0.8715867103749350  0.3432811400489336  0.3519582235127880
  0.8689190461490652  0.3429410078805675  0.8540230443158079
  0.8699078399198964  0.8423036592299784  0.3529154598440137
  0.8679159138031616  0.8434071303520488  0.8538148757121364
 
  0.00000000E+00  0.00000000E+00  0.00000000E+00
  0.00000000E+00  0.00000000E+00  0.00000000E+00
  0.00000000E+00  0.00000000E+00  0.00000000E+00
  0.00000000E+00  0.00000000E+00  0.00000000E+00
  0.00000000E+00  0.00000000E+00  0.00000000E+00
  0.00000000E+00  0.00000000E+00  0.00000000E+00
  0.00000000E+00  0.00000000E+00  0.00000000E+00
  0.00000000E+00  0.00000000E+00  0.00000000E+00
  0.00000000E+00  0.00000000E+00  0.00000000E+00
  0.00000000E+00  0.00000000E+00  0.00000000E+00
  0.00000000E+00  0.00000000E+00  0.00000000E+00
  0.00000000E+00  0.00000000E+00  0.00000000E+00
  0.00000000E+00  0.00000000E+00  0.00000000E+00
  0.00000000E+00  0.00000000E+00  0.00000000E+00
  0.00000000E+00  0.00000000E+00  0.00000000E+00
  0.00000000E+00  0.00000000E+00  0.00000000E+00
  0.00000000E+00  0.00000000E+00  0.00000000E+00
  0.00000000E+00  0.00000000E+00  0.00000000E+00
  0.00000000E+00  0.00000000E+00  0.00000000E+00
  0.00000000E+00  0.00000000E+00  0.00000000E+00
  0.00000000E+00  0.00000000E+00  0.00000000E+00
  0.00000000E+00  0.00000000E+00  0.00000000E+00
  0.00000000E+00  0.00000000E+00  0.00000000E+00
  0.00000000E+00  0.00000000E+00  0.00000000E+00
  0.00000000E+00  0.00000000E+00  0.00000000E+00
  0.00000000E+00  0.00000000E+00  0.00000000E+00
  0.00000000E+00  0.00000000E+00  0.00000000E+00
  0.00000000E+00  0.00000000E+00  0.00000000E+00
  0.00000000E+00  0.00000000E+00  0.00000000E+00
  0.00000000E+00  0.00000000E+00  0.00000000E+00
  0.00000000E+00  0.00000000E+00  0.00000000E+00
  0.00000000E+00  0.00000000E+00  0.00000000E+00
  0.00000000E+00  0.00000000E+00  0.00000000E+00
  0.00000000E+00  0.00000000E+00  0.00000000E+00
  0.00000000E+00  0.00000000E+00  0.00000000E+00
  0.00000000E+00  0.00000000E+00  0.00000000E+00
  0.00000000E+00  0.00000000E+00  0.00000000E+00
  0.00000000E+00  0.00000000E+00  0.00000000E+00
  0.00000000E+00  0.00000000E+00  0.00000000E+00
  0.00000000E+00  0.00000000E+00  0.00000000E+00
  0.00000000E+00  0.00000000E+00  0.00000000E+00
  0.00000000E+00  0.00000000E+00  0.00000000E+00
  0.00000000E+00  0.00000000E+00  0.00000000E+00
  0.00000000E+00  0.00000000E+00  0.00000000E+00
  0.00000000E+00  0.00000000E+00  0.00000000E+00
  0.00000000E+00  0.00000000E+00  0.00000000E+00
  0.00000000E+00  0.00000000E+00  0.00000000E+00
  0.00000000E+00  0.00000000E+00  0.00000000E+00
  0.00000000E+00  0.00000000E+00  0.00000000E+00
  0.00000000E+00  0.00000000E+00  0.00000000E+00
  0.00000000E+00  0.00000000E+00  0.00000000E+00
  0.00000000E+00  0.00000000E+00  0.00000000E+00
  0.00000000E+00  0.00000000E+00  0.00000000E+00
  0.00000000E+00  0.00000000E+00  0.00000000E+00
  0.00000000E+00  0.00000000E+00  0.00000000E+00
  0.00000000E+00  0.00000000E+00  0.00000000E+00
  0.00000000E+00  0.00000000E+00  0.00000000E+00
  0.00000000E+00  0.00000000E+00  0.00000000E+00
  0.00000000E+00  0.00000000E+00  0.00000000E+00
  0.00000000E+00  0.00000000E+00  0.00000000E+00
  0.00000000E+00  0.00000000E+00  0.00000000E+00
  0.00000000E+00  0.00000000E+00  0.00000000E+00
  0.00000000E+00  0.00000000E+00  0.00000000E+00
  0.00000000E+00  0.00000000E+00  0.00000000E+00
  0.00000000E+00  0.00000000E+00  0.00000000E+00
  0.00000000E+00  0.00000000E+00  0.00000000E+00
  0.00000000E+00  0.00000000E+00  0.00000000E+00
  0.00000000E+00  0.00000000E+00  0.00000000E+00
  0.00000000E+00  0.00000000E+00  0.00000000E+00
  0.00000000E+00  0.00000000E+00  0.00000000E+00
  0.00000000E+00  0.00000000E+00  0.00000000E+00
  0.00000000E+00  0.00000000E+00  0.00000000E+00
  0.00000000E+00  0.00000000E+00  0.00000000E+00
  0.00000000E+00  0.00000000E+00  0.00000000E+00
  0.00000000E+00  0.00000000E+00  0.00000000E+00
  0.00000000E+00  0.00000000E+00  0.00000000E+00
  0.00000000E+00  0.00000000E+00  0.00000000E+00
  0.00000000E+00  0.00000000E+00  0.00000000E+00
  0.00000000E+00  0.00000000E+00  0.00000000E+00
  0.00000000E+00  0.00000000E+00  0.00000000E+00
  0.00000000E+00  0.00000000E+00  0.00000000E+00
  0.00000000E+00  0.00000000E+00  0.00000000E+00
  0.00000000E+00  0.00000000E+00  0.00000000E+00
  0.00000000E+00  0.00000000E+00  0.00000000E+00
  0.00000000E+00  0.00000000E+00  0.00000000E+00
  0.00000000E+00  0.00000000E+00  0.00000000E+00
  0.00000000E+00  0.00000000E+00  0.00000000E+00
  0.00000000E+00  0.00000000E+00  0.00000000E+00
  0.00000000E+00  0.00000000E+00  0.00000000E+00
  0.00000000E+00  0.00000000E+00  0.00000000E+00
  0.00000000E+00  0.00000000E+00  0.00000000E+00
  0.00000000E+00  0.00000000E+00  0.00000000E+00
  0.00000000E+00  0.00000000E+00  0.00000000E+00
  0.00000000E+00  0.00000000E+00  0.00000000E+00
  0.00000000E+00  0.00000000E+00  0.00000000E+00
  0.00000000E+00  0.00000000E+00  0.00000000E+00
  0.00000000E+00  0.00000000E+00  0.00000000E+00
  0.00000000E+00  0.00000000E+00  0.00000000E+00
  0.00000000E+00  0.00000000E+00  0.00000000E+00
  0.00000000E+00  0.00000000E+00  0.00000000E+00
  0.00000000E+00  0.00000000E+00  0.00000000E+00
  0.00000000E+00  0.00000000E+00  0.00000000E+00
  0.00000000E+00  0.00000000E+00  0.00000000E+00
  0.00000000E+00  0.00000000E+00  0.00000000E+00
  0.00000000E+00  0.00000000E+00  0.00000000E+00
  0.00000000E+00  0.00000000E+00  0.00000000E+00
  0.00000000E+00  0.00000000E+00  0.00000000E+00
  0.00000000E+00  0.00000000E+00  0.00000000E+00
  0.00000000E+00  0.00000000E+00  0.00000000E+00
  0.00000000E+00  0.00000000E+00  0.00000000E+00
  0.00000000E+00  0.00000000E+00  0.00000000E+00
  0.00000000E+00  0.00000000E+00  0.00000000E+00
  0.00000000E+00  0.00000000E+00  0.00000000E+00
  0.00000000E+00  0.00000000E+00  0.00000000E+00
  0.00000000E+00  0.00000000E+00  0.00000000E+00
  0.00000000E+00  0.00000000E+00  0.00000000E+00
  0.00000000E+00  0.00000000E+00  0.00000000E+00
  0.00000000E+00  0.00000000E+00  0.00000000E+00
  0.00000000E+00  0.00000000E+00  0.00000000E+00
  0.00000000E+00  0.00000000E+00  0.00000000E+00
  0.00000000E+00  0.00000000E+00  0.00000000E+00
  0.00000000E+00  0.00000000E+00  0.00000000E+00
  0.00000000E+00  0.00000000E+00  0.00000000E+00
  0.00000000E+00  0.00000000E+00  0.00000000E+00
  0.00000000E+00  0.00000000E+00  0.00000000E+00
  0.00000000E+00  0.00000000E+00  0.00000000E+00
  0.00000000E+00  0.00000000E+00  0.00000000E+00
  0.00000000E+00  0.00000000E+00  0.00000000E+00
  0.00000000E+00  0.00000000E+00  0.00000000E+00
  0.00000000E+00  0.00000000E+00  0.00000000E+00
  0.00000000E+00  0.00000000E+00  0.00000000E+00
  0.00000000E+00  0.00000000E+00  0.00000000E+00
  0.00000000E+00  0.00000000E+00  0.00000000E+00
  0.00000000E+00  0.00000000E+00  0.00000000E+00
  0.00000000E+00  0.00000000E+00  0.00000000E+00
  0.00000000E+00  0.00000000E+00  0.00000000E+00
  0.00000000E+00  0.00000000E+00  0.00000000E+00
  0.00000000E+00  0.00000000E+00  0.00000000E+00
  0.00000000E+00  0.00000000E+00  0.00000000E+00
  0.00000000E+00  0.00000000E+00  0.00000000E+00
  0.00000000E+00  0.00000000E+00  0.00000000E+00
  0.00000000E+00  0.00000000E+00  0.00000000E+00
  0.00000000E+00  0.00000000E+00  0.00000000E+00
  0.00000000E+00  0.00000000E+00  0.00000000E+00
  0.00000000E+00  0.00000000E+00  0.00000000E+00
  0.00000000E+00  0.00000000E+00  0.00000000E+00
  0.00000000E+00  0.00000000E+00  0.00000000E+00
  0.00000000E+00  0.00000000E+00  0.00000000E+00
  0.00000000E+00  0.00000000E+00  0.00000000E+00
  0.00000000E+00  0.00000000E+00  0.00000000E+00
  0.00000000E+00  0.00000000E+00  0.00000000E+00
  0.00000000E+00  0.00000000E+00  0.00000000E+00
  0.00000000E+00  0.00000000E+00  0.00000000E+00
  0.00000000E+00  0.00000000E+00  0.00000000E+00
  0.00000000E+00  0.00000000E+00  0.00000000E+00
  0.00000000E+00  0.00000000E+00  0.00000000E+00
  0.00000000E+00  0.00000000E+00  0.00000000E+00
  0.00000000E+00  0.00000000E+00  0.00000000E+00
  0.00000000E+00  0.00000000E+00  0.00000000E+00
  0.00000000E+00  0.00000000E+00  0.00000000E+00
  0.00000000E+00  0.00000000E+00  0.00000000E+00
  0.00000000E+00  0.00000000E+00  0.00000000E+00
  0.00000000E+00  0.00000000E+00  0.00000000E+00
  0.00000000E+00  0.00000000E+00  0.00000000E+00
  0.00000000E+00  0.00000000E+00  0.00000000E+00
  0.00000000E+00  0.00000000E+00  0.00000000E+00
  0.00000000E+00  0.00000000E+00  0.00000000E+00
  0.00000000E+00  0.00000000E+00  0.00000000E+00
  0.00000000E+00  0.00000000E+00  0.00000000E+00
  0.00000000E+00  0.00000000E+00  0.00000000E+00
  0.00000000E+00  0.00000000E+00  0.00000000E+00
  0.00000000E+00  0.00000000E+00  0.00000000E+00
  0.00000000E+00  0.00000000E+00  0.00000000E+00
  0.00000000E+00  0.00000000E+00  0.00000000E+00
  0.00000000E+00  0.00000000E+00  0.00000000E+00
  0.00000000E+00  0.00000000E+00  0.00000000E+00
  0.00000000E+00  0.00000000E+00  0.00000000E+00
  0.00000000E+00  0.00000000E+00  0.00000000E+00
  0.00000000E+00  0.00000000E+00  0.00000000E+00
  0.00000000E+00  0.00000000E+00  0.00000000E+00
  0.00000000E+00  0.00000000E+00  0.00000000E+00
  0.00000000E+00  0.00000000E+00  0.00000000E+00
  0.00000000E+00  0.00000000E+00  0.00000000E+00
  0.00000000E+00  0.00000000E+00  0.00000000E+00
  0.00000000E+00  0.00000000E+00  0.00000000E+00
  0.00000000E+00  0.00000000E+00  0.00000000E+00
  0.00000000E+00  0.00000000E+00  0.00000000E+00
  0.00000000E+00  0.00000000E+00  0.00000000E+00
  0.00000000E+00  0.00000000E+00  0.00000000E+00
  0.00000000E+00  0.00000000E+00  0.00000000E+00
  0.00000000E+00  0.00000000E+00  0.00000000E+00
  0.00000000E+00  0.00000000E+00  0.00000000E+00
  0.00000000E+00  0.00000000E+00  0.00000000E+00
