Li73 P24 N1 O95                         
   1.00000000000000     
    14.7356051231498206   -0.0058075719708743    0.0085841172938871
    -0.0040589656823016   10.5559187628985338    0.0022659818031430
     0.0071437224549244    0.0026982910717256   12.3286877305322040
   Li   P    N    O 
    73    24     1    95
Direct
  0.1044199981235932  0.4920439391140409  0.1057413566554321
  0.1702054841452501  0.4216612885354573  0.4971531361484356
  0.1698974850460410  0.9247095038792068 -0.0005430918253650
  0.1700711784572505  0.9215707338416367  0.4995556688495443
  0.5033865437237383  0.4208716932630288 -0.0001361816543357
  0.5048700784919513  0.4227126753219818  0.4996372150607434
  0.5033961872514200  0.9222419876956418 -0.0007095389026646
  0.5038458851327476  0.9218080784758217  0.4996969518981389
  0.8363140367876905  0.4240625305657096 -0.0008965829192989
  0.8375940473953515  0.4224852713764575  0.4990761711364601
  0.8366446953806813  0.9209576038003160 -0.0007967569724169
  0.8370112379735137  0.9221902042182729  0.4993128531722126
  0.0049353468599984  0.0797881879835917  0.2499850978552511
  0.0031147955707818  0.0769024803534883  0.7484301658370608
 -0.0007521466923488  0.5710492487190287  0.2588164129486070
  0.0026360515143471  0.5743940478020796  0.7466334013874018
  0.3366577662566393  0.0786198892655471  0.2510387881208619
  0.3369520892464005  0.0759656791548574  0.7491750599701255
  0.3380600066191744  0.5739575298457704  0.2531645520634005
  0.3364408206823215  0.5768208610050918  0.7483115575674087
  0.6708421519028879  0.0776513497394369  0.2499051359797033
  0.6698852373133783  0.0779898334492229  0.7490843536670013
  0.6704370738145188  0.5785908442643871  0.2502775185707509
  0.6700061137658756  0.5774670247280854  0.7488656406740525
  0.1688431199810443  0.1684996559670687  0.1280428793030597
  0.1700279326562655  0.1621076055420380  0.6249816947354208
  0.1830999903061859  0.6753069102511732  0.1330881841615657
  0.1697955017731508  0.6615533145994473  0.6256670328112168
  0.5048263986248038  0.1625521083224595  0.1262091179293478
  0.5036074589584713  0.1627145985559360  0.6255709960154342
  0.5039751069226334  0.6628365243471869  0.1266944971392028
  0.5033656659641074  0.6632448509975098  0.6257916758415838
  0.8354263508671793  0.1618098396238119  0.1251275721987831
  0.8366817015732332  0.1631972743503173  0.6253462462385483
  0.8336782967841867  0.6647822549643089  0.1268221936214482
  0.8364892986061383  0.6633437029357094  0.6254094374466960
 -0.0054361139322466  0.3265337582009490  0.1289195995931083
  0.0036673106777992  0.3354825711930601  0.6227300725026889
  0.0039819275643307  0.8355224208584757  0.1229023481316157
  0.0028578738467414  0.8358440396239961  0.6231486463098378
  0.3416127497787255  0.3331899196873487  0.1303877589692041
  0.3368229578415184  0.3360012438760951  0.6212437455239876
  0.3390229047758132  0.8388520738503992  0.1239894248608133
  0.3365637991259693  0.8357824828780721  0.6234327390614187
  0.6705359647049524  0.3369163203331783  0.1231358244102578
  0.6708828834111570  0.3363927515606798  0.6227200917255590
  0.6695128936744420  0.8375184694031185  0.1233168128728095
  0.6698118417178017  0.8368859128720973  0.6232185305357106
  0.0039256622086714  0.3380971994781800  0.3711441396016507
  0.0028083209593009  0.3341223964514673  0.8751746947365386
  0.0038052878649541  0.8371073904875127  0.3758273805270033
  0.0014681370904383  0.8377484011477516  0.8729514636251988
  0.3389310720887939  0.3359978313653850  0.3776781394402518
  0.3430490987460769  0.3308881970463653  0.8686592205947361
  0.3369299346974270  0.8361564901168742  0.3765370295351578
  0.3355841308351151  0.8363486765312543  0.8755832490962754
  0.6713016158024036  0.3364997121261570  0.3769699924513023
  0.6694969569111140  0.3367301191877754  0.8757117788028280
  0.6704988037489238  0.8371673706979739  0.3757479102525792
  0.6693033184635849  0.8374259148092990  0.8753337276404118
  0.1697821171334647  0.1660920390882347  0.3748847782099494
  0.1693156123061355  0.1601460174094872  0.8719841980251688
  0.1703707267484615  0.6599338478809261  0.3723522850203568
  0.1671644007540442  0.6607833217082236  0.8730744063195951
  0.5045213625776804  0.1629606799953726  0.3736404496026325
  0.5043295821232128  0.1618366376210528  0.8729928077531395
  0.5041055213911672  0.6634789295728236  0.3739764340156732
  0.5031618477461823  0.6629022741940053  0.8729275737111974
  0.8374185340810321  0.1632121323812039  0.3732445415217325
  0.8362478240570793  0.1630087053076061  0.8729007828154048
  0.8363174130371434  0.6636041184639859  0.3739027291191100
  0.8331426578857991  0.6655299383740959  0.8700571852005226
  0.2167866560417104  0.3997214453772827 -0.0063708340575379
  0.1680087719513036  0.4090919098094322  0.2544283623776543
  0.1690178378162955  0.4095675953614305  0.7479787805777802
  0.1683421762205438  0.9150050381564484  0.2503746213334577
  0.1673591529344752  0.9107008526826467  0.7493150118125311
  0.5031326943307298  0.4122230281367232  0.2506438297360435
  0.5015827044190811  0.4122328869229142  0.7486278231131307
  0.5012422227045819  0.9125142291533255  0.2499090050260667
  0.5005908491070074  0.9116683882234957  0.7496832472140257
  0.8313381117382845  0.4124587967577925  0.2495139761204566
  0.8334260222610336  0.4118085552410745  0.7493129168705375
  0.8347668951768462  0.9123569975356296  0.2494441131321959
  0.8332690800677216  0.9129396180306294  0.7488638666249072
  0.0002741986000974  0.0852818954767392 -0.0017422312387607
  0.0008173799357865  0.0870030304789058  0.4999554602926568
 -0.0047533230663857  0.5911527181054850 -0.0075620992211951
  0.0008188328187804  0.5876806464253210  0.5006044265786550
  0.3349486908927128  0.0873831981960781 -0.0001331924333631
  0.3349989269679788  0.0866161815961119  0.5000845628670743
  0.3324274928440620  0.5867648748839460  0.0002549876382404
  0.3352119505546303  0.5875840483263740  0.5003292852860527
  0.6673031967302387  0.0873516610409407 -0.0006785063767147
  0.6679176787613813  0.0872562539954448  0.4995458618833328
  0.6658340929829456  0.5880066062716095 -0.0010168315474342
  0.6678988291333414  0.5883134923199872  0.5000358943436045
  0.0620371963424000  0.4088815053279419  0.2433901170735626
  0.0362413656696635  0.1560460819749584  0.3966127340642701
  0.0358206271516295  0.1544262333111827  0.8944212671605122
  0.0362886061416556  0.6586149721543569  0.3978742178943683
  0.0313971816734598  0.6573119432086240  0.8883899317736186
  0.3713646409167429  0.1556205199227709  0.3967412494470461
  0.3710918659290232  0.1550623915707827  0.8956226978250935
  0.3709830894814691  0.6573592667263671  0.3970087170589924
  0.3672670674514070  0.6548611501725315  0.8963446307330170
  0.7033167013893036  0.1562049817568162  0.3957295944330415
  0.7023355862151559  0.1569087796368951  0.8955326837765853
  0.7030233905753894  0.6578719925809964  0.3963581866818748
  0.7003661193302815  0.6573626669628431  0.8948714639542660
  0.2010724377553352  0.0552323098676939  0.2516367112023692
  0.2018740814004169  0.0505161904299011  0.7494190861281111
  0.2071250005745991  0.5515216755336062  0.2499442005710856
  0.2018770034514809  0.5500501342490792  0.7502899055556722
  0.5356099418841480  0.0522908424121111  0.2496001541566981
  0.5343788065885960  0.0518034053788103  0.7495402409176354
  0.5361191830133251  0.5526705310884816  0.2501235113104276
  0.5351113423475523  0.5523033901716659  0.7494334621576226
  0.8683874638382938  0.0524977900308425  0.2491756649714679
  0.8673701078316476  0.0528164130127267  0.7489304241101460
  0.8645029149256619  0.5530007438008901  0.2490035276656675
  0.8668478168208638  0.5520922804417964  0.7491445873688598
  0.0634932091971022  0.4055038631334505  0.7503696421225886
  0.0627313999944643  0.9094796197338938  0.2486168905472254
  0.0617106774990999  0.9091624772148859  0.7485994516208849
  0.3977055792027279  0.4090661833745557  0.2521072463108999
  0.3958824503214105  0.4098160502324804  0.7468698425669512
  0.3955232551438773  0.9101657337381805  0.2505608811063009
  0.3948793828598676  0.9083729152911239  0.7498148844173836
  0.7255657529200559  0.4103287996914374  0.2502098312548823
  0.7276906750349216  0.4088405872288511  0.7494309150177136
  0.7289643220538201  0.9092875467955105  0.2491167058627596
  0.7275466831023968  0.9101917940541577  0.7490262334290584
  0.2292501355476357  0.0932881932334575  0.0000875164375010
  0.2293461703806697  0.0891677245138864  0.4997854559469814
  0.2258642954281438  0.5878114195289859  0.0023197426463618
  0.2295545368635880  0.5899919142862015  0.5000681846943261
  0.5615685343605549  0.0899246369879104 -0.0006780638704091
  0.5621931161098955  0.0899915656727072  0.4997104858064466
  0.5599371157047207  0.5896202905355826 -0.0006083425947989
  0.5621839725606488  0.5909128931274907  0.5000645696967277
  0.8945265181790717  0.0890370553703902 -0.0015321771943040
  0.8950360851335961  0.0899667437944211  0.4999179890587356
  0.8904916659388422  0.5994130903138897 -0.0020530819989294
  0.8949722679291887  0.5908914935856077  0.4998095461985546
  0.2115191008262999  0.3451665262931176  0.1466946453346869
  0.2033160378709220  0.3426643396006788  0.6429366709868508
  0.2055501952063890  0.8491567292048124  0.1455874203748109
  0.2029017783167341  0.8411923841487854  0.6459216573540586
  0.5366471790458516  0.3433895041468190  0.1457045190264229
  0.5377283602455363  0.3426230173923254  0.6457534682701224
  0.5354876641850278  0.8430965260976792  0.1456176102157978
  0.5361185443519315  0.8426399072409014  0.6460591155166776
  0.8640408961095654  0.3428426858833350  0.1446874210324095
  0.8691746961936286  0.3428111039479810  0.6457615624505697
  0.8701357035542369  0.8427726697781575  0.1458412393828778
  0.8687137307438184  0.8433480736803813  0.6454512823241290
  0.0356532313347768  0.1535375126585380  0.1018869348338266
  0.0360466697888266  0.1557142020346829  0.6040389219586623
  0.0392171782079253  0.6546417384646273  0.0953496178854712
  0.0356950885199219  0.6561585672593981  0.6050113061845549
  0.3716251884816026  0.1551804388094326  0.1034169285508340
  0.3699579339163332  0.1558991647423143  0.6040695589255164
  0.3685354133835799  0.6548032564271600  0.1035116325441859
  0.3698415809084917  0.6567208506538690  0.6045207746561604
  0.7021878579787475  0.1562900896417802  0.1032199539676798
  0.7030166951512711  0.1565785463461385  0.6032683839205417
  0.7006884518251402  0.6576840210426053  0.1025938016341499
  0.7028944799616498  0.6573965721099219  0.6039204601829725
  0.0249182451153096  0.4489967907387649 -0.0052101929430173
  0.0340764492911555  0.4477041021843809  0.5009167424136465
  0.0338029750985993  0.9450189271703019 -0.0021698874833207
  0.0343578042870317  0.9467068965212879  0.5000515312501145
  0.3621202448471486  0.4439901177513960 -0.0014260585084217
  0.3700347328792085  0.4480937703508917  0.5003383105634270
  0.3672816159850349  0.9466036967365032 -0.0006808867373334
  0.3686142979055628  0.9464494615264137  0.5003757943386212
  0.7001239016495121  0.4482913181838512 -0.0011464743250048
  0.7017757836795162  0.4483862415194963  0.5000734507417265
  0.7010600019459676  0.9473201271113146 -0.0008118373457376
  0.7014804321525520  0.9471290738256337  0.4996082498161081
  0.2093485706343297  0.3416321235155087  0.3568990273692440
  0.2076969769570038  0.3375956220889746  0.8489253053542500
  0.2033522108985434  0.8433564106019728  0.3528875634306843
  0.2018306478722949  0.8414729670406398  0.8536496289162606
  0.5387677839468313  0.3428071934474652  0.3538874016353488
  0.5347843165222225  0.3430167246689749  0.8535067832176425
  0.5368118934542206  0.8431234126531031  0.3532867245909199
  0.5354946648372014  0.8426749963923320  0.8537374233399150
  0.8667383585589038  0.3433259769280702  0.3529593361003464
  0.8685629804698779  0.3431232064530974  0.8533033186237877
  0.8697449424602756  0.8433369653314121  0.3533352642397519
  0.8680151301268045  0.8438542853476936  0.8527840340115556
 
  0.00000000E+00  0.00000000E+00  0.00000000E+00
  0.00000000E+00  0.00000000E+00  0.00000000E+00
  0.00000000E+00  0.00000000E+00  0.00000000E+00
  0.00000000E+00  0.00000000E+00  0.00000000E+00
  0.00000000E+00  0.00000000E+00  0.00000000E+00
  0.00000000E+00  0.00000000E+00  0.00000000E+00
  0.00000000E+00  0.00000000E+00  0.00000000E+00
  0.00000000E+00  0.00000000E+00  0.00000000E+00
  0.00000000E+00  0.00000000E+00  0.00000000E+00
  0.00000000E+00  0.00000000E+00  0.00000000E+00
  0.00000000E+00  0.00000000E+00  0.00000000E+00
  0.00000000E+00  0.00000000E+00  0.00000000E+00
  0.00000000E+00  0.00000000E+00  0.00000000E+00
  0.00000000E+00  0.00000000E+00  0.00000000E+00
  0.00000000E+00  0.00000000E+00  0.00000000E+00
  0.00000000E+00  0.00000000E+00  0.00000000E+00
  0.00000000E+00  0.00000000E+00  0.00000000E+00
  0.00000000E+00  0.00000000E+00  0.00000000E+00
  0.00000000E+00  0.00000000E+00  0.00000000E+00
  0.00000000E+00  0.00000000E+00  0.00000000E+00
  0.00000000E+00  0.00000000E+00  0.00000000E+00
  0.00000000E+00  0.00000000E+00  0.00000000E+00
  0.00000000E+00  0.00000000E+00  0.00000000E+00
  0.00000000E+00  0.00000000E+00  0.00000000E+00
  0.00000000E+00  0.00000000E+00  0.00000000E+00
  0.00000000E+00  0.00000000E+00  0.00000000E+00
  0.00000000E+00  0.00000000E+00  0.00000000E+00
  0.00000000E+00  0.00000000E+00  0.00000000E+00
  0.00000000E+00  0.00000000E+00  0.00000000E+00
  0.00000000E+00  0.00000000E+00  0.00000000E+00
  0.00000000E+00  0.00000000E+00  0.00000000E+00
  0.00000000E+00  0.00000000E+00  0.00000000E+00
  0.00000000E+00  0.00000000E+00  0.00000000E+00
  0.00000000E+00  0.00000000E+00  0.00000000E+00
  0.00000000E+00  0.00000000E+00  0.00000000E+00
  0.00000000E+00  0.00000000E+00  0.00000000E+00
  0.00000000E+00  0.00000000E+00  0.00000000E+00
  0.00000000E+00  0.00000000E+00  0.00000000E+00
  0.00000000E+00  0.00000000E+00  0.00000000E+00
  0.00000000E+00  0.00000000E+00  0.00000000E+00
  0.00000000E+00  0.00000000E+00  0.00000000E+00
  0.00000000E+00  0.00000000E+00  0.00000000E+00
  0.00000000E+00  0.00000000E+00  0.00000000E+00
  0.00000000E+00  0.00000000E+00  0.00000000E+00
  0.00000000E+00  0.00000000E+00  0.00000000E+00
  0.00000000E+00  0.00000000E+00  0.00000000E+00
  0.00000000E+00  0.00000000E+00  0.00000000E+00
  0.00000000E+00  0.00000000E+00  0.00000000E+00
  0.00000000E+00  0.00000000E+00  0.00000000E+00
  0.00000000E+00  0.00000000E+00  0.00000000E+00
  0.00000000E+00  0.00000000E+00  0.00000000E+00
  0.00000000E+00  0.00000000E+00  0.00000000E+00
  0.00000000E+00  0.00000000E+00  0.00000000E+00
  0.00000000E+00  0.00000000E+00  0.00000000E+00
  0.00000000E+00  0.00000000E+00  0.00000000E+00
  0.00000000E+00  0.00000000E+00  0.00000000E+00
  0.00000000E+00  0.00000000E+00  0.00000000E+00
  0.00000000E+00  0.00000000E+00  0.00000000E+00
  0.00000000E+00  0.00000000E+00  0.00000000E+00
  0.00000000E+00  0.00000000E+00  0.00000000E+00
  0.00000000E+00  0.00000000E+00  0.00000000E+00
  0.00000000E+00  0.00000000E+00  0.00000000E+00
  0.00000000E+00  0.00000000E+00  0.00000000E+00
  0.00000000E+00  0.00000000E+00  0.00000000E+00
  0.00000000E+00  0.00000000E+00  0.00000000E+00
  0.00000000E+00  0.00000000E+00  0.00000000E+00
  0.00000000E+00  0.00000000E+00  0.00000000E+00
  0.00000000E+00  0.00000000E+00  0.00000000E+00
  0.00000000E+00  0.00000000E+00  0.00000000E+00
  0.00000000E+00  0.00000000E+00  0.00000000E+00
  0.00000000E+00  0.00000000E+00  0.00000000E+00
  0.00000000E+00  0.00000000E+00  0.00000000E+00
  0.00000000E+00  0.00000000E+00  0.00000000E+00
  0.00000000E+00  0.00000000E+00  0.00000000E+00
  0.00000000E+00  0.00000000E+00  0.00000000E+00
  0.00000000E+00  0.00000000E+00  0.00000000E+00
  0.00000000E+00  0.00000000E+00  0.00000000E+00
  0.00000000E+00  0.00000000E+00  0.00000000E+00
  0.00000000E+00  0.00000000E+00  0.00000000E+00
  0.00000000E+00  0.00000000E+00  0.00000000E+00
  0.00000000E+00  0.00000000E+00  0.00000000E+00
  0.00000000E+00  0.00000000E+00  0.00000000E+00
  0.00000000E+00  0.00000000E+00  0.00000000E+00
  0.00000000E+00  0.00000000E+00  0.00000000E+00
  0.00000000E+00  0.00000000E+00  0.00000000E+00
  0.00000000E+00  0.00000000E+00  0.00000000E+00
  0.00000000E+00  0.00000000E+00  0.00000000E+00
  0.00000000E+00  0.00000000E+00  0.00000000E+00
  0.00000000E+00  0.00000000E+00  0.00000000E+00
  0.00000000E+00  0.00000000E+00  0.00000000E+00
  0.00000000E+00  0.00000000E+00  0.00000000E+00
  0.00000000E+00  0.00000000E+00  0.00000000E+00
  0.00000000E+00  0.00000000E+00  0.00000000E+00
  0.00000000E+00  0.00000000E+00  0.00000000E+00
  0.00000000E+00  0.00000000E+00  0.00000000E+00
  0.00000000E+00  0.00000000E+00  0.00000000E+00
  0.00000000E+00  0.00000000E+00  0.00000000E+00
  0.00000000E+00  0.00000000E+00  0.00000000E+00
  0.00000000E+00  0.00000000E+00  0.00000000E+00
  0.00000000E+00  0.00000000E+00  0.00000000E+00
  0.00000000E+00  0.00000000E+00  0.00000000E+00
  0.00000000E+00  0.00000000E+00  0.00000000E+00
  0.00000000E+00  0.00000000E+00  0.00000000E+00
  0.00000000E+00  0.00000000E+00  0.00000000E+00
  0.00000000E+00  0.00000000E+00  0.00000000E+00
  0.00000000E+00  0.00000000E+00  0.00000000E+00
  0.00000000E+00  0.00000000E+00  0.00000000E+00
  0.00000000E+00  0.00000000E+00  0.00000000E+00
  0.00000000E+00  0.00000000E+00  0.00000000E+00
  0.00000000E+00  0.00000000E+00  0.00000000E+00
  0.00000000E+00  0.00000000E+00  0.00000000E+00
  0.00000000E+00  0.00000000E+00  0.00000000E+00
  0.00000000E+00  0.00000000E+00  0.00000000E+00
  0.00000000E+00  0.00000000E+00  0.00000000E+00
  0.00000000E+00  0.00000000E+00  0.00000000E+00
  0.00000000E+00  0.00000000E+00  0.00000000E+00
  0.00000000E+00  0.00000000E+00  0.00000000E+00
  0.00000000E+00  0.00000000E+00  0.00000000E+00
  0.00000000E+00  0.00000000E+00  0.00000000E+00
  0.00000000E+00  0.00000000E+00  0.00000000E+00
  0.00000000E+00  0.00000000E+00  0.00000000E+00
  0.00000000E+00  0.00000000E+00  0.00000000E+00
  0.00000000E+00  0.00000000E+00  0.00000000E+00
  0.00000000E+00  0.00000000E+00  0.00000000E+00
  0.00000000E+00  0.00000000E+00  0.00000000E+00
  0.00000000E+00  0.00000000E+00  0.00000000E+00
  0.00000000E+00  0.00000000E+00  0.00000000E+00
  0.00000000E+00  0.00000000E+00  0.00000000E+00
  0.00000000E+00  0.00000000E+00  0.00000000E+00
  0.00000000E+00  0.00000000E+00  0.00000000E+00
  0.00000000E+00  0.00000000E+00  0.00000000E+00
  0.00000000E+00  0.00000000E+00  0.00000000E+00
  0.00000000E+00  0.00000000E+00  0.00000000E+00
  0.00000000E+00  0.00000000E+00  0.00000000E+00
  0.00000000E+00  0.00000000E+00  0.00000000E+00
  0.00000000E+00  0.00000000E+00  0.00000000E+00
  0.00000000E+00  0.00000000E+00  0.00000000E+00
  0.00000000E+00  0.00000000E+00  0.00000000E+00
  0.00000000E+00  0.00000000E+00  0.00000000E+00
  0.00000000E+00  0.00000000E+00  0.00000000E+00
  0.00000000E+00  0.00000000E+00  0.00000000E+00
  0.00000000E+00  0.00000000E+00  0.00000000E+00
  0.00000000E+00  0.00000000E+00  0.00000000E+00
  0.00000000E+00  0.00000000E+00  0.00000000E+00
  0.00000000E+00  0.00000000E+00  0.00000000E+00
  0.00000000E+00  0.00000000E+00  0.00000000E+00
  0.00000000E+00  0.00000000E+00  0.00000000E+00
  0.00000000E+00  0.00000000E+00  0.00000000E+00
  0.00000000E+00  0.00000000E+00  0.00000000E+00
  0.00000000E+00  0.00000000E+00  0.00000000E+00
  0.00000000E+00  0.00000000E+00  0.00000000E+00
  0.00000000E+00  0.00000000E+00  0.00000000E+00
  0.00000000E+00  0.00000000E+00  0.00000000E+00
  0.00000000E+00  0.00000000E+00  0.00000000E+00
  0.00000000E+00  0.00000000E+00  0.00000000E+00
  0.00000000E+00  0.00000000E+00  0.00000000E+00
  0.00000000E+00  0.00000000E+00  0.00000000E+00
  0.00000000E+00  0.00000000E+00  0.00000000E+00
  0.00000000E+00  0.00000000E+00  0.00000000E+00
  0.00000000E+00  0.00000000E+00  0.00000000E+00
  0.00000000E+00  0.00000000E+00  0.00000000E+00
  0.00000000E+00  0.00000000E+00  0.00000000E+00
  0.00000000E+00  0.00000000E+00  0.00000000E+00
  0.00000000E+00  0.00000000E+00  0.00000000E+00
  0.00000000E+00  0.00000000E+00  0.00000000E+00
  0.00000000E+00  0.00000000E+00  0.00000000E+00
  0.00000000E+00  0.00000000E+00  0.00000000E+00
  0.00000000E+00  0.00000000E+00  0.00000000E+00
  0.00000000E+00  0.00000000E+00  0.00000000E+00
  0.00000000E+00  0.00000000E+00  0.00000000E+00
  0.00000000E+00  0.00000000E+00  0.00000000E+00
  0.00000000E+00  0.00000000E+00  0.00000000E+00
  0.00000000E+00  0.00000000E+00  0.00000000E+00
  0.00000000E+00  0.00000000E+00  0.00000000E+00
  0.00000000E+00  0.00000000E+00  0.00000000E+00
  0.00000000E+00  0.00000000E+00  0.00000000E+00
  0.00000000E+00  0.00000000E+00  0.00000000E+00
  0.00000000E+00  0.00000000E+00  0.00000000E+00
  0.00000000E+00  0.00000000E+00  0.00000000E+00
  0.00000000E+00  0.00000000E+00  0.00000000E+00
  0.00000000E+00  0.00000000E+00  0.00000000E+00
  0.00000000E+00  0.00000000E+00  0.00000000E+00
  0.00000000E+00  0.00000000E+00  0.00000000E+00
  0.00000000E+00  0.00000000E+00  0.00000000E+00
  0.00000000E+00  0.00000000E+00  0.00000000E+00
  0.00000000E+00  0.00000000E+00  0.00000000E+00
  0.00000000E+00  0.00000000E+00  0.00000000E+00
  0.00000000E+00  0.00000000E+00  0.00000000E+00
  0.00000000E+00  0.00000000E+00  0.00000000E+00
  0.00000000E+00  0.00000000E+00  0.00000000E+00
  0.00000000E+00  0.00000000E+00  0.00000000E+00
  0.00000000E+00  0.00000000E+00  0.00000000E+00
  0.00000000E+00  0.00000000E+00  0.00000000E+00
