Li7 P2 N1 O7                            
   1.00000000000000     
     5.1183662440816144    0.0000000000000000   -0.1381567664907584
     0.0000000000000000    6.2438794337944614    0.0000000000000000
    -0.1492833250259905    0.0000000000000000    5.2828320422323962
   Li   P    N    O 
     7     2     1     7
Direct
 -0.2184177557824897  0.5000000000000000  0.4504966264029892
  0.4709426455876198  0.7569766004106067  0.2670958219336360
  0.4709426455876198  0.2430233995893923  0.2670958219336360
  0.1495685727264888  0.7802643031407790  0.6461026868540380
  0.1495685727264888  0.2197356968592207  0.6461026868540380
  0.6467086199522216  0.0000000000000000  0.7723969702419033
  0.9926423719814277  0.5000000000000000  0.0680496264051705
  0.4828446472727415  0.5000000000000000  0.8123779816730736
 -0.0305616306577371  0.0000000000000000  0.1514618739133876
  0.5962239509684050  0.5000000000000000  0.0926096215001936
  0.0862380651108725  0.2047202977765707  0.2849381659882556
  0.0862380651108725  0.7952797022234290  0.2849381659882556
  0.1682773535951593  0.5000000000000000  0.7732692965848613
  0.6668369826603781  0.0000000000000000  0.1576035165932965
  0.5600342791681535  0.7032268936529990  0.6432540677274632
  0.5600342791681535  0.2967731063470017  0.6432540677274633
  0.0376183348236540  0.0000000000000000  0.8661530016783369
 
  0.00000000E+00  0.00000000E+00  0.00000000E+00
  0.00000000E+00  0.00000000E+00  0.00000000E+00
  0.00000000E+00  0.00000000E+00  0.00000000E+00
  0.00000000E+00  0.00000000E+00  0.00000000E+00
  0.00000000E+00  0.00000000E+00  0.00000000E+00
  0.00000000E+00  0.00000000E+00  0.00000000E+00
  0.00000000E+00  0.00000000E+00  0.00000000E+00
  0.00000000E+00  0.00000000E+00  0.00000000E+00
  0.00000000E+00  0.00000000E+00  0.00000000E+00
  0.00000000E+00  0.00000000E+00  0.00000000E+00
  0.00000000E+00  0.00000000E+00  0.00000000E+00
  0.00000000E+00  0.00000000E+00  0.00000000E+00
  0.00000000E+00  0.00000000E+00  0.00000000E+00
  0.00000000E+00  0.00000000E+00  0.00000000E+00
  0.00000000E+00  0.00000000E+00  0.00000000E+00
  0.00000000E+00  0.00000000E+00  0.00000000E+00
  0.00000000E+00  0.00000000E+00  0.00000000E+00
