P56 O140
1.0
8.166914 0.000000 0.000000
-4.083457 8.293785 0.000000
0.000000 0.000000 61.046524
P O
56 140
Selective dynamics
direct
0.999220 0.152136 0.021443 T T T P
0.500780 0.847864 0.066898 F F F P
0.152916 0.652136 0.089625 F F F P
0.347084 0.347864 0.044170 F F F P
0.499220 0.152136 0.066898 F F F P
0.000780 0.847864 0.021443 T T T P
0.652916 0.652136 0.044170 F F F P
0.847084 0.347864 0.089625 F F F P
0.999220 0.152136 0.112352 F F F P
0.500780 0.847864 0.157807 F F F P
0.152916 0.652136 0.180534 F F F P
0.347084 0.347864 0.135079 F F F P
0.499220 0.152136 0.157807 F F F P
0.000780 0.847864 0.112352 F F F P
0.652916 0.652136 0.135079 F F F P
0.847084 0.347864 0.180534 F F F P
0.999220 0.152136 0.203261 F F F P
0.500780 0.847864 0.248716 F F F P
0.152916 0.652136 0.271443 F F F P
0.347084 0.347864 0.225988 F F F P
0.499220 0.152136 0.248716 F F F P
0.000780 0.847864 0.203261 F F F P
0.652916 0.652136 0.225988 F F F P
0.847085 0.347864 0.271443 F F F P
0.999221 0.152136 0.294170 F F F P
0.500780 0.847864 0.339625 F F F P
0.152916 0.652136 0.362352 F F F P
0.347084 0.347864 0.316898 F F F P
0.499220 0.152136 0.339625 F F F P
0.000780 0.847864 0.294170 F F F P
0.652916 0.652136 0.316898 F F F P
0.847085 0.347864 0.362352 F F F P
0.999220 0.152136 0.385079 F F F P
0.500780 0.847864 0.430534 F F F P
0.152916 0.652136 0.453261 F F F P
0.347084 0.347864 0.407807 F F F P
0.499220 0.152136 0.430534 F F F P
0.000780 0.847864 0.385079 F F F P
0.652916 0.652136 0.407807 F F F P
0.847085 0.347864 0.453261 F F F P
0.999220 0.152136 0.475988 F F F P
0.500780 0.847864 0.521443 F F F P
0.152916 0.652136 0.544170 F F F P
0.347084 0.347864 0.498716 F F F P
0.499220 0.152136 0.521443 F F F P
0.000780 0.847864 0.475988 F F F P
0.652916 0.652136 0.498716 F F F P
0.847085 0.347864 0.544170 F F F P
0.999220 0.152136 0.566898 F F F P
0.500780 0.847864 0.612352 F F F P
0.152916 0.652136 0.635079 F F F P
0.347084 0.347864 0.589625 F F F P
0.499220 0.152136 0.612352 F F F P
0.000780 0.847864 0.566898 F F F P
0.652916 0.652136 0.589625 F F F P
0.847084 0.347864 0.635079 F F F P
0.891791 0.116746 0.041526 T T T O
0.608209 0.883254 0.086980 F F F O
0.724954 0.616746 0.064253 F F F O
0.275046 0.383254 0.064253 F F F O
0.500000 0.500000 0.031581 F F F O
0.000000 0.000000 0.008854 F F F O
0.213721 0.269025 0.024012 F F F O
0.286279 0.730975 0.069466 F F F O
0.555304 0.769025 0.046739 F F F O
0.444696 0.230975 0.046739 F F F O
0.391791 0.116746 0.086980 F F F O
0.108209 0.883254 0.041526 T T T O
0.224954 0.616746 0.018798 F F F O
0.775046 0.383254 0.018798 F F F O
1.000000 0.500000 0.077036 F F F O
0.500000 0.000000 0.054308 F F F O
0.713721 0.269025 0.069466 F F F O
0.786279 0.730975 0.024012 F F F O
0.055304 0.769025 0.001284 F F F O
0.944696 0.230975 0.001284 F F F O
0.891791 0.116746 0.132435 F F F O
0.608209 0.883254 0.177889 F F F O
0.724954 0.616746 0.155162 F F F O
0.275046 0.383254 0.155162 F F F O
0.500000 0.500000 0.122490 F F F O
0.000000 0.000000 0.099763 F F F O
0.213721 0.269025 0.114921 F F F O
0.286279 0.730975 0.160375 F F F O
0.555304 0.769025 0.137648 F F F O
0.444696 0.230975 0.137648 F F F O
0.391791 0.116746 0.177889 F F F O
0.108209 0.883254 0.132435 F F F O
0.224954 0.616746 0.109707 F F F O
0.775046 0.383254 0.109707 F F F O
0.000000 0.500000 0.167945 F F F O
0.500000 1.000000 0.145217 F F F O
0.713721 0.269025 0.160375 F F F O
0.786279 0.730975 0.114921 F F F O
0.055304 0.769025 0.092193 F F F O
0.944696 0.230975 0.092193 F F F O
0.891791 0.116746 0.223344 F F F O
0.608209 0.883254 0.268798 F F F O
0.724954 0.616746 0.246071 F F F O
0.275046 0.383254 0.246071 F F F O
0.500000 0.500000 0.213399 F F F O
1.000000 1.000000 0.190672 F F F O
0.213721 0.269025 0.205830 F F F O
0.286279 0.730975 0.251284 F F F O
0.555304 0.769025 0.228557 F F F O
0.444696 0.230975 0.228557 F F F O
0.391791 0.116746 0.268798 F F F O
0.108209 0.883254 0.223344 F F F O
0.224954 0.616746 0.200617 F F F O
0.775046 0.383254 0.200617 F F F O
0.000000 0.500000 0.258854 F F F O
0.500000 1.000000 0.236126 F F F O
0.713721 0.269025 0.251284 F F F O
0.786279 0.730975 0.205830 F F F O
0.055304 0.769025 0.183102 F F F O
0.944696 0.230975 0.183102 F F F O
0.891791 0.116746 0.314253 F F F O
0.608209 0.883254 0.359707 F F F O
0.724954 0.616746 0.336980 F F F O
0.275046 0.383254 0.336980 F F F O
0.500000 0.500000 0.304308 F F F O
0.000000 0.000000 0.281581 F F F O
0.213721 0.269025 0.296739 F F F O
0.286279 0.730975 0.342193 F F F O
0.555304 0.769025 0.319466 F F F O
0.444696 0.230975 0.319466 F F F O
0.391791 0.116746 0.359707 F F F O
0.108209 0.883254 0.314253 F F F O
0.224954 0.616746 0.291526 F F F O
0.775046 0.383254 0.291526 F F F O
1.000000 0.500000 0.349763 F F F O
0.500000 0.000000 0.327036 F F F O
0.713721 0.269025 0.342193 F F F O
0.786279 0.730975 0.296739 F F F O
0.055304 0.769025 0.274012 F F F O
0.944696 0.230975 0.274012 F F F O
0.891791 0.116746 0.405162 F F F O
0.608209 0.883254 0.450617 F F F O
0.724954 0.616746 0.427889 F F F O
0.275046 0.383254 0.427889 F F F O
0.500000 0.500000 0.395217 F F F O
1.000000 1.000000 0.372490 F F F O
0.213721 0.269025 0.387648 F F F O
0.286279 0.730975 0.433102 F F F O
0.555304 0.769025 0.410375 F F F O
0.444696 0.230975 0.410375 F F F O
0.391791 0.116746 0.450617 F F F O
0.108209 0.883254 0.405162 F F F O
0.224954 0.616746 0.382435 F F F O
0.775046 0.383254 0.382435 F F F O
1.000000 0.500000 0.440672 F F F O
0.500000 0.000000 0.417945 F F F O
0.713721 0.269025 0.433102 F F F O
0.786279 0.730975 0.387648 F F F O
0.055304 0.769025 0.364921 F F F O
0.944696 0.230975 0.364921 F F F O
0.891791 0.116746 0.496071 F F F O
0.608209 0.883254 0.541526 F F F O
0.724954 0.616746 0.518798 F F F O
0.275046 0.383254 0.518798 F F F O
0.500000 0.500000 0.486126 F F F O
0.000000 0.000000 0.463399 F F F O
0.213721 0.269025 0.478557 F F F O
0.286279 0.730975 0.524012 F F F O
0.555304 0.769025 0.501284 F F F O
0.444696 0.230975 0.501284 F F F O
0.391791 0.116746 0.541526 F F F O
0.108209 0.883254 0.496071 F F F O
0.224954 0.616746 0.473344 F F F O
0.775046 0.383254 0.473344 F F F O
1.000000 0.500000 0.531581 F F F O
0.500000 0.000000 0.508854 F F F O
0.713721 0.269025 0.524012 F F F O
0.786279 0.730975 0.478557 F F F O
0.055304 0.769025 0.455830 F F F O
0.944696 0.230975 0.455830 F F F O
0.891791 0.116746 0.586980 F F F O
0.608209 0.883254 0.632435 F F F O
0.724954 0.616746 0.609707 F F F O
0.275046 0.383254 0.609707 F F F O
0.500000 0.500000 0.577036 F F F O
0.000000 0.000000 0.554308 F F F O
0.213721 0.269025 0.569466 F F F O
0.286279 0.730975 0.614921 F F F O
0.555304 0.769025 0.592193 F F F O
0.444696 0.230975 0.592193 F F F O
0.391791 0.116746 0.632435 F F F O
0.108209 0.883254 0.586980 F F F O
0.224954 0.616746 0.564253 F F F O
0.775046 0.383254 0.564253 F F F O
0.000000 0.500000 0.622490 F F F O
0.500000 0.000000 0.599763 F F F O
0.713721 0.269025 0.614921 F F F O
0.786279 0.730975 0.569466 F F F O
0.055304 0.769025 0.546739 F F F O
0.944696 0.230975 0.546739 F F F O
