Li61 P7 N32                             
   1.00000000000000     
    -0.0017454755640716    9.4839910402200900   -0.0043159104294462
    -0.0054249221790396   -0.0041337488451807    9.5514302421033399
     9.5381817233671562   -0.0018000411347315   -0.0054294318712966
   Li   P    N 
    61     7    32
Direct
  0.4974120316151327 -0.0004186032979299  0.5010374682845654
  0.0082806877459689  0.4998922767379290 -0.0032973341294226
  0.4971379960251940 -0.0099913679381060  0.0008303325675951
  0.0017317125399221 -0.0023478278762460  0.5024737352625397
  0.4909982477923444  0.4892080582003857 -0.0016887588826302
  0.0072965843854593  0.4982251120830849  0.4999837921294116
  0.7497007004522196 -0.0047955322916540  0.5000327842899353
  0.2476519014540126 -0.0132472003025630  0.5048711349851760
  0.7690800358633063  0.4961319423038897  0.5004690873641755
  0.2368075961432984  0.5010932467345406  0.5113615273772562
  0.2631229347279971  0.0022807509673789  0.0011583855557531
  0.7359457736640973 -0.0042178740374635  0.0000217799754178
  0.6716677163302274  0.5753840504658787 -0.0887827788765355
  0.5154763423059973  0.2301817889360383 -0.0182477851491565
  0.5006788925325130  0.7482508206767089  0.0136060444205116
 -0.0119305080846424  0.4859164788134254  0.2583199612226590
 -0.0070344066481965  0.5102592838551784  0.7421694407683498
  0.2337373603294811  0.2199237998112093  0.2159719859345477
  0.2371448750365623  0.7894954300200815  0.7796226455943499
  0.2611284452656221  0.2905642858661996  0.7248438027495395
  0.2709961554762350  0.7317104260907391  0.2811351507300513
  0.7685747000362875  0.3013385023230860  0.3078011223020131
  0.7603304569352762  0.7000803420875419  0.7024447866850790
  0.7361018095150496  0.1942872652064682  0.8069744309825750
  0.7437439863563949  0.8006778332239667  0.2014904809487364
  0.9910700832237751  0.2421272665055300  0.2457849129133132
  0.9871380929807470  0.7515033945891758  0.7565447729191851
  0.2614265178378847  0.2224151527207439  0.4911128621319009
  0.2649785494732064  0.7480229641880406  0.5272637463678068
  0.7546124294615512  0.2252891284447391  0.5549628682910134
  0.7460097042302825  0.7600922712637510  0.4583423048497677
  0.7363370850163562  0.5512331184967710  0.2813916593589340
  0.7386104416778887  0.4501974723808061  0.7220112694640874
  0.2179474661858401  0.4877137460157808  0.2556455764848562
  0.2308829878145316  0.5427491962197982  0.7503068787515143
  0.5184112302916134  0.7472514474667518  0.2540001258457452
  0.5124286279809551  0.2525797116474381  0.7437134181623651
  0.2372477330951426  0.9800777533118898  0.2544216766481096
  0.2374764879093858  0.0316132284698877  0.7481620217943044
  0.2693612863820405  0.2436818507688261  0.9708569546787279
  0.2565790797110301  0.7639064620215359  0.0299838692897185
  0.7578619111695972  0.9527123120882340  0.7361775581790265
  0.7595631886058579  0.0415818199722358  0.2649940981584735
  0.7595665990756825  0.7762587374053886  0.9535807646215262
  0.7711867680551473  0.2132135562202418  0.0571436820376685
  0.0100816743057226  0.2502798840151430  0.7664716032110377
  0.0169248261533455  0.7428468703231558  0.2358742225340938
  0.5097189524481094  0.2550852388828023  0.2321009517753395
  0.4866808209301557  0.7337519560434302  0.7560794885781764
  0.0167064060286675  0.2603279310110552  0.0163040313777219
  0.0104083770417426  0.7400594736249908 -0.0145978391894334
  0.5175708565931140  0.2325702891958307  0.4970686228004343
  0.5041029793524420  0.7616557121794165  0.5069603773267596
  0.4900675007787648  0.5240265011676343  0.2329983133896068
  0.4864566946851204  0.4822428927189163  0.7596743407337702
 -0.0009729394378750 -0.0097251045186985  0.2633551194883855
 -0.0019127657391533  0.0036180401164620  0.7412694627574284
  0.3644752135269560  0.3619508770488575  0.3592809947419291
  0.8257000596213605  0.4041506740248824  0.9247347494084974
  0.8297350818201527  0.5899387945256339  0.0782237064681645
  0.6760683335288187  0.4215086554971470  0.0932290671065995
  0.5020216852392495  0.5008372296871013  0.5011197492355178
  0.0035766024632583 -0.0005298820780299  0.0019859633249676
  0.2497404071190066  0.5033424350570670  0.0043230492555647
  0.0040794843494711  0.7473243377880486  0.4984729780904374
  0.0069627665978070  0.2485057734396885  0.5048733942430101
  0.5000063138333712  0.0016249520690431  0.2497712136228397
  0.4992340932719659 -0.0058499481118126  0.7515482914834565
  0.6045974852370929  0.5967506536416959  0.6047947587408325
  0.5991626473581800  0.4020549737534418  0.3892338808553845
  0.8994680410897297  0.8941891161015578  0.0994836624532577
  0.8990797621316335  0.1048016268922163  0.9042913211137809
  0.1077152439438690  0.9038072850110634  0.8951280100068221
  0.1071253437302423  0.0958726346512793  0.1094926087496809
  0.3922953044173930  0.6021234459476796  0.4043435452393081
  0.3979724701742586  0.3871893472704441  0.5907766280651983
  0.1141351778297985  0.3442117845426853  0.3958883768253001
  0.1039757406282829  0.6497891702564670  0.6091587633130529
  0.1113895622929410  0.1465045764988479  0.6076897762078689
  0.1142276296516515  0.8478438992929207  0.3997160807459502
  0.8937526942958056  0.1480834920565703  0.4092210552774608
  0.8902778207363338  0.8480124648440102  0.5930388129570322
  0.8698217119638491  0.3793486129469240  0.1331605244198703
  0.8672820094080856  0.6139688215578747  0.8693694159137572
  0.1467083843820282  0.6052589543254809  0.1089581886294314
  0.1561102328660909  0.4004710270044288  0.8910858012975585
  0.3961021825155580  0.8917186795274881  0.1567649050419164
  0.4008840299456412  0.1038850656550613  0.8508716692535218
  0.3940098151147188  0.1109084955110343  0.3480846212242105
  0.3883695425393454  0.8961673413404613  0.6501643537558903
  0.3446229776802462  0.3931632483071280  0.1134157348768564
  0.3514112350018613  0.6121458753767033  0.9051243953805147
  0.6127559281408196  0.0895568328031566  0.6500028821564128
  0.6108283949679947  0.9073937389331822  0.3534782604113362
  0.6345258227929267  0.6310319685063176  0.1182103002451618
  0.6295790615516255  0.3677261194859443  0.8824312530468010
  0.9077513203617117  0.3533080843120290  0.6080920839919101
  0.9058609934365310  0.6435143338717777  0.3917542126198560
  0.6016462029684476  0.1005191855857540  0.1427698065803057
  0.5978185083594554  0.8864966816232773  0.8524452147989185
 
  0.00000000E+00  0.00000000E+00  0.00000000E+00
  0.00000000E+00  0.00000000E+00  0.00000000E+00
  0.00000000E+00  0.00000000E+00  0.00000000E+00
  0.00000000E+00  0.00000000E+00  0.00000000E+00
  0.00000000E+00  0.00000000E+00  0.00000000E+00
  0.00000000E+00  0.00000000E+00  0.00000000E+00
  0.00000000E+00  0.00000000E+00  0.00000000E+00
  0.00000000E+00  0.00000000E+00  0.00000000E+00
  0.00000000E+00  0.00000000E+00  0.00000000E+00
  0.00000000E+00  0.00000000E+00  0.00000000E+00
  0.00000000E+00  0.00000000E+00  0.00000000E+00
  0.00000000E+00  0.00000000E+00  0.00000000E+00
  0.00000000E+00  0.00000000E+00  0.00000000E+00
  0.00000000E+00  0.00000000E+00  0.00000000E+00
  0.00000000E+00  0.00000000E+00  0.00000000E+00
  0.00000000E+00  0.00000000E+00  0.00000000E+00
  0.00000000E+00  0.00000000E+00  0.00000000E+00
  0.00000000E+00  0.00000000E+00  0.00000000E+00
  0.00000000E+00  0.00000000E+00  0.00000000E+00
  0.00000000E+00  0.00000000E+00  0.00000000E+00
  0.00000000E+00  0.00000000E+00  0.00000000E+00
  0.00000000E+00  0.00000000E+00  0.00000000E+00
  0.00000000E+00  0.00000000E+00  0.00000000E+00
  0.00000000E+00  0.00000000E+00  0.00000000E+00
  0.00000000E+00  0.00000000E+00  0.00000000E+00
  0.00000000E+00  0.00000000E+00  0.00000000E+00
  0.00000000E+00  0.00000000E+00  0.00000000E+00
  0.00000000E+00  0.00000000E+00  0.00000000E+00
  0.00000000E+00  0.00000000E+00  0.00000000E+00
  0.00000000E+00  0.00000000E+00  0.00000000E+00
  0.00000000E+00  0.00000000E+00  0.00000000E+00
  0.00000000E+00  0.00000000E+00  0.00000000E+00
  0.00000000E+00  0.00000000E+00  0.00000000E+00
  0.00000000E+00  0.00000000E+00  0.00000000E+00
  0.00000000E+00  0.00000000E+00  0.00000000E+00
  0.00000000E+00  0.00000000E+00  0.00000000E+00
  0.00000000E+00  0.00000000E+00  0.00000000E+00
  0.00000000E+00  0.00000000E+00  0.00000000E+00
  0.00000000E+00  0.00000000E+00  0.00000000E+00
  0.00000000E+00  0.00000000E+00  0.00000000E+00
  0.00000000E+00  0.00000000E+00  0.00000000E+00
  0.00000000E+00  0.00000000E+00  0.00000000E+00
  0.00000000E+00  0.00000000E+00  0.00000000E+00
  0.00000000E+00  0.00000000E+00  0.00000000E+00
  0.00000000E+00  0.00000000E+00  0.00000000E+00
  0.00000000E+00  0.00000000E+00  0.00000000E+00
  0.00000000E+00  0.00000000E+00  0.00000000E+00
  0.00000000E+00  0.00000000E+00  0.00000000E+00
  0.00000000E+00  0.00000000E+00  0.00000000E+00
  0.00000000E+00  0.00000000E+00  0.00000000E+00
  0.00000000E+00  0.00000000E+00  0.00000000E+00
  0.00000000E+00  0.00000000E+00  0.00000000E+00
  0.00000000E+00  0.00000000E+00  0.00000000E+00
  0.00000000E+00  0.00000000E+00  0.00000000E+00
  0.00000000E+00  0.00000000E+00  0.00000000E+00
  0.00000000E+00  0.00000000E+00  0.00000000E+00
  0.00000000E+00  0.00000000E+00  0.00000000E+00
  0.00000000E+00  0.00000000E+00  0.00000000E+00
  0.00000000E+00  0.00000000E+00  0.00000000E+00
  0.00000000E+00  0.00000000E+00  0.00000000E+00
  0.00000000E+00  0.00000000E+00  0.00000000E+00
  0.00000000E+00  0.00000000E+00  0.00000000E+00
  0.00000000E+00  0.00000000E+00  0.00000000E+00
  0.00000000E+00  0.00000000E+00  0.00000000E+00
  0.00000000E+00  0.00000000E+00  0.00000000E+00
  0.00000000E+00  0.00000000E+00  0.00000000E+00
  0.00000000E+00  0.00000000E+00  0.00000000E+00
  0.00000000E+00  0.00000000E+00  0.00000000E+00
  0.00000000E+00  0.00000000E+00  0.00000000E+00
  0.00000000E+00  0.00000000E+00  0.00000000E+00
  0.00000000E+00  0.00000000E+00  0.00000000E+00
  0.00000000E+00  0.00000000E+00  0.00000000E+00
  0.00000000E+00  0.00000000E+00  0.00000000E+00
  0.00000000E+00  0.00000000E+00  0.00000000E+00
  0.00000000E+00  0.00000000E+00  0.00000000E+00
  0.00000000E+00  0.00000000E+00  0.00000000E+00
  0.00000000E+00  0.00000000E+00  0.00000000E+00
  0.00000000E+00  0.00000000E+00  0.00000000E+00
  0.00000000E+00  0.00000000E+00  0.00000000E+00
  0.00000000E+00  0.00000000E+00  0.00000000E+00
  0.00000000E+00  0.00000000E+00  0.00000000E+00
  0.00000000E+00  0.00000000E+00  0.00000000E+00
  0.00000000E+00  0.00000000E+00  0.00000000E+00
  0.00000000E+00  0.00000000E+00  0.00000000E+00
  0.00000000E+00  0.00000000E+00  0.00000000E+00
  0.00000000E+00  0.00000000E+00  0.00000000E+00
  0.00000000E+00  0.00000000E+00  0.00000000E+00
  0.00000000E+00  0.00000000E+00  0.00000000E+00
  0.00000000E+00  0.00000000E+00  0.00000000E+00
  0.00000000E+00  0.00000000E+00  0.00000000E+00
  0.00000000E+00  0.00000000E+00  0.00000000E+00
  0.00000000E+00  0.00000000E+00  0.00000000E+00
  0.00000000E+00  0.00000000E+00  0.00000000E+00
  0.00000000E+00  0.00000000E+00  0.00000000E+00
  0.00000000E+00  0.00000000E+00  0.00000000E+00
  0.00000000E+00  0.00000000E+00  0.00000000E+00
  0.00000000E+00  0.00000000E+00  0.00000000E+00
  0.00000000E+00  0.00000000E+00  0.00000000E+00
  0.00000000E+00  0.00000000E+00  0.00000000E+00
  0.00000000E+00  0.00000000E+00  0.00000000E+00
