Li1
1.0
-2.057147 1.713409 1.713409
2.057147 -1.713409 1.713409
1.369671 1.713409 -1.713409
Li
1
direct
0.000000 0.000000 0.000000 Li
