P56 O140
1.0
4.933571 0.000000 -0.185066
0.000000 16.587570 0.000000
0.000000 0.000000 55.120879
P O
56 140
Selective dynamics
direct
0.231994 0.923932 0.048211 F F F P
0.770255 0.576068 0.077070 F F F P
0.270255 0.673932 0.077070 F F F P
0.398661 0.826068 0.006545 T T T P
0.898661 0.423932 0.006545 T T T P
0.436921 0.076068 0.035403 F F F P
0.936921 0.173932 0.035403 F F F P
0.731994 0.326068 0.048211 F F F P
0.898661 0.923932 0.131545 F F F P
0.436921 0.576068 0.160403 F F F P
0.936921 0.673932 0.160403 F F F P
0.065328 0.826068 0.089878 F F F P
0.565328 0.423932 0.089878 F F F P
0.103588 0.076068 0.118737 F F F P
0.603588 0.173932 0.118737 F F F P
0.398661 0.326068 0.131545 F F F P
0.565328 0.923932 0.214878 F F F P
0.103588 0.576068 0.243737 F F F P
0.603588 0.673932 0.243737 F F F P
0.731994 0.826068 0.173211 F F F P
0.231994 0.423932 0.173211 F F F P
0.770255 0.076068 0.202070 F F F P
0.270255 0.173932 0.202070 F F F P
0.065328 0.326068 0.214878 F F F P
0.231994 0.923932 0.298211 F F F P
0.770255 0.576068 0.327070 F F F P
0.270255 0.673932 0.327070 F F F P
0.398661 0.826068 0.256545 F F F P
0.898661 0.423932 0.256545 F F F P
0.436921 0.076068 0.285403 F F F P
0.936921 0.173932 0.285403 F F F P
0.731995 0.326068 0.298211 F F F P
0.898661 0.923932 0.381545 F F F P
0.436921 0.576068 0.410403 F F F P
0.936921 0.673932 0.410403 F F F P
0.065328 0.826068 0.339878 F F F P
0.565328 0.423932 0.339878 F F F P
0.103588 0.076068 0.368737 F F F P
0.603588 0.173932 0.368737 F F F P
0.398661 0.326068 0.381545 F F F P
0.565328 0.923932 0.464878 F F F P
0.103588 0.576068 0.493737 F F F P
0.603588 0.673932 0.493737 F F F P
0.731995 0.826068 0.423211 F F F P
0.231995 0.423932 0.423211 F F F P
0.770255 0.076068 0.452070 F F F P
0.270255 0.173932 0.452070 F F F P
0.065328 0.326068 0.464878 F F F P
0.231994 0.923932 0.548211 T T T P
0.770255 0.576068 0.577070 T T T P
0.270255 0.673932 0.577070 T T T P
0.398661 0.826068 0.506545 F F F P
0.898661 0.423932 0.506545 F F F P
0.436921 0.076068 0.535403 F F F P
0.936921 0.173932 0.535403 F F F P
0.731995 0.326068 0.548211 T T T P
0.965076 0.941627 0.037280 F F F O
0.742627 0.558373 0.051183 F F F O
0.242627 0.691627 0.051183 F F F O
0.798410 0.808373 0.078947 F F F O
0.593445 0.750000 0.011681 T T T O
0.426779 0.000000 0.053347 F F F O
0.421233 0.865488 0.032852 F F F O
0.876677 0.634512 0.004387 F F F O
0.376677 0.615488 0.004387 F F F O
0.254566 0.884512 0.074519 F F F O
0.298410 0.441627 0.078947 F F F O
0.409294 0.058373 0.009516 F F F O
0.909294 0.191627 0.009516 F F F O
0.465076 0.308373 0.037280 F F F O
0.926779 0.250000 0.053347 F F F O
0.093446 0.500000 0.011681 T T T O
0.754566 0.365488 0.074519 F F F O
0.210010 0.134512 0.046053 F F F O
0.710010 0.115488 0.046053 F F F O
0.921233 0.384512 0.032852 F F F O
0.631743 0.941627 0.120613 F F F O
0.409294 0.558373 0.134516 F F F O
0.909294 0.691627 0.134516 F F F O
0.465077 0.808373 0.162280 F F F O
0.260112 0.750000 0.095014 F F F O
0.093446 0.000000 0.136681 F F F O
0.087899 0.865488 0.116185 F F F O
0.543344 0.634512 0.087720 F F F O
0.043344 0.615488 0.087720 F F F O
0.921233 0.884512 0.157852 F F F O
0.965076 0.441627 0.162280 F F F O
0.075961 0.058373 0.092850 F F F O
0.575961 0.191627 0.092850 F F F O
0.131743 0.308373 0.120613 F F F O
0.593446 0.250000 0.136681 F F F O
0.760112 0.500000 0.095014 F F F O
0.421233 0.365488 0.157852 F F F O
0.876677 0.134512 0.129387 F F F O
0.376677 0.115488 0.129387 F F F O
0.587899 0.384512 0.116185 F F F O
0.298410 0.941627 0.203947 F F F O
0.075961 0.558373 0.217850 F F F O
0.575961 0.691627 0.217850 F F F O
0.131743 0.808373 0.245613 F F F O
0.926779 0.750000 0.178347 F F F O
0.760112 1.000000 0.220014 F F F O
0.754566 0.865488 0.199519 F F F O
0.210010 0.634512 0.171053 F F F O
0.710010 0.615488 0.171053 F F F O
0.587900 0.884512 0.241185 F F F O
0.631743 0.441627 0.245613 F F F O
0.742627 0.058373 0.176183 F F F O
0.242627 0.191627 0.176183 F F F O
0.798410 0.308373 0.203947 F F F O
0.260112 0.250000 0.220014 F F F O
0.426779 0.500000 0.178347 F F F O
0.087900 0.365488 0.241185 F F F O
0.543344 0.134512 0.212720 F F F O
0.043344 0.115488 0.212720 F F F O
0.254566 0.384512 0.199519 F F F O
0.965077 0.941627 0.287280 F F F O
0.742627 0.558373 0.301183 F F F O
0.242627 0.691627 0.301183 F F F O
0.798410 0.808373 0.328947 F F F O
0.593446 0.750000 0.261681 F F F O
0.426779 1.000000 0.303347 F F F O
0.421233 0.865488 0.282852 F F F O
0.876677 0.634512 0.254387 F F F O
0.376677 0.615488 0.254387 F F F O
0.254566 0.884512 0.324519 F F F O
0.298410 0.441627 0.328947 F F F O
0.409294 0.058373 0.259516 F F F O
0.909294 0.191627 0.259516 F F F O
0.465077 0.308373 0.287280 F F F O
0.926779 0.250000 0.303347 F F F O
0.093446 0.500000 0.261681 F F F O
0.754566 0.365488 0.324519 F F F O
0.210010 0.134512 0.296053 F F F O
0.710010 0.115488 0.296053 F F F O
0.921233 0.384512 0.282852 F F F O
0.631743 0.941627 0.370613 F F F O
0.409294 0.558373 0.384516 F F F O
0.909294 0.691627 0.384516 F F F O
0.465077 0.808373 0.412280 F F F O
0.260112 0.750000 0.345014 F F F O
0.093446 1.000000 0.386681 F F F O
0.087899 0.865488 0.366185 F F F O
0.543344 0.634512 0.337720 F F F O
0.043344 0.615488 0.337720 F F F O
0.921233 0.884512 0.407852 F F F O
0.965077 0.441627 0.412280 F F F O
0.075961 0.058373 0.342850 F F F O
0.575961 0.191627 0.342850 F F F O
0.131743 0.308373 0.370613 F F F O
0.593446 0.250000 0.386681 F F F O
0.760112 0.500000 0.345014 F F F O
0.421233 0.365488 0.407852 F F F O
0.876677 0.134512 0.379387 F F F O
0.376677 0.115488 0.379387 F F F O
0.587899 0.384512 0.366185 F F F O
0.298410 0.941627 0.453947 F F F O
0.075961 0.558373 0.467850 F F F O
0.575961 0.691627 0.467850 F F F O
0.131743 0.808373 0.495613 F F F O
0.926779 0.750000 0.428347 F F F O
0.760112 0.000000 0.470014 F F F O
0.754566 0.865488 0.449519 F F F O
0.210010 0.634512 0.421053 F F F O
0.710010 0.615488 0.421053 F F F O
0.587900 0.884512 0.491185 F F F O
0.631743 0.441627 0.495613 F F F O
0.742627 0.058373 0.426183 F F F O
0.242627 0.191627 0.426183 F F F O
0.798410 0.308373 0.453947 F F F O
0.260112 0.250000 0.470014 F F F O
0.426779 0.500000 0.428347 F F F O
0.087900 0.365488 0.491185 F F F O
0.543344 0.134512 0.462720 F F F O
0.043344 0.115488 0.462720 F F F O
0.254566 0.384512 0.449519 F F F O
0.965076 0.941627 0.537280 T T T O
0.742627 0.558373 0.551183 T T T O
0.242627 0.691627 0.551183 T T T O
0.798410 0.808373 0.578947 F F F O
0.593446 0.750000 0.511681 F F F O
0.426779 1.000000 0.553347 F F F O
0.421233 0.865488 0.532852 F F F O
0.876677 0.634512 0.504387 F F F O
0.376677 0.615488 0.504387 F F F O
0.254566 0.884512 0.574519 F F F O
0.298410 0.441627 0.578947 F F F O
0.409294 0.058373 0.509516 F F F O
0.909294 0.191627 0.509516 F F F O
0.465077 0.308373 0.537280 T T T O
0.926779 0.250000 0.553347 F F F O
0.093446 0.500000 0.511681 F F F O
0.754566 0.365488 0.574519 F F F O
0.210010 0.134512 0.546053 F F F O
0.710010 0.115488 0.546053 F F F O
0.921233 0.384512 0.532852 F F F O
