Li73 P24 N1 O95                         
   1.00000000000000     
    14.7285185121676303   -0.0098557933080827    0.0052387760299974
    -0.0070688507953142   10.5597404183068520   -0.0045125529176350
     0.0043597126775895   -0.0052705102694330   12.3293831258181701
   Li   P    N    O 
    73    24     1    95
Direct
  0.1559769980527726  0.4218163278634173  0.0013897750626270
  0.1662780376223833  0.4196338772943373  0.4985773985246229
  0.1669158917838798  0.9201012736673796 -0.0008230328034911
  0.1674303630147148  0.9229087828327959  0.5006800956470211
  0.5058706947762679  0.4210049201711810 -0.0031065507875564
  0.5068196517465330  0.4230739978648742  0.5055089521559387
  0.5027584093856720  0.9224210238497543 -0.0025998194390211
  0.5023076992776701  0.9220199782192503  0.5029909425280690
  0.8703316455382605  0.4242619495821552 -0.0023991590746648
  0.8341996857094089  0.4225045592026269  0.5010789700537485
  0.8388430713471242  0.9195556720453776 -0.0011601613201921
  0.8370125501893328  0.9229548176650831  0.5008460676652461
  0.0015146983950348  0.0787037454848630  0.2495383527189119
  0.0031856139110771  0.0761358342322897  0.7510203607115129
  0.0027905343866558  0.5713368980045366  0.2408786132029111
  0.0039944340908905  0.5742646331600333  0.7578447506193693
  0.3368333276913122  0.0720068893659355  0.2486437216178447
  0.3360607280390064  0.0768423324830999  0.7509379314095578
  0.4159433185598420  0.6674718137396908  0.2451290925757893
  0.3350773635435991  0.5744076564244706  0.7523852808734870
  0.6699646198176022  0.0769971599986330  0.2488535700952993
  0.6702469793512880  0.0784227225276708  0.7506320733790335
  0.6711684929298084  0.5803688338660798  0.2484068026506723
  0.6712570898071588  0.5770370039001178  0.7510613024067532
  0.1669625994936381  0.1609388370277361  0.1254443501202868
  0.1693266130492702  0.1622481655817764  0.6257647606161507
  0.1608751969021837  0.6622667393276690  0.1232869033212155
  0.1681082809322180  0.6609463229234649  0.6264113793559196
  0.5040568787289362  0.1646218455027784  0.1251469934499114
  0.5030321589703968  0.1621756362412504  0.6271313327824745
  0.5171150656740298  0.6664460974559662  0.1086948446357282
  0.5023782492617976  0.6633584881849398  0.6312725632990253
  0.8341622698254033  0.1612920696896340  0.1254215338516888
  0.8364780928175360  0.1644821752050705  0.6259698324194675
  0.8359118231443697  0.6634155753427118  0.1247214560307069
  0.8382290899860788  0.6639818731513073  0.6288640931061997
 -0.0029059599097377  0.3293995245558718  0.1210418530273912
  0.0010184929429603  0.3362983352394174  0.6233893517207428
  0.0004803403929889  0.8353590155231446  0.1229433579450904
  0.0022306112396947  0.8352637368712310  0.6250725373945663
  0.3291039419154140  0.3344309879377703  0.1214806835952983
  0.3358550920133539  0.3342374107965900  0.6249594922295725
  0.3317609933458928  0.8354512322340721  0.1182345975190474
  0.3344625662386149  0.8364308449018083  0.6254517044569379
  0.6747532355693970  0.3386123493350045  0.1206153522632771
  0.6701164137859215  0.3357991910790935  0.6248526548690571
  0.6735587245846824  0.8368677635392772  0.1218814317328246
  0.6705343877908004  0.8372090166384419  0.6245297722210068
 -0.0060262174301880  0.3321262468317202  0.3801176915101618
  0.0048790812654499  0.3340970085130517  0.8752072838587018
  0.0001694783892310  0.8369430047240499  0.3756852828749305
  0.0024259676867721  0.8329914262550112  0.8765564761031079
  0.3549926099840104  0.3268421804761876  0.3813280225645531
  0.3352088654458852  0.3356527067755041  0.8766547147552449
  0.3312726167677983  0.8366250830227705  0.3798283115473728
  0.3351119541888027  0.8346459118604073  0.8755689473767080
  0.6679538327466227  0.3379974745101099  0.3770980466717487
  0.6741311286616696  0.3362177584220234  0.8764972975669943
  0.6725788406257478  0.8378890867117723  0.3777510361940258
  0.6709985570160995  0.8361586508149312  0.8753188754657711
  0.1689600143507396  0.1644786342154001  0.3731947816044787
  0.1691206152370740  0.1619911082076259  0.8745716669528434
  0.1587864450269425  0.6653525886977066  0.3743004689149654
  0.1673713120755477  0.6594368126641573  0.8769001654567911
  0.5062229399053529  0.1600859141626350  0.3733884799346193
  0.5033316850610272  0.1624164032581866  0.8739698450101537
  0.5173165685530947  0.6651461677002009  0.3873224920314747
  0.5014837939683839  0.6623812594159426  0.8698990754140217
  0.8330867535873618  0.1628591151944764  0.3742982365246408
  0.8372632775338290  0.1631696066787430  0.8738862739305172
  0.8369558123708617  0.6625823760512803  0.3737543685016884
  0.8374059253489885  0.6648820868264887  0.8719082231484282
  0.3022107958111609  0.5320633155449922  0.2878302682878087
  0.1560299465370040  0.4052012929760188  0.2501389498641970
  0.1677601921967761  0.4098510220756885  0.7480872296272844
  0.1656815936973790  0.9114481369460649  0.2500114308673921
  0.1670410815491770  0.9107359552432051  0.7498974304320061
  0.4975820400209561  0.4159341220069116  0.2492327240932105
  0.5006593637404880  0.4102906856182850  0.7500474600922523
  0.5016197444906030  0.9081592118489402  0.2497487853433604
  0.5002179627335513  0.9116644563686581  0.7500657550729320
  0.8286191443724819  0.4114676803274034  0.2513985802987813
  0.8336144216803504  0.4114339926269557  0.7478796794468761
  0.8319529747265006  0.9132816848665058  0.2507637970147099
  0.8334470189831682  0.9143923294327511  0.7489737381317095
 -0.0000325405432223  0.0844740644518374 -0.0005858254310818
 -0.0005368750751729  0.0866433583614037  0.5004427102632428
 -0.0019245599150060  0.5853655772828522 -0.0003889895972271
 -0.0023977400638011  0.5871956227955979  0.5005663013569972
  0.3339486753348571  0.0855477770508687  0.0002512168141583
  0.3342792095075048  0.0839310034000717  0.4996731208964940
  0.3356525381491132  0.5859340098894152  0.0012001383253235
  0.3350321580184054  0.5858761190411418  0.4990591127733317
  0.6666759947586519  0.0862152149191902 -0.0002361054263634
  0.6656179382010351  0.0871197599406464  0.5002111004454333
  0.6686177739842583  0.5858674306514160 -0.0048766314367369
  0.6681678974298152  0.5877135218957250  0.5040314661918870
  0.0225829161286367  0.4408962033205993  0.0015038452499942
  0.0353210583989921  0.1550318301704385  0.3967590992663739
  0.0366258649099689  0.1520247698256423  0.8958715075092097
  0.0309097540531545  0.6573023796321699  0.3965885212614622
  0.0366797220871195  0.6601675263326484  0.8963489275672609
  0.3724996489395910  0.1483208275688128  0.3949237739389918
  0.3694734550243383  0.1549476605480190  0.8968993368825503
  0.3700612431376322  0.6510349079870745  0.3909351223755467
  0.3696467649147346  0.6554085245740189  0.8967080260704698
  0.6982713785522618  0.1564967342022741  0.3953541595443748
  0.7021842208620566  0.1558765358104315  0.8968200897938831
  0.6987505880365409  0.6568378951989970  0.3981712851783491
  0.7046258821408914  0.6573756714217001  0.8934431159690819
  0.2019135419212965  0.0505131541797667  0.2507523026098953
  0.2020291460257487  0.0504730841244535  0.7490827198442006
  0.1797808605585086  0.5500134049146478  0.2498704768722471
  0.2021186949661620  0.5500018433949054  0.7487627669591429
  0.5310807295136619  0.0491657244581423  0.2494423549603711
  0.5340656948714442  0.0514533045835421  0.7500351624074916
  0.5268336564877182  0.5598437289446411  0.2501456009990173
  0.5338964939236660  0.5504165849132671  0.7496268145580931
  0.8654559531640225  0.0533268831429693  0.2512782393113622
  0.8672572011079085  0.0542145721735221  0.7484968774798213
  0.8639287336754590  0.5506208916700427  0.2500950615410779
  0.8682723308515321  0.5507470516554649  0.7495305716060304
  0.0518730054135864  0.3911930070986832  0.2524449458056032
  0.0625167055021219  0.4063592111003196  0.7464907045035937
  0.0602370429572868  0.9100410722837000  0.2505071090782224
  0.0616520106881823  0.9081726575541463  0.7498386139041974
  0.3917420533363422  0.4128542504035454  0.2488733869270108
  0.3948824190650023  0.4072969432928804  0.7500780685800623
  0.3957454437997224  0.8928115206038042  0.2496870572881580
  0.3944723269271947  0.9082412913998473  0.7499638260885757
  0.7223702311594089  0.4118872735139356  0.2517800258566694
  0.7275808635857894  0.4099181452121645  0.7482704708602056
  0.7259736918909162  0.9095788703016224  0.2506299902389365
  0.7275323240906042  0.9111674763695758  0.7491540581645699
  0.2283929496560624  0.0884860773633921  0.0004701383985071
  0.2288209034153100  0.0896605342863672  0.4985403854978850
  0.2307128058100160  0.5892485676887992  0.0053892286055606
  0.2297064632394277  0.5885613109078253  0.4940799867022709
  0.5607213032086036  0.0884061999996247 -0.0005778816526702
  0.5597659816394591  0.0882115065643297  0.5011480359097203
  0.5623905212569937  0.5877524636605521 -0.0101691235196262
  0.5622511147850784  0.5896314024809951  0.5089582710380539
  0.8942285001686638  0.0891115198109725 -0.0002704546517059
  0.8938272563145130  0.0911498544303070  0.4997730047780907
  0.8906073036008061  0.6072623783568943 -0.0026265710352575
  0.8920068469382535  0.5902208023550699  0.5016495372926998
  0.1972027901020636  0.3406538079104875  0.1479302022099115
  0.2041319592195971  0.3424117401037591  0.6434735808861599
  0.2013288171688979  0.8416735305229728  0.1468966397443063
  0.2020852272679904  0.8414109406646092  0.6456544930942936
  0.5350427456440282  0.3470685746589977  0.1477777182295134
  0.5358335343495095  0.3412917170880364  0.6461173995970864
  0.5381690466809250  0.8405570774088620  0.1462162412860332
  0.5356255795211710  0.8424048967172216  0.6463503200923184
  0.8621989480257458  0.3388762507006410  0.1497234052752206
  0.8674202972070246  0.3441244434018491  0.6422272460350174
  0.8666377058143636  0.8446533829564259  0.1473643793103217
  0.8684568766293843  0.8448521074482218  0.6452414078135373
  0.0355143784899849  0.1508170428210632  0.1040694743241451
  0.0354969274352200  0.1558427223005561  0.6036783728983650
  0.0333011915260701  0.6620676690587863  0.1033706818654927
  0.0347594926128021  0.6553542325760071  0.6037486850910667
  0.3698811667464379  0.1532940432664726  0.1046710212612564
  0.3697071733820716  0.1546441582112351  0.6022583936626019
  0.3750730328313374  0.6575561314094176  0.1029458354518959
  0.3700833062227978  0.6585901590542707  0.5999791727787979
  0.7001707251034129  0.1549784149087011  0.1044362343516614
  0.7013395050675493  0.1572828103507640  0.6027944663834912
  0.6978492132721001  0.6562680056151147  0.1013981939067580
  0.7052282083669003  0.6576043680537099  0.6056466214131316
  0.0316355441045280  0.4473257229716097  0.4991589457289352
  0.0324272248450444  0.9441266406341792 -0.0007151273412069
  0.0325376213659241  0.9463754246377438  0.5004836109070158
  0.3695306930808082  0.4463551885978283  0.0006418324186471
  0.3700593885075851  0.4469911447020281  0.5008818167202295
  0.3678677905739076  0.9455848171396383 -0.0001655822160613
  0.3667294956706504  0.9432996573795012  0.5009265560707760
  0.7006067649381835  0.4467629998410844 -0.0024817201718251
  0.6998946738097486  0.4475019784113153  0.5015828373449519
  0.7009949546849549  0.9467726910416145 -0.0004064218529176
  0.7005191655602925  0.9480326424024823  0.4999715953166431
  0.2012079777540487  0.3454705340958453  0.3529383261071214
  0.2033648492819056  0.3404756121206299  0.8510661111193588
  0.2005663777360659  0.8414961738507858  0.3539569886137802
  0.2028509948428285  0.8415792231277345  0.8530932931145709
  0.5298576878019617  0.3469850953928769  0.3543061619477998
  0.5367233207378226  0.3409181694084991  0.8527372949836602
  0.5373847144568710  0.8409783832035166  0.3541459174191886
  0.5355462536861049  0.8422676870099138  0.8533376899659526
  0.8616422531907301  0.3431433156356791  0.3566918831396010
  0.8690453654875329  0.3390089600406592  0.8485104527775714
  0.8664453215336794  0.8439485857532867  0.3546126458379089
  0.8686694486028836  0.8455931983212470  0.8518924605712589
 
  0.00000000E+00  0.00000000E+00  0.00000000E+00
  0.00000000E+00  0.00000000E+00  0.00000000E+00
  0.00000000E+00  0.00000000E+00  0.00000000E+00
  0.00000000E+00  0.00000000E+00  0.00000000E+00
  0.00000000E+00  0.00000000E+00  0.00000000E+00
  0.00000000E+00  0.00000000E+00  0.00000000E+00
  0.00000000E+00  0.00000000E+00  0.00000000E+00
  0.00000000E+00  0.00000000E+00  0.00000000E+00
  0.00000000E+00  0.00000000E+00  0.00000000E+00
  0.00000000E+00  0.00000000E+00  0.00000000E+00
  0.00000000E+00  0.00000000E+00  0.00000000E+00
  0.00000000E+00  0.00000000E+00  0.00000000E+00
  0.00000000E+00  0.00000000E+00  0.00000000E+00
  0.00000000E+00  0.00000000E+00  0.00000000E+00
  0.00000000E+00  0.00000000E+00  0.00000000E+00
  0.00000000E+00  0.00000000E+00  0.00000000E+00
  0.00000000E+00  0.00000000E+00  0.00000000E+00
  0.00000000E+00  0.00000000E+00  0.00000000E+00
  0.00000000E+00  0.00000000E+00  0.00000000E+00
  0.00000000E+00  0.00000000E+00  0.00000000E+00
  0.00000000E+00  0.00000000E+00  0.00000000E+00
  0.00000000E+00  0.00000000E+00  0.00000000E+00
  0.00000000E+00  0.00000000E+00  0.00000000E+00
  0.00000000E+00  0.00000000E+00  0.00000000E+00
  0.00000000E+00  0.00000000E+00  0.00000000E+00
  0.00000000E+00  0.00000000E+00  0.00000000E+00
  0.00000000E+00  0.00000000E+00  0.00000000E+00
  0.00000000E+00  0.00000000E+00  0.00000000E+00
  0.00000000E+00  0.00000000E+00  0.00000000E+00
  0.00000000E+00  0.00000000E+00  0.00000000E+00
  0.00000000E+00  0.00000000E+00  0.00000000E+00
  0.00000000E+00  0.00000000E+00  0.00000000E+00
  0.00000000E+00  0.00000000E+00  0.00000000E+00
  0.00000000E+00  0.00000000E+00  0.00000000E+00
  0.00000000E+00  0.00000000E+00  0.00000000E+00
  0.00000000E+00  0.00000000E+00  0.00000000E+00
  0.00000000E+00  0.00000000E+00  0.00000000E+00
  0.00000000E+00  0.00000000E+00  0.00000000E+00
  0.00000000E+00  0.00000000E+00  0.00000000E+00
  0.00000000E+00  0.00000000E+00  0.00000000E+00
  0.00000000E+00  0.00000000E+00  0.00000000E+00
  0.00000000E+00  0.00000000E+00  0.00000000E+00
  0.00000000E+00  0.00000000E+00  0.00000000E+00
  0.00000000E+00  0.00000000E+00  0.00000000E+00
  0.00000000E+00  0.00000000E+00  0.00000000E+00
  0.00000000E+00  0.00000000E+00  0.00000000E+00
  0.00000000E+00  0.00000000E+00  0.00000000E+00
  0.00000000E+00  0.00000000E+00  0.00000000E+00
  0.00000000E+00  0.00000000E+00  0.00000000E+00
  0.00000000E+00  0.00000000E+00  0.00000000E+00
  0.00000000E+00  0.00000000E+00  0.00000000E+00
  0.00000000E+00  0.00000000E+00  0.00000000E+00
  0.00000000E+00  0.00000000E+00  0.00000000E+00
  0.00000000E+00  0.00000000E+00  0.00000000E+00
  0.00000000E+00  0.00000000E+00  0.00000000E+00
  0.00000000E+00  0.00000000E+00  0.00000000E+00
  0.00000000E+00  0.00000000E+00  0.00000000E+00
  0.00000000E+00  0.00000000E+00  0.00000000E+00
  0.00000000E+00  0.00000000E+00  0.00000000E+00
  0.00000000E+00  0.00000000E+00  0.00000000E+00
  0.00000000E+00  0.00000000E+00  0.00000000E+00
  0.00000000E+00  0.00000000E+00  0.00000000E+00
  0.00000000E+00  0.00000000E+00  0.00000000E+00
  0.00000000E+00  0.00000000E+00  0.00000000E+00
  0.00000000E+00  0.00000000E+00  0.00000000E+00
  0.00000000E+00  0.00000000E+00  0.00000000E+00
  0.00000000E+00  0.00000000E+00  0.00000000E+00
  0.00000000E+00  0.00000000E+00  0.00000000E+00
  0.00000000E+00  0.00000000E+00  0.00000000E+00
  0.00000000E+00  0.00000000E+00  0.00000000E+00
  0.00000000E+00  0.00000000E+00  0.00000000E+00
  0.00000000E+00  0.00000000E+00  0.00000000E+00
  0.00000000E+00  0.00000000E+00  0.00000000E+00
  0.00000000E+00  0.00000000E+00  0.00000000E+00
  0.00000000E+00  0.00000000E+00  0.00000000E+00
  0.00000000E+00  0.00000000E+00  0.00000000E+00
  0.00000000E+00  0.00000000E+00  0.00000000E+00
  0.00000000E+00  0.00000000E+00  0.00000000E+00
  0.00000000E+00  0.00000000E+00  0.00000000E+00
  0.00000000E+00  0.00000000E+00  0.00000000E+00
  0.00000000E+00  0.00000000E+00  0.00000000E+00
  0.00000000E+00  0.00000000E+00  0.00000000E+00
  0.00000000E+00  0.00000000E+00  0.00000000E+00
  0.00000000E+00  0.00000000E+00  0.00000000E+00
  0.00000000E+00  0.00000000E+00  0.00000000E+00
  0.00000000E+00  0.00000000E+00  0.00000000E+00
  0.00000000E+00  0.00000000E+00  0.00000000E+00
  0.00000000E+00  0.00000000E+00  0.00000000E+00
  0.00000000E+00  0.00000000E+00  0.00000000E+00
  0.00000000E+00  0.00000000E+00  0.00000000E+00
  0.00000000E+00  0.00000000E+00  0.00000000E+00
  0.00000000E+00  0.00000000E+00  0.00000000E+00
  0.00000000E+00  0.00000000E+00  0.00000000E+00
  0.00000000E+00  0.00000000E+00  0.00000000E+00
  0.00000000E+00  0.00000000E+00  0.00000000E+00
  0.00000000E+00  0.00000000E+00  0.00000000E+00
  0.00000000E+00  0.00000000E+00  0.00000000E+00
  0.00000000E+00  0.00000000E+00  0.00000000E+00
  0.00000000E+00  0.00000000E+00  0.00000000E+00
  0.00000000E+00  0.00000000E+00  0.00000000E+00
  0.00000000E+00  0.00000000E+00  0.00000000E+00
  0.00000000E+00  0.00000000E+00  0.00000000E+00
  0.00000000E+00  0.00000000E+00  0.00000000E+00
  0.00000000E+00  0.00000000E+00  0.00000000E+00
  0.00000000E+00  0.00000000E+00  0.00000000E+00
  0.00000000E+00  0.00000000E+00  0.00000000E+00
  0.00000000E+00  0.00000000E+00  0.00000000E+00
  0.00000000E+00  0.00000000E+00  0.00000000E+00
  0.00000000E+00  0.00000000E+00  0.00000000E+00
  0.00000000E+00  0.00000000E+00  0.00000000E+00
  0.00000000E+00  0.00000000E+00  0.00000000E+00
  0.00000000E+00  0.00000000E+00  0.00000000E+00
  0.00000000E+00  0.00000000E+00  0.00000000E+00
  0.00000000E+00  0.00000000E+00  0.00000000E+00
  0.00000000E+00  0.00000000E+00  0.00000000E+00
  0.00000000E+00  0.00000000E+00  0.00000000E+00
  0.00000000E+00  0.00000000E+00  0.00000000E+00
  0.00000000E+00  0.00000000E+00  0.00000000E+00
  0.00000000E+00  0.00000000E+00  0.00000000E+00
  0.00000000E+00  0.00000000E+00  0.00000000E+00
  0.00000000E+00  0.00000000E+00  0.00000000E+00
  0.00000000E+00  0.00000000E+00  0.00000000E+00
  0.00000000E+00  0.00000000E+00  0.00000000E+00
  0.00000000E+00  0.00000000E+00  0.00000000E+00
  0.00000000E+00  0.00000000E+00  0.00000000E+00
  0.00000000E+00  0.00000000E+00  0.00000000E+00
  0.00000000E+00  0.00000000E+00  0.00000000E+00
  0.00000000E+00  0.00000000E+00  0.00000000E+00
  0.00000000E+00  0.00000000E+00  0.00000000E+00
  0.00000000E+00  0.00000000E+00  0.00000000E+00
  0.00000000E+00  0.00000000E+00  0.00000000E+00
  0.00000000E+00  0.00000000E+00  0.00000000E+00
  0.00000000E+00  0.00000000E+00  0.00000000E+00
  0.00000000E+00  0.00000000E+00  0.00000000E+00
  0.00000000E+00  0.00000000E+00  0.00000000E+00
  0.00000000E+00  0.00000000E+00  0.00000000E+00
  0.00000000E+00  0.00000000E+00  0.00000000E+00
  0.00000000E+00  0.00000000E+00  0.00000000E+00
  0.00000000E+00  0.00000000E+00  0.00000000E+00
  0.00000000E+00  0.00000000E+00  0.00000000E+00
  0.00000000E+00  0.00000000E+00  0.00000000E+00
  0.00000000E+00  0.00000000E+00  0.00000000E+00
  0.00000000E+00  0.00000000E+00  0.00000000E+00
  0.00000000E+00  0.00000000E+00  0.00000000E+00
  0.00000000E+00  0.00000000E+00  0.00000000E+00
  0.00000000E+00  0.00000000E+00  0.00000000E+00
  0.00000000E+00  0.00000000E+00  0.00000000E+00
  0.00000000E+00  0.00000000E+00  0.00000000E+00
  0.00000000E+00  0.00000000E+00  0.00000000E+00
  0.00000000E+00  0.00000000E+00  0.00000000E+00
  0.00000000E+00  0.00000000E+00  0.00000000E+00
  0.00000000E+00  0.00000000E+00  0.00000000E+00
  0.00000000E+00  0.00000000E+00  0.00000000E+00
  0.00000000E+00  0.00000000E+00  0.00000000E+00
  0.00000000E+00  0.00000000E+00  0.00000000E+00
  0.00000000E+00  0.00000000E+00  0.00000000E+00
  0.00000000E+00  0.00000000E+00  0.00000000E+00
  0.00000000E+00  0.00000000E+00  0.00000000E+00
  0.00000000E+00  0.00000000E+00  0.00000000E+00
  0.00000000E+00  0.00000000E+00  0.00000000E+00
  0.00000000E+00  0.00000000E+00  0.00000000E+00
  0.00000000E+00  0.00000000E+00  0.00000000E+00
  0.00000000E+00  0.00000000E+00  0.00000000E+00
  0.00000000E+00  0.00000000E+00  0.00000000E+00
  0.00000000E+00  0.00000000E+00  0.00000000E+00
  0.00000000E+00  0.00000000E+00  0.00000000E+00
  0.00000000E+00  0.00000000E+00  0.00000000E+00
  0.00000000E+00  0.00000000E+00  0.00000000E+00
  0.00000000E+00  0.00000000E+00  0.00000000E+00
  0.00000000E+00  0.00000000E+00  0.00000000E+00
  0.00000000E+00  0.00000000E+00  0.00000000E+00
  0.00000000E+00  0.00000000E+00  0.00000000E+00
  0.00000000E+00  0.00000000E+00  0.00000000E+00
  0.00000000E+00  0.00000000E+00  0.00000000E+00
  0.00000000E+00  0.00000000E+00  0.00000000E+00
  0.00000000E+00  0.00000000E+00  0.00000000E+00
  0.00000000E+00  0.00000000E+00  0.00000000E+00
  0.00000000E+00  0.00000000E+00  0.00000000E+00
  0.00000000E+00  0.00000000E+00  0.00000000E+00
  0.00000000E+00  0.00000000E+00  0.00000000E+00
  0.00000000E+00  0.00000000E+00  0.00000000E+00
  0.00000000E+00  0.00000000E+00  0.00000000E+00
  0.00000000E+00  0.00000000E+00  0.00000000E+00
  0.00000000E+00  0.00000000E+00  0.00000000E+00
  0.00000000E+00  0.00000000E+00  0.00000000E+00
  0.00000000E+00  0.00000000E+00  0.00000000E+00
  0.00000000E+00  0.00000000E+00  0.00000000E+00
  0.00000000E+00  0.00000000E+00  0.00000000E+00
  0.00000000E+00  0.00000000E+00  0.00000000E+00
  0.00000000E+00  0.00000000E+00  0.00000000E+00
  0.00000000E+00  0.00000000E+00  0.00000000E+00
  0.00000000E+00  0.00000000E+00  0.00000000E+00
  0.00000000E+00  0.00000000E+00  0.00000000E+00
