Li61 P7 N32                             
   1.00000000000000     
     0.0736725598108247    9.6109382271802808   -0.0336904087916529
    -0.0610248941596820   -0.0336162662807322    9.6044957908969657
     9.6088666272185677    0.0738454526201769   -0.0609652885889435
   Li   P    N 
    61     7    32
Direct
  0.4963121633451645 -0.0105284847471761  0.5039530368082836
  0.0124642466845670  0.4957404828498151  0.0115384324590973
  0.5030038530367023 -0.0054969717402785  0.0020734846404985
  0.0022431920228194 -0.0052180730744827  0.5013031956302342
  0.5087126016232124  0.4877347611949086  0.0193155323987729
 -0.0300848645840329  0.4953379730729363  0.5041575351427402
  0.7616957676947510  0.0317185970606324  0.5327834493444756
  0.2484163760110589 -0.0078791363945788  0.5012452809563587
  0.7036727891100416  0.5681869608809165  0.4724005519043873
  0.2133155219072075  0.4962022579961745  0.5001676535525634
  0.2661519873197607 -0.0059726948016580  0.0023747283860858
  0.7428436075536777 -0.0129136348091731  0.0272722822882555
  0.4267503935809368  0.5717213330369169  0.5767198796218415
  0.5167442556433269  0.2372888733139311 -0.0209508738909183
  0.5159612827913251  0.7502636998191058  0.0226669642828257
  0.0287139108302995  0.5012869889023328  0.2620442825376983
  0.0386749081450427  0.5010856703605043  0.7446926780410205
  0.2168245416507573  0.2353692167265450  0.2230210933860861
  0.2052843554186692  0.7714227132282863  0.7603249531445322
  0.2175189527895147  0.2846329442787161  0.7137186179775253
  0.2412058486629452  0.7280672784701478  0.2742390929381980
  0.7049906116391191  0.2814980153635083  0.2284065375747550
  0.6985956400985923  0.7937035271383334  0.6764336713940466
  0.7130205273009429  0.2438770057629196  0.7337673015111396
  0.7479254336704309  0.7735281706870453  0.2166801275357314
  0.9660193757726075  0.2550241357628161  0.2486432980221081
  0.9398929357752634  0.7181098595758048  0.7482918487976822
  0.2696770109489943  0.2377445522687760  0.4828060418721747
  0.2505051323767070  0.7450588093961705  0.5077850108426469
  0.7765484534585145  0.2989737915192350  0.4657701728595017
  0.7547522970941377  0.8040433227186157  0.4454051037961894
  0.7812132493942828  0.5108958465504378  0.2604503509708792
  0.7740687796791288  0.5062248858874763  0.7083692337574045
  0.2796304786859186  0.5028548920042856  0.2493389476208466
  0.2799505623168466  0.4952050608417416  0.7589824780866529
  0.4742204387353273  0.7582073935788297  0.2790674653520854
  0.4517300522690275  0.2212398099170961  0.7107425695161258
  0.2430669380421711  0.9823906492136001  0.2499161600331551
  0.2379906684571374  0.0193684668885301  0.7529473971063511
  0.2723487174996777  0.2341055206800852  0.9631118279049184
  0.2758954460017785  0.7521447904995755  0.0255961392067199
  0.7496992109951305  0.0011386265418513  0.7873109742953750
  0.7565511072562143  0.0407066643468678  0.2811055609320317
  0.7986018367532947  0.7465832598525961  0.9925403506120321
  0.7655990218867941  0.2226465889030387  0.0081843496849740
 -0.0106002294845168  0.1860055334855177  0.7462492615157660
  0.0001319819324989  0.7552649969864581  0.2409910272271709
  0.4695003555967782  0.2604012057930425  0.2247168037389808
  0.4599967331937740  0.7311235706878778  0.7689706711617138
  0.0254330384908472  0.2490745589268136  0.0067663004892778
  0.0336973627286001  0.7292146882837008 -0.0025623115898676
  0.5313995719914368  0.2147633305642412  0.4639071951463574
  0.5032173533140629  0.7550286157039146  0.5080347333041487
  0.5394999157037838  0.5285861685163026  0.2601157102599516
  0.5076352831986619  0.4724933623997055  0.7816204104664911
  0.0000207898276743 -0.0007292469303994  0.2653598529238041
 -0.0058745987543296 -0.0424499027882047  0.7447773507553467
  0.4288896329909179  0.4269172470674371  0.4203458601590075
  0.5771780422519683  0.4203149906796820  0.5735404297473008
  0.8909323311336061  0.3633905947340123  0.8418708124316605
  0.6551961484549229  0.6516558611714123  0.8458330306466995
  0.0065483363656480 -0.0098107820853703  0.0051178918478007
  0.7641517144638357  0.4889312801786805  0.0036054476608980
  0.2568033939670197  0.4920346054602830  0.0046875102710734
 -0.0069821260242632  0.7500130819792953  0.4975014334940749
  0.0073094040239022  0.2398923430971498  0.5052980074468100
  0.5015854559446155  0.0016143592134577  0.2471159391513433
  0.4940400481721693 -0.0158873035021904  0.7581319026648620
  0.6108566475001975  0.6152329242765202  0.6488677040470301
  0.6258971186635609  0.3866400797095693  0.3766041269183456
  0.9052592916981099  0.8847210729466947  0.1045536935501137
  0.9019945165499444  0.0900538445261557  0.9056721747350399
  0.1091182893083373  0.8923101423614634  0.8994509809607005
  0.1059056765238851  0.0931675387448746  0.1074277734585534
  0.3730315202645165  0.6213236025787854  0.3874880188767473
  0.3762523200266737  0.3771913006898347  0.6158945189872976
  0.0937345502851827  0.3464775277455052  0.3968253250605057
  0.0821972253479438  0.6493074645255289  0.6067004762535628
  0.1144625350542010  0.1379571073740130  0.5968740926756954
  0.1032060372852331  0.8476182691446319  0.3987916645542275
  0.8966493402375538  0.1425258719570176  0.4080151299430623
  0.8854841898801050  0.8543927235266676  0.5961881506835883
  0.8622486303684526  0.3876449009965296  0.1045403060212434
  0.8686585912357423  0.5799765929275200  0.8908356539008021
  0.1585414389361748  0.5954294290052433  0.1116028323278179
  0.1542037142678575  0.3977390163337818  0.8938523466778956
  0.4029958957276097  0.8923211655565900  0.1482195894071816
  0.3992023588776392  0.0931057280811601  0.8602485118281000
  0.3931110667679230  0.0979522251415688  0.3493347982586295
  0.3839293889917613  0.8900861743685865  0.6559057472231510
  0.3496906475287873  0.3781316515133677  0.0983944789275839
  0.3661063151807067  0.5967283025643778  0.9120435760184810
  0.6032794819976697  0.0825398277971098  0.6593802086478873
  0.6089609404983792  0.9033519485075301  0.3459769735256374
  0.6689662924829193  0.6069543523408178  0.0921340363092185
  0.6684755303407960  0.3808417949370507  0.9023563349014591
  0.9080843414907108  0.3330960394379495  0.6286126096979059
  0.8913122530103701  0.6533579398802055  0.3872650988492842
  0.6039586067970114  0.1070831942280808  0.1464238457198332
  0.5955956900446410  0.8772326851286886  0.8557071792966584
 
  0.00000000E+00  0.00000000E+00  0.00000000E+00
  0.00000000E+00  0.00000000E+00  0.00000000E+00
  0.00000000E+00  0.00000000E+00  0.00000000E+00
  0.00000000E+00  0.00000000E+00  0.00000000E+00
  0.00000000E+00  0.00000000E+00  0.00000000E+00
  0.00000000E+00  0.00000000E+00  0.00000000E+00
  0.00000000E+00  0.00000000E+00  0.00000000E+00
  0.00000000E+00  0.00000000E+00  0.00000000E+00
  0.00000000E+00  0.00000000E+00  0.00000000E+00
  0.00000000E+00  0.00000000E+00  0.00000000E+00
  0.00000000E+00  0.00000000E+00  0.00000000E+00
  0.00000000E+00  0.00000000E+00  0.00000000E+00
  0.00000000E+00  0.00000000E+00  0.00000000E+00
  0.00000000E+00  0.00000000E+00  0.00000000E+00
  0.00000000E+00  0.00000000E+00  0.00000000E+00
  0.00000000E+00  0.00000000E+00  0.00000000E+00
  0.00000000E+00  0.00000000E+00  0.00000000E+00
  0.00000000E+00  0.00000000E+00  0.00000000E+00
  0.00000000E+00  0.00000000E+00  0.00000000E+00
  0.00000000E+00  0.00000000E+00  0.00000000E+00
  0.00000000E+00  0.00000000E+00  0.00000000E+00
  0.00000000E+00  0.00000000E+00  0.00000000E+00
  0.00000000E+00  0.00000000E+00  0.00000000E+00
  0.00000000E+00  0.00000000E+00  0.00000000E+00
  0.00000000E+00  0.00000000E+00  0.00000000E+00
  0.00000000E+00  0.00000000E+00  0.00000000E+00
  0.00000000E+00  0.00000000E+00  0.00000000E+00
  0.00000000E+00  0.00000000E+00  0.00000000E+00
  0.00000000E+00  0.00000000E+00  0.00000000E+00
  0.00000000E+00  0.00000000E+00  0.00000000E+00
  0.00000000E+00  0.00000000E+00  0.00000000E+00
  0.00000000E+00  0.00000000E+00  0.00000000E+00
  0.00000000E+00  0.00000000E+00  0.00000000E+00
  0.00000000E+00  0.00000000E+00  0.00000000E+00
  0.00000000E+00  0.00000000E+00  0.00000000E+00
  0.00000000E+00  0.00000000E+00  0.00000000E+00
  0.00000000E+00  0.00000000E+00  0.00000000E+00
  0.00000000E+00  0.00000000E+00  0.00000000E+00
  0.00000000E+00  0.00000000E+00  0.00000000E+00
  0.00000000E+00  0.00000000E+00  0.00000000E+00
  0.00000000E+00  0.00000000E+00  0.00000000E+00
  0.00000000E+00  0.00000000E+00  0.00000000E+00
  0.00000000E+00  0.00000000E+00  0.00000000E+00
  0.00000000E+00  0.00000000E+00  0.00000000E+00
  0.00000000E+00  0.00000000E+00  0.00000000E+00
  0.00000000E+00  0.00000000E+00  0.00000000E+00
  0.00000000E+00  0.00000000E+00  0.00000000E+00
  0.00000000E+00  0.00000000E+00  0.00000000E+00
  0.00000000E+00  0.00000000E+00  0.00000000E+00
  0.00000000E+00  0.00000000E+00  0.00000000E+00
  0.00000000E+00  0.00000000E+00  0.00000000E+00
  0.00000000E+00  0.00000000E+00  0.00000000E+00
  0.00000000E+00  0.00000000E+00  0.00000000E+00
  0.00000000E+00  0.00000000E+00  0.00000000E+00
  0.00000000E+00  0.00000000E+00  0.00000000E+00
  0.00000000E+00  0.00000000E+00  0.00000000E+00
  0.00000000E+00  0.00000000E+00  0.00000000E+00
  0.00000000E+00  0.00000000E+00  0.00000000E+00
  0.00000000E+00  0.00000000E+00  0.00000000E+00
  0.00000000E+00  0.00000000E+00  0.00000000E+00
  0.00000000E+00  0.00000000E+00  0.00000000E+00
  0.00000000E+00  0.00000000E+00  0.00000000E+00
  0.00000000E+00  0.00000000E+00  0.00000000E+00
  0.00000000E+00  0.00000000E+00  0.00000000E+00
  0.00000000E+00  0.00000000E+00  0.00000000E+00
  0.00000000E+00  0.00000000E+00  0.00000000E+00
  0.00000000E+00  0.00000000E+00  0.00000000E+00
  0.00000000E+00  0.00000000E+00  0.00000000E+00
  0.00000000E+00  0.00000000E+00  0.00000000E+00
  0.00000000E+00  0.00000000E+00  0.00000000E+00
  0.00000000E+00  0.00000000E+00  0.00000000E+00
  0.00000000E+00  0.00000000E+00  0.00000000E+00
  0.00000000E+00  0.00000000E+00  0.00000000E+00
  0.00000000E+00  0.00000000E+00  0.00000000E+00
  0.00000000E+00  0.00000000E+00  0.00000000E+00
  0.00000000E+00  0.00000000E+00  0.00000000E+00
  0.00000000E+00  0.00000000E+00  0.00000000E+00
  0.00000000E+00  0.00000000E+00  0.00000000E+00
  0.00000000E+00  0.00000000E+00  0.00000000E+00
  0.00000000E+00  0.00000000E+00  0.00000000E+00
  0.00000000E+00  0.00000000E+00  0.00000000E+00
  0.00000000E+00  0.00000000E+00  0.00000000E+00
  0.00000000E+00  0.00000000E+00  0.00000000E+00
  0.00000000E+00  0.00000000E+00  0.00000000E+00
  0.00000000E+00  0.00000000E+00  0.00000000E+00
  0.00000000E+00  0.00000000E+00  0.00000000E+00
  0.00000000E+00  0.00000000E+00  0.00000000E+00
  0.00000000E+00  0.00000000E+00  0.00000000E+00
  0.00000000E+00  0.00000000E+00  0.00000000E+00
  0.00000000E+00  0.00000000E+00  0.00000000E+00
  0.00000000E+00  0.00000000E+00  0.00000000E+00
  0.00000000E+00  0.00000000E+00  0.00000000E+00
  0.00000000E+00  0.00000000E+00  0.00000000E+00
  0.00000000E+00  0.00000000E+00  0.00000000E+00
  0.00000000E+00  0.00000000E+00  0.00000000E+00
  0.00000000E+00  0.00000000E+00  0.00000000E+00
  0.00000000E+00  0.00000000E+00  0.00000000E+00
  0.00000000E+00  0.00000000E+00  0.00000000E+00
  0.00000000E+00  0.00000000E+00  0.00000000E+00
  0.00000000E+00  0.00000000E+00  0.00000000E+00
