Li5 P2 N1 O6                            
   1.00000000000000     
    -0.2415504354899938    0.9363584912262065    5.1764599212557743
     5.8979839391250479    0.7758836592939546   -0.3934371306473951
     0.6292280266120074    5.0535493302903491    1.0478775650424785
   Li   P    N    O 
     5     2     1     6
Direct
  0.4917900904277942  0.9246618094405760  0.7625303975152159
  0.4249800528518918  0.7377085133335139  0.3254804512428919
  0.9703078484772349  0.7112082539621976  0.7790493769224373
  0.0261694460909762  0.2857931546544966  0.6309404641722226
  0.6479692702122938  0.3378448302740271  0.3296228492883178
  0.4352148721277242  0.4214630426424780  0.9008076384732078
  0.9892719071373159  0.9887558825186767  0.1895830848460180
  0.5748749167046016  0.5872329352639574  0.0220884184741064
  0.1647152966796994  0.2276284766390915  0.1967559019256171
  0.0586787429492086  0.7828778298512631  0.3688840424154539
  0.6190069715916400  0.2640695433830245  0.7374759281748388
  0.0864170445080748  0.9930041174083049  0.8703147487426944
  0.2704290361728053  0.5222709630507095  0.7166083081456879
  0.6815475040687669  0.0083426475776696  0.3278873896612889
 
  0.00000000E+00  0.00000000E+00  0.00000000E+00
  0.00000000E+00  0.00000000E+00  0.00000000E+00
  0.00000000E+00  0.00000000E+00  0.00000000E+00
  0.00000000E+00  0.00000000E+00  0.00000000E+00
  0.00000000E+00  0.00000000E+00  0.00000000E+00
  0.00000000E+00  0.00000000E+00  0.00000000E+00
  0.00000000E+00  0.00000000E+00  0.00000000E+00
  0.00000000E+00  0.00000000E+00  0.00000000E+00
  0.00000000E+00  0.00000000E+00  0.00000000E+00
  0.00000000E+00  0.00000000E+00  0.00000000E+00
  0.00000000E+00  0.00000000E+00  0.00000000E+00
  0.00000000E+00  0.00000000E+00  0.00000000E+00
  0.00000000E+00  0.00000000E+00  0.00000000E+00
  0.00000000E+00  0.00000000E+00  0.00000000E+00
