Li5 P2 N1 O6                            
   1.00000000000000     
    -0.2741296495773589    0.8214494757580787    5.0674350482157671
     5.9566628632254703    0.7264684182373478   -0.4272980360145695
     0.5884362229545560    4.9777451357317153    0.9216295251723612
   Li   P    N    O 
     5     2     1     6
Direct
  0.4958724458458045 -0.0697986361616679  0.7634003921422404
  0.4222257702096752  0.7320223064911352  0.3322119217147851
 -0.0298902333562605  0.7085003961736095  0.7786559947597881
  0.0283574754406466  0.2838705666565024  0.6267554562457106
  0.6515889674152122  0.3368455237760904  0.3291194786869998
  0.4352350552172003  0.4209496003140986  0.9029662316030156
 -0.0118643011068954 -0.0097796775141580  0.1870781168814898
  0.5796929225993790  0.5881758914765803  0.0277877199836132
  0.1695564077748924  0.2278075527660047  0.1977193600557653
  0.0582178914430742  0.7854123546598007  0.3661644068081825
  0.6191455283155669  0.2664507469064038  0.7381623704481383
  0.0818807247027188 -0.0058543991077646  0.8663196825787292
  0.2621357163578488  0.5176978395162801  0.7169459835518582
  0.6792186291411637  0.0105619340470814  0.3247418845396901
 
  0.00000000E+00  0.00000000E+00  0.00000000E+00
  0.00000000E+00  0.00000000E+00  0.00000000E+00
  0.00000000E+00  0.00000000E+00  0.00000000E+00
  0.00000000E+00  0.00000000E+00  0.00000000E+00
  0.00000000E+00  0.00000000E+00  0.00000000E+00
  0.00000000E+00  0.00000000E+00  0.00000000E+00
  0.00000000E+00  0.00000000E+00  0.00000000E+00
  0.00000000E+00  0.00000000E+00  0.00000000E+00
  0.00000000E+00  0.00000000E+00  0.00000000E+00
  0.00000000E+00  0.00000000E+00  0.00000000E+00
  0.00000000E+00  0.00000000E+00  0.00000000E+00
  0.00000000E+00  0.00000000E+00  0.00000000E+00
  0.00000000E+00  0.00000000E+00  0.00000000E+00
  0.00000000E+00  0.00000000E+00  0.00000000E+00
