Li61 P7 N32                             
   1.00000000000000     
    -0.0000234216512178    9.5273435298305298    0.0000188893070310
    -0.0377015240261197    0.0000189867576523    9.5638302970660618
     9.5123244948723311   -0.0000234556500635   -0.0377399355501674
   Li   P    N 
    61     7    32
Direct
  0.4952274039265139  0.0000010195934151  0.4999977078109401
 -0.0024738341270340  0.5000015216536911 -0.0000078229506759
  0.4919047823841924 -0.0000104821864160 -0.0000010576909819
 -0.0001766900628251  0.0000006115405591  0.5000024783909970
  0.4901083832920172  0.4999913526229442 -0.0000040972128795
  0.0000311196504301  0.5000016173652877  0.5000072120791915
  0.7481311837558461  0.0000044944739818  0.4999977197246833
  0.2460074824854885  0.0000017870997699  0.4999975369725775
  0.7570490581253290  0.4999989503219693  0.5000097264599125
  0.2252031053658162  0.5000040211845193  0.4999979347511635
  0.2579169563645071 -0.0000005066830277 -0.0000013399051325
  0.7324646765904259  0.0000045861482084 -0.0000006163804441
  0.7906287868040286  0.5000227104317223  0.0000249659858296
  0.4984942106305708  0.2416275968994163 -0.0123407811089394
  0.4984883980747307  0.7583528644498354  0.0123327630387607
 -0.0117515542324617  0.4840315088536755  0.2590353262228018
 -0.0117497891264371  0.5159716274039514  0.7409678900225589
  0.2222255479991600  0.2108589530374121  0.2312274036207609
  0.2222295146225340  0.7891391615029740  0.7687777442053315
  0.2704179109659561  0.2749005189972474  0.7410447185087558
  0.2704203436954860  0.7251015252526122  0.2589581261906019
  0.7652494281330656  0.3027665710287827  0.3111989439584234
  0.7652593090310601  0.6972277784090148  0.6887951383404280
  0.7428033916795571  0.1995386586781809  0.8049110606689585
  0.7428109030551830  0.8004515267414140  0.1950788727379089
  0.9825341138492351  0.2415623304324682  0.2462510236178246
  0.9825373385094219  0.7584406674228712  0.7537532312360525
  0.2566195290750240  0.2370650221237439  0.5006582912246460
  0.2566254957098698  0.7629441487054567  0.4993452540715848
  0.7502266542464473  0.2312444036223817  0.5549757695166208
  0.7502351846299509  0.7687623284192847  0.4450182121615284
  0.7714669554344575  0.5595439581801439  0.2440544760863472
  0.7714842186325767  0.4404448684374502  0.7559743612055032
  0.2121177383273071  0.4827522340487613  0.2475421709430902
  0.2121174031247020  0.5172452863323426  0.7524592469803728
  0.5196914219021288  0.7507850006556795  0.2467949971264513
  0.5196890473545966  0.2492151175109146  0.7532029876954757
  0.2323311495554194  0.9729393850620919  0.2525914379633101
  0.2323277201881920  0.0270576579332568  0.7474038844711244
  0.2481413418329652  0.2390203752628395  0.9884009399728686
  0.2481419449375325  0.7609800874445064  0.0116035893250431
  0.7560255168517405  0.9531035876165985  0.7419875456072282
  0.7560302208080348  0.0468913745706338  0.2580076722672264
  0.7628663766611418  0.7618489666154056  0.9686010071173923
  0.7628723586542715  0.2381670091642564  0.0313811489951295
  0.0122487422081153  0.2585579942598009  0.7713042225812602
  0.0122488797034538  0.7414391110823373  0.2286991176297837
  0.5060239888508270  0.2503549403370859  0.2420477302007251
  0.5060405890994845  0.7496479755496011  0.7579302766829515
 -0.0016416670891551  0.2636858922342684  0.0171112032303287
 -0.0016508536462854  0.7363141461884539 -0.0171087404962843
  0.5080077223563774  0.2333484240017862  0.5038321792382486
  0.5080140175755258  0.7666510504257245  0.4961600242809422
  0.4936797216025635  0.5295929229948942  0.2381528259176423
  0.4936752925378655  0.4704064376800691  0.7618474112129473
 -0.0050914735098589 -0.0097948758757518  0.2609364111422306
 -0.0050972393926786  0.0097935467572152  0.7390649837945803
  0.3606305517462067  0.3648433512485670  0.3508000600962432
  0.3606285542372742  0.6351539035162183  0.6492041488608742
  0.6553173521178365  0.4127190859675832  0.1124260319682023
  0.6553227930691138  0.5872716476211731  0.8875640827483805
  0.4962454919352984  0.5000059510943758  0.5000050840479093
 -0.0009706185403672  0.0000024791103876  0.0000007420105059
  0.2463828877955904  0.5000002547157700  0.0000009895158474
  0.0039968663331203  0.7507377543323840  0.4939954597741231
  0.0039945064590139  0.2492646989425903  0.5060079518450652
  0.4953181050786880  0.0024207346130174  0.2485086073689903
  0.4953195070830684 -0.0024217873344046  0.7514883414490572
  0.5891034429323317  0.6017792882713144  0.6084832975021833
  0.5891079495499764  0.3982205536561354  0.3915184822325914
  0.8961044213902093  0.8960881553257131  0.0980686747499579
  0.8961048905824980  0.1039165134543340  0.9019339696578453
  0.1032063575169578  0.9028472001242368  0.8926091435515321
  0.1032080389634081  0.0971548750142211  0.1073928247107600
  0.3871176533175507  0.6045641412665660  0.4055914809514273
  0.3871152116690597  0.3954380857206931  0.5944048463071785
  0.1108553430835034  0.3444822012302539  0.3950488915261683
  0.1108608606451305  0.6555194217664898  0.6049553218172375
  0.1095260163232093  0.1481295953817096  0.6077307922047598
  0.1095262354198376  0.8518720838055097  0.3922706663439573
  0.8902734893093589  0.1494618392975829  0.4116112192968903
  0.8902775249980502  0.8505381679544823  0.5883917926250504
  0.8618763054444349  0.3783397381095227  0.1463641408327514
  0.8618773665563635  0.6216617448623096  0.8536394897961965
  0.1482057467691010  0.6059080276815491  0.1038158760474503
  0.1482055523470241  0.3940916029066825  0.8961847545451525
  0.3930742069305520  0.8917681970886002  0.1536938807268058
  0.3930752227683334  0.1082291477718668  0.8463028578922173
  0.3876031633721084  0.1086012759249863  0.3509914716735387
  0.3876041530809192  0.8914011258990916  0.6490034640557472
  0.3444976735743894  0.3947155948901331  0.1106869921313901
  0.3444966261946901  0.6052806045538284  0.8893149678639458
  0.6080733285294508  0.0916568799838946  0.6491208950547357
  0.6080727290163923  0.9083437561340612  0.3508767658083720
  0.6298245059830917  0.6316086673344352  0.1089012385411569
  0.6298217936632660  0.3683839925505539  0.8910990650466426
  0.9071395160190044  0.3553327831342515  0.6095858590042563
  0.9071435292413005  0.6446678010894814  0.3904180427714911
  0.5933566630365643  0.1038854339469857  0.1436700525326513
  0.5933610047927086  0.8961120800231496  0.8563248350710515
 
  0.00000000E+00  0.00000000E+00  0.00000000E+00
  0.00000000E+00  0.00000000E+00  0.00000000E+00
  0.00000000E+00  0.00000000E+00  0.00000000E+00
  0.00000000E+00  0.00000000E+00  0.00000000E+00
  0.00000000E+00  0.00000000E+00  0.00000000E+00
  0.00000000E+00  0.00000000E+00  0.00000000E+00
  0.00000000E+00  0.00000000E+00  0.00000000E+00
  0.00000000E+00  0.00000000E+00  0.00000000E+00
  0.00000000E+00  0.00000000E+00  0.00000000E+00
  0.00000000E+00  0.00000000E+00  0.00000000E+00
  0.00000000E+00  0.00000000E+00  0.00000000E+00
  0.00000000E+00  0.00000000E+00  0.00000000E+00
  0.00000000E+00  0.00000000E+00  0.00000000E+00
  0.00000000E+00  0.00000000E+00  0.00000000E+00
  0.00000000E+00  0.00000000E+00  0.00000000E+00
  0.00000000E+00  0.00000000E+00  0.00000000E+00
  0.00000000E+00  0.00000000E+00  0.00000000E+00
  0.00000000E+00  0.00000000E+00  0.00000000E+00
  0.00000000E+00  0.00000000E+00  0.00000000E+00
  0.00000000E+00  0.00000000E+00  0.00000000E+00
  0.00000000E+00  0.00000000E+00  0.00000000E+00
  0.00000000E+00  0.00000000E+00  0.00000000E+00
  0.00000000E+00  0.00000000E+00  0.00000000E+00
  0.00000000E+00  0.00000000E+00  0.00000000E+00
  0.00000000E+00  0.00000000E+00  0.00000000E+00
  0.00000000E+00  0.00000000E+00  0.00000000E+00
  0.00000000E+00  0.00000000E+00  0.00000000E+00
  0.00000000E+00  0.00000000E+00  0.00000000E+00
  0.00000000E+00  0.00000000E+00  0.00000000E+00
  0.00000000E+00  0.00000000E+00  0.00000000E+00
  0.00000000E+00  0.00000000E+00  0.00000000E+00
  0.00000000E+00  0.00000000E+00  0.00000000E+00
  0.00000000E+00  0.00000000E+00  0.00000000E+00
  0.00000000E+00  0.00000000E+00  0.00000000E+00
  0.00000000E+00  0.00000000E+00  0.00000000E+00
  0.00000000E+00  0.00000000E+00  0.00000000E+00
  0.00000000E+00  0.00000000E+00  0.00000000E+00
  0.00000000E+00  0.00000000E+00  0.00000000E+00
  0.00000000E+00  0.00000000E+00  0.00000000E+00
  0.00000000E+00  0.00000000E+00  0.00000000E+00
  0.00000000E+00  0.00000000E+00  0.00000000E+00
  0.00000000E+00  0.00000000E+00  0.00000000E+00
  0.00000000E+00  0.00000000E+00  0.00000000E+00
  0.00000000E+00  0.00000000E+00  0.00000000E+00
  0.00000000E+00  0.00000000E+00  0.00000000E+00
  0.00000000E+00  0.00000000E+00  0.00000000E+00
  0.00000000E+00  0.00000000E+00  0.00000000E+00
  0.00000000E+00  0.00000000E+00  0.00000000E+00
  0.00000000E+00  0.00000000E+00  0.00000000E+00
  0.00000000E+00  0.00000000E+00  0.00000000E+00
  0.00000000E+00  0.00000000E+00  0.00000000E+00
  0.00000000E+00  0.00000000E+00  0.00000000E+00
  0.00000000E+00  0.00000000E+00  0.00000000E+00
  0.00000000E+00  0.00000000E+00  0.00000000E+00
  0.00000000E+00  0.00000000E+00  0.00000000E+00
  0.00000000E+00  0.00000000E+00  0.00000000E+00
  0.00000000E+00  0.00000000E+00  0.00000000E+00
  0.00000000E+00  0.00000000E+00  0.00000000E+00
  0.00000000E+00  0.00000000E+00  0.00000000E+00
  0.00000000E+00  0.00000000E+00  0.00000000E+00
  0.00000000E+00  0.00000000E+00  0.00000000E+00
  0.00000000E+00  0.00000000E+00  0.00000000E+00
  0.00000000E+00  0.00000000E+00  0.00000000E+00
  0.00000000E+00  0.00000000E+00  0.00000000E+00
  0.00000000E+00  0.00000000E+00  0.00000000E+00
  0.00000000E+00  0.00000000E+00  0.00000000E+00
  0.00000000E+00  0.00000000E+00  0.00000000E+00
  0.00000000E+00  0.00000000E+00  0.00000000E+00
  0.00000000E+00  0.00000000E+00  0.00000000E+00
  0.00000000E+00  0.00000000E+00  0.00000000E+00
  0.00000000E+00  0.00000000E+00  0.00000000E+00
  0.00000000E+00  0.00000000E+00  0.00000000E+00
  0.00000000E+00  0.00000000E+00  0.00000000E+00
  0.00000000E+00  0.00000000E+00  0.00000000E+00
  0.00000000E+00  0.00000000E+00  0.00000000E+00
  0.00000000E+00  0.00000000E+00  0.00000000E+00
  0.00000000E+00  0.00000000E+00  0.00000000E+00
  0.00000000E+00  0.00000000E+00  0.00000000E+00
  0.00000000E+00  0.00000000E+00  0.00000000E+00
  0.00000000E+00  0.00000000E+00  0.00000000E+00
  0.00000000E+00  0.00000000E+00  0.00000000E+00
  0.00000000E+00  0.00000000E+00  0.00000000E+00
  0.00000000E+00  0.00000000E+00  0.00000000E+00
  0.00000000E+00  0.00000000E+00  0.00000000E+00
  0.00000000E+00  0.00000000E+00  0.00000000E+00
  0.00000000E+00  0.00000000E+00  0.00000000E+00
  0.00000000E+00  0.00000000E+00  0.00000000E+00
  0.00000000E+00  0.00000000E+00  0.00000000E+00
  0.00000000E+00  0.00000000E+00  0.00000000E+00
  0.00000000E+00  0.00000000E+00  0.00000000E+00
  0.00000000E+00  0.00000000E+00  0.00000000E+00
  0.00000000E+00  0.00000000E+00  0.00000000E+00
  0.00000000E+00  0.00000000E+00  0.00000000E+00
  0.00000000E+00  0.00000000E+00  0.00000000E+00
  0.00000000E+00  0.00000000E+00  0.00000000E+00
  0.00000000E+00  0.00000000E+00  0.00000000E+00
  0.00000000E+00  0.00000000E+00  0.00000000E+00
  0.00000000E+00  0.00000000E+00  0.00000000E+00
  0.00000000E+00  0.00000000E+00  0.00000000E+00
  0.00000000E+00  0.00000000E+00  0.00000000E+00
