Li71 P24 N1 O94                         
   1.00000000000000     
    14.6893700321186795    0.0031623759091350   -0.0117966604804055
     0.0022672129641638   10.5782558133257485   -0.0087871929143295
    -0.0098763523419435   -0.0102568924529373   12.3201560874994822
   Li   P    N    O 
    71    24     1    94
Direct
  0.1723176434365980  0.4201074955274434  0.0004715407394464
  0.1704347891125693  0.4221474162235553  0.4985053276247781
  0.1742670184315777  0.9261602650312964  0.0048065172334720
  0.1710415946043416  0.9223439462693834  0.4995828178145163
  0.5016773360363425  0.4222342461136744  0.0004965083571725
  0.5028751455339360  0.4226919975564212  0.4995185389583138
  0.5022101606276301  0.9226660764865642  0.0001473139796904
  0.5019427314186162  0.9227892769677978  0.4995509779749073
  0.8360762115473902  0.4228181146731401 -0.0008198977748137
  0.8368466350663204  0.4230891931925770  0.5003894160838674
  0.8340339835428963  0.9182429971274706  0.0005819916678468
  0.8355594940822746  0.9197386559177199  0.5000804163666297
  0.0027521810154902  0.0621208627737424  0.2629523120146978
  0.0035813066522058  0.0743397213324346  0.7479132983982685
  0.0052333149487839  0.5816299085445662  0.2516583175687871
  0.0038420048212674  0.5767403359316486  0.7488619190045646
  0.3320295814474682  0.0782137249401063  0.2437566330217119
  0.3367807656798056  0.0774823218823349  0.7508401399407546
  0.3352670809736383  0.5777275313631035  0.2497544772625674
  0.3365749874755877  0.5775772101723453  0.7503651264238750
  0.6684025943041733  0.0778684357074066  0.2503708081808712
  0.6684491855234987  0.0774337258161736  0.7498659013967719
  0.6693604696213709  0.5766719506909715  0.2498681740986766
  0.6691638712716547  0.5775632147143127  0.7498936536956090
  0.1702146087900660  0.1629021318397119  0.6268658520567548
  0.1710726024716577  0.6630271688899383  0.1267363079196442
  0.1699740651757612  0.6632767302733446  0.6265885543768622
  0.5012477653720793  0.1630396465998680  0.1258441471698160
  0.5020707716936642  0.1631625832276357  0.6260817727281077
  0.5022830436806801  0.6631713685887195  0.1265682524665965
  0.5027172465694244  0.6632660018166923  0.6262603081970582
  0.8334686402591105  0.1639511562740207  0.1278394300876663
  0.8351594720718304  0.1644733721862516  0.6280223336345622
  0.8362339829350406  0.6621429590700478  0.1262651909104462
  0.8361016928298453  0.6634473197683471  0.6268572558978008
  0.0029346925921940  0.3561478608152281  0.1258539910615925
  0.0040269629509048  0.3355076827574140  0.6224149475193917
  0.0036563078061185  0.8329699625063661  0.1246360393096835
  0.0037516870214737  0.8354023985940794  0.6259029913906935
  0.3320015984868083  0.3327182619798042  0.1231544711157798
  0.3361234841205036  0.3367191131755321  0.6232737387211366
  0.3369142936148925  0.8369618455295237  0.1229456134737962
  0.3359022707578170  0.8368358206098183  0.6233289926413788
  0.6683421714727613  0.3369635352127460  0.1230089749979961
  0.6690594692368594  0.3370490581301622  0.6231532177631813
  0.6686032868044391  0.8367484885264027  0.1239739633692756
  0.6691483605529864  0.8368920900450471  0.6236466768759868
  0.0054957192069103  0.3441496133637963  0.3760921387103134
  0.0030532659058142  0.3396167793787471  0.8739979204835590
  0.0051746056006921  0.8356649070723844  0.3781663718277795
  0.0035204002950991  0.8320856846019490  0.8738598155672481
  0.3365001324330247  0.3380595814976300  0.3754142954159956
  0.3370653394470312  0.3355118740165702  0.8767335189702176
  0.3349391996764056  0.8365352185376715  0.3755741919900373
  0.3367227067750057  0.8369501109452410  0.8772088014997095
  0.6695921968745558  0.3366834521648827  0.3756952807342444
  0.6688253339175398  0.3374458962773733  0.8761553720955410
  0.6691121730449191  0.8368524106083016  0.3759561070820183
  0.6687031818846415  0.8366352500587002  0.8763450878656415
  0.1773896847752582  0.1678441470025078  0.3638193257239579
  0.1736129240503433  0.1639055459268849  0.8751752183727800
  0.1692237891296587  0.6623378880604205  0.3757344010263093
  0.1706337446389677  0.6631773021493603  0.8737605002110352
  0.5013215324915951  0.1633053985886644  0.3730260515112065
  0.5023325899607942  0.1632924229605555  0.8737442494079927
  0.5023342100444487  0.6633949293965071  0.3733956581904596
  0.5023652313217923  0.6632248395246315  0.8738781753848583
  0.8373700191450081  0.1636890772969029  0.3738628896082368
  0.8336223286235468  0.1658860558340918  0.8715248453410058
  0.8369854153233561  0.6631250782334466  0.3735018552896860
  0.8359352652521936  0.6629542284199585  0.8734993424759598
  0.1678949565325903  0.4169217090364644  0.2480693847699549
  0.1672758465473733  0.4122447910122772  0.7491829798771258
  0.1681676336628786  0.9093954931133620  0.2516007481406702
  0.1675377914989491  0.9117694929830144  0.7508685410491257
  0.5001793962385113  0.4119280321443900  0.2494536261767357
  0.5003959025237260  0.4122149978133357  0.7499166775606666
  0.5001075198561653  0.9124918850763658  0.2500284276379727
  0.5003480238536702  0.9120010231864537  0.7497453820100901
  0.8349449452159922  0.4116461022740506  0.2502076636201281
  0.8338229189728005  0.4125413220705680  0.7497042079625998
  0.8342919768733144  0.9118088834400991  0.2492320771972173
  0.8337183072697356  0.9124291920144119  0.7509708872586239
 -0.0009306870886596  0.0844287218322993 -0.0060351711277033
  0.0000445771567268  0.0855825495814748  0.5047771510954557
  0.0003942826232590  0.5876463622853454 -0.0011685902214664
  0.0000124221907433  0.5887318052452959  0.5013642013655502
  0.3334527520028872  0.0870868495436031 -0.0014431279537245
  0.3324389541022058  0.0886097848465846  0.4991677624449687
  0.3337467691700703  0.5874544723686209 -0.0000940179106857
  0.3338942455259695  0.5878101303829544  0.5004552802933239
  0.6669152530663921  0.0879056920424524  0.0000637603835919
  0.6672580590007651  0.0878582745074108  0.4999178112979649
  0.6672245708165154  0.5879752445081889  0.0001425660962350
  0.6674256760899900  0.5881013093096582  0.4997217976624770
  0.0293379973154345  0.1598734932084311  0.3948287075313175
  0.0360366039437510  0.1579525342962216  0.8945808918136150
  0.0347972020390066  0.6577348714301540  0.3976173796717064
  0.0354537733696304  0.6560687399982693  0.8950156287511637
  0.3676824494787615  0.1578291415828482  0.3956182250975920
  0.3707803676243815  0.1565129096829094  0.8949813962006824
  0.3690675277207898  0.6568487970827019  0.3967548117289624
  0.3692486105575664  0.6566231537621486  0.8961739551994622
  0.7033154555288851  0.1567450083196812  0.3963819420265709
  0.7023213225857879  0.1571089536418555  0.8963559839832919
  0.7029781520616279  0.6570563454078115  0.3959345093203466
  0.7025691297193735  0.6571707577431232  0.8964264755712111
  0.2017343471280154  0.0466172027925189  0.2552507230477005
  0.2006842452703115  0.0516687494587111  0.7499816240668428
  0.1997496136147126  0.5580043148690327  0.2527153729126048
  0.2006639972808396  0.5521839314963511  0.7495610048003842
  0.5344287664446442  0.0521284818785214  0.2500009318520545
  0.5342262717110885  0.0518850075508147  0.7497263974443235
  0.5343870999263975  0.5517606372391064  0.2498735762452304
  0.5343171286078002  0.5520837911486497  0.7499333493544428
  0.8691459069056783  0.0517054920092218  0.2481521490241684
  0.8677734849631455  0.0523233709570849  0.7516199570817230
  0.8687227586281657  0.5514036858346826  0.2493959961041348
  0.8676718207169529  0.5522396838528255  0.7501577308179052
  0.0611670893998014  0.4146770824464647  0.2499721667932871
  0.0610756102653581  0.4094777345237089  0.7491213035075557
  0.0612587729105281  0.9047714234284211  0.2491539926485534
  0.0611532271277136  0.9087512090191023  0.7518837466690151
  0.3943698593793501  0.4092491565651032  0.2490798561899027
  0.3944622812830468  0.4094602234820550  0.7498642658834270
  0.3943191568219983  0.9097451269727971  0.2500172622440846
  0.3944477585509534  0.9089990808104713  0.7496265643830298
  0.7290514874592297  0.4083530086776027  0.2485206029675400
  0.7278535498299902  0.4094590726128907  0.7498446907779758
  0.7284550994992219  0.9104163139608369  0.2496618936632666
  0.7278424240415076  0.9097972721559899  0.7508110874040373
  0.2289908371126126  0.0871664845835631 -0.0052102555054018
  0.2262728300840228  0.0922701191165371  0.4988847837031183
  0.2277885566797652  0.5909826854597892 -0.0006448423227380
  0.2279229412353907  0.5900218743059230  0.5011405622356300
  0.5612519024309049  0.0904234156579458 -0.0000173384551957
  0.5613016082666403  0.0908605763158107  0.4993881240832161
  0.5613307829220404  0.5904103111550452  0.0000962409787475
  0.5614765687777805  0.5908723735183653  0.4995939994058579
  0.8934894592037019  0.0915494075608012  0.0001937186383020
  0.8935657743023371  0.0891478342581037  0.5025928465423531
  0.8943288004750508  0.5903566478014564 -0.0006033191937672
  0.8939011683300468  0.5912651840668444  0.5008590461774187
  0.2022390393871188  0.3540927500898789  0.1434130785421669
  0.2019927863817721  0.3431017610500149  0.6451158861104569
  0.2032749232563928  0.8406271876451868  0.1472494054553062
  0.2018755313246269  0.8427159323790089  0.6465274233359485
  0.5360388665033892  0.3428921490009245  0.1457630198843398
  0.5357272335156911  0.3430003620207505  0.6459808477472080
  0.5357474395057411  0.8430063030126366  0.1462990342387918
  0.5357859935106098  0.8431265701001656  0.6456972669676058
  0.8718028469808917  0.3412630342585495  0.1468136341916571
  0.8692526806870668  0.3431909286651533  0.6460771533531580
  0.8692445842548085  0.8422550477998191  0.1453096142209011
  0.8692402947304442  0.8434056932229084  0.6472773265295045
  0.0348783413257967  0.1526928538892867  0.6101197495986299
  0.0358456141456832  0.6559738544605856  0.1028344534911974
  0.0351056213498755  0.6577880124738208  0.6053772526216359
  0.3699206626885692  0.1563232712992108  0.1020927979998103
  0.3681130673812996  0.1568968755886247  0.6035654112689973
  0.3691693886342367  0.6565112454443002  0.1039037790261746
  0.3692637956544092  0.6570387721099411  0.6044347462142839
  0.7025324184878244  0.1571742644925350  0.1039721830858932
  0.7023722974336182  0.1568384977516920  0.6042086961398613
  0.7027195770273420  0.6570854278683425  0.1041704586088660
  0.7027118431294940  0.6572256634767113  0.6038289780939352
  0.0337339420337393  0.4474036885260503 -0.0017387832812523
  0.0342436412608174  0.4494672237196805  0.5013989056381705
  0.0343270315216521  0.9465717321551352  0.0000224140715049
  0.0344058241063748  0.9457232133761047  0.5044373552736474
  0.3673667268085756  0.4476295810575626 -0.0003960651983377
  0.3679158185178663  0.4479875704380180  0.5002282884643590
  0.3693837200591185  0.9472040579387576 -0.0005386723803426
  0.3659589795004671  0.9484654089129176  0.4993725482522745
  0.7015130915423099  0.4482075290339159 -0.0000480351075330
  0.7012921654977553  0.4481827225680898  0.4995673618572823
  0.7011838326884721  0.9481300547239583  0.0001080341791728
  0.7011279335053472  0.9478841723111523  0.5000049271824982
  0.2030809464680943  0.3470195185951774  0.3520057499769961
  0.2025905732603675  0.3432227912191829  0.8527984366583695
  0.2005972498206565  0.8373375358310989  0.3557302105840650
  0.2026509207692647  0.8424955592285586  0.8543924677553932
  0.5357836390585847  0.3429298639727075  0.3534237142622623
  0.5359274363942931  0.3433573992842475  0.8537776041166599
  0.5357475976523447  0.8434074030707071  0.3539106154513470
  0.5359771701635887  0.8429222683971858  0.8534673441131753
  0.8694791017593888  0.3435507189025779  0.3546570781474084
  0.8691669248701798  0.3432449599549927  0.8536866815557927
  0.8700862423268461  0.8436978332711559  0.3531772806130713
  0.8693874156220340  0.8436300678029900  0.8550339268301185
 
  0.00000000E+00  0.00000000E+00  0.00000000E+00
  0.00000000E+00  0.00000000E+00  0.00000000E+00
  0.00000000E+00  0.00000000E+00  0.00000000E+00
  0.00000000E+00  0.00000000E+00  0.00000000E+00
  0.00000000E+00  0.00000000E+00  0.00000000E+00
  0.00000000E+00  0.00000000E+00  0.00000000E+00
  0.00000000E+00  0.00000000E+00  0.00000000E+00
  0.00000000E+00  0.00000000E+00  0.00000000E+00
  0.00000000E+00  0.00000000E+00  0.00000000E+00
  0.00000000E+00  0.00000000E+00  0.00000000E+00
  0.00000000E+00  0.00000000E+00  0.00000000E+00
  0.00000000E+00  0.00000000E+00  0.00000000E+00
  0.00000000E+00  0.00000000E+00  0.00000000E+00
  0.00000000E+00  0.00000000E+00  0.00000000E+00
  0.00000000E+00  0.00000000E+00  0.00000000E+00
  0.00000000E+00  0.00000000E+00  0.00000000E+00
  0.00000000E+00  0.00000000E+00  0.00000000E+00
  0.00000000E+00  0.00000000E+00  0.00000000E+00
  0.00000000E+00  0.00000000E+00  0.00000000E+00
  0.00000000E+00  0.00000000E+00  0.00000000E+00
  0.00000000E+00  0.00000000E+00  0.00000000E+00
  0.00000000E+00  0.00000000E+00  0.00000000E+00
  0.00000000E+00  0.00000000E+00  0.00000000E+00
  0.00000000E+00  0.00000000E+00  0.00000000E+00
  0.00000000E+00  0.00000000E+00  0.00000000E+00
  0.00000000E+00  0.00000000E+00  0.00000000E+00
  0.00000000E+00  0.00000000E+00  0.00000000E+00
  0.00000000E+00  0.00000000E+00  0.00000000E+00
  0.00000000E+00  0.00000000E+00  0.00000000E+00
  0.00000000E+00  0.00000000E+00  0.00000000E+00
  0.00000000E+00  0.00000000E+00  0.00000000E+00
  0.00000000E+00  0.00000000E+00  0.00000000E+00
  0.00000000E+00  0.00000000E+00  0.00000000E+00
  0.00000000E+00  0.00000000E+00  0.00000000E+00
  0.00000000E+00  0.00000000E+00  0.00000000E+00
  0.00000000E+00  0.00000000E+00  0.00000000E+00
  0.00000000E+00  0.00000000E+00  0.00000000E+00
  0.00000000E+00  0.00000000E+00  0.00000000E+00
  0.00000000E+00  0.00000000E+00  0.00000000E+00
  0.00000000E+00  0.00000000E+00  0.00000000E+00
  0.00000000E+00  0.00000000E+00  0.00000000E+00
  0.00000000E+00  0.00000000E+00  0.00000000E+00
  0.00000000E+00  0.00000000E+00  0.00000000E+00
  0.00000000E+00  0.00000000E+00  0.00000000E+00
  0.00000000E+00  0.00000000E+00  0.00000000E+00
  0.00000000E+00  0.00000000E+00  0.00000000E+00
  0.00000000E+00  0.00000000E+00  0.00000000E+00
  0.00000000E+00  0.00000000E+00  0.00000000E+00
  0.00000000E+00  0.00000000E+00  0.00000000E+00
  0.00000000E+00  0.00000000E+00  0.00000000E+00
  0.00000000E+00  0.00000000E+00  0.00000000E+00
  0.00000000E+00  0.00000000E+00  0.00000000E+00
  0.00000000E+00  0.00000000E+00  0.00000000E+00
  0.00000000E+00  0.00000000E+00  0.00000000E+00
  0.00000000E+00  0.00000000E+00  0.00000000E+00
  0.00000000E+00  0.00000000E+00  0.00000000E+00
  0.00000000E+00  0.00000000E+00  0.00000000E+00
  0.00000000E+00  0.00000000E+00  0.00000000E+00
  0.00000000E+00  0.00000000E+00  0.00000000E+00
  0.00000000E+00  0.00000000E+00  0.00000000E+00
  0.00000000E+00  0.00000000E+00  0.00000000E+00
  0.00000000E+00  0.00000000E+00  0.00000000E+00
  0.00000000E+00  0.00000000E+00  0.00000000E+00
  0.00000000E+00  0.00000000E+00  0.00000000E+00
  0.00000000E+00  0.00000000E+00  0.00000000E+00
  0.00000000E+00  0.00000000E+00  0.00000000E+00
  0.00000000E+00  0.00000000E+00  0.00000000E+00
  0.00000000E+00  0.00000000E+00  0.00000000E+00
  0.00000000E+00  0.00000000E+00  0.00000000E+00
  0.00000000E+00  0.00000000E+00  0.00000000E+00
  0.00000000E+00  0.00000000E+00  0.00000000E+00
  0.00000000E+00  0.00000000E+00  0.00000000E+00
  0.00000000E+00  0.00000000E+00  0.00000000E+00
  0.00000000E+00  0.00000000E+00  0.00000000E+00
  0.00000000E+00  0.00000000E+00  0.00000000E+00
  0.00000000E+00  0.00000000E+00  0.00000000E+00
  0.00000000E+00  0.00000000E+00  0.00000000E+00
  0.00000000E+00  0.00000000E+00  0.00000000E+00
  0.00000000E+00  0.00000000E+00  0.00000000E+00
  0.00000000E+00  0.00000000E+00  0.00000000E+00
  0.00000000E+00  0.00000000E+00  0.00000000E+00
  0.00000000E+00  0.00000000E+00  0.00000000E+00
  0.00000000E+00  0.00000000E+00  0.00000000E+00
  0.00000000E+00  0.00000000E+00  0.00000000E+00
  0.00000000E+00  0.00000000E+00  0.00000000E+00
  0.00000000E+00  0.00000000E+00  0.00000000E+00
  0.00000000E+00  0.00000000E+00  0.00000000E+00
  0.00000000E+00  0.00000000E+00  0.00000000E+00
  0.00000000E+00  0.00000000E+00  0.00000000E+00
  0.00000000E+00  0.00000000E+00  0.00000000E+00
  0.00000000E+00  0.00000000E+00  0.00000000E+00
  0.00000000E+00  0.00000000E+00  0.00000000E+00
  0.00000000E+00  0.00000000E+00  0.00000000E+00
  0.00000000E+00  0.00000000E+00  0.00000000E+00
  0.00000000E+00  0.00000000E+00  0.00000000E+00
  0.00000000E+00  0.00000000E+00  0.00000000E+00
  0.00000000E+00  0.00000000E+00  0.00000000E+00
  0.00000000E+00  0.00000000E+00  0.00000000E+00
  0.00000000E+00  0.00000000E+00  0.00000000E+00
  0.00000000E+00  0.00000000E+00  0.00000000E+00
  0.00000000E+00  0.00000000E+00  0.00000000E+00
  0.00000000E+00  0.00000000E+00  0.00000000E+00
  0.00000000E+00  0.00000000E+00  0.00000000E+00
  0.00000000E+00  0.00000000E+00  0.00000000E+00
  0.00000000E+00  0.00000000E+00  0.00000000E+00
  0.00000000E+00  0.00000000E+00  0.00000000E+00
  0.00000000E+00  0.00000000E+00  0.00000000E+00
  0.00000000E+00  0.00000000E+00  0.00000000E+00
  0.00000000E+00  0.00000000E+00  0.00000000E+00
  0.00000000E+00  0.00000000E+00  0.00000000E+00
  0.00000000E+00  0.00000000E+00  0.00000000E+00
  0.00000000E+00  0.00000000E+00  0.00000000E+00
  0.00000000E+00  0.00000000E+00  0.00000000E+00
  0.00000000E+00  0.00000000E+00  0.00000000E+00
  0.00000000E+00  0.00000000E+00  0.00000000E+00
  0.00000000E+00  0.00000000E+00  0.00000000E+00
  0.00000000E+00  0.00000000E+00  0.00000000E+00
  0.00000000E+00  0.00000000E+00  0.00000000E+00
  0.00000000E+00  0.00000000E+00  0.00000000E+00
  0.00000000E+00  0.00000000E+00  0.00000000E+00
  0.00000000E+00  0.00000000E+00  0.00000000E+00
  0.00000000E+00  0.00000000E+00  0.00000000E+00
  0.00000000E+00  0.00000000E+00  0.00000000E+00
  0.00000000E+00  0.00000000E+00  0.00000000E+00
  0.00000000E+00  0.00000000E+00  0.00000000E+00
  0.00000000E+00  0.00000000E+00  0.00000000E+00
  0.00000000E+00  0.00000000E+00  0.00000000E+00
  0.00000000E+00  0.00000000E+00  0.00000000E+00
  0.00000000E+00  0.00000000E+00  0.00000000E+00
  0.00000000E+00  0.00000000E+00  0.00000000E+00
  0.00000000E+00  0.00000000E+00  0.00000000E+00
  0.00000000E+00  0.00000000E+00  0.00000000E+00
  0.00000000E+00  0.00000000E+00  0.00000000E+00
  0.00000000E+00  0.00000000E+00  0.00000000E+00
  0.00000000E+00  0.00000000E+00  0.00000000E+00
  0.00000000E+00  0.00000000E+00  0.00000000E+00
  0.00000000E+00  0.00000000E+00  0.00000000E+00
  0.00000000E+00  0.00000000E+00  0.00000000E+00
  0.00000000E+00  0.00000000E+00  0.00000000E+00
  0.00000000E+00  0.00000000E+00  0.00000000E+00
  0.00000000E+00  0.00000000E+00  0.00000000E+00
  0.00000000E+00  0.00000000E+00  0.00000000E+00
  0.00000000E+00  0.00000000E+00  0.00000000E+00
  0.00000000E+00  0.00000000E+00  0.00000000E+00
  0.00000000E+00  0.00000000E+00  0.00000000E+00
  0.00000000E+00  0.00000000E+00  0.00000000E+00
  0.00000000E+00  0.00000000E+00  0.00000000E+00
  0.00000000E+00  0.00000000E+00  0.00000000E+00
  0.00000000E+00  0.00000000E+00  0.00000000E+00
  0.00000000E+00  0.00000000E+00  0.00000000E+00
  0.00000000E+00  0.00000000E+00  0.00000000E+00
  0.00000000E+00  0.00000000E+00  0.00000000E+00
  0.00000000E+00  0.00000000E+00  0.00000000E+00
  0.00000000E+00  0.00000000E+00  0.00000000E+00
  0.00000000E+00  0.00000000E+00  0.00000000E+00
  0.00000000E+00  0.00000000E+00  0.00000000E+00
  0.00000000E+00  0.00000000E+00  0.00000000E+00
  0.00000000E+00  0.00000000E+00  0.00000000E+00
  0.00000000E+00  0.00000000E+00  0.00000000E+00
  0.00000000E+00  0.00000000E+00  0.00000000E+00
  0.00000000E+00  0.00000000E+00  0.00000000E+00
  0.00000000E+00  0.00000000E+00  0.00000000E+00
  0.00000000E+00  0.00000000E+00  0.00000000E+00
  0.00000000E+00  0.00000000E+00  0.00000000E+00
  0.00000000E+00  0.00000000E+00  0.00000000E+00
  0.00000000E+00  0.00000000E+00  0.00000000E+00
  0.00000000E+00  0.00000000E+00  0.00000000E+00
  0.00000000E+00  0.00000000E+00  0.00000000E+00
  0.00000000E+00  0.00000000E+00  0.00000000E+00
  0.00000000E+00  0.00000000E+00  0.00000000E+00
  0.00000000E+00  0.00000000E+00  0.00000000E+00
  0.00000000E+00  0.00000000E+00  0.00000000E+00
  0.00000000E+00  0.00000000E+00  0.00000000E+00
  0.00000000E+00  0.00000000E+00  0.00000000E+00
  0.00000000E+00  0.00000000E+00  0.00000000E+00
  0.00000000E+00  0.00000000E+00  0.00000000E+00
  0.00000000E+00  0.00000000E+00  0.00000000E+00
  0.00000000E+00  0.00000000E+00  0.00000000E+00
  0.00000000E+00  0.00000000E+00  0.00000000E+00
  0.00000000E+00  0.00000000E+00  0.00000000E+00
  0.00000000E+00  0.00000000E+00  0.00000000E+00
  0.00000000E+00  0.00000000E+00  0.00000000E+00
  0.00000000E+00  0.00000000E+00  0.00000000E+00
  0.00000000E+00  0.00000000E+00  0.00000000E+00
  0.00000000E+00  0.00000000E+00  0.00000000E+00
  0.00000000E+00  0.00000000E+00  0.00000000E+00
  0.00000000E+00  0.00000000E+00  0.00000000E+00
  0.00000000E+00  0.00000000E+00  0.00000000E+00
  0.00000000E+00  0.00000000E+00  0.00000000E+00
  0.00000000E+00  0.00000000E+00  0.00000000E+00
