Li20 P20 O60
1.0
5.300696 0.000000 0.000000
0.000000 13.312980 0.000000
0.000000 10.635230 16.540545
Li P O
20 20 60
direct
0.505393 0.873522 0.181780 Li
0.494607 0.873522 0.681780 Li
0.515581 0.111170 0.065996 Li
0.484419 0.111170 0.565996 Li
0.494216 0.347043 0.950543 Li
0.505784 0.347043 0.450543 Li
0.492776 0.581703 0.835452 Li
0.507224 0.581703 0.335452 Li
0.007217 0.729106 0.758434 Li
0.992783 0.729106 0.258434 Li
0.478806 0.375737 0.681714 Li
0.521194 0.375737 0.181714 Li
0.523687 0.612275 0.566270 Li
0.476313 0.612275 0.066270 Li
0.466750 0.848182 0.449547 Li
0.533250 0.848182 0.949547 Li
0.522263 0.084520 0.332984 Li
0.477737 0.084520 0.832984 Li
0.039111 0.233171 0.256366 Li
0.960889 0.233171 0.756366 Li
0.814623 0.999221 0.999587 P
0.185377 0.999221 0.499587 P
0.156683 0.205613 0.906720 P
0.843317 0.205613 0.406720 P
0.811556 0.401137 0.802939 P
0.188444 0.401137 0.302939 P
0.171023 0.591605 0.691689 P
0.828977 0.591605 0.191689 P
0.840261 0.791599 0.591751 P
0.159739 0.791599 0.091751 P
0.156070 0.665080 0.425433 P
0.843930 0.665080 0.925433 P
0.825678 0.865452 0.325562 P
0.174322 0.865452 0.825562 P
0.187722 0.056323 0.213545 P
0.812278 0.056323 0.713545 P
0.848099 0.252134 0.110144 P
0.151901 0.252134 0.610144 P
0.190133 0.458420 0.017155 P
0.809867 0.458420 0.517155 P
0.931000 0.129985 0.964587 O
0.069000 0.129985 0.464587 O
0.048913 0.340179 0.859372 O
0.951087 0.340179 0.359372 O
0.919982 0.518650 0.724144 O
0.080018 0.518650 0.224144 O
0.073319 0.706904 0.607741 O
0.926681 0.706904 0.107741 O
0.057978 0.919848 0.021852 O
0.942022 0.919848 0.521852 O
0.923219 0.749936 0.409378 O
0.076781 0.749936 0.909378 O
0.078159 0.936774 0.290596 O
0.921841 0.936774 0.790596 O
0.950735 0.116799 0.156445 O
0.049265 0.116799 0.656445 O
0.081213 0.325432 0.056520 O
0.918787 0.325432 0.556520 O
0.055309 0.536371 0.495673 O
0.944691 0.536371 0.995673 O
0.677205 0.970827 0.073889 O
0.322795 0.970827 0.573889 O
0.686082 0.994909 0.933926 O
0.313918 0.994909 0.433926 O
0.356424 0.204625 0.958651 O
0.643576 0.204625 0.458651 O
0.204695 0.171056 0.846743 O
0.795305 0.171056 0.346743 O
0.648026 0.439658 0.845353 O
0.351974 0.439658 0.345353 O
0.718219 0.322583 0.775410 O
0.281781 0.322583 0.275410 O
0.248454 0.630670 0.747295 O
0.751546 0.630670 0.247295 O
0.343710 0.527520 0.669352 O
0.656290 0.527520 0.169352 O
0.784879 0.790584 0.667159 O
0.215121 0.790584 0.167159 O
0.644223 0.761105 0.553292 O
0.355777 0.761105 0.053292 O
0.350110 0.697609 0.463335 O
0.649890 0.697609 0.963335 O
0.214004 0.665087 0.350606 O
0.785996 0.665087 0.850606 O
0.659207 0.931406 0.348215 O
0.340793 0.931406 0.848215 O
0.741956 0.824688 0.271458 O
0.258044 0.824688 0.771458 O
0.274266 0.135280 0.241625 O
0.725734 0.135280 0.741625 O
0.357050 0.019880 0.171199 O
0.642950 0.019880 0.671199 O
0.794728 0.286380 0.170027 O
0.205272 0.286380 0.670027 O
0.652705 0.257004 0.055640 O
0.347295 0.257004 0.555640 O
0.322530 0.467181 0.080441 O
0.677470 0.467181 0.580441 O
0.321086 0.484690 0.942366 O
0.678914 0.484690 0.442366 O
