Li8 P4 O14                              
   1.00000000000000     
    -5.2333158467133822   -0.0003936973715960   -0.0008575781953497
     2.5865390993017945    6.7115346433279841   -0.0069532719967065
    -0.0045053466950179   -2.0207442570195120   -8.3831694471004212
   Li   P    O 
     8     4    14
Direct
  0.2555901404409658  0.1452339999023078  0.0120206784613975
  0.7444098595590343  0.8547660000976922  0.9879793215386025
  0.6045458131145369  0.5894288908440324  0.2487682818400173
  0.3954541868854631  0.4105711091559677  0.7512317181599826
  0.9720101477463856  0.3280394954824192  0.2088794269914431
  0.0279898522536142  0.6719605045175810  0.7911205730085568
  0.9435049703100258  0.2417977416445442  0.5485298654099335
  0.0564950296899743  0.7582022583554560  0.4514701345900665
  0.4260808260369952  0.2135144981559456  0.3680886831569458
  0.5739191739630046  0.7864855018440543  0.6319113168430541
  0.2155798957580555  0.7788296184883067  0.1544185209357213
  0.7844201042419443  0.2211703815116934  0.8455814790642786
  0.4818782038878290  0.7419149321883184  0.1257869314728469
  0.9930539393466189  0.6046066734105726  0.2095410527420701
  0.0069460606533813  0.3953933265894272  0.7904589472579299
  0.1165548456154509  0.8485596318255806  0.0173194084142938
  0.2658379409504705  0.7435259911605619  0.6234397939398795
  0.7341620590495292  0.2564740088394381  0.3765602060601206
  0.6859142749690005  0.7315216538287765  0.4731106956954959
  0.3140857250309995  0.2684783461712235  0.5268893043045043
  0.6616243754211708  0.7017993588972181  0.7642216673193826
  0.3383756245788291  0.2982006411027821  0.2357783326806172
  0.2658814944509036  0.9620807252369988  0.3165064067869772
  0.7341185055490963  0.0379192747630011  0.6834935932130228
  0.8834451543845490  0.1514403681744196  0.9826805915857062
  0.5181217961121710  0.2580850678116817  0.8742130685271530
 
  0.00000000E+00  0.00000000E+00  0.00000000E+00
  0.00000000E+00  0.00000000E+00  0.00000000E+00
  0.00000000E+00  0.00000000E+00  0.00000000E+00
  0.00000000E+00  0.00000000E+00  0.00000000E+00
  0.00000000E+00  0.00000000E+00  0.00000000E+00
  0.00000000E+00  0.00000000E+00  0.00000000E+00
  0.00000000E+00  0.00000000E+00  0.00000000E+00
  0.00000000E+00  0.00000000E+00  0.00000000E+00
  0.00000000E+00  0.00000000E+00  0.00000000E+00
  0.00000000E+00  0.00000000E+00  0.00000000E+00
  0.00000000E+00  0.00000000E+00  0.00000000E+00
  0.00000000E+00  0.00000000E+00  0.00000000E+00
  0.00000000E+00  0.00000000E+00  0.00000000E+00
  0.00000000E+00  0.00000000E+00  0.00000000E+00
  0.00000000E+00  0.00000000E+00  0.00000000E+00
  0.00000000E+00  0.00000000E+00  0.00000000E+00
  0.00000000E+00  0.00000000E+00  0.00000000E+00
  0.00000000E+00  0.00000000E+00  0.00000000E+00
  0.00000000E+00  0.00000000E+00  0.00000000E+00
  0.00000000E+00  0.00000000E+00  0.00000000E+00
  0.00000000E+00  0.00000000E+00  0.00000000E+00
  0.00000000E+00  0.00000000E+00  0.00000000E+00
  0.00000000E+00  0.00000000E+00  0.00000000E+00
  0.00000000E+00  0.00000000E+00  0.00000000E+00
  0.00000000E+00  0.00000000E+00  0.00000000E+00
  0.00000000E+00  0.00000000E+00  0.00000000E+00
