Li7 P2 N1 O7                            
   1.00000000000000     
     5.1407730152331599    0.0000000000000000   -0.0887487805266764
     0.0000000000000000    6.2294173974551503    0.0000000000000000
    -0.0896737776979939    0.0000000000000000    5.2175279248111899
   Li   P    N    O 
     7     2     1     7
Direct
  0.0215956872650427  0.5000000000000000  0.1407298460161120
  0.5102502543923131  0.7363445458090631  0.3144039904590183
  0.5102502543923131  0.2636554541909377  0.3144039904590183
  0.0522535565878046  0.7398222083695665  0.6515010482118004
  0.0522535565878046  0.2601777916304335  0.6515010482118004
  0.4324613315636530 -0.0000000000000000  0.9489945852752226
  0.7192471222777065 -0.0000000000000000  0.6110499842092784
  0.5233603605736962  0.5000000000000000  0.8195578269859621
 -0.0151000173004501 -0.0000000000000000  0.1702965627393105
  0.6875652619898087 -0.0000000000000000  0.2241881772185051
  0.1323450067665561  0.2064057327588011  0.2879884722274575
  0.1323450067665561  0.7935942672411985  0.2879884722274575
  0.6248184315631971  0.5000000000000000  0.1019256258523389
  0.2187981911747767  0.5000000000000000  0.8073142393972303
  0.6207025598198269  0.7053843513038105  0.6805566217142027
  0.6207025598198269  0.2946156486961897  0.6805566217142027
  0.0606708757595945 -0.0000000000000000  0.8697328870810861
 
  0.00000000E+00  0.00000000E+00  0.00000000E+00
  0.00000000E+00  0.00000000E+00  0.00000000E+00
  0.00000000E+00  0.00000000E+00  0.00000000E+00
  0.00000000E+00  0.00000000E+00  0.00000000E+00
  0.00000000E+00  0.00000000E+00  0.00000000E+00
  0.00000000E+00  0.00000000E+00  0.00000000E+00
  0.00000000E+00  0.00000000E+00  0.00000000E+00
  0.00000000E+00  0.00000000E+00  0.00000000E+00
  0.00000000E+00  0.00000000E+00  0.00000000E+00
  0.00000000E+00  0.00000000E+00  0.00000000E+00
  0.00000000E+00  0.00000000E+00  0.00000000E+00
  0.00000000E+00  0.00000000E+00  0.00000000E+00
  0.00000000E+00  0.00000000E+00  0.00000000E+00
  0.00000000E+00  0.00000000E+00  0.00000000E+00
  0.00000000E+00  0.00000000E+00  0.00000000E+00
  0.00000000E+00  0.00000000E+00  0.00000000E+00
  0.00000000E+00  0.00000000E+00  0.00000000E+00
