Li7 N21
1.0
3.300174 0.000000 0.035551
1.595771 2.888713 0.035551
0.000000 0.000000 57.169123
Li N
7 21
direct
0.844588 0.844588 0.948196 Li+
0.594588 0.594588 0.864863 Li+
0.344588 0.344588 0.781529 Li+
0.094588 0.094588 0.698196 Li+
0.844588 0.844588 0.614863 Li+
0.594588 0.594588 0.531529 Li+
0.344588 0.344588 0.448196 Li+
0.174601 0.174601 0.926804 N3-
0.514576 0.514576 0.969588 N3-
0.469588 0.469588 0.989863 N3-
0.924601 0.924601 0.843471 N3-
0.264576 0.264576 0.886255 N3-
0.219588 0.219588 0.906529 N3-
0.674601 0.674601 0.760137 N3-
0.014576 0.014576 0.802922 N3-
0.969588 0.969588 0.823196 N3-
0.424601 0.424601 0.676804 N3-
0.764576 0.764576 0.719588 N3-
0.719588 0.719588 0.739863 N3-
0.174601 0.174601 0.593471 N3-
0.514576 0.514576 0.636255 N3-
0.469588 0.469588 0.656529 N3-
0.924601 0.924601 0.510137 N3-
0.264576 0.264576 0.552922 N3-
0.219588 0.219588 0.573196 N3-
0.674601 0.674601 0.426804 N3-
0.014576 0.014576 0.469588 N3-
0.969588 0.969588 0.489863 N3-
