Li5 P2 N1 O6                            
   1.00000000000000     
    -0.0531463639199575   -0.0110219197146307    4.9894214016213061
     6.0314468985111729    0.0157986521598614   -0.0678070741937087
     0.0176590629991108    5.5673311867288220   -0.0139309283473262
   Li   P    N    O 
     5     2     1     6
Direct
  0.4853283980098156  0.0080175357194824  0.7678717293211071
 -0.0088072669372294  0.4912705962884594  0.1331319998238844
  0.4688306544280558  0.6487091100536084  0.3604520261372682
  0.0016329440131241  0.7536091591979989  0.6850774387108191
 -0.0013322290361408  0.2545695526839309  0.6822443335895553
  0.5068759363703693  0.5128275138533480  0.8286046288864841
  0.0940789957002281  0.0041443872323581  0.1747115968875690
  0.1085282500529064  0.0026892295875322  0.9014102666605218
  0.0549846200766061  0.2097571557090763  0.3278008908452233
  0.6056823180035062  0.7157919309028945  0.6689419156509667
  0.1205974916274748  0.7932968371475542  0.3319798803035097
  0.6169907869014424  0.2984529831379600  0.7191504884444687
  0.6168334107620672  0.5481510649497939  0.0862527941758868
  0.1940216900277963  0.5058399435360018  0.8243320105627370
 
  0.00000000E+00  0.00000000E+00  0.00000000E+00
  0.00000000E+00  0.00000000E+00  0.00000000E+00
  0.00000000E+00  0.00000000E+00  0.00000000E+00
  0.00000000E+00  0.00000000E+00  0.00000000E+00
  0.00000000E+00  0.00000000E+00  0.00000000E+00
  0.00000000E+00  0.00000000E+00  0.00000000E+00
  0.00000000E+00  0.00000000E+00  0.00000000E+00
  0.00000000E+00  0.00000000E+00  0.00000000E+00
  0.00000000E+00  0.00000000E+00  0.00000000E+00
  0.00000000E+00  0.00000000E+00  0.00000000E+00
  0.00000000E+00  0.00000000E+00  0.00000000E+00
  0.00000000E+00  0.00000000E+00  0.00000000E+00
  0.00000000E+00  0.00000000E+00  0.00000000E+00
  0.00000000E+00  0.00000000E+00  0.00000000E+00
