Li61 P7 N32                             
   1.00000000000000     
     0.0312372021764814    9.5818900424322351    0.0064024615898847
     0.0216753315361856    0.0064300884634311    9.5867545420469256
     9.5763310365363221    0.0312065636178778    0.0216000467442320
   Li   P    N 
    61     7    32
Direct
  0.5053747024187804 -0.0007548672474541  0.4908079990283380
 -0.0067906797914277  0.4875772561049618 -0.0160523166683938
  0.4991388227155875 -0.0038001146537953 -0.0081794449968489
  0.0023622282924220 -0.0050216037789025  0.4946261424731300
  0.4905722865869453  0.4984332592551737 -0.0028739414142549
  0.0010472036585864  0.4940945203677333  0.4962318713815421
  0.7538413055154248 -0.0134547863213317  0.4956265824455732
  0.2486675556886142  0.0171552503270215  0.4788290058639171
  0.7803712689267385  0.4845427294386812  0.4881437276991701
  0.2220017526496307  0.5244126003788154  0.4777522178174868
  0.2583466753760449 -0.0002935584753544 -0.0252697064339265
  0.7349818055702337 -0.0026712985269549 -0.0030431515171065
  0.4219660109565521  0.5808620102036435  0.5752899595404497
  0.4759813886987080  0.2422141009077559  0.0099809889107047
  0.4952451212009122  0.7488538973079923 -0.0155444246811120
  0.0142119302282069  0.4611060186827803  0.2428072267790568
 -0.0065866354477007  0.4978722589911932  0.7410008668874342
  0.2711612116910474  0.2658286423682904  0.2665722602342949
  0.2406698656216565  0.7709491964957712  0.7881472810002413
  0.2932512075380364  0.2746452331345234  0.7728245437003675
  0.2983025948884436  0.7839885981622100  0.3034706334522005
  0.7827430395742785  0.2828799243287631  0.2824661223331715
  0.7386350408185945  0.7338922690096416  0.7345141342343172
  0.7825841568878925  0.2323977007947077  0.7716799988728353
  0.7748728333060348  0.8004329273633767  0.2525237530525212
  0.0256544047040892  0.2032834369042479  0.2547024150668888
  0.9891511488349207  0.7522354541676842  0.7487604938885921
  0.2350350217203780  0.2791480786077559  0.5382797754891127
  0.2555312411514022  0.7728184895596212  0.5356162894205521
  0.7344820050070202  0.2303545153763303  0.5131973701619519
  0.7550963670944750  0.7315546810974273  0.5023854753946367
  0.7229874752366966  0.4889343956632557  0.2413523783755696
  0.7457843369031215  0.4973613354784342  0.7381043147909017
  0.2636848931206839  0.5354863442977393  0.2364701472726382
  0.2397769282255685  0.5074246566517047  0.7340586593488945
  0.5202844993224900  0.7366147522000532  0.2286311511491639
  0.5268621119056371  0.2523466741329440  0.7639146524792004
  0.2484673796415515  0.0107184814524990  0.2187641950958556
  0.2409500830894054  0.0274421958208748  0.7270838107129961
  0.2163562829567021  0.2448821088077395  0.0131428849323785
  0.2555675051090868  0.7561465802840661  0.0396954771983236
  0.7584956320900674  0.9833644326534279  0.7480748136399588
  0.7608220276205341  0.0377934674774248  0.2499964037465192
  0.7436174588344591  0.7614357981469593  0.9771230042907472
  0.7224545829906796  0.2407131770309348  0.0299385805078434
  0.0324179666882683  0.2508890359677909  0.7623914564669052
  0.0624885496709649  0.7228691918607985  0.2475621590981374
  0.5384643858023507  0.2377254472916273  0.2711311610303335
  0.5060276982612429  0.7480570976731563  0.7334179886006795
 -0.0276237362177887  0.2492957191425717  0.0075407034141742
  0.0093512803618403  0.7354350693283968 -0.0159711237630057
  0.4800338478079811  0.2173938214363940  0.5199912334222170
  0.5068935876492424  0.7764138692598014  0.4872363209557030
  0.4914693632106487  0.4902598199810858  0.2206908063541631
  0.4920103246965418  0.4992690610369149  0.7743103463196807
  0.0044540058240531 -0.0349466418452173  0.2516626698869633
 -0.0007369794704221 -0.0000778171519954  0.7310438777459305
  0.4234782545596860  0.4174886769827557  0.4241133050724517
  0.5823851200115133  0.4179958229315812  0.5798590307504208
  0.5829611371400349  0.5769245920731046  0.4173671003906777
  0.8810779925195958  0.6286929387050375  0.1473107409873102
 -0.0044015103502892 -0.0093295454299963 -0.0082414954649721
  0.7435537743063143  0.4965690278831564 -0.0105492540064054
  0.2377933710177547  0.4984979928045754 -0.0069188736291617
  0.0043617145924738  0.7491371358728216  0.4940436217699117
 -0.0042421630449151  0.2406078727349755  0.5023494717036714
  0.5031996664104798 -0.0033410014359262  0.2383055577817993
  0.5009621077709516 -0.0021976437809148  0.7460022974636563
  0.6212344267813813  0.6175694874222442  0.6137720810439153
  0.6258103118352287  0.3783629937877970  0.3811556637948504
  0.8948279977380362  0.8833387562126339  0.0937355582444514
  0.8930060010357782  0.0947545722757938  0.8932978099124085
  0.1000747165640437  0.8938270120713445  0.8874432945135156
  0.0959793096444967  0.0909753900475052  0.0963077594615709
  0.3876387639602357  0.6194236139684043  0.3747202558247932
  0.3846417897886856  0.3830463624649548  0.6246906229142691
  0.0989739234469276  0.3401203075838876  0.3935043997214525
  0.0981488551293737  0.6458650443257689  0.6042404491048634
  0.1018108186838471  0.1396139314615374  0.6002507146989018
  0.1153512106139344  0.8511689217598257  0.3993167379411970
  0.8924467004960293  0.1410163040018048  0.3986548920696525
  0.8946936781644796  0.8476878572364840  0.5926888387014211
  0.8456029266325300  0.4029340578215475  0.1020611150691059
  0.8481680911069995  0.5984654954694135  0.8887599749008793
  0.1287778569761613  0.5945854928929942  0.0970610024649208
  0.1438748010410219  0.3939962686307708  0.8873230739061501
  0.4006488676478417  0.8905726935607401  0.1414056042935649
  0.4010312267201135  0.1036665425052211  0.8466984314052464
  0.3966339230110651  0.0978947202952700  0.3394285219789717
  0.3931305872497698  0.9009184087667921  0.6434465673041955
  0.3374900778785383  0.3945960710083968  0.0978161797796402
  0.3400412348076944  0.6098164480292768  0.9006699760304758
  0.6114138455610031  0.0958050505616867  0.6458486822670676
  0.6131923798868618  0.9016200688135446  0.3396083103282343
  0.6464617056793573  0.6065374827168142  0.0915344141021348
  0.6441502805915474  0.3884225033540458  0.8953675196372365
  0.8988841400195698  0.3433741808309069  0.6092198512121011
  0.9095076219715000  0.6497211277203206  0.3784802345546657
  0.6010171631029766  0.1020387460176529  0.1350819307981650
  0.6002699278852315  0.8890003226317562  0.8465168067109112
 
  0.00000000E+00  0.00000000E+00  0.00000000E+00
  0.00000000E+00  0.00000000E+00  0.00000000E+00
  0.00000000E+00  0.00000000E+00  0.00000000E+00
  0.00000000E+00  0.00000000E+00  0.00000000E+00
  0.00000000E+00  0.00000000E+00  0.00000000E+00
  0.00000000E+00  0.00000000E+00  0.00000000E+00
  0.00000000E+00  0.00000000E+00  0.00000000E+00
  0.00000000E+00  0.00000000E+00  0.00000000E+00
  0.00000000E+00  0.00000000E+00  0.00000000E+00
  0.00000000E+00  0.00000000E+00  0.00000000E+00
  0.00000000E+00  0.00000000E+00  0.00000000E+00
  0.00000000E+00  0.00000000E+00  0.00000000E+00
  0.00000000E+00  0.00000000E+00  0.00000000E+00
  0.00000000E+00  0.00000000E+00  0.00000000E+00
  0.00000000E+00  0.00000000E+00  0.00000000E+00
  0.00000000E+00  0.00000000E+00  0.00000000E+00
  0.00000000E+00  0.00000000E+00  0.00000000E+00
  0.00000000E+00  0.00000000E+00  0.00000000E+00
  0.00000000E+00  0.00000000E+00  0.00000000E+00
  0.00000000E+00  0.00000000E+00  0.00000000E+00
  0.00000000E+00  0.00000000E+00  0.00000000E+00
  0.00000000E+00  0.00000000E+00  0.00000000E+00
  0.00000000E+00  0.00000000E+00  0.00000000E+00
  0.00000000E+00  0.00000000E+00  0.00000000E+00
  0.00000000E+00  0.00000000E+00  0.00000000E+00
  0.00000000E+00  0.00000000E+00  0.00000000E+00
  0.00000000E+00  0.00000000E+00  0.00000000E+00
  0.00000000E+00  0.00000000E+00  0.00000000E+00
  0.00000000E+00  0.00000000E+00  0.00000000E+00
  0.00000000E+00  0.00000000E+00  0.00000000E+00
  0.00000000E+00  0.00000000E+00  0.00000000E+00
  0.00000000E+00  0.00000000E+00  0.00000000E+00
  0.00000000E+00  0.00000000E+00  0.00000000E+00
  0.00000000E+00  0.00000000E+00  0.00000000E+00
  0.00000000E+00  0.00000000E+00  0.00000000E+00
  0.00000000E+00  0.00000000E+00  0.00000000E+00
  0.00000000E+00  0.00000000E+00  0.00000000E+00
  0.00000000E+00  0.00000000E+00  0.00000000E+00
  0.00000000E+00  0.00000000E+00  0.00000000E+00
  0.00000000E+00  0.00000000E+00  0.00000000E+00
  0.00000000E+00  0.00000000E+00  0.00000000E+00
  0.00000000E+00  0.00000000E+00  0.00000000E+00
  0.00000000E+00  0.00000000E+00  0.00000000E+00
  0.00000000E+00  0.00000000E+00  0.00000000E+00
  0.00000000E+00  0.00000000E+00  0.00000000E+00
  0.00000000E+00  0.00000000E+00  0.00000000E+00
  0.00000000E+00  0.00000000E+00  0.00000000E+00
  0.00000000E+00  0.00000000E+00  0.00000000E+00
  0.00000000E+00  0.00000000E+00  0.00000000E+00
  0.00000000E+00  0.00000000E+00  0.00000000E+00
  0.00000000E+00  0.00000000E+00  0.00000000E+00
  0.00000000E+00  0.00000000E+00  0.00000000E+00
  0.00000000E+00  0.00000000E+00  0.00000000E+00
  0.00000000E+00  0.00000000E+00  0.00000000E+00
  0.00000000E+00  0.00000000E+00  0.00000000E+00
  0.00000000E+00  0.00000000E+00  0.00000000E+00
  0.00000000E+00  0.00000000E+00  0.00000000E+00
  0.00000000E+00  0.00000000E+00  0.00000000E+00
  0.00000000E+00  0.00000000E+00  0.00000000E+00
  0.00000000E+00  0.00000000E+00  0.00000000E+00
  0.00000000E+00  0.00000000E+00  0.00000000E+00
  0.00000000E+00  0.00000000E+00  0.00000000E+00
  0.00000000E+00  0.00000000E+00  0.00000000E+00
  0.00000000E+00  0.00000000E+00  0.00000000E+00
  0.00000000E+00  0.00000000E+00  0.00000000E+00
  0.00000000E+00  0.00000000E+00  0.00000000E+00
  0.00000000E+00  0.00000000E+00  0.00000000E+00
  0.00000000E+00  0.00000000E+00  0.00000000E+00
  0.00000000E+00  0.00000000E+00  0.00000000E+00
  0.00000000E+00  0.00000000E+00  0.00000000E+00
  0.00000000E+00  0.00000000E+00  0.00000000E+00
  0.00000000E+00  0.00000000E+00  0.00000000E+00
  0.00000000E+00  0.00000000E+00  0.00000000E+00
  0.00000000E+00  0.00000000E+00  0.00000000E+00
  0.00000000E+00  0.00000000E+00  0.00000000E+00
  0.00000000E+00  0.00000000E+00  0.00000000E+00
  0.00000000E+00  0.00000000E+00  0.00000000E+00
  0.00000000E+00  0.00000000E+00  0.00000000E+00
  0.00000000E+00  0.00000000E+00  0.00000000E+00
  0.00000000E+00  0.00000000E+00  0.00000000E+00
  0.00000000E+00  0.00000000E+00  0.00000000E+00
  0.00000000E+00  0.00000000E+00  0.00000000E+00
  0.00000000E+00  0.00000000E+00  0.00000000E+00
  0.00000000E+00  0.00000000E+00  0.00000000E+00
  0.00000000E+00  0.00000000E+00  0.00000000E+00
  0.00000000E+00  0.00000000E+00  0.00000000E+00
  0.00000000E+00  0.00000000E+00  0.00000000E+00
  0.00000000E+00  0.00000000E+00  0.00000000E+00
  0.00000000E+00  0.00000000E+00  0.00000000E+00
  0.00000000E+00  0.00000000E+00  0.00000000E+00
  0.00000000E+00  0.00000000E+00  0.00000000E+00
  0.00000000E+00  0.00000000E+00  0.00000000E+00
  0.00000000E+00  0.00000000E+00  0.00000000E+00
  0.00000000E+00  0.00000000E+00  0.00000000E+00
  0.00000000E+00  0.00000000E+00  0.00000000E+00
  0.00000000E+00  0.00000000E+00  0.00000000E+00
  0.00000000E+00  0.00000000E+00  0.00000000E+00
  0.00000000E+00  0.00000000E+00  0.00000000E+00
  0.00000000E+00  0.00000000E+00  0.00000000E+00
  0.00000000E+00  0.00000000E+00  0.00000000E+00
