Li61 P7 N32                             
   1.00000000000000     
     0.0089078259263142    9.5969279660379314   -0.1016944764678462
    -0.0247830764988650   -0.1017191567576725    9.6023004082117609
     9.5460902369857461    0.0090817959084486   -0.0252148753106788
   Li   P    N 
    61     7    32
Direct
  0.4968961364665642 -0.0033530684579407  0.4942330991020367
 -0.0014920743858559  0.4979878320435039  0.0002048887246484
  0.4964834026755731 -0.0028410946471710  0.9950898757555913
  0.9978832328222814  0.0015801546772970  0.4976161169545507
  0.4981947291041799  0.4963270489213916  0.9831325541518797
 -0.0028270188411148  0.5019261728607259  0.5063280981954923
  0.7495321228416502  0.9880585685888805  0.4975854614369799
  0.2452339339390670  0.0069592633484769  0.5043084725817750
  0.7751566886771667  0.4904224090555495  0.4925081254908510
  0.2214593998411053  0.5040585139296042  0.4990393682447090
  0.2587081466350106  0.9947193484148240  0.0057713260223378
  0.7350685015299073  0.9981611163917610  0.9985454744053686
  0.5742567871620500  0.5816734979531631  0.3990784418125843
  0.4910643028570988  0.2402899023858960  0.0073054428218043
  0.5157788658509597  0.7558511279050638  0.0114063076291281
 -0.0004101949637513  0.4993186695314591  0.2515676630141703
  0.0067930650267706  0.5036482536272013  0.7528068008757093
  0.2776566287926338  0.2057175685891631  0.2060812972094380
  0.2094094483387701  0.7422396695942273  0.7780591013575708
  0.2736405329937691  0.2362965146841237  0.7181927122531493
  0.2081281735973683  0.6953879557667013  0.2879050957163526
  0.7922401576926801  0.3006088741377979  0.2843630032685751
  0.7123923865998253  0.7319172563233810  0.7472218690399525
  0.7755220267186814  0.2309866266083241  0.7717329534370450
  0.7252169388709152  0.7892314292175289  0.2225618304128916
  0.0220311533391881  0.2310090483274653  0.2473572250345680
  0.9664007381559494  0.7498933798531280  0.7611379103132835
  0.2455787702987031  0.2579446636564315  0.4867632160793261
  0.2608724170475848  0.7609490677518628  0.5173157095869176
  0.7379480536751001  0.2351061678620169  0.5121590761030510
  0.7557502089755205  0.7309417847271119  0.5086346383424736
  0.7757572528488486  0.5457311662702262  0.2538577423420722
  0.7598327879272108  0.4909942675296731  0.7362387272529277
  0.2244021745835355  0.4528924664395911  0.2563503605166261
  0.2642307665519635  0.4763579644991527  0.7473943494957830
  0.4491580477723773  0.7729760197735975  0.2996063442750845
  0.5156797952918079  0.2567221901345143  0.7644997904562070
  0.2384356213732740  0.9604367942713780  0.2615802563243592
  0.2430900518392212  0.9917582362180364  0.7630119571063976
  0.2448626044438370  0.2365522974171580  0.9671131200938591
  0.2636291984946068  0.7554403898005874  0.0331199627399984
  0.7593343722734684  0.9798364037404103  0.7480807165362674
  0.7595478958560549  0.0372923249996200  0.2551876275952299
  0.7673992980806559  0.7565592439779494  0.9864675020020273
  0.7444722106754331  0.2380494968216869  0.0265083711868678
  0.0252745310484317  0.2553347677076483  0.7609813658199974
  0.9795927558745318  0.7683654343888481  0.2481874278449362
  0.5470478457476277  0.2248089827722440  0.2946840285415575
  0.4656051977333293  0.7425107105384059  0.7717265106208016
  0.9959164316449812  0.2601830119257557  0.0034345124164790
  0.0110158575483751  0.7353548315091650  0.0048608904522691
  0.4780303030169321  0.2131098151206174  0.5274424485320174
  0.5241661459000450  0.7796360121304122  0.5349204420289906
  0.4117396813345555  0.5734066475652991  0.1853136026419988
  0.5117975853843253  0.5012895389856888  0.7635509038804354
  0.9992550757546457  0.0001946626898322  0.2604258460964033
  0.0008408886159758  0.0024980167489965  0.7354455474278736
  0.4256049680047736  0.4130999513972786  0.3971365069160546
  0.4213610002808841  0.5716450006442396  0.5692041653584846
  0.5784487188311872  0.4185540093989231  0.5662943876619949
  0.5983863169856107  0.4174067774706142  0.1804629053027146
  0.9984397591799585  0.9979940119696004  0.9990997695945244
  0.7537332742133700  0.5010027897553981  0.9936909614772937
  0.2440863442402915  0.4939535841720998 -0.0033349161910880
  0.0001831978207445  0.7537139228582456  0.5033544735738373
  0.9965752221685946  0.2490631911432667  0.5024402277994430
  0.4985459133019371 -0.0012057596112836  0.2415064432308789
  0.4995855976047045  0.9975601364234835  0.7506748634134881
  0.6174436033393252  0.6141232568572478  0.6147393355959608
  0.6341773845915983  0.3832309384092389  0.3764789682698336
  0.8932058079143941  0.8963554944637958  0.1032539939771754
  0.8978968733487567  0.1001330474398373  0.8982936865251457
  0.0989466011834878  0.8944594478450558  0.8977175591745626
  0.1049145873901277  0.1003618205620633  0.1017327962060466
  0.3649979493717159  0.6114387407535747  0.3800296605378030
  0.3841527429100914  0.3730698745746775  0.6135878585469987
  0.0925643305681060  0.3555540291377202  0.3943002335275242
  0.0944881717235023  0.6558071797701241  0.6130900479611266
  0.1053466348723354  0.1494688619207414  0.5977952691876121
  0.1046786023454519  0.8534100821178959  0.3987655570838645
  0.8943076504479361  0.1467757863858835  0.3965726694110840
  0.8919504852893856  0.8548826451509334  0.5995282016169986
  0.8478908604681177  0.4066399068698494  0.1079443244077142
  0.8564971611684726  0.6005573124350825  0.8895893884435315
  0.1499414062488316  0.5901861361801005  0.1098206180456801
  0.1408590859489860  0.3956813760358763  0.8915476930950281
  0.3972478887554193  0.8911920634409537  0.1432548692088929
  0.3979797948222386  0.1029326459032373  0.8517625335514518
  0.3923774070202681  0.0959364955252662  0.3472021256775900
  0.3894939901122137  0.8986292038324357  0.6496628702482888
  0.3484178813427631  0.3868887125991577  0.0913731433683207
  0.3460504127606424  0.6058233301216830  0.9004555869605384
  0.6096571250646694  0.0958689019504838  0.6508296934821265
  0.6042095164514878  0.9042607677583409  0.3465203213292393
  0.6500750071879289  0.6079610717834677  0.0914828657214217
  0.6525400236676331  0.3875016908032426  0.8994299413108306
  0.8987108666303595  0.3455397230668404  0.6128454855851326
  0.9025160816603945  0.6475205380130357  0.3940343720085801
  0.5986982425120474  0.1046284888449770  0.1405989555681608
  0.5968044702978302  0.8905483962198921  0.8519470766264696
 
  0.00000000E+00  0.00000000E+00  0.00000000E+00
  0.00000000E+00  0.00000000E+00  0.00000000E+00
  0.00000000E+00  0.00000000E+00  0.00000000E+00
  0.00000000E+00  0.00000000E+00  0.00000000E+00
  0.00000000E+00  0.00000000E+00  0.00000000E+00
  0.00000000E+00  0.00000000E+00  0.00000000E+00
  0.00000000E+00  0.00000000E+00  0.00000000E+00
  0.00000000E+00  0.00000000E+00  0.00000000E+00
  0.00000000E+00  0.00000000E+00  0.00000000E+00
  0.00000000E+00  0.00000000E+00  0.00000000E+00
  0.00000000E+00  0.00000000E+00  0.00000000E+00
  0.00000000E+00  0.00000000E+00  0.00000000E+00
  0.00000000E+00  0.00000000E+00  0.00000000E+00
  0.00000000E+00  0.00000000E+00  0.00000000E+00
  0.00000000E+00  0.00000000E+00  0.00000000E+00
  0.00000000E+00  0.00000000E+00  0.00000000E+00
  0.00000000E+00  0.00000000E+00  0.00000000E+00
  0.00000000E+00  0.00000000E+00  0.00000000E+00
  0.00000000E+00  0.00000000E+00  0.00000000E+00
  0.00000000E+00  0.00000000E+00  0.00000000E+00
  0.00000000E+00  0.00000000E+00  0.00000000E+00
  0.00000000E+00  0.00000000E+00  0.00000000E+00
  0.00000000E+00  0.00000000E+00  0.00000000E+00
  0.00000000E+00  0.00000000E+00  0.00000000E+00
  0.00000000E+00  0.00000000E+00  0.00000000E+00
  0.00000000E+00  0.00000000E+00  0.00000000E+00
  0.00000000E+00  0.00000000E+00  0.00000000E+00
  0.00000000E+00  0.00000000E+00  0.00000000E+00
  0.00000000E+00  0.00000000E+00  0.00000000E+00
  0.00000000E+00  0.00000000E+00  0.00000000E+00
  0.00000000E+00  0.00000000E+00  0.00000000E+00
  0.00000000E+00  0.00000000E+00  0.00000000E+00
  0.00000000E+00  0.00000000E+00  0.00000000E+00
  0.00000000E+00  0.00000000E+00  0.00000000E+00
  0.00000000E+00  0.00000000E+00  0.00000000E+00
  0.00000000E+00  0.00000000E+00  0.00000000E+00
  0.00000000E+00  0.00000000E+00  0.00000000E+00
  0.00000000E+00  0.00000000E+00  0.00000000E+00
  0.00000000E+00  0.00000000E+00  0.00000000E+00
  0.00000000E+00  0.00000000E+00  0.00000000E+00
  0.00000000E+00  0.00000000E+00  0.00000000E+00
  0.00000000E+00  0.00000000E+00  0.00000000E+00
  0.00000000E+00  0.00000000E+00  0.00000000E+00
  0.00000000E+00  0.00000000E+00  0.00000000E+00
  0.00000000E+00  0.00000000E+00  0.00000000E+00
  0.00000000E+00  0.00000000E+00  0.00000000E+00
  0.00000000E+00  0.00000000E+00  0.00000000E+00
  0.00000000E+00  0.00000000E+00  0.00000000E+00
  0.00000000E+00  0.00000000E+00  0.00000000E+00
  0.00000000E+00  0.00000000E+00  0.00000000E+00
  0.00000000E+00  0.00000000E+00  0.00000000E+00
  0.00000000E+00  0.00000000E+00  0.00000000E+00
  0.00000000E+00  0.00000000E+00  0.00000000E+00
  0.00000000E+00  0.00000000E+00  0.00000000E+00
  0.00000000E+00  0.00000000E+00  0.00000000E+00
  0.00000000E+00  0.00000000E+00  0.00000000E+00
  0.00000000E+00  0.00000000E+00  0.00000000E+00
  0.00000000E+00  0.00000000E+00  0.00000000E+00
  0.00000000E+00  0.00000000E+00  0.00000000E+00
  0.00000000E+00  0.00000000E+00  0.00000000E+00
  0.00000000E+00  0.00000000E+00  0.00000000E+00
  0.00000000E+00  0.00000000E+00  0.00000000E+00
  0.00000000E+00  0.00000000E+00  0.00000000E+00
  0.00000000E+00  0.00000000E+00  0.00000000E+00
  0.00000000E+00  0.00000000E+00  0.00000000E+00
  0.00000000E+00  0.00000000E+00  0.00000000E+00
  0.00000000E+00  0.00000000E+00  0.00000000E+00
  0.00000000E+00  0.00000000E+00  0.00000000E+00
  0.00000000E+00  0.00000000E+00  0.00000000E+00
  0.00000000E+00  0.00000000E+00  0.00000000E+00
  0.00000000E+00  0.00000000E+00  0.00000000E+00
  0.00000000E+00  0.00000000E+00  0.00000000E+00
  0.00000000E+00  0.00000000E+00  0.00000000E+00
  0.00000000E+00  0.00000000E+00  0.00000000E+00
  0.00000000E+00  0.00000000E+00  0.00000000E+00
  0.00000000E+00  0.00000000E+00  0.00000000E+00
  0.00000000E+00  0.00000000E+00  0.00000000E+00
  0.00000000E+00  0.00000000E+00  0.00000000E+00
  0.00000000E+00  0.00000000E+00  0.00000000E+00
  0.00000000E+00  0.00000000E+00  0.00000000E+00
  0.00000000E+00  0.00000000E+00  0.00000000E+00
  0.00000000E+00  0.00000000E+00  0.00000000E+00
  0.00000000E+00  0.00000000E+00  0.00000000E+00
  0.00000000E+00  0.00000000E+00  0.00000000E+00
  0.00000000E+00  0.00000000E+00  0.00000000E+00
  0.00000000E+00  0.00000000E+00  0.00000000E+00
  0.00000000E+00  0.00000000E+00  0.00000000E+00
  0.00000000E+00  0.00000000E+00  0.00000000E+00
  0.00000000E+00  0.00000000E+00  0.00000000E+00
  0.00000000E+00  0.00000000E+00  0.00000000E+00
  0.00000000E+00  0.00000000E+00  0.00000000E+00
  0.00000000E+00  0.00000000E+00  0.00000000E+00
  0.00000000E+00  0.00000000E+00  0.00000000E+00
  0.00000000E+00  0.00000000E+00  0.00000000E+00
  0.00000000E+00  0.00000000E+00  0.00000000E+00
  0.00000000E+00  0.00000000E+00  0.00000000E+00
  0.00000000E+00  0.00000000E+00  0.00000000E+00
  0.00000000E+00  0.00000000E+00  0.00000000E+00
  0.00000000E+00  0.00000000E+00  0.00000000E+00
  0.00000000E+00  0.00000000E+00  0.00000000E+00
