Li61 P7 N32                             
   1.00000000000000     
     0.0286719934594415    9.5800412999693041   -0.0665837521226756
    -0.0131120939294726   -0.0666726132391676    9.5838525450664704
     9.5280660326142552    0.0287335487461207   -0.0133977012558147
   Li   P    N 
    61     7    32
Direct
  0.4912093123879920  0.0026806305358699  0.4950003928298514
 -0.0009418540741734  0.4983602705418146  0.0036929235103553
  0.4950931839904475 -0.0008966391246630 -0.0044331682525187
 -0.0029001820564936 -0.0002311733773938  0.4975333495717988
  0.4995693866828455  0.4920424026950159 -0.0115143289481800
  0.0007868362413662  0.5003592150187910  0.5072071558787783
  0.7475262045823973 -0.0209314007029134  0.4926062364916978
  0.2436151044463962  0.0064881571455642  0.5038742409008775
  0.7817623031453499  0.4637213121492506  0.4750355186838999
  0.2240842930348505  0.5046738868667838  0.5030557039471216
  0.2580399631155488 -0.0003735243694010  0.0067237210445642
  0.7324856660438477 -0.0041529081998147 -0.0055890362164397
  0.5803385812034861  0.5793603188571815  0.4070707945698184
  0.4947079874370670  0.2420891797728811 -0.0052122728908723
  0.5142481872380267  0.7560917348768860  0.0156326438806554
  0.0067763225805929  0.4948684448859383  0.2550493259412902
  0.0128652722645511  0.5012667406561293  0.7539882537114196
  0.2381265295185884  0.2137673667520531  0.2226565815043667
  0.2110758486327262  0.7492303226202394  0.7738757027515429
  0.2665880764153170  0.2413567535032112  0.7188294438844922
  0.2233880723883564  0.7055500197783545  0.2810588879628537
  0.7592452073233342  0.2677826134308641  0.2866761292018118
  0.7056903784640068  0.7297048598185211  0.7611077250437209
  0.7673806319251808  0.2300743925970696  0.7759359802134856
  0.7391428928715450  0.7940244643730709  0.2430289556792860
  0.9944532987247447  0.2420590757793874  0.2394341296141193
  0.9646898966451836  0.7457741908453180  0.7588864268989997
  0.2524732516513892  0.2526234434787289  0.4861804163387753
  0.2658071489409616  0.7613207396847470  0.5136440243443948
  0.7387999779582015  0.2213982488486450  0.5230048261817106
  0.7669117795833190  0.7095707301627918  0.5281542110831045
  0.7925230617782911  0.5582882171134707  0.2440201762315012
  0.7655892908938140  0.4917698952060276  0.7311862421467585
  0.2333890289927339  0.4658601076076981  0.2602164254494309
  0.2680362799508605  0.4789587652709994  0.7521041818886893
  0.4571597003591793  0.7763545465096913  0.2981711826067229
  0.5022832292910142  0.2517305167668824  0.7461642105553404
  0.2383914812085445  0.9655126311210571  0.2595013717356008
  0.2409274390501066 -0.0034643208936616  0.7619570924114709
  0.2480086669369710  0.2394941796997132  0.9739384062475809
  0.2632872023738040  0.7594930446829796  0.0297948415329048
  0.7585073595056397  0.9771734387826823  0.7437182439017362
  0.7556789014758597  0.0324894979181811  0.2484901300192541
  0.7675964191028397  0.7536413145031331  0.9977393021513535
  0.7446428033955099  0.2348803897533953  0.0241646894106047
  0.0178660184355284  0.2491063872484891  0.7576263218155413
 -0.0044925764874355  0.7613676442103622  0.2407725263655719
  0.4920737061099680  0.2517083056919696  0.2516510796622578
  0.4635331929972297  0.7415103354544090  0.7755180389723230
 -0.0033371928092849  0.2607520235467667 -0.0015569162200205
  0.0115830330803159  0.7356235456761523  0.0003060271602857
  0.4966703375836874  0.2245272330508291  0.4975852540426530
  0.5331738811284717  0.7855946173420671  0.5373146235207036
  0.4372389797315217  0.5657476529721442  0.1927219119711450
  0.5147988826490899  0.5006752633127954  0.7695566576414621
 -0.0020063125582401  0.0013016076938043  0.2620262171001173
 -0.0001044125909468 -0.0016293770552159  0.7354298747465601
  0.4233376681200095  0.4214859441730445  0.4089709766926476
  0.4223588712959728  0.5786478902272335  0.5750211461203980
  0.5800075481595748  0.4200672089042629  0.5736077962882546
  0.6307541836407168  0.4191059130603974  0.1886676965293835
 -0.0036588036461145 -0.0014828982636541 -0.0003831147814799
  0.7545258395475499  0.4982925766802831 -0.0085231669994057
  0.2451964260667165  0.4969754745911298  0.0014679107276073
  0.0041837243314926  0.7530222953798487  0.5002913729295368
 -0.0016015006383633  0.2461169114721797  0.4989990276512805
  0.4963405050281676  0.0064407900931945  0.2423105553373828
  0.4979438303588554 -0.0033364279186606  0.7507328056068547
  0.6170308523303755  0.6147564018253544  0.6224178626825457
  0.6205229684196848  0.3720058062959532  0.3820810426114783
  0.8922437356425081  0.8956806547630324  0.1046092861355035
  0.8949350136358544  0.0996090196981467  0.8967982229100016
  0.0996372700811186  0.8957494513370399  0.8985384172242135
  0.0987539182904706  0.1026118291320538  0.1020669479348067
  0.3702060946908319  0.6150401077644829  0.3806841103635297
  0.3825426529106775  0.3754306378290905  0.6144666371080707
  0.0959095929179984  0.3498299456410071  0.3891966167632900
  0.0975051889851070  0.6543820879573199  0.6114177510568740
  0.1055326510764739  0.1463464702044171  0.5967420509097766
  0.1074015308501677  0.8531932848759805  0.3964340822110973
  0.8921536830212157  0.1445073097011301  0.3969523081109815
  0.8939430255749448  0.8523039027513031  0.5972637795161539
  0.8466015627704593  0.4016531269014926  0.1099189771956043
  0.8576055173359109  0.6002908826834614  0.8905993679660859
  0.1473309774865435  0.5950650014503285  0.1119624061446930
  0.1429309127378905  0.3980097654951028  0.8952571964578758
  0.3974212925271309  0.8954215793879360  0.1445376535954694
  0.3961683304434132  0.1036359806859307  0.8507821128942149
  0.3844576311598206  0.1010623304032156  0.3442617598453099
  0.3882080411135287  0.8973373966668183  0.6509575245939399
  0.3483968354261064  0.3878594061198680  0.0971081387126713
  0.3485539072081209  0.6066850431653396  0.9042681408731759
  0.6080805913531110  0.0937775686830360  0.6492632163499659
  0.6029629673817307  0.9124922061424506  0.3462674671373805
  0.6501408946273296  0.6047659655054795  0.0934973602428388
  0.6545365307130663  0.3859818069645242  0.8973636055763795
  0.9001426513603840  0.3440033132233876  0.6096370952154896
  0.9056785627788004  0.6463719743686556  0.3911064097471428
  0.5965861281772721  0.1120174865188583  0.1395520487165938
  0.5951032338153540  0.8901302443708055  0.8532353886700552
 
  0.00000000E+00  0.00000000E+00  0.00000000E+00
  0.00000000E+00  0.00000000E+00  0.00000000E+00
  0.00000000E+00  0.00000000E+00  0.00000000E+00
  0.00000000E+00  0.00000000E+00  0.00000000E+00
  0.00000000E+00  0.00000000E+00  0.00000000E+00
  0.00000000E+00  0.00000000E+00  0.00000000E+00
  0.00000000E+00  0.00000000E+00  0.00000000E+00
  0.00000000E+00  0.00000000E+00  0.00000000E+00
  0.00000000E+00  0.00000000E+00  0.00000000E+00
  0.00000000E+00  0.00000000E+00  0.00000000E+00
  0.00000000E+00  0.00000000E+00  0.00000000E+00
  0.00000000E+00  0.00000000E+00  0.00000000E+00
  0.00000000E+00  0.00000000E+00  0.00000000E+00
  0.00000000E+00  0.00000000E+00  0.00000000E+00
  0.00000000E+00  0.00000000E+00  0.00000000E+00
  0.00000000E+00  0.00000000E+00  0.00000000E+00
  0.00000000E+00  0.00000000E+00  0.00000000E+00
  0.00000000E+00  0.00000000E+00  0.00000000E+00
  0.00000000E+00  0.00000000E+00  0.00000000E+00
  0.00000000E+00  0.00000000E+00  0.00000000E+00
  0.00000000E+00  0.00000000E+00  0.00000000E+00
  0.00000000E+00  0.00000000E+00  0.00000000E+00
  0.00000000E+00  0.00000000E+00  0.00000000E+00
  0.00000000E+00  0.00000000E+00  0.00000000E+00
  0.00000000E+00  0.00000000E+00  0.00000000E+00
  0.00000000E+00  0.00000000E+00  0.00000000E+00
  0.00000000E+00  0.00000000E+00  0.00000000E+00
  0.00000000E+00  0.00000000E+00  0.00000000E+00
  0.00000000E+00  0.00000000E+00  0.00000000E+00
  0.00000000E+00  0.00000000E+00  0.00000000E+00
  0.00000000E+00  0.00000000E+00  0.00000000E+00
  0.00000000E+00  0.00000000E+00  0.00000000E+00
  0.00000000E+00  0.00000000E+00  0.00000000E+00
  0.00000000E+00  0.00000000E+00  0.00000000E+00
  0.00000000E+00  0.00000000E+00  0.00000000E+00
  0.00000000E+00  0.00000000E+00  0.00000000E+00
  0.00000000E+00  0.00000000E+00  0.00000000E+00
  0.00000000E+00  0.00000000E+00  0.00000000E+00
  0.00000000E+00  0.00000000E+00  0.00000000E+00
  0.00000000E+00  0.00000000E+00  0.00000000E+00
  0.00000000E+00  0.00000000E+00  0.00000000E+00
  0.00000000E+00  0.00000000E+00  0.00000000E+00
  0.00000000E+00  0.00000000E+00  0.00000000E+00
  0.00000000E+00  0.00000000E+00  0.00000000E+00
  0.00000000E+00  0.00000000E+00  0.00000000E+00
  0.00000000E+00  0.00000000E+00  0.00000000E+00
  0.00000000E+00  0.00000000E+00  0.00000000E+00
  0.00000000E+00  0.00000000E+00  0.00000000E+00
  0.00000000E+00  0.00000000E+00  0.00000000E+00
  0.00000000E+00  0.00000000E+00  0.00000000E+00
  0.00000000E+00  0.00000000E+00  0.00000000E+00
  0.00000000E+00  0.00000000E+00  0.00000000E+00
  0.00000000E+00  0.00000000E+00  0.00000000E+00
  0.00000000E+00  0.00000000E+00  0.00000000E+00
  0.00000000E+00  0.00000000E+00  0.00000000E+00
  0.00000000E+00  0.00000000E+00  0.00000000E+00
  0.00000000E+00  0.00000000E+00  0.00000000E+00
  0.00000000E+00  0.00000000E+00  0.00000000E+00
  0.00000000E+00  0.00000000E+00  0.00000000E+00
  0.00000000E+00  0.00000000E+00  0.00000000E+00
  0.00000000E+00  0.00000000E+00  0.00000000E+00
  0.00000000E+00  0.00000000E+00  0.00000000E+00
  0.00000000E+00  0.00000000E+00  0.00000000E+00
  0.00000000E+00  0.00000000E+00  0.00000000E+00
  0.00000000E+00  0.00000000E+00  0.00000000E+00
  0.00000000E+00  0.00000000E+00  0.00000000E+00
  0.00000000E+00  0.00000000E+00  0.00000000E+00
  0.00000000E+00  0.00000000E+00  0.00000000E+00
  0.00000000E+00  0.00000000E+00  0.00000000E+00
  0.00000000E+00  0.00000000E+00  0.00000000E+00
  0.00000000E+00  0.00000000E+00  0.00000000E+00
  0.00000000E+00  0.00000000E+00  0.00000000E+00
  0.00000000E+00  0.00000000E+00  0.00000000E+00
  0.00000000E+00  0.00000000E+00  0.00000000E+00
  0.00000000E+00  0.00000000E+00  0.00000000E+00
  0.00000000E+00  0.00000000E+00  0.00000000E+00
  0.00000000E+00  0.00000000E+00  0.00000000E+00
  0.00000000E+00  0.00000000E+00  0.00000000E+00
  0.00000000E+00  0.00000000E+00  0.00000000E+00
  0.00000000E+00  0.00000000E+00  0.00000000E+00
  0.00000000E+00  0.00000000E+00  0.00000000E+00
  0.00000000E+00  0.00000000E+00  0.00000000E+00
  0.00000000E+00  0.00000000E+00  0.00000000E+00
  0.00000000E+00  0.00000000E+00  0.00000000E+00
  0.00000000E+00  0.00000000E+00  0.00000000E+00
  0.00000000E+00  0.00000000E+00  0.00000000E+00
  0.00000000E+00  0.00000000E+00  0.00000000E+00
  0.00000000E+00  0.00000000E+00  0.00000000E+00
  0.00000000E+00  0.00000000E+00  0.00000000E+00
  0.00000000E+00  0.00000000E+00  0.00000000E+00
  0.00000000E+00  0.00000000E+00  0.00000000E+00
  0.00000000E+00  0.00000000E+00  0.00000000E+00
  0.00000000E+00  0.00000000E+00  0.00000000E+00
  0.00000000E+00  0.00000000E+00  0.00000000E+00
  0.00000000E+00  0.00000000E+00  0.00000000E+00
  0.00000000E+00  0.00000000E+00  0.00000000E+00
  0.00000000E+00  0.00000000E+00  0.00000000E+00
  0.00000000E+00  0.00000000E+00  0.00000000E+00
  0.00000000E+00  0.00000000E+00  0.00000000E+00
  0.00000000E+00  0.00000000E+00  0.00000000E+00
