Li61 P7 N32                             
   1.00000000000000     
    -0.0044988425213329    9.5775680748673437    0.0256131295758404
    -0.0211556338483924    0.0255574413238659    9.5793629705045422
     9.5504983589782793   -0.0045123312426050   -0.0211489612256249
   Li   P    N 
    61     7    32
Direct
  0.4892083822048638 -0.0050688818203866  0.5074770601994394
  0.0075585452768307  0.4979778949948740  0.0046892333446237
  0.4992419517177993 -0.0061455098540756  0.0069776301132154
 -0.0045619135632674 -0.0019928933107180  0.5034547322572815
  0.5083929969241003  0.4962052969377449  0.0120583150583444
 -0.0000938202998066  0.4972558234159348  0.4976893099896661
  0.7482556347419946  0.0184325819435841  0.5162377900277473
  0.2419486342172205 -0.0089590220229791  0.5033177874738065
  0.7803137062768888  0.5378487939808747  0.5232560821002772
  0.2237547479349992  0.4925447877854592  0.5028859385014854
  0.2611666825384605 -0.0016058457713295  0.0013502538814548
  0.7369465103478925 -0.0013372851766473  0.0186177820315119
  0.5784860993570144  0.5774397416491901  0.4292806751239185
  0.5172271733105113  0.2384437739104984 -0.0130091629522132
  0.5090885759168665  0.7489831424339035  0.0220103710504454
  0.0129321622375661  0.5003555754816296  0.2518096386163625
  0.0123165205954253  0.4877147829910989  0.7542166242973715
  0.2164298571487369  0.2386950371401355  0.2290391790474630
  0.2044221898090642  0.7894005031531525  0.7585781923477385
  0.2167423237410399  0.2964105414256272  0.7214230832279659
  0.2553354862737411  0.7368766362505078  0.2712424181416014
  0.7121033710024437  0.2681366096248721  0.2427770653169835
  0.7099097582336584  0.7796744133864835  0.6930365042201404
  0.7192872024860720  0.2281277670174501  0.7624522465673024
  0.7621452443364034  0.7656406640112179  0.2181495803053189
  0.9690564811598310  0.2543126962176271  0.2414085477482426
  0.9505648346885837  0.7232249225563206  0.7566517679213050
  0.2649383600579908  0.2359589465495312  0.4895581084279425
  0.2517654440561557  0.7422053793258657  0.5067788745421563
  0.7670163498904246  0.2873308118158873  0.4746439104483354
  0.7448620732889782  0.7779829327836894  0.4617208203832517
  0.7646456558613528  0.5056127289548641  0.2677701872131290
  0.7872767115700803  0.4587507286025127  0.7463353644985488
  0.2644135098770993  0.5036806877970491  0.2555488603969973
  0.2390518398179369  0.5325446660068485  0.7497560333738951
  0.4881357271700349  0.7531308320835344  0.2748525744547378
  0.4494996906064732  0.2192931097932241  0.7065000825915466
  0.2422911053436221  0.9888464620280235  0.2486151682663424
  0.2365755520488714  0.0342580843305322  0.7506209223614826
  0.2687193920423950  0.2393547522065271  0.9712058332318972
  0.2589400773355779  0.7582909286296738  0.0187689937889212
  0.7561484302884764  0.9910589115221873  0.7729173906458341
  0.7606716709596790  0.0223803277177775  0.2669748096647762
  0.7624230044110328  0.7608793668352677  0.9760391044811993
  0.7718516665410490  0.2397747102303254  0.0057698294025261
 -0.0201871006030918  0.2197957443156091  0.7535724924657434
  0.0103477713324922  0.7552605435303836  0.2436797679737470
  0.4710536307347801  0.2566360290910851  0.2287399260941441
  0.4588262074247766  0.7389258330839130  0.7758407455144916
  0.0165027792944375  0.2598317618743489 -0.0022383662448715
  0.0107112431382651  0.7352485834849553  0.0009057260941019
  0.5319180388520877  0.2122985610780608  0.4666748683272873
  0.4977849871852557  0.7717079720815162  0.5199290067418967
  0.5131501603899149  0.5010687505636005  0.2313638854901814
  0.4563754403305098  0.4425784797782734  0.7985794077322159
  0.0011805866423087  0.0029469975887978  0.2664869989826972
 -0.0037063339989954 -0.0213218240358068  0.7422445743452413
  0.4216455178783019  0.4162278134890754  0.4262325089778659
  0.4225263667711232  0.5737893409370252  0.5920644724743410
  0.5800035489287326  0.4170873522198463  0.5913835402320033
  0.6416557674540314  0.6024675455565295  0.8223956575838473
 -0.0004279531535998 -0.0030091284741831  0.0046069525705090
  0.7625513053093265  0.4950343531183166  0.0076914495539871
  0.2543489333717476  0.4991387299891502  0.0047417061089665
 -0.0027324509727071  0.7516658045997452  0.5022368371863221
  0.0042778366063406  0.2449307742553960  0.5006609035464163
  0.4997154094883505  0.0009009992609649  0.2522774696871307
  0.4951461379816877 -0.0115722069320122  0.7610470893659911
  0.6182098256678198  0.6203343801967018  0.6244279745911423
  0.6176202978615599  0.3834385710066018  0.3792299056846048
  0.8987214685022014  0.8935709119325852  0.1067705343061839
  0.8935925181689653  0.0968878637597774  0.9015471587197488
  0.1024607268581769  0.8965101171875860  0.9018190778762410
  0.1013058022773648  0.1005944895062576  0.1057515900114487
  0.3801881191407444  0.6186843523129194  0.3900151766211332
  0.3706102519862103  0.3807356966739894  0.6216022042816322
  0.1001218743611732  0.3443861562863600  0.3915456729862563
  0.0925041516602161  0.6497242906010966  0.6141447164072279
  0.1057485393318080  0.1438630920641635  0.6042766121120425
  0.1052691502292545  0.8513710831325276  0.4044439543396800
  0.8940359570607036  0.1461685816936890  0.4027621561513561
  0.8872429873194897  0.8529180727263962  0.6003218603519682
  0.8608868098039986  0.3942701565250863  0.1116925945907961
  0.8589461825361925  0.5909639631913616  0.8951893708256092
  0.1537337530230313  0.6007297639163578  0.1104522123235960
  0.1543091356705449  0.4032602462419194  0.8951994094546194
  0.3998493187755461  0.8917101666757062  0.1530763336978176
  0.4000795823568081  0.0984949888509978  0.8624380986877641
  0.3895828798154119  0.0999782370491792  0.3517132019619344
  0.3809612523618221  0.8961842664287848  0.6599305970225915
  0.3543260167316457  0.3882526585259913  0.1015329993850139
  0.3591106510315194  0.6053125197826407  0.9085239915936945
  0.6021671980240868  0.0854916288035534  0.6590430354410478
  0.6081302502676790  0.9042461098886694  0.3556875190932438
  0.6615704804677563  0.6079787681175950  0.0987024310971723
  0.6585281733869830  0.3908619453793137  0.9042231562347373
  0.9053956951533760  0.3502016337220651  0.6110302244355349
  0.9011819558640876  0.6516444908452164  0.3901858011771275
  0.5998958988296924  0.1053198019464874  0.1505764070095463
  0.5983106653058954  0.8807262690084634  0.8590038865909075
 
  0.00000000E+00  0.00000000E+00  0.00000000E+00
  0.00000000E+00  0.00000000E+00  0.00000000E+00
  0.00000000E+00  0.00000000E+00  0.00000000E+00
  0.00000000E+00  0.00000000E+00  0.00000000E+00
  0.00000000E+00  0.00000000E+00  0.00000000E+00
  0.00000000E+00  0.00000000E+00  0.00000000E+00
  0.00000000E+00  0.00000000E+00  0.00000000E+00
  0.00000000E+00  0.00000000E+00  0.00000000E+00
  0.00000000E+00  0.00000000E+00  0.00000000E+00
  0.00000000E+00  0.00000000E+00  0.00000000E+00
  0.00000000E+00  0.00000000E+00  0.00000000E+00
  0.00000000E+00  0.00000000E+00  0.00000000E+00
  0.00000000E+00  0.00000000E+00  0.00000000E+00
  0.00000000E+00  0.00000000E+00  0.00000000E+00
  0.00000000E+00  0.00000000E+00  0.00000000E+00
  0.00000000E+00  0.00000000E+00  0.00000000E+00
  0.00000000E+00  0.00000000E+00  0.00000000E+00
  0.00000000E+00  0.00000000E+00  0.00000000E+00
  0.00000000E+00  0.00000000E+00  0.00000000E+00
  0.00000000E+00  0.00000000E+00  0.00000000E+00
  0.00000000E+00  0.00000000E+00  0.00000000E+00
  0.00000000E+00  0.00000000E+00  0.00000000E+00
  0.00000000E+00  0.00000000E+00  0.00000000E+00
  0.00000000E+00  0.00000000E+00  0.00000000E+00
  0.00000000E+00  0.00000000E+00  0.00000000E+00
  0.00000000E+00  0.00000000E+00  0.00000000E+00
  0.00000000E+00  0.00000000E+00  0.00000000E+00
  0.00000000E+00  0.00000000E+00  0.00000000E+00
  0.00000000E+00  0.00000000E+00  0.00000000E+00
  0.00000000E+00  0.00000000E+00  0.00000000E+00
  0.00000000E+00  0.00000000E+00  0.00000000E+00
  0.00000000E+00  0.00000000E+00  0.00000000E+00
  0.00000000E+00  0.00000000E+00  0.00000000E+00
  0.00000000E+00  0.00000000E+00  0.00000000E+00
  0.00000000E+00  0.00000000E+00  0.00000000E+00
  0.00000000E+00  0.00000000E+00  0.00000000E+00
  0.00000000E+00  0.00000000E+00  0.00000000E+00
  0.00000000E+00  0.00000000E+00  0.00000000E+00
  0.00000000E+00  0.00000000E+00  0.00000000E+00
  0.00000000E+00  0.00000000E+00  0.00000000E+00
  0.00000000E+00  0.00000000E+00  0.00000000E+00
  0.00000000E+00  0.00000000E+00  0.00000000E+00
  0.00000000E+00  0.00000000E+00  0.00000000E+00
  0.00000000E+00  0.00000000E+00  0.00000000E+00
  0.00000000E+00  0.00000000E+00  0.00000000E+00
  0.00000000E+00  0.00000000E+00  0.00000000E+00
  0.00000000E+00  0.00000000E+00  0.00000000E+00
  0.00000000E+00  0.00000000E+00  0.00000000E+00
  0.00000000E+00  0.00000000E+00  0.00000000E+00
  0.00000000E+00  0.00000000E+00  0.00000000E+00
  0.00000000E+00  0.00000000E+00  0.00000000E+00
  0.00000000E+00  0.00000000E+00  0.00000000E+00
  0.00000000E+00  0.00000000E+00  0.00000000E+00
  0.00000000E+00  0.00000000E+00  0.00000000E+00
  0.00000000E+00  0.00000000E+00  0.00000000E+00
  0.00000000E+00  0.00000000E+00  0.00000000E+00
  0.00000000E+00  0.00000000E+00  0.00000000E+00
  0.00000000E+00  0.00000000E+00  0.00000000E+00
  0.00000000E+00  0.00000000E+00  0.00000000E+00
  0.00000000E+00  0.00000000E+00  0.00000000E+00
  0.00000000E+00  0.00000000E+00  0.00000000E+00
  0.00000000E+00  0.00000000E+00  0.00000000E+00
  0.00000000E+00  0.00000000E+00  0.00000000E+00
  0.00000000E+00  0.00000000E+00  0.00000000E+00
  0.00000000E+00  0.00000000E+00  0.00000000E+00
  0.00000000E+00  0.00000000E+00  0.00000000E+00
  0.00000000E+00  0.00000000E+00  0.00000000E+00
  0.00000000E+00  0.00000000E+00  0.00000000E+00
  0.00000000E+00  0.00000000E+00  0.00000000E+00
  0.00000000E+00  0.00000000E+00  0.00000000E+00
  0.00000000E+00  0.00000000E+00  0.00000000E+00
  0.00000000E+00  0.00000000E+00  0.00000000E+00
  0.00000000E+00  0.00000000E+00  0.00000000E+00
  0.00000000E+00  0.00000000E+00  0.00000000E+00
  0.00000000E+00  0.00000000E+00  0.00000000E+00
  0.00000000E+00  0.00000000E+00  0.00000000E+00
  0.00000000E+00  0.00000000E+00  0.00000000E+00
  0.00000000E+00  0.00000000E+00  0.00000000E+00
  0.00000000E+00  0.00000000E+00  0.00000000E+00
  0.00000000E+00  0.00000000E+00  0.00000000E+00
  0.00000000E+00  0.00000000E+00  0.00000000E+00
  0.00000000E+00  0.00000000E+00  0.00000000E+00
  0.00000000E+00  0.00000000E+00  0.00000000E+00
  0.00000000E+00  0.00000000E+00  0.00000000E+00
  0.00000000E+00  0.00000000E+00  0.00000000E+00
  0.00000000E+00  0.00000000E+00  0.00000000E+00
  0.00000000E+00  0.00000000E+00  0.00000000E+00
  0.00000000E+00  0.00000000E+00  0.00000000E+00
  0.00000000E+00  0.00000000E+00  0.00000000E+00
  0.00000000E+00  0.00000000E+00  0.00000000E+00
  0.00000000E+00  0.00000000E+00  0.00000000E+00
  0.00000000E+00  0.00000000E+00  0.00000000E+00
  0.00000000E+00  0.00000000E+00  0.00000000E+00
  0.00000000E+00  0.00000000E+00  0.00000000E+00
  0.00000000E+00  0.00000000E+00  0.00000000E+00
  0.00000000E+00  0.00000000E+00  0.00000000E+00
  0.00000000E+00  0.00000000E+00  0.00000000E+00
  0.00000000E+00  0.00000000E+00  0.00000000E+00
  0.00000000E+00  0.00000000E+00  0.00000000E+00
  0.00000000E+00  0.00000000E+00  0.00000000E+00
