Li5 P2 N1 O6                            
   1.00000000000000     
    -0.2783971784103543    0.9375012383226021    5.1635493213430728
     5.8932175152480744    0.7571046497000232   -0.3539512073168321
     0.6314330098731118    5.0478661095412978    1.0299714442516306
   Li   P    N    O 
     5     2     1     6
Direct
  0.5294301942701395 -0.0602167225486372  0.7498697272773892
  0.6783041513691673  0.3556816824143161  0.3222765669868622
  0.4598903772601813  0.7565684111655898  0.3122809168464535
  0.0064137650677030  0.7284801745844426  0.7665880322006775
  0.0622514015015054  0.3036047812202154  0.6188562297199823
  0.4719307651274508  0.4388376279951403  0.8887766991697872
  0.0248756325400606  0.0067961124521231  0.1765380070880975
  0.6113214498514753  0.6057188664616606  0.0101869064690725
  0.2013144684301788  0.2456075245509701  0.1843170695414178
  0.0936503655452329  0.8001741712545982  0.3563410218175489
  0.6552967173360380  0.2805036568906081  0.7268223760610589
  0.1222147571826593  0.0109525894482823  0.8571979992699402
  0.3081996025690047  0.5402145047937608  0.7021736187123016
  0.7173333519492351  0.0270656193169266  0.3148498288394219
 
  0.00000000E+00  0.00000000E+00  0.00000000E+00
  0.00000000E+00  0.00000000E+00  0.00000000E+00
  0.00000000E+00  0.00000000E+00  0.00000000E+00
  0.00000000E+00  0.00000000E+00  0.00000000E+00
  0.00000000E+00  0.00000000E+00  0.00000000E+00
  0.00000000E+00  0.00000000E+00  0.00000000E+00
  0.00000000E+00  0.00000000E+00  0.00000000E+00
  0.00000000E+00  0.00000000E+00  0.00000000E+00
  0.00000000E+00  0.00000000E+00  0.00000000E+00
  0.00000000E+00  0.00000000E+00  0.00000000E+00
  0.00000000E+00  0.00000000E+00  0.00000000E+00
  0.00000000E+00  0.00000000E+00  0.00000000E+00
  0.00000000E+00  0.00000000E+00  0.00000000E+00
  0.00000000E+00  0.00000000E+00  0.00000000E+00
