Li61 P7 N32                             
   1.00000000000000     
    -0.0290031413552045    9.5987007940615108    0.0161537386786590
     0.0286707519871660    0.0161561694960135    9.5980292453560558
     9.6128119931664529   -0.0291431019460714    0.0285942847852068
   Li   P    N 
    61     7    32
Direct
  0.5028220477033670  0.9963102785646294  0.4979489453344679
  0.9902440377492248  0.4811517941903812  0.9865184600131623
  0.4967428043965116 -0.0039312593876712  0.9992594043653903
  0.9977366388469739  0.9922599998166528  0.4955380325623993
  0.4871149958253121  0.4994372390680564  0.0019373862674832
  0.9954055834049103  0.4904451112314516  0.4946065134486531
  0.7507869741480085  0.9884362331889812  0.5108657981653792
  0.2426514389233314  0.0188444891486429  0.4812005454673577
  0.7734086606257390  0.4896760730359216  0.5025612424062251
  0.2172549113336353  0.5282429319381371  0.4734231343756220
  0.2561089642236141  0.0014860457677386  0.9801836598739475
  0.7347594016126729  0.9927841114874231  0.0119153702731775
  0.5778707537040173  0.5762258132580687  0.4202139386955367
  0.4689931003482115  0.2411114458462244  0.0202676218342575
  0.4923398678558132  0.7480901009806358  0.9879434508657140
  0.0124307948511575  0.4651358853965382  0.2419275334902460
  0.9823541256369768  0.5033153852301895  0.7415662876648283
  0.2646047532071117  0.2650892158056328  0.2706670576059600
  0.2621008875875704  0.7821344376727090  0.7998895944218829
  0.2962074915556664  0.2800188431291006  0.7800685556766668
  0.2902603231669322  0.7841254846624413  0.3098516293953742
  0.7762398510391497  0.2907654894170465  0.2810255290933060
  0.7624338071819912  0.7221152334756583  0.7220396887726080
  0.7841746156321703  0.2282074801934638  0.7708167421843490
  0.7664142964719241  0.7986486140391832  0.2440948127796346
  0.0145023941915832  0.2051512801225011  0.2539304099866536
  0.0121195985813506  0.7682602059320297  0.7384500028325949
  0.2264051446112373  0.2843349929231335  0.5439570051272465
  0.2473987433994721  0.7747015857554994  0.5429659784743328
  0.7295417451991587  0.2354085898443325  0.5108571197037121
  0.7439257596336371  0.7420514247126138  0.4910677515460676
  0.7479648731297773  0.5119169074257968  0.2589179108375992
  0.7323362098331531  0.4945224799986565  0.7500524812104209
  0.2720808106108833  0.5387945178126994  0.2330035776714492
  0.2298939523729605  0.5134393893339683  0.7327819133533635
  0.5114437835514610  0.7317443055767742  0.2331608230523071
  0.5309203315124691  0.2505723723177504  0.7766672020144373
  0.2434592117488991  0.0101251250760413  0.2227161922992916
  0.2356539106269331  0.0308233342083653  0.7311738418759706
  0.2084922022213369  0.2457277265967457  0.0162512324519536
  0.2551355716283585  0.7548997335599885  0.0477682616043955
  0.7506023265649013  0.9821863219924243  0.7640237489551500
  0.7511953388947424  0.0432672956640988  0.2727062911762060
  0.7343378082505749  0.7582811273907877  0.9646336415829732
  0.7156331666463519  0.2371021560895724  0.0345854229677639
  0.0356339321152591  0.2598530561225846  0.7601981717504618
  0.0554977371905598  0.7235019007353926  0.2446218270813079
  0.5361359435096592  0.2320736145879584  0.2849933309907086
  0.5227463560998895  0.7501650324521515  0.7308622832388542
  0.9638573774680271  0.2430023880057646  0.0086004241738001
  0.0154843327229405  0.7317425704042667  0.9721003665915146
  0.4659719718079031  0.2126508207666037  0.5360937200502535
  0.4976134345330455  0.7744211030507304  0.4877875733805986
  0.5105147854272332  0.4767891908651620  0.2218512675209589
  0.4821618685771258  0.4978675657459236  0.7790387412680991
 -0.0015564813249164  0.9637069701792618  0.2515548148303878
  0.9926119714461663  0.0084298247296935  0.7333670219524644
  0.4193435816505597  0.4179236709461949  0.4246539487980113
  0.4188614541308143  0.5810261773888802  0.5786306288201518
  0.5767129572853252  0.4160432711123647  0.5818105839224207
  0.8825512058517720  0.6470501708512836  0.1209291198429944
  0.9941722405262449  0.9865657897184024  0.9924736008395315
  0.7402620699863552  0.4927415781215107  0.9973021025351991
  0.2349395087669054  0.4980598348500914  0.9944543101988389
  0.9976571608732174  0.7457936128035993  0.4910512134420200
  0.9902003955430797  0.2390866805376053  0.5031630997314597
  0.4987267135853669  0.9931842776826554  0.2452546500671509
  0.4965998513770311  0.9975957930741974  0.7535832495469459
  0.6224202183564269  0.6159525638725919  0.6149102585435473
  0.6241895636683308  0.3825278093501606  0.3825476462403360
  0.8993398945090088  0.8727184597975444  0.0903521804371605
  0.8866244563352306  0.0892299150453420  0.8970856102479937
  0.1018173064900600  0.8969920572923119  0.8857411819502166
  0.0910768963366426  0.0890198701457612  0.0987239614919235
  0.3837011776255083  0.6210855126213398  0.3789719313011048
  0.3797779517523285  0.3842039792072195  0.6272248886853408
  0.0918387499760108  0.3375487268756390  0.3943728413973138
  0.0924097449880071  0.6422049899276271  0.6004042081995277
  0.0972750480841915  0.1386640066311347  0.6014910724757525
  0.1085863906505354  0.8490619156890304  0.3995962312698264
  0.8851250288012106  0.1402880677294700  0.4013530526069231
  0.8916826828792175  0.8445843034806937  0.5916915433115693
  0.8437720376329504  0.3986062852992940  0.1066553701438852
  0.8438721178303256  0.5921785015240387  0.8939298271117249
  0.1269394720466502  0.5937721282941260  0.0972089127048177
  0.1416238123759757  0.3950190997506398  0.8872059888990421
  0.3958154097664726  0.8895491708665334  0.1465334984453682
  0.3981000376796505  0.1042048122733491  0.8523658341775256
  0.3928193934401693  0.0938545497787481  0.3458555288100369
  0.3901026281143593  0.8996068104548972  0.6505956396680352
  0.3346842383712855  0.3927832814006853  0.0993001952841186
  0.3370231070732587  0.6099105566872493  0.9051087867587621
  0.6076535195296010  0.0943256227541105  0.6540302757124007
  0.6092617162047034  0.8971540184614745  0.3470366610914621
  0.6473512703585039  0.6070119128588035  0.0962327569807243
  0.6374869386259253  0.3869220511233399  0.9037211236340399
  0.8956914075536767  0.3418086792763487  0.6106049813245578
  0.9016827420539215  0.6483728122215227  0.3762610376583679
  0.5973477886391105  0.0990803341966172  0.1448771044433909
  0.5948778728599642  0.8896119508890454  0.8561670746615881
 
  0.00000000E+00  0.00000000E+00  0.00000000E+00
  0.00000000E+00  0.00000000E+00  0.00000000E+00
  0.00000000E+00  0.00000000E+00  0.00000000E+00
  0.00000000E+00  0.00000000E+00  0.00000000E+00
  0.00000000E+00  0.00000000E+00  0.00000000E+00
  0.00000000E+00  0.00000000E+00  0.00000000E+00
  0.00000000E+00  0.00000000E+00  0.00000000E+00
  0.00000000E+00  0.00000000E+00  0.00000000E+00
  0.00000000E+00  0.00000000E+00  0.00000000E+00
  0.00000000E+00  0.00000000E+00  0.00000000E+00
  0.00000000E+00  0.00000000E+00  0.00000000E+00
  0.00000000E+00  0.00000000E+00  0.00000000E+00
  0.00000000E+00  0.00000000E+00  0.00000000E+00
  0.00000000E+00  0.00000000E+00  0.00000000E+00
  0.00000000E+00  0.00000000E+00  0.00000000E+00
  0.00000000E+00  0.00000000E+00  0.00000000E+00
  0.00000000E+00  0.00000000E+00  0.00000000E+00
  0.00000000E+00  0.00000000E+00  0.00000000E+00
  0.00000000E+00  0.00000000E+00  0.00000000E+00
  0.00000000E+00  0.00000000E+00  0.00000000E+00
  0.00000000E+00  0.00000000E+00  0.00000000E+00
  0.00000000E+00  0.00000000E+00  0.00000000E+00
  0.00000000E+00  0.00000000E+00  0.00000000E+00
  0.00000000E+00  0.00000000E+00  0.00000000E+00
  0.00000000E+00  0.00000000E+00  0.00000000E+00
  0.00000000E+00  0.00000000E+00  0.00000000E+00
  0.00000000E+00  0.00000000E+00  0.00000000E+00
  0.00000000E+00  0.00000000E+00  0.00000000E+00
  0.00000000E+00  0.00000000E+00  0.00000000E+00
  0.00000000E+00  0.00000000E+00  0.00000000E+00
  0.00000000E+00  0.00000000E+00  0.00000000E+00
  0.00000000E+00  0.00000000E+00  0.00000000E+00
  0.00000000E+00  0.00000000E+00  0.00000000E+00
  0.00000000E+00  0.00000000E+00  0.00000000E+00
  0.00000000E+00  0.00000000E+00  0.00000000E+00
  0.00000000E+00  0.00000000E+00  0.00000000E+00
  0.00000000E+00  0.00000000E+00  0.00000000E+00
  0.00000000E+00  0.00000000E+00  0.00000000E+00
  0.00000000E+00  0.00000000E+00  0.00000000E+00
  0.00000000E+00  0.00000000E+00  0.00000000E+00
  0.00000000E+00  0.00000000E+00  0.00000000E+00
  0.00000000E+00  0.00000000E+00  0.00000000E+00
  0.00000000E+00  0.00000000E+00  0.00000000E+00
  0.00000000E+00  0.00000000E+00  0.00000000E+00
  0.00000000E+00  0.00000000E+00  0.00000000E+00
  0.00000000E+00  0.00000000E+00  0.00000000E+00
  0.00000000E+00  0.00000000E+00  0.00000000E+00
  0.00000000E+00  0.00000000E+00  0.00000000E+00
  0.00000000E+00  0.00000000E+00  0.00000000E+00
  0.00000000E+00  0.00000000E+00  0.00000000E+00
  0.00000000E+00  0.00000000E+00  0.00000000E+00
  0.00000000E+00  0.00000000E+00  0.00000000E+00
  0.00000000E+00  0.00000000E+00  0.00000000E+00
  0.00000000E+00  0.00000000E+00  0.00000000E+00
  0.00000000E+00  0.00000000E+00  0.00000000E+00
  0.00000000E+00  0.00000000E+00  0.00000000E+00
  0.00000000E+00  0.00000000E+00  0.00000000E+00
  0.00000000E+00  0.00000000E+00  0.00000000E+00
  0.00000000E+00  0.00000000E+00  0.00000000E+00
  0.00000000E+00  0.00000000E+00  0.00000000E+00
  0.00000000E+00  0.00000000E+00  0.00000000E+00
  0.00000000E+00  0.00000000E+00  0.00000000E+00
  0.00000000E+00  0.00000000E+00  0.00000000E+00
  0.00000000E+00  0.00000000E+00  0.00000000E+00
  0.00000000E+00  0.00000000E+00  0.00000000E+00
  0.00000000E+00  0.00000000E+00  0.00000000E+00
  0.00000000E+00  0.00000000E+00  0.00000000E+00
  0.00000000E+00  0.00000000E+00  0.00000000E+00
  0.00000000E+00  0.00000000E+00  0.00000000E+00
  0.00000000E+00  0.00000000E+00  0.00000000E+00
  0.00000000E+00  0.00000000E+00  0.00000000E+00
  0.00000000E+00  0.00000000E+00  0.00000000E+00
  0.00000000E+00  0.00000000E+00  0.00000000E+00
  0.00000000E+00  0.00000000E+00  0.00000000E+00
  0.00000000E+00  0.00000000E+00  0.00000000E+00
  0.00000000E+00  0.00000000E+00  0.00000000E+00
  0.00000000E+00  0.00000000E+00  0.00000000E+00
  0.00000000E+00  0.00000000E+00  0.00000000E+00
  0.00000000E+00  0.00000000E+00  0.00000000E+00
  0.00000000E+00  0.00000000E+00  0.00000000E+00
  0.00000000E+00  0.00000000E+00  0.00000000E+00
  0.00000000E+00  0.00000000E+00  0.00000000E+00
  0.00000000E+00  0.00000000E+00  0.00000000E+00
  0.00000000E+00  0.00000000E+00  0.00000000E+00
  0.00000000E+00  0.00000000E+00  0.00000000E+00
  0.00000000E+00  0.00000000E+00  0.00000000E+00
  0.00000000E+00  0.00000000E+00  0.00000000E+00
  0.00000000E+00  0.00000000E+00  0.00000000E+00
  0.00000000E+00  0.00000000E+00  0.00000000E+00
  0.00000000E+00  0.00000000E+00  0.00000000E+00
  0.00000000E+00  0.00000000E+00  0.00000000E+00
  0.00000000E+00  0.00000000E+00  0.00000000E+00
  0.00000000E+00  0.00000000E+00  0.00000000E+00
  0.00000000E+00  0.00000000E+00  0.00000000E+00
  0.00000000E+00  0.00000000E+00  0.00000000E+00
  0.00000000E+00  0.00000000E+00  0.00000000E+00
  0.00000000E+00  0.00000000E+00  0.00000000E+00
  0.00000000E+00  0.00000000E+00  0.00000000E+00
  0.00000000E+00  0.00000000E+00  0.00000000E+00
  0.00000000E+00  0.00000000E+00  0.00000000E+00
