Li12 P28                                
   1.00000000000000     
     7.5452079999999997    0.0000000000000000    0.0000000000000000
     0.0000000000000000    9.7498729999999991    0.0000000000000000
     0.0000000000000000    0.0000000000000000   10.4634610000000006
   Li   P 
    12    28
Direct
  0.8501850000000033  0.3073819999999969  0.8162120000000002
  0.3501850000000033  0.1926180000000031  0.1837879999999998
  0.1498149999999967  0.8073819999999969  0.6837879999999998
  0.6498149999999967  0.6926180000000031  0.3162120000000002
  0.5686979999999977  0.0262799999999999  0.0150390000000016
  0.0686979999999977  0.4737200000000001  0.9849609999999984
  0.4313020000000023  0.5262799999999999  0.4849609999999984
  0.9313020000000023  0.9737200000000001  0.5150390000000016
  0.4019180000000020  0.3011229999999969  0.6910239999999988
  0.9019180000000020  0.1988770000000031  0.3089760000000012
  0.5980819999999980  0.8011229999999969  0.8089760000000012
  0.0980819999999980  0.6988770000000031  0.1910239999999988
  0.2805669999999978  0.8750629999999973  0.3184309999999968
  0.7805669999999978  0.6249370000000027  0.6815690000000032
  0.7194330000000022  0.3750629999999973  0.1815690000000032
  0.2194330000000022  0.1249370000000027  0.8184309999999968
  0.6375349999999997  0.0479950000000002  0.3877099999999984
  0.1375349999999997  0.4520049999999998  0.6122900000000016
  0.3624650000000003  0.5479950000000002  0.1122900000000016
  0.8624650000000003  0.9520049999999998  0.8877099999999984
  0.5335350000000005  0.9426709999999972  0.5656419999999969
  0.0335350000000005  0.5573290000000028  0.4343580000000031
  0.4664649999999995  0.4426709999999972  0.9343580000000031
  0.9664649999999995  0.0573290000000028  0.0656419999999969
  0.4056250000000006  0.1338620000000006  0.4948600000000027
  0.9056250000000006  0.3661379999999994  0.5051399999999973
  0.5943749999999994  0.6338620000000006  0.0051399999999973
  0.0943749999999994  0.8661379999999994  0.9948600000000027
  0.3167199999999966  0.9275560000000027  0.8811740000000015
  0.8167199999999966  0.5724439999999973  0.1188259999999985
  0.6832800000000034  0.4275560000000027  0.6188259999999985
  0.1832800000000034  0.0724439999999973  0.3811740000000015
  0.1290460000000024  0.2187169999999981  0.9945850000000007
  0.6290460000000024  0.2812830000000019  0.0054149999999993
  0.8709539999999976  0.7187169999999981  0.5054149999999993
  0.3709539999999976  0.7812830000000019  0.4945850000000007
  0.9662519999999972  0.0709829999999982  0.7338880000000003
  0.4662519999999972  0.4290170000000018  0.2661119999999997
  0.0337480000000028  0.5709829999999982  0.7661119999999997
  0.5337480000000028  0.9290170000000018  0.2338880000000003
 
  0.00000000E+00  0.00000000E+00  0.00000000E+00
  0.00000000E+00  0.00000000E+00  0.00000000E+00
  0.00000000E+00  0.00000000E+00  0.00000000E+00
  0.00000000E+00  0.00000000E+00  0.00000000E+00
  0.00000000E+00  0.00000000E+00  0.00000000E+00
  0.00000000E+00  0.00000000E+00  0.00000000E+00
  0.00000000E+00  0.00000000E+00  0.00000000E+00
  0.00000000E+00  0.00000000E+00  0.00000000E+00
  0.00000000E+00  0.00000000E+00  0.00000000E+00
  0.00000000E+00  0.00000000E+00  0.00000000E+00
  0.00000000E+00  0.00000000E+00  0.00000000E+00
  0.00000000E+00  0.00000000E+00  0.00000000E+00
  0.00000000E+00  0.00000000E+00  0.00000000E+00
  0.00000000E+00  0.00000000E+00  0.00000000E+00
  0.00000000E+00  0.00000000E+00  0.00000000E+00
  0.00000000E+00  0.00000000E+00  0.00000000E+00
  0.00000000E+00  0.00000000E+00  0.00000000E+00
  0.00000000E+00  0.00000000E+00  0.00000000E+00
  0.00000000E+00  0.00000000E+00  0.00000000E+00
  0.00000000E+00  0.00000000E+00  0.00000000E+00
  0.00000000E+00  0.00000000E+00  0.00000000E+00
  0.00000000E+00  0.00000000E+00  0.00000000E+00
  0.00000000E+00  0.00000000E+00  0.00000000E+00
  0.00000000E+00  0.00000000E+00  0.00000000E+00
  0.00000000E+00  0.00000000E+00  0.00000000E+00
  0.00000000E+00  0.00000000E+00  0.00000000E+00
  0.00000000E+00  0.00000000E+00  0.00000000E+00
  0.00000000E+00  0.00000000E+00  0.00000000E+00
  0.00000000E+00  0.00000000E+00  0.00000000E+00
  0.00000000E+00  0.00000000E+00  0.00000000E+00
  0.00000000E+00  0.00000000E+00  0.00000000E+00
  0.00000000E+00  0.00000000E+00  0.00000000E+00
  0.00000000E+00  0.00000000E+00  0.00000000E+00
  0.00000000E+00  0.00000000E+00  0.00000000E+00
  0.00000000E+00  0.00000000E+00  0.00000000E+00
  0.00000000E+00  0.00000000E+00  0.00000000E+00
  0.00000000E+00  0.00000000E+00  0.00000000E+00
  0.00000000E+00  0.00000000E+00  0.00000000E+00
  0.00000000E+00  0.00000000E+00  0.00000000E+00
  0.00000000E+00  0.00000000E+00  0.00000000E+00
