Li61 P7 N32                             
   1.00000000000000     
    -0.0540534202834534    9.6420014845762765    0.0441138393024721
    -0.0086588754345773    0.0444220307155482    9.6305562524973638
     9.5943661380212326   -0.0540337036545402   -0.0081885737949253
   Li   P    N 
    61     7    32
Direct
  0.4983673155847792 -0.0254612312374233  0.4954364717817994
 -0.0012447199185060  0.5131850999929471 -0.0001148230946760
  0.5003139559535077  0.0062357729044802 -0.0042160067254228
 -0.0007856424113819  0.0111143774670972  0.4961396975626612
  0.4997121234382287  0.4977851719718323 -0.0132491111959190
  0.0134032967390150  0.5114991465018307  0.4962665886163861
  0.7509389097000484  0.0163662398843994  0.4815422589427751
  0.2489239226938460  0.0207628887136090  0.4923858416510655
  0.7765193060939319  0.5088817579023229  0.4763145264422411
  0.2580591189979190  0.5381407610210389  0.5331204756477980
  0.2632482030129507 -0.0041893599697462  0.0011230811837560
  0.7447174115775498 -0.0039345743682857 -0.0346928232120635
  0.5700088091444377  0.4312338437077849  0.5691472358000597
  0.5026888061116696  0.2497471350090693 -0.0030219152006666
  0.5418884061038083  0.7736983160052856  0.0378580827666867
 -0.0180782488335192  0.5242689450240967  0.2445194730490715
  0.0171814402891297  0.5202442133753126  0.7502039330011426
  0.2256803956234970  0.2169433193765153  0.2286109309346325
  0.2085572079582829  0.7339029103708919  0.7777550755472808
  0.2954431360624531  0.2128354565257025  0.7013720221191714
  0.2116899817671472  0.7045607757676919  0.2888479815233021
  0.7088289713070266  0.2199566743510654  0.2932528417976267
  0.8378320341996839  0.6640182368476817  0.6576994768480533
  0.7591217237008875  0.1734888904741415  0.7543837558509087
  0.7309539241234523  0.7295718772077185  0.2481290515429919
  0.9529986890752391  0.2822831032182795  0.2479236122527495
 -0.0094090573775078  0.8007423080384938  0.7525362370702705
  0.2459345676643725  0.2776234368167503  0.4930793247505825
  0.2529339257809328  0.7780339299544112  0.5172318838736432
  0.7533335508702235  0.2744189134882342  0.5074389655693864
  0.7246966175362188  0.7747304683795285  0.4853602614858421
  0.7145971248421407  0.4595615858965988  0.2293286155244857
  0.7490182970747142  0.4708842816601595  0.7284376904537821
  0.2255483359925666  0.4723182649130462  0.2647054522198031
  0.2741507799322909  0.4542054586343557  0.7626081397721391
  0.4521387367219595  0.7773333834652433  0.2984596211947206
  0.5164897510078189  0.2578066358443724  0.7522566418138701
  0.2396378834802265  0.9685909927346462  0.2485882128443740
  0.2378128267059404 -0.0079576774089976  0.7579769329669236
  0.2599896543503730  0.2393065751993354  0.9679372260436664
  0.2924668337733891  0.7468574606973362  0.0514613277622835
  0.7336387706833517  0.9225232243134448  0.7059385950498708
  0.7517154987877671 -0.0147706592729254  0.2111574096190884
  0.7935550770907995  0.7504160107736404 -0.0003728493596222
  0.7456757912186669  0.2334294927431029  0.0361067536859224
  0.0631429383156710  0.2761533535494010  0.7474898057502929
 -0.0195037489438795  0.7874313555413971  0.2427351101653742
  0.4821107572022310  0.2688047517620135  0.2404494580339382
  0.4355511191888545  0.7603622175134596  0.8104128163300485
  0.0228247021242318  0.2660646749338698  0.0194511688695350
  0.0394002059971251  0.7559081825703629  0.0053629647969001
  0.4985058439182826  0.2142116562055785  0.4972400107213225
  0.4774180825955664  0.7213032225042121  0.5648568509488303
  0.4641254750514727  0.5310460311604158  0.2140776487861968
  0.4898193970090217  0.5143591992090143  0.7450942777891953
 -0.0028499343438134  0.0286152184992371  0.2584327651402487
 -0.0063741207393761  0.0358092562428805  0.7329843567185558
  0.4173589621347324  0.4291490019069396  0.4258126839734659
  0.5673444970052633  0.5838305986906528  0.4204984461912427
  0.8779533508488965  0.3330195334399287  0.8638277074169319
  0.6656256053328337  0.6976045634452909  0.7989795241103433
  0.0040277518384425  0.0110321734425012 -0.0055039382906494
  0.7523426523817293  0.4982722020834022 -0.0099866058853538
  0.2429378903343242  0.4991009524702877  0.0036830185753880
 -0.0046381473119850  0.7675361805697658  0.4930001652381657
  0.0010727366792716  0.2570302887066107  0.4981632791478098
  0.5007857805576013  0.0060914736009228  0.2412580277438184
  0.4958209000196258 -0.0056646146772734  0.7503475676079631
  0.6432351756693105  0.6150681563373370  0.6158764509163016
  0.6141068325988599  0.3796828795005508  0.3799717061444764
  0.9018194699663360  0.9054331353024839  0.0892485739508674
  0.9025038745259578  0.1226640832200944  0.9006627523688744
  0.0996923599228668  0.9110408643375012  0.8861925892020135
  0.1099386298058881  0.1007667773487319  0.1009713977036004
  0.3688957179077841  0.6235717383156824  0.3852040991958596
  0.3857521599353367  0.3691946446755325  0.6203132034448883
  0.0904616124560355  0.3565117339704955  0.3849920612753714
  0.0859801335683086  0.6709738394438743  0.6116129888635379
  0.1125390837002527  0.1548556293450915  0.5914946794412479
  0.1008960076154510  0.8639026664448871  0.3936072753835800
  0.8884568761906280  0.1604055276683443  0.4032094104542463
  0.8873362287417687  0.8681018037144924  0.5888209043282731
  0.8582879741373924  0.4019392073235629  0.0939352098958111
  0.8494159866073704  0.5920398783630747  0.8770706488418087
  0.1475468494195699  0.6023192194658766  0.1093111156646311
  0.1384203038339669  0.4014201037171256  0.8989580099235926
  0.4033357755210434  0.8990938894510269  0.1399928191673223
  0.3990346287231173  0.1048079169738335  0.8480690211039560
  0.3915057813551958  0.0962509263310379  0.3441969840124617
  0.3848733957265180  0.8936655450535224  0.6550393104809470
  0.3471527515411272  0.3905350375956796  0.0970249889789040
  0.3402445515343856  0.6030966477954766  0.8995661236816295
  0.6054567580785853  0.0815794550513852  0.6476452291475556
  0.6133524964015599  0.9033509956870671  0.3359815325389710
  0.6562804376850542  0.6071606458368286  0.0860305074524241
  0.6564795332836427  0.3827428471617034  0.8958531819911505
  0.9115181221121876  0.3587466310693125  0.6150251472078250
  0.8977980476742637  0.6650358036697613  0.3883378989081069
  0.5991119843722658  0.1126290909618912  0.1426104517384066
  0.5928743179605137  0.8869613705797451  0.8562764389373517
 
  0.00000000E+00  0.00000000E+00  0.00000000E+00
  0.00000000E+00  0.00000000E+00  0.00000000E+00
  0.00000000E+00  0.00000000E+00  0.00000000E+00
  0.00000000E+00  0.00000000E+00  0.00000000E+00
  0.00000000E+00  0.00000000E+00  0.00000000E+00
  0.00000000E+00  0.00000000E+00  0.00000000E+00
  0.00000000E+00  0.00000000E+00  0.00000000E+00
  0.00000000E+00  0.00000000E+00  0.00000000E+00
  0.00000000E+00  0.00000000E+00  0.00000000E+00
  0.00000000E+00  0.00000000E+00  0.00000000E+00
  0.00000000E+00  0.00000000E+00  0.00000000E+00
  0.00000000E+00  0.00000000E+00  0.00000000E+00
  0.00000000E+00  0.00000000E+00  0.00000000E+00
  0.00000000E+00  0.00000000E+00  0.00000000E+00
  0.00000000E+00  0.00000000E+00  0.00000000E+00
  0.00000000E+00  0.00000000E+00  0.00000000E+00
  0.00000000E+00  0.00000000E+00  0.00000000E+00
  0.00000000E+00  0.00000000E+00  0.00000000E+00
  0.00000000E+00  0.00000000E+00  0.00000000E+00
  0.00000000E+00  0.00000000E+00  0.00000000E+00
  0.00000000E+00  0.00000000E+00  0.00000000E+00
  0.00000000E+00  0.00000000E+00  0.00000000E+00
  0.00000000E+00  0.00000000E+00  0.00000000E+00
  0.00000000E+00  0.00000000E+00  0.00000000E+00
  0.00000000E+00  0.00000000E+00  0.00000000E+00
  0.00000000E+00  0.00000000E+00  0.00000000E+00
  0.00000000E+00  0.00000000E+00  0.00000000E+00
  0.00000000E+00  0.00000000E+00  0.00000000E+00
  0.00000000E+00  0.00000000E+00  0.00000000E+00
  0.00000000E+00  0.00000000E+00  0.00000000E+00
  0.00000000E+00  0.00000000E+00  0.00000000E+00
  0.00000000E+00  0.00000000E+00  0.00000000E+00
  0.00000000E+00  0.00000000E+00  0.00000000E+00
  0.00000000E+00  0.00000000E+00  0.00000000E+00
  0.00000000E+00  0.00000000E+00  0.00000000E+00
  0.00000000E+00  0.00000000E+00  0.00000000E+00
  0.00000000E+00  0.00000000E+00  0.00000000E+00
  0.00000000E+00  0.00000000E+00  0.00000000E+00
  0.00000000E+00  0.00000000E+00  0.00000000E+00
  0.00000000E+00  0.00000000E+00  0.00000000E+00
  0.00000000E+00  0.00000000E+00  0.00000000E+00
  0.00000000E+00  0.00000000E+00  0.00000000E+00
  0.00000000E+00  0.00000000E+00  0.00000000E+00
  0.00000000E+00  0.00000000E+00  0.00000000E+00
  0.00000000E+00  0.00000000E+00  0.00000000E+00
  0.00000000E+00  0.00000000E+00  0.00000000E+00
  0.00000000E+00  0.00000000E+00  0.00000000E+00
  0.00000000E+00  0.00000000E+00  0.00000000E+00
  0.00000000E+00  0.00000000E+00  0.00000000E+00
  0.00000000E+00  0.00000000E+00  0.00000000E+00
  0.00000000E+00  0.00000000E+00  0.00000000E+00
  0.00000000E+00  0.00000000E+00  0.00000000E+00
  0.00000000E+00  0.00000000E+00  0.00000000E+00
  0.00000000E+00  0.00000000E+00  0.00000000E+00
  0.00000000E+00  0.00000000E+00  0.00000000E+00
  0.00000000E+00  0.00000000E+00  0.00000000E+00
  0.00000000E+00  0.00000000E+00  0.00000000E+00
  0.00000000E+00  0.00000000E+00  0.00000000E+00
  0.00000000E+00  0.00000000E+00  0.00000000E+00
  0.00000000E+00  0.00000000E+00  0.00000000E+00
  0.00000000E+00  0.00000000E+00  0.00000000E+00
  0.00000000E+00  0.00000000E+00  0.00000000E+00
  0.00000000E+00  0.00000000E+00  0.00000000E+00
  0.00000000E+00  0.00000000E+00  0.00000000E+00
  0.00000000E+00  0.00000000E+00  0.00000000E+00
  0.00000000E+00  0.00000000E+00  0.00000000E+00
  0.00000000E+00  0.00000000E+00  0.00000000E+00
  0.00000000E+00  0.00000000E+00  0.00000000E+00
  0.00000000E+00  0.00000000E+00  0.00000000E+00
  0.00000000E+00  0.00000000E+00  0.00000000E+00
  0.00000000E+00  0.00000000E+00  0.00000000E+00
  0.00000000E+00  0.00000000E+00  0.00000000E+00
  0.00000000E+00  0.00000000E+00  0.00000000E+00
  0.00000000E+00  0.00000000E+00  0.00000000E+00
  0.00000000E+00  0.00000000E+00  0.00000000E+00
  0.00000000E+00  0.00000000E+00  0.00000000E+00
  0.00000000E+00  0.00000000E+00  0.00000000E+00
  0.00000000E+00  0.00000000E+00  0.00000000E+00
  0.00000000E+00  0.00000000E+00  0.00000000E+00
  0.00000000E+00  0.00000000E+00  0.00000000E+00
  0.00000000E+00  0.00000000E+00  0.00000000E+00
  0.00000000E+00  0.00000000E+00  0.00000000E+00
  0.00000000E+00  0.00000000E+00  0.00000000E+00
  0.00000000E+00  0.00000000E+00  0.00000000E+00
  0.00000000E+00  0.00000000E+00  0.00000000E+00
  0.00000000E+00  0.00000000E+00  0.00000000E+00
  0.00000000E+00  0.00000000E+00  0.00000000E+00
  0.00000000E+00  0.00000000E+00  0.00000000E+00
  0.00000000E+00  0.00000000E+00  0.00000000E+00
  0.00000000E+00  0.00000000E+00  0.00000000E+00
  0.00000000E+00  0.00000000E+00  0.00000000E+00
  0.00000000E+00  0.00000000E+00  0.00000000E+00
  0.00000000E+00  0.00000000E+00  0.00000000E+00
  0.00000000E+00  0.00000000E+00  0.00000000E+00
  0.00000000E+00  0.00000000E+00  0.00000000E+00
  0.00000000E+00  0.00000000E+00  0.00000000E+00
  0.00000000E+00  0.00000000E+00  0.00000000E+00
  0.00000000E+00  0.00000000E+00  0.00000000E+00
  0.00000000E+00  0.00000000E+00  0.00000000E+00
  0.00000000E+00  0.00000000E+00  0.00000000E+00
