Li1
1.0
-2.155358 1.713409 1.713409
2.155358 -1.713409 1.713409
1.271460 1.713409 -1.713409
Li
1
direct
0.000000 0.000000 0.000000 Li
