Li1
1.0
-1.747014 1.747014 1.747014
1.747014 -1.747014 1.747014
1.747014 1.747014 -1.747014
Li
1
direct
0.000000 0.000000 0.000000 Li
