Li56 P28 O98
1.0
5.260542 0.000000 0.001820
-2.598943 6.542399 -1.582932
0.000000 0.000000 86.620060
Li P O
56 28 98
direct
0.255537 0.144977 0.051203 Li+
0.744463 0.855023 0.048797 Li+
0.604323 0.588727 0.074835 Li+
0.395677 0.411273 0.025165 Li+
0.972231 0.327738 0.070872 Li+
0.027769 0.672262 0.029128 Li+
0.943048 0.241886 0.004920 Li+
0.056952 0.758114 0.095080 Li+
0.255537 0.144977 0.151203 Li+
0.744463 0.855023 0.148797 Li+
0.604323 0.588727 0.174835 Li+
0.395677 0.411273 0.125165 Li+
0.972231 0.327738 0.170872 Li+
0.027769 0.672262 0.129128 Li+
0.943048 0.241886 0.104920 Li+
0.056952 0.758114 0.195080 Li+
0.255537 0.144977 0.251203 Li+
0.744463 0.855023 0.248797 Li+
0.604323 0.588727 0.274835 Li+
0.395677 0.411273 0.225165 Li+
0.972231 0.327738 0.270872 Li+
0.027769 0.672262 0.229128 Li+
0.943048 0.241886 0.204920 Li+
0.056952 0.758114 0.295080 Li+
0.255537 0.144977 0.351203 Li+
0.744463 0.855023 0.348797 Li+
0.604323 0.588727 0.374835 Li+
0.395677 0.411273 0.325165 Li+
0.972231 0.327738 0.370872 Li+
0.027769 0.672262 0.329128 Li+
0.943048 0.241886 0.304920 Li+
0.056952 0.758114 0.395080 Li+
0.255537 0.144977 0.451203 Li+
0.744463 0.855023 0.448797 Li+
0.604323 0.588727 0.474835 Li+
0.395677 0.411273 0.425165 Li+
0.972231 0.327738 0.470872 Li+
0.027769 0.672262 0.429128 Li+
0.943048 0.241886 0.404920 Li+
0.056952 0.758114 0.495080 Li+
0.255537 0.144977 0.551203 Li+
0.744463 0.855023 0.548797 Li+
0.604323 0.588727 0.574835 Li+
0.395677 0.411273 0.525165 Li+
0.972231 0.327738 0.570872 Li+
0.027769 0.672262 0.529128 Li+
0.943048 0.241886 0.504920 Li+
0.056952 0.758114 0.595080 Li+
0.255537 0.144977 0.651203 Li+
0.744463 0.855023 0.648797 Li+
0.604323 0.588727 0.674835 Li+
0.395677 0.411273 0.625165 Li+
0.972231 0.327738 0.670872 Li+
0.027769 0.672262 0.629128 Li+
0.943048 0.241886 0.604920 Li+
0.056952 0.758114 0.695080 Li+
0.426010 0.213298 0.086804 P5+
0.573990 0.786702 0.013196 P5+
0.215728 0.779241 0.065450 P5+
0.784272 0.220759 0.034550 P5+
0.426010 0.213298 0.186804 P5+
0.573990 0.786702 0.113196 P5+
0.215728 0.779241 0.165450 P5+
0.784272 0.220759 0.134550 P5+
0.426010 0.213298 0.286804 P5+
0.573990 0.786702 0.213196 P5+
0.215728 0.779241 0.265450 P5+
0.784272 0.220759 0.234550 P5+
0.426010 0.213298 0.386804 P5+
0.573990 0.786702 0.313196 P5+
0.215728 0.779241 0.365450 P5+
0.784272 0.220759 0.334550 P5+
0.426010 0.213298 0.486804 P5+
0.573990 0.786702 0.413196 P5+
0.215728 0.779241 0.465450 P5+
0.784272 0.220759 0.434550 P5+
0.426010 0.213298 0.586804 P5+
0.573990 0.786702 0.513196 P5+
0.215728 0.779241 0.565450 P5+
0.784272 0.220759 0.534550 P5+
0.426010 0.213298 0.686804 P5+
0.573990 0.786702 0.613196 P5+
0.215728 0.779241 0.665450 P5+
0.784272 0.220759 0.634550 P5+
0.480088 0.741759 0.062566 O2-
0.993870 0.605720 0.070932 O2-
0.006130 0.394280 0.029068 O2-
0.117089 0.848591 0.051802 O2-
0.267439 0.743350 0.012354 O2-
0.732561 0.256650 0.087646 O2-
0.685156 0.732189 0.097381 O2-
0.314844 0.267811 0.002619 O2-
0.661778 0.702403 0.026350 O2-
0.338222 0.297597 0.073650 O2-
0.266931 0.962384 0.081611 O2-
0.733069 0.037616 0.018389 O2-
0.882911 0.151409 0.048198 O2-
0.519912 0.258241 0.037434 O2-
0.480088 0.741759 0.162566 O2-
0.993870 0.605720 0.170932 O2-
0.006130 0.394280 0.129068 O2-
0.117089 0.848591 0.151802 O2-
0.267439 0.743350 0.112354 O2-
0.732561 0.256650 0.187646 O2-
0.685156 0.732189 0.197381 O2-
0.314844 0.267811 0.102619 O2-
0.661778 0.702403 0.126350 O2-
0.338222 0.297597 0.173650 O2-
0.266931 0.962384 0.181611 O2-
0.733069 0.037616 0.118389 O2-
0.882911 0.151409 0.148198 O2-
0.519912 0.258241 0.137434 O2-
0.480088 0.741759 0.262566 O2-
0.993870 0.605720 0.270932 O2-
0.006130 0.394280 0.229068 O2-
0.117089 0.848591 0.251802 O2-
0.267439 0.743350 0.212355 O2-
0.732561 0.256650 0.287645 O2-
0.685156 0.732189 0.297381 O2-
0.314844 0.267811 0.202619 O2-
0.661778 0.702403 0.226350 O2-
0.338222 0.297597 0.273650 O2-
0.266931 0.962384 0.281611 O2-
0.733069 0.037616 0.218389 O2-
0.882911 0.151409 0.248198 O2-
0.519912 0.258241 0.237434 O2-
0.480088 0.741759 0.362566 O2-
0.993870 0.605720 0.370932 O2-
0.006130 0.394280 0.329068 O2-
0.117089 0.848591 0.351802 O2-
0.267439 0.743350 0.312354 O2-
0.732561 0.256650 0.387645 O2-
0.685156 0.732189 0.397381 O2-
0.314844 0.267811 0.302619 O2-
0.661778 0.702403 0.326350 O2-
0.338222 0.297597 0.373650 O2-
0.266931 0.962384 0.381611 O2-
0.733069 0.037616 0.318389 O2-
0.882911 0.151409 0.348198 O2-
0.519912 0.258241 0.337434 O2-
0.480088 0.741759 0.462566 O2-
0.993870 0.605720 0.470932 O2-
0.006130 0.394280 0.429068 O2-
0.117089 0.848591 0.451802 O2-
0.267439 0.743350 0.412355 O2-
0.732561 0.256650 0.487646 O2-
0.685156 0.732189 0.497381 O2-
0.314844 0.267811 0.402619 O2-
0.661778 0.702403 0.426350 O2-
0.338222 0.297597 0.473650 O2-
0.266931 0.962384 0.481611 O2-
0.733069 0.037616 0.418389 O2-
0.882911 0.151409 0.448198 O2-
0.519912 0.258241 0.437434 O2-
0.480088 0.741759 0.562566 O2-
0.993870 0.605720 0.570932 O2-
0.006130 0.394280 0.529068 O2-
0.117089 0.848591 0.551802 O2-
0.267439 0.743350 0.512355 O2-
0.732561 0.256650 0.587646 O2-
0.685156 0.732189 0.597381 O2-
0.314844 0.267811 0.502619 O2-
0.661778 0.702403 0.526350 O2-
0.338222 0.297597 0.573650 O2-
0.266931 0.962384 0.581611 O2-
0.733069 0.037616 0.518389 O2-
0.882911 0.151409 0.548198 O2-
0.519912 0.258241 0.537434 O2-
0.480088 0.741759 0.662566 O2-
0.993870 0.605720 0.670932 O2-
0.006130 0.394280 0.629068 O2-
0.117089 0.848591 0.651802 O2-
0.267439 0.743350 0.612354 O2-
0.732561 0.256650 0.687646 O2-
0.685156 0.732189 0.697381 O2-
0.314844 0.267811 0.602619 O2-
0.661778 0.702403 0.626350 O2-
0.338222 0.297597 0.673650 O2-
0.266931 0.962384 0.681611 O2-
0.733069 0.037616 0.618389 O2-
0.882911 0.151409 0.648198 O2-
0.519912 0.258241 0.637434 O2-
