Li7 P2 N1 O7                            
   1.00000000000000     
     4.9829438022329278    0.0429912464875978    0.0244982129847967
     0.0521016577898260    6.3622705883970987    0.0910913437388418
     0.0234405508285325    0.0812837931765199    5.3050243573542568
   Li   P    N    O 
     7     2     1     7
Direct
  0.1686482792948275  0.5162371404644741  0.3273156318743425
  0.5138169181383671  0.7723167957203076  0.3041055803729050
  0.5049167853798311  0.2358588968817255  0.3081959312647041
 -0.0142497668108006  0.7709453708617954  0.6607416975742412
 -0.0036482217078629  0.2204461568371238  0.6249334032201282
  0.4871097408107869  0.0027659495079760  0.8409123904478033
  0.8983298123188956  0.3944665502379662  0.0016275893272954
  0.4679384407170863  0.5091267617453545  0.7996686277632907
  0.0011087252840686  0.0143504030735784  0.1585449384989284
  0.0925167050763686  0.2280240065494482  0.2725484854598699
  0.1046123188235768  0.8087249428105719  0.3056764908800255
  0.5298511111131692  0.5154234151816243  0.0883437994205508
  0.1601099338856066  0.4978929455232829  0.7456149800371900
  0.6819578278602120  0.0013749173778929  0.1563783000226430
  0.5819495272234051  0.7107993727703167  0.6658703938474212
  0.6095120680629614  0.3076760162941258  0.6962918629840086
  0.0912597945295287 -0.0064296418375646  0.8704298970046488
 
  0.00000000E+00  0.00000000E+00  0.00000000E+00
  0.00000000E+00  0.00000000E+00  0.00000000E+00
  0.00000000E+00  0.00000000E+00  0.00000000E+00
  0.00000000E+00  0.00000000E+00  0.00000000E+00
  0.00000000E+00  0.00000000E+00  0.00000000E+00
  0.00000000E+00  0.00000000E+00  0.00000000E+00
  0.00000000E+00  0.00000000E+00  0.00000000E+00
  0.00000000E+00  0.00000000E+00  0.00000000E+00
  0.00000000E+00  0.00000000E+00  0.00000000E+00
  0.00000000E+00  0.00000000E+00  0.00000000E+00
  0.00000000E+00  0.00000000E+00  0.00000000E+00
  0.00000000E+00  0.00000000E+00  0.00000000E+00
  0.00000000E+00  0.00000000E+00  0.00000000E+00
  0.00000000E+00  0.00000000E+00  0.00000000E+00
  0.00000000E+00  0.00000000E+00  0.00000000E+00
  0.00000000E+00  0.00000000E+00  0.00000000E+00
  0.00000000E+00  0.00000000E+00  0.00000000E+00
