Li61 P7 N32                             
   1.00000000000000     
     0.0000292183082587    9.5998875258178344    0.0000311541855115
    -0.0505923746216987    0.0000310410391423    9.5651512208930143
     9.5867976256396830    0.0000288873979806   -0.0504768708634422
   Li   P    N 
    61     7    32
Direct
  0.5016772067158830 -0.0000673755349864  0.4999926212513696
  0.0155219955154932  0.5000031886528542  0.0000071780702457
  0.5098205880113392  0.0000076565745720 -0.0000083506777989
 -0.0046652392885163  0.0000020281950700  0.4999982317632961
  0.5115730688313209  0.4999898540861832 -0.0000432178572808
  0.0011896359122346  0.5000021243985210  0.5000026728129063
  0.7508028986513005  0.0000075451512902  0.4999848873243074
  0.2484688527401368  0.0000169607461401  0.4999925110147447
  0.7794208670890099  0.5000044961795594  0.5000030568206703
  0.2287161005517853  0.5000428607401701  0.5000150573000125
  0.2701612662980027  0.0000039243472971  0.0000048115717438
  0.7426001711475729  0.0000054766968844 -0.0000121819148486
  0.4409627264867368  0.4998180283916366  0.4998047434697854
  0.5193399801582754  0.2466839008093310 -0.0224413621323426
  0.5193493845104225  0.7533162241545525  0.0224861844853138
  0.0170821287115485  0.5074765739482886  0.2486210904769771
  0.0170725787513442  0.4925228872250340  0.7513925837911739
  0.2052222825514871  0.2273413778567249  0.2366100647361585
  0.2052231825400519  0.7726275332321753  0.7633885093620869
  0.2349632810028972  0.2779892276219749  0.7314607511312614
  0.2349519019581914  0.7219672810284109  0.2685407145795420
  0.7045593850641928  0.2215829110745056  0.3235358853336583
  0.7045467715868972  0.7784366518638188  0.6764797729179015
  0.7395305771700718  0.2196320038877795  0.7955822284593173
  0.7395141749938240  0.7803802964248419  0.2044122741907678
  0.9505126143725181  0.2719454839183445  0.2500852783424105
  0.9505110027147717  0.7280679260355589  0.7499292503894014
  0.2503242542385333  0.2532963552334643  0.4966691373861901
  0.2503313473635410  0.7467435294426926  0.5033191797164682
  0.7492054815292928  0.2274353372035158  0.5471600804241489
  0.7491891664729500  0.7725623517043149  0.4528560383362137
  0.7822509565485875  0.5332758685805106  0.2614025369297318
  0.7822639071487079  0.4667251648818507  0.7385936750204705
  0.2572876062923528  0.4875845690844168  0.2586014599720990
  0.2572546001987239  0.5123831258661239  0.7414018465289557
  0.4716914988503929  0.7706020212440479  0.2849890358918487
  0.4717139628421060  0.2294722374800508  0.7151010025260248
  0.2514107806643770  0.9790087225076159  0.2471365266195596
  0.2514081689909806  0.0209650118927753  0.7528796063385857
  0.2722900570771719  0.2407184308860682  0.9774516494469162
  0.2722797309550026  0.7592896556502494  0.0225466960840427
  0.7739810594090313  0.9833006115221902  0.7550583854524648
  0.7739845833698560  0.0167224049015166  0.2449170127002041
  0.7800339701279878  0.7653715793987778  0.9725625213167831
  0.7800518252173616  0.2346318542194511  0.0274321011226544
 -0.0068968193014363  0.2334585464230456  0.7576828137213960
 -0.0069129328148676  0.7665503094975955  0.2423146334509748
  0.4569571566836912  0.2592004384698048  0.2238589972496310
  0.4569647504343541  0.7408711573889376  0.7762614357858733
  0.0231792983668207  0.2631186005221351  0.0025168015690845
  0.0231771830965028  0.7368789626220911 -0.0025193168400091
  0.4784811122334914  0.2584000185412609  0.4593608049820780
  0.4784132621089938  0.7413890633925638  0.5407649902578128
  0.4788961914084982  0.5113947787792038  0.2469282735413725
  0.4788163536107402  0.4887363080433895  0.7529332156397105
  0.0086825314081462  0.0109556360552913  0.2641711856205914
  0.0086862373376710 -0.0109558030313713  0.7358205172771310
  0.5942875956406476  0.4080691946526240  0.5809999613274714
  0.5942665815885471  0.5919554410099573  0.4190555560056479
  0.6557807354086822  0.3727906084850003  0.1720173630082427
  0.6557963373412323  0.6271693481059841  0.8279766138927938
  0.0056719948098684 -0.0000062780845348 -0.0000044017001774
  0.7733612985828968  0.5000148639074079 -0.0000175968339799
  0.2592550947289588  0.5000020156966650 -0.0000014471498766
 -0.0026850610208042  0.7526571909664180  0.4988344742186339
 -0.0026773863285052  0.2473475321375374  0.5011717489543553
  0.5082089100410310  0.0084161654104132  0.2444295111790628
  0.5082026991497044 -0.0083979048971041  0.7555534425868157
  0.6179531500908918  0.6056877593589617  0.6265262168236344
  0.6178774558197734  0.3943114510972970  0.3734865259260080
  0.9009984174461717  0.8980849027970471  0.1003753945346909
  0.9010010913953660  0.1019241128158008  0.8996175143500602
  0.1082518666185521  0.8995841316319236  0.8969870542235934
  0.1082516718678817  0.1004159746375022  0.1030153003958623
  0.3722849516124047  0.6315662915370377  0.3809790775562195
  0.3722790834396454  0.3684364988530096  0.6190210961151404
  0.0924760497623956  0.3461669628177598  0.3904424715028688
  0.0924770692744901  0.6538437436855560  0.6095522474782645
  0.1023588441470944  0.1459152095848713  0.6008397191067024
  0.1023547423442938  0.8540894624679904  0.3991496917768037
  0.8852203701612396  0.1461857498325106  0.4053434073000023
  0.8852187233228863  0.8538264686355315  0.5946516691719624
  0.8684193027946031  0.4056351543006340  0.1114398852109292
  0.8684065667685478  0.5943516366409712  0.8885955263318217
  0.1587175494738965  0.6002859296868381  0.1066904022589018
  0.1587090328834048  0.3997109295589479  0.8933177283582888
  0.4115796486350412  0.8997484659070639  0.1422297719902438
  0.4115671206942447  0.1002690811612618  0.8577644030047678
  0.3947716589376604  0.1004638542830604  0.3448574998835576
  0.3947776212127760  0.8995161340272210  0.6551506825462986
  0.3604893153747925  0.3925668978936513  0.0975624237318339
  0.3604707274822110  0.6074402484463506  0.9024241834937139
  0.6199192161831659  0.0896120338566448  0.6582179281680047
  0.6199453143057402  0.9104191089299589  0.3417465242608300
  0.6699296168757773  0.6121190444957182  0.0894214712135663
  0.6699484670656916  0.3878651759583678  0.9105849165449522
  0.9022558379803501  0.3506857116734033  0.6121943076738841
  0.9022510905829334  0.6493134056504769  0.3878051534929036
  0.6094918835260884  0.1193253119462963  0.1472098259530951
  0.6095010753593763  0.8807210823298544  0.8527866630498154
 
  0.00000000E+00  0.00000000E+00  0.00000000E+00
  0.00000000E+00  0.00000000E+00  0.00000000E+00
  0.00000000E+00  0.00000000E+00  0.00000000E+00
  0.00000000E+00  0.00000000E+00  0.00000000E+00
  0.00000000E+00  0.00000000E+00  0.00000000E+00
  0.00000000E+00  0.00000000E+00  0.00000000E+00
  0.00000000E+00  0.00000000E+00  0.00000000E+00
  0.00000000E+00  0.00000000E+00  0.00000000E+00
  0.00000000E+00  0.00000000E+00  0.00000000E+00
  0.00000000E+00  0.00000000E+00  0.00000000E+00
  0.00000000E+00  0.00000000E+00  0.00000000E+00
  0.00000000E+00  0.00000000E+00  0.00000000E+00
  0.00000000E+00  0.00000000E+00  0.00000000E+00
  0.00000000E+00  0.00000000E+00  0.00000000E+00
  0.00000000E+00  0.00000000E+00  0.00000000E+00
  0.00000000E+00  0.00000000E+00  0.00000000E+00
  0.00000000E+00  0.00000000E+00  0.00000000E+00
  0.00000000E+00  0.00000000E+00  0.00000000E+00
  0.00000000E+00  0.00000000E+00  0.00000000E+00
  0.00000000E+00  0.00000000E+00  0.00000000E+00
  0.00000000E+00  0.00000000E+00  0.00000000E+00
  0.00000000E+00  0.00000000E+00  0.00000000E+00
  0.00000000E+00  0.00000000E+00  0.00000000E+00
  0.00000000E+00  0.00000000E+00  0.00000000E+00
  0.00000000E+00  0.00000000E+00  0.00000000E+00
  0.00000000E+00  0.00000000E+00  0.00000000E+00
  0.00000000E+00  0.00000000E+00  0.00000000E+00
  0.00000000E+00  0.00000000E+00  0.00000000E+00
  0.00000000E+00  0.00000000E+00  0.00000000E+00
  0.00000000E+00  0.00000000E+00  0.00000000E+00
  0.00000000E+00  0.00000000E+00  0.00000000E+00
  0.00000000E+00  0.00000000E+00  0.00000000E+00
  0.00000000E+00  0.00000000E+00  0.00000000E+00
  0.00000000E+00  0.00000000E+00  0.00000000E+00
  0.00000000E+00  0.00000000E+00  0.00000000E+00
  0.00000000E+00  0.00000000E+00  0.00000000E+00
  0.00000000E+00  0.00000000E+00  0.00000000E+00
  0.00000000E+00  0.00000000E+00  0.00000000E+00
  0.00000000E+00  0.00000000E+00  0.00000000E+00
  0.00000000E+00  0.00000000E+00  0.00000000E+00
  0.00000000E+00  0.00000000E+00  0.00000000E+00
  0.00000000E+00  0.00000000E+00  0.00000000E+00
  0.00000000E+00  0.00000000E+00  0.00000000E+00
  0.00000000E+00  0.00000000E+00  0.00000000E+00
  0.00000000E+00  0.00000000E+00  0.00000000E+00
  0.00000000E+00  0.00000000E+00  0.00000000E+00
  0.00000000E+00  0.00000000E+00  0.00000000E+00
  0.00000000E+00  0.00000000E+00  0.00000000E+00
  0.00000000E+00  0.00000000E+00  0.00000000E+00
  0.00000000E+00  0.00000000E+00  0.00000000E+00
  0.00000000E+00  0.00000000E+00  0.00000000E+00
  0.00000000E+00  0.00000000E+00  0.00000000E+00
  0.00000000E+00  0.00000000E+00  0.00000000E+00
  0.00000000E+00  0.00000000E+00  0.00000000E+00
  0.00000000E+00  0.00000000E+00  0.00000000E+00
  0.00000000E+00  0.00000000E+00  0.00000000E+00
  0.00000000E+00  0.00000000E+00  0.00000000E+00
  0.00000000E+00  0.00000000E+00  0.00000000E+00
  0.00000000E+00  0.00000000E+00  0.00000000E+00
  0.00000000E+00  0.00000000E+00  0.00000000E+00
  0.00000000E+00  0.00000000E+00  0.00000000E+00
  0.00000000E+00  0.00000000E+00  0.00000000E+00
  0.00000000E+00  0.00000000E+00  0.00000000E+00
  0.00000000E+00  0.00000000E+00  0.00000000E+00
  0.00000000E+00  0.00000000E+00  0.00000000E+00
  0.00000000E+00  0.00000000E+00  0.00000000E+00
  0.00000000E+00  0.00000000E+00  0.00000000E+00
  0.00000000E+00  0.00000000E+00  0.00000000E+00
  0.00000000E+00  0.00000000E+00  0.00000000E+00
  0.00000000E+00  0.00000000E+00  0.00000000E+00
  0.00000000E+00  0.00000000E+00  0.00000000E+00
  0.00000000E+00  0.00000000E+00  0.00000000E+00
  0.00000000E+00  0.00000000E+00  0.00000000E+00
  0.00000000E+00  0.00000000E+00  0.00000000E+00
  0.00000000E+00  0.00000000E+00  0.00000000E+00
  0.00000000E+00  0.00000000E+00  0.00000000E+00
  0.00000000E+00  0.00000000E+00  0.00000000E+00
  0.00000000E+00  0.00000000E+00  0.00000000E+00
  0.00000000E+00  0.00000000E+00  0.00000000E+00
  0.00000000E+00  0.00000000E+00  0.00000000E+00
  0.00000000E+00  0.00000000E+00  0.00000000E+00
  0.00000000E+00  0.00000000E+00  0.00000000E+00
  0.00000000E+00  0.00000000E+00  0.00000000E+00
  0.00000000E+00  0.00000000E+00  0.00000000E+00
  0.00000000E+00  0.00000000E+00  0.00000000E+00
  0.00000000E+00  0.00000000E+00  0.00000000E+00
  0.00000000E+00  0.00000000E+00  0.00000000E+00
  0.00000000E+00  0.00000000E+00  0.00000000E+00
  0.00000000E+00  0.00000000E+00  0.00000000E+00
  0.00000000E+00  0.00000000E+00  0.00000000E+00
  0.00000000E+00  0.00000000E+00  0.00000000E+00
  0.00000000E+00  0.00000000E+00  0.00000000E+00
  0.00000000E+00  0.00000000E+00  0.00000000E+00
  0.00000000E+00  0.00000000E+00  0.00000000E+00
  0.00000000E+00  0.00000000E+00  0.00000000E+00
  0.00000000E+00  0.00000000E+00  0.00000000E+00
  0.00000000E+00  0.00000000E+00  0.00000000E+00
  0.00000000E+00  0.00000000E+00  0.00000000E+00
  0.00000000E+00  0.00000000E+00  0.00000000E+00
  0.00000000E+00  0.00000000E+00  0.00000000E+00
