Li5 P2 N1 O6                            
   1.00000000000000     
    -0.0384642460727416    0.0502743508457608    4.9620729563615331
     6.3411535561865335    0.0235796656140029   -0.0499466241120955
     0.0215297614472193    5.4228895623229967    0.0574569558682583
   Li   P    N    O 
     5     2     1     6
Direct
  0.4951124772244710  0.0211152367652710  0.8621250019484153
 -0.0013190362553473  0.4838152855729596  0.2187698216540986
  0.5105779326556884  0.7422449994611485  0.3218412457210849
 -0.0066416354314169  0.7911362461804445  0.6686806356531374
 -0.0034144100562182  0.2058552990378882  0.6376705746971462
  0.5466651821540941  0.5011118045477106  0.8357960995778106
 -0.0095997034027118 -0.0008213305065717  0.1645782466247904
  0.0921538907390598  0.7898333187619313  0.3126990032664494
  0.0810161810608407  0.2035540418538099  0.2974528521308924
  0.6061491477042700  0.7027560257480812  0.6763162335783305
  0.6334856183585253  0.2956604269904937  0.7112150535586848
  0.6360957540522892  0.5226380178628682  0.1025404294144916
  0.1035564965982227  0.0104579485784353  0.8876927510426794
  0.6804081045982561 -0.0222303208544720  0.1577920511319887
 
  0.00000000E+00  0.00000000E+00  0.00000000E+00
  0.00000000E+00  0.00000000E+00  0.00000000E+00
  0.00000000E+00  0.00000000E+00  0.00000000E+00
  0.00000000E+00  0.00000000E+00  0.00000000E+00
  0.00000000E+00  0.00000000E+00  0.00000000E+00
  0.00000000E+00  0.00000000E+00  0.00000000E+00
  0.00000000E+00  0.00000000E+00  0.00000000E+00
  0.00000000E+00  0.00000000E+00  0.00000000E+00
  0.00000000E+00  0.00000000E+00  0.00000000E+00
  0.00000000E+00  0.00000000E+00  0.00000000E+00
  0.00000000E+00  0.00000000E+00  0.00000000E+00
  0.00000000E+00  0.00000000E+00  0.00000000E+00
  0.00000000E+00  0.00000000E+00  0.00000000E+00
  0.00000000E+00  0.00000000E+00  0.00000000E+00
