Li5 P2 N1 O6                            
   1.00000000000000     
    -0.3560796388064475   -0.2082709632927938    5.4562555123673899
     5.4033175261714819   -0.0931071380210489   -0.5081185834825271
    -0.1195743220489043    5.3541095838375075   -0.2705492185591047
   Li   P    N    O 
     5     2     1     6
Direct
  0.4395985734051187  0.1234726117178897  0.8195671240484688
  0.0123725961497331  0.3959765211421076  0.0792053402021060
  0.4291463559233736  0.6926397733039547  0.2962385174011029
  0.0660946953339949  0.6245101153826672  0.6847579918686252
 -0.1310449806679421  0.1014933062213512  0.6429760233304407
  0.5843800129041051  0.6010148565545876  0.8280939960988042
 -0.0211050811506793 -0.0939583500127114  0.1649067080745142
  0.7605510363486054  0.4091000088042270  0.7835945343103177
 -0.0197127294516234  0.1455806720127401  0.3213695804690021
  0.5491183829757866  0.8092956527426084  0.6395227951023876
  0.0860060898034564  0.7051636689437003  0.3153678205790096
  0.6865883349750909  0.7961686401235565  0.0893046145978051
  0.0950365554048706 -0.0466969795258811  0.9150168745129809
  0.3272161580461322  0.4833665025892017  0.9120400794044358
 
  0.00000000E+00  0.00000000E+00  0.00000000E+00
  0.00000000E+00  0.00000000E+00  0.00000000E+00
  0.00000000E+00  0.00000000E+00  0.00000000E+00
  0.00000000E+00  0.00000000E+00  0.00000000E+00
  0.00000000E+00  0.00000000E+00  0.00000000E+00
  0.00000000E+00  0.00000000E+00  0.00000000E+00
  0.00000000E+00  0.00000000E+00  0.00000000E+00
  0.00000000E+00  0.00000000E+00  0.00000000E+00
  0.00000000E+00  0.00000000E+00  0.00000000E+00
  0.00000000E+00  0.00000000E+00  0.00000000E+00
  0.00000000E+00  0.00000000E+00  0.00000000E+00
  0.00000000E+00  0.00000000E+00  0.00000000E+00
  0.00000000E+00  0.00000000E+00  0.00000000E+00
  0.00000000E+00  0.00000000E+00  0.00000000E+00
