Li140 P140 O420
1.0
5.521558 0.000000 0.000000
0.000000 16.540545 2.677750
0.000000 0.000000 119.816820
Li P O
140 140 420
direct
0.494607 0.818220 0.098395 Li+
0.505393 0.318220 0.042840 Li+
0.484419 0.934004 0.000825 Li+
0.515581 0.434004 0.056380 Li+
0.505784 0.049457 0.014205 Li+
0.494216 0.549457 0.069760 Li+
0.507224 0.164548 0.027490 Li+
0.492776 0.664548 0.083046 Li+
0.992783 0.241566 0.035311 Li+
0.007217 0.741566 0.090866 Li+
0.521194 0.318286 0.098634 Li+
0.478806 0.818286 0.043078 Li+
0.476313 0.433730 0.000978 Li+
0.523687 0.933730 0.056533 Li+
0.533250 0.550453 0.014220 Li+
0.466750 0.050453 0.069776 Li+
0.477737 0.667016 0.027529 Li+
0.522263 0.167016 0.083084 Li+
0.960889 0.743634 0.035532 Li+
0.039111 0.243634 0.091088 Li+
0.494607 0.818220 0.209506 Li+
0.505393 0.318220 0.153951 Li+
0.484419 0.934004 0.111936 Li+
0.515581 0.434004 0.167491 Li+
0.505784 0.049457 0.125316 Li+
0.494216 0.549457 0.180871 Li+
0.507224 0.164548 0.138601 Li+
0.492776 0.664548 0.194157 Li+
0.992783 0.241566 0.146422 Li+
0.007217 0.741566 0.201977 Li+
0.521194 0.318286 0.209745 Li+
0.478806 0.818286 0.154190 Li+
0.476313 0.433730 0.112089 Li+
0.523687 0.933730 0.167645 Li+
0.533250 0.550453 0.125332 Li+
0.466750 0.050453 0.180887 Li+
0.477737 0.667016 0.138640 Li+
0.522263 0.167016 0.194195 Li+
0.960889 0.743634 0.146644 Li+
0.039111 0.243634 0.202199 Li+
0.494607 0.818220 0.320617 Li+
0.505393 0.318220 0.265062 Li+
0.484419 0.934004 0.223047 Li+
0.515581 0.434004 0.278602 Li+
0.505784 0.049457 0.236427 Li+
0.494216 0.549457 0.291982 Li+
0.507224 0.164548 0.249712 Li+
0.492776 0.664548 0.305268 Li+
0.992783 0.241566 0.257533 Li+
0.007217 0.741566 0.313088 Li+
0.521194 0.318286 0.320856 Li+
0.478806 0.818286 0.265301 Li+
0.476313 0.433730 0.223200 Li+
0.523687 0.933730 0.278756 Li+
0.533250 0.550453 0.236443 Li+
0.466750 0.050453 0.291998 Li+
0.477737 0.667016 0.249751 Li+
0.522263 0.167016 0.305307 Li+
0.960889 0.743634 0.257755 Li+
0.039111 0.243634 0.313310 Li+
0.494607 0.818220 0.431729 Li+
0.505393 0.318220 0.376173 Li+
0.484419 0.934004 0.334158 Li+
0.515581 0.434004 0.389713 Li+
0.505784 0.049457 0.347538 Li+
0.494216 0.549457 0.403093 Li+
0.507224 0.164548 0.360823 Li+
0.492776 0.664548 0.416379 Li+
0.992783 0.241566 0.368644 Li+
0.007217 0.741566 0.424199 Li+
0.521194 0.318286 0.431967 Li+
0.478806 0.818286 0.376412 Li+
0.476313 0.433730 0.334311 Li+
0.523687 0.933730 0.389867 Li+
0.533250 0.550453 0.347554 Li+
0.466750 0.050453 0.403109 Li+
0.477737 0.667016 0.360862 Li+
0.522263 0.167016 0.416418 Li+
0.960889 0.743634 0.368866 Li+
0.039111 0.243634 0.424421 Li+
0.494607 0.818220 0.542840 Li+
0.505393 0.318220 0.487284 Li+
0.484419 0.934004 0.445269 Li+
0.515581 0.434004 0.500825 Li+
0.505784 0.049457 0.458649 Li+
0.494216 0.549457 0.514205 Li+
0.507224 0.164548 0.471934 Li+
0.492776 0.664548 0.527490 Li+
0.992783 0.241566 0.479755 Li+
0.007217 0.741566 0.535311 Li+
0.521194 0.318286 0.543078 Li+
0.478806 0.818286 0.487523 Li+
0.476313 0.433730 0.445422 Li+
0.523687 0.933730 0.500978 Li+
0.533250 0.550453 0.458665 Li+
0.466750 0.050453 0.514220 Li+
0.477737 0.667016 0.471973 Li+
0.522263 0.167016 0.527529 Li+
0.960889 0.743634 0.479977 Li+
0.039111 0.243634 0.535532 Li+
0.494607 0.818220 0.653951 Li+
0.505393 0.318220 0.598395 Li+
0.484419 0.934004 0.556380 Li+
0.515581 0.434004 0.611936 Li+
0.505784 0.049457 0.569760 Li+
0.494216 0.549457 0.625316 Li+
0.507224 0.164548 0.583046 Li+
0.492776 0.664548 0.638601 Li+
0.992783 0.241566 0.590866 Li+
0.007217 0.741566 0.646422 Li+
0.521194 0.318286 0.654190 Li+
0.478806 0.818286 0.598634 Li+
0.476313 0.433730 0.556533 Li+
0.523687 0.933730 0.612089 Li+
0.533250 0.550453 0.569776 Li+
0.466750 0.050453 0.625332 Li+
0.477737 0.667016 0.583084 Li+
0.522263 0.167016 0.638640 Li+
0.960889 0.743634 0.591088 Li+
0.039111 0.243634 0.646644 Li+
0.494607 0.818220 0.765062 Li+
0.505393 0.318220 0.709506 Li+
0.484419 0.934004 0.667491 Li+
0.515581 0.434004 0.723047 Li+
0.505784 0.049457 0.680871 Li+
0.494216 0.549457 0.736427 Li+
0.507224 0.164548 0.694157 Li+
0.492776 0.664548 0.749712 Li+
0.992783 0.241566 0.701977 Li+
0.007217 0.741566 0.757533 Li+
0.521194 0.318286 0.765301 Li+
0.478806 0.818286 0.709745 Li+
0.476313 0.433730 0.667644 Li+
0.523687 0.933730 0.723200 Li+
0.533250 0.550453 0.680887 Li+
0.466750 0.050453 0.736443 Li+
0.477737 0.667016 0.694195 Li+
0.522263 0.167016 0.749751 Li+
0.960889 0.743634 0.702199 Li+
0.039111 0.243634 0.757755 Li+
0.185377 0.000413 0.092118 P5+
0.814623 0.500413 0.036563 P5+
0.843317 0.093280 0.104732 P5+
0.156683 0.593280 0.049176 P5+
0.188444 0.197061 0.003815 P5+
0.811556 0.697061 0.059370 P5+
0.828977 0.308311 0.012617 P5+
0.171023 0.808311 0.068172 P5+
0.159739 0.408249 0.023734 P5+
0.840261 0.908249 0.079289 P5+
0.843930 0.574567 0.102308 P5+
0.156070 0.074567 0.046752 P5+
0.174322 0.674438 0.002363 P5+
0.825678 0.174438 0.057919 P5+
0.812278 0.786455 0.011125 P5+
0.187722 0.286455 0.066680 P5+
0.151901 0.889856 0.021393 P5+
0.848099 0.389856 0.076948 P5+
0.809867 0.982845 0.033981 P5+
0.190133 0.482845 0.089537 P5+
0.185377 0.000413 0.203229 P5+
0.814623 0.500413 0.147674 P5+
0.843317 0.093280 0.215843 P5+
0.156683 0.593280 0.160288 P5+
0.188444 0.197061 0.114926 P5+
0.811556 0.697061 0.170481 P5+
0.828977 0.308311 0.123728 P5+
0.171023 0.808311 0.179283 P5+
0.159739 0.408249 0.134845 P5+
0.840261 0.908249 0.190401 P5+
0.843930 0.574567 0.213419 P5+
0.156070 0.074567 0.157863 P5+
0.174322 0.674438 0.113474 P5+
0.825678 0.174438 0.169030 P5+
0.812278 0.786455 0.122236 P5+
0.187722 0.286455 0.177791 P5+
0.151901 0.889856 0.132504 P5+
0.848099 0.389856 0.188059 P5+
0.809867 0.982845 0.145092 P5+
0.190133 0.482845 0.200648 P5+
0.185377 0.000413 0.314340 P5+
0.814623 0.500413 0.258785 P5+
0.843317 0.093280 0.326954 P5+
0.156683 0.593280 0.271399 P5+
0.188444 0.197061 0.226037 P5+
0.811556 0.697061 0.281592 P5+
0.828977 0.308311 0.234839 P5+
0.171023 0.808311 0.290394 P5+
0.159739 0.408249 0.245956 P5+
0.840261 0.908249 0.301512 P5+
0.843930 0.574567 0.324530 P5+
0.156070 0.074567 0.268974 P5+
0.174322 0.674438 0.224585 P5+
0.825678 0.174438 0.280141 P5+
0.812278 0.786455 0.233347 P5+
0.187722 0.286455 0.288903 P5+
0.151901 0.889856 0.243615 P5+
0.848099 0.389856 0.299170 P5+
0.809867 0.982845 0.256203 P5+
0.190133 0.482845 0.311759 P5+
0.185377 0.000413 0.425451 P5+
0.814623 0.500413 0.369896 P5+
0.843317 0.093280 0.438065 P5+
0.156683 0.593280 0.382510 P5+
0.188444 0.197061 0.337148 P5+
0.811556 0.697061 0.392703 P5+
0.828977 0.308311 0.345950 P5+
0.171023 0.808311 0.401505 P5+
0.159739 0.408249 0.357067 P5+
0.840261 0.908249 0.412623 P5+
0.843930 0.574567 0.435641 P5+
0.156070 0.074567 0.380085 P5+
0.174322 0.674438 0.335697 P5+
0.825678 0.174438 0.391252 P5+
0.812278 0.786455 0.344458 P5+
0.187722 0.286455 0.400014 P5+
0.151901 0.889856 0.354726 P5+
0.848099 0.389856 0.410281 P5+
0.809867 0.982845 0.367314 P5+
0.190133 0.482845 0.422870 P5+
0.185377 0.000413 0.536563 P5+
0.814623 0.500413 0.481007 P5+
0.843317 0.093280 0.549176 P5+
0.156683 0.593280 0.493621 P5+
0.188444 0.197061 0.448259 P5+
0.811556 0.697061 0.503815 P5+
0.828977 0.308311 0.457061 P5+
0.171023 0.808311 0.512617 P5+
0.159739 0.408249 0.468178 P5+
0.840261 0.908249 0.523734 P5+
0.843930 0.574567 0.546752 P5+
0.156070 0.074567 0.491196 P5+
0.174322 0.674438 0.446808 P5+
0.825678 0.174438 0.502363 P5+
0.812278 0.786455 0.455569 P5+
0.187722 0.286455 0.511125 P5+
0.151901 0.889856 0.465837 P5+
0.848099 0.389856 0.521393 P5+
0.809867 0.982845 0.478426 P5+
0.190133 0.482845 0.533981 P5+
0.185377 0.000413 0.647674 P5+
0.814623 0.500413 0.592118 P5+
0.843317 0.093280 0.660288 P5+
0.156683 0.593280 0.604732 P5+
0.188444 0.197061 0.559370 P5+
0.811556 0.697061 0.614926 P5+
0.828977 0.308311 0.568172 P5+
0.171023 0.808311 0.623728 P5+
0.159739 0.408249 0.579290 P5+
0.840261 0.908249 0.634845 P5+
0.843930 0.574567 0.657863 P5+
0.156070 0.074567 0.602308 P5+
0.174322 0.674438 0.557919 P5+
0.825678 0.174438 0.613474 P5+
0.812278 0.786455 0.566680 P5+
0.187722 0.286455 0.622236 P5+
0.151901 0.889856 0.576948 P5+
0.848099 0.389856 0.632504 P5+
0.809867 0.982845 0.589537 P5+
0.190133 0.482845 0.645092 P5+
0.185377 0.000413 0.758785 P5+
0.814623 0.500413 0.703229 P5+
0.843317 0.093280 0.771399 P5+
0.156683 0.593280 0.715843 P5+
0.188444 0.197061 0.670481 P5+
0.811556 0.697061 0.726037 P5+
0.828977 0.308311 0.679283 P5+
0.171023 0.808311 0.734839 P5+
0.159739 0.408249 0.690401 P5+
0.840261 0.908249 0.745956 P5+
0.843930 0.574567 0.768974 P5+
0.156070 0.074567 0.713419 P5+
0.174322 0.674438 0.669030 P5+
0.825678 0.174438 0.724585 P5+
0.812278 0.786455 0.677791 P5+
0.187722 0.286455 0.733347 P5+
0.151901 0.889856 0.688059 P5+
0.848099 0.389856 0.743615 P5+
0.809867 0.982845 0.700648 P5+
0.190133 0.482845 0.756203 P5+
0.069000 0.035413 0.102759 O2-
0.931000 0.535413 0.047203 O2-
0.951087 0.140628 0.003312 O2-
0.048913 0.640628 0.058867 O2-
0.080018 0.275856 0.008117 O2-
0.919982 0.775856 0.063672 O2-
0.926681 0.392259 0.016100 O2-
0.073319 0.892259 0.071656 O2-
0.942022 0.978148 0.085773 O2-
0.057978 0.478148 0.030217 O2-
0.076781 0.590622 0.109952 O2-
0.923219 0.090622 0.054397 O2-
0.921841 0.709404 0.006403 O2-
0.078159 0.209404 0.061958 O2-
0.049265 0.843555 0.011500 O2-
0.950735 0.343555 0.067055 O2-
0.918787 0.943480 0.023579 O2-
0.081213 0.443480 0.079134 O2-
0.944691 0.504327 0.095811 O2-
0.055309 0.004327 0.040255 O2-
0.322795 0.926111 0.097219 O2-
0.677205 0.426111 0.041663 O2-
0.313918 0.066074 0.084343 O2-
0.686082 0.566074 0.028788 O2-
0.643576 0.041349 0.110392 O2-
0.356424 0.541349 0.054837 O2-
0.795305 0.153257 0.094228 O2-
0.204695 0.653257 0.038673 O2-
0.351974 0.154647 0.012807 O2-
0.648026 0.654647 0.068363 O2-
0.281781 0.224590 0.103139 O2-
0.718219 0.724590 0.047583 O2-
0.751546 0.252705 0.023136 O2-
0.248454 0.752705 0.078691 O2-
0.656290 0.330648 0.003014 O2-
0.343710 0.830648 0.058570 O2-
0.215121 0.332841 0.032000 O2-
0.784879 0.832841 0.087555 O2-
0.355777 0.446708 0.016072 O2-
0.644223 0.946708 0.071628 O2-
0.649890 0.536665 0.110133 O2-
0.350110 0.036665 0.054578 O2-
0.785996 0.649394 0.093994 O2-
0.214004 0.149394 0.038439 O2-
0.340793 0.651785 0.012208 O2-
0.659207 0.151785 0.067764 O2-
0.258044 0.728542 0.102933 O2-
0.741956 0.228542 0.047378 O2-
0.725734 0.758375 0.023018 O2-
0.274266 0.258375 0.078573 O2-
0.642950 0.828801 0.002370 O2-
0.357050 0.328801 0.057926 O2-
0.205272 0.829973 0.031851 O2-
0.794728 0.329973 0.087407 O2-
0.347295 0.944360 0.015878 O2-
0.652705 0.444360 0.071433 O2-
0.677470 0.919559 0.041986 O2-
0.322530 0.419559 0.097542 O2-
0.678914 0.057634 0.028590 O2-
0.321086 0.557634 0.084146 O2-
0.069000 0.035413 0.213870 O2-
0.931000 0.535413 0.158314 O2-
0.951087 0.140628 0.114423 O2-
0.048913 0.640628 0.169978 O2-
0.080018 0.275856 0.119228 O2-
0.919982 0.775856 0.174783 O2-
0.926681 0.392259 0.127211 O2-
0.073319 0.892259 0.182767 O2-
0.942022 0.978148 0.196884 O2-
0.057978 0.478148 0.141328 O2-
0.076781 0.590622 0.221063 O2-
0.923219 0.090622 0.165508 O2-
0.921841 0.709404 0.117514 O2-
0.078159 0.209404 0.173069 O2-
0.049265 0.843555 0.122611 O2-
0.950735 0.343555 0.178167 O2-
0.918787 0.943480 0.134690 O2-
0.081213 0.443480 0.190245 O2-
0.944691 0.504327 0.206922 O2-
0.055309 0.004327 0.151367 O2-
0.322795 0.926111 0.208330 O2-
0.677205 0.426111 0.152775 O2-
0.313918 0.066074 0.195454 O2-
0.686082 0.566074 0.139899 O2-
0.643576 0.041349 0.221503 O2-
0.356424 0.541349 0.165948 O2-
0.795305 0.153257 0.205339 O2-
0.204695 0.653257 0.149784 O2-
0.351974 0.154647 0.123918 O2-
0.648026 0.654647 0.179474 O2-
0.281781 0.224590 0.214250 O2-
0.718219 0.724590 0.158694 O2-
0.751546 0.252705 0.134247 O2-
0.248454 0.752705 0.189802 O2-
0.656290 0.330648 0.114125 O2-
0.343710 0.830648 0.169681 O2-
0.215121 0.332841 0.143111 O2-
0.784879 0.832841 0.198666 O2-
0.355777 0.446708 0.127184 O2-
0.644223 0.946708 0.182739 O2-
0.649890 0.536665 0.221244 O2-
0.350110 0.036665 0.165689 O2-
0.785996 0.649394 0.205105 O2-
0.214004 0.149394 0.149550 O2-
0.340793 0.651785 0.123320 O2-
0.659207 0.151785 0.178875 O2-
0.258044 0.728542 0.214045 O2-
0.741956 0.228542 0.158489 O2-
0.725734 0.758375 0.134129 O2-
0.274266 0.258375 0.189684 O2-
0.642950 0.828801 0.113482 O2-
0.357050 0.328801 0.169037 O2-
0.205272 0.829973 0.142962 O2-
0.794728 0.329973 0.198518 O2-
0.347295 0.944360 0.126989 O2-
0.652705 0.444360 0.182544 O2-
0.677470 0.919559 0.153097 O2-
0.322530 0.419559 0.208653 O2-
0.678914 0.057634 0.139701 O2-
0.321086 0.557634 0.195257 O2-
0.069000 0.035413 0.324981 O2-
0.931000 0.535413 0.269425 O2-
0.951087 0.140628 0.225534 O2-
0.048913 0.640628 0.281090 O2-
0.080018 0.275856 0.230339 O2-
0.919982 0.775856 0.285894 O2-
0.926681 0.392259 0.238322 O2-
0.073319 0.892259 0.293878 O2-
0.942022 0.978148 0.307995 O2-
0.057978 0.478148 0.252439 O2-
0.076781 0.590622 0.332174 O2-
0.923219 0.090622 0.276619 O2-
0.921841 0.709404 0.228625 O2-
0.078159 0.209404 0.284181 O2-
0.049265 0.843555 0.233722 O2-
0.950735 0.343555 0.289278 O2-
0.918787 0.943480 0.245801 O2-
0.081213 0.443480 0.301356 O2-
0.944691 0.504327 0.318033 O2-
0.055309 0.004327 0.262478 O2-
0.322795 0.926111 0.319441 O2-
0.677205 0.426111 0.263886 O2-
0.313918 0.066074 0.306566 O2-
0.686082 0.566074 0.251010 O2-
0.643576 0.041349 0.332615 O2-
0.356424 0.541349 0.277059 O2-
0.795305 0.153257 0.316450 O2-
0.204695 0.653257 0.260895 O2-
0.351974 0.154647 0.235030 O2-
0.648026 0.654647 0.290585 O2-
0.281781 0.224590 0.325361 O2-
0.718219 0.724590 0.269805 O2-
0.751546 0.252705 0.245358 O2-
0.248454 0.752705 0.300913 O2-
0.656290 0.330648 0.225236 O2-
0.343710 0.830648 0.280792 O2-
0.215121 0.332841 0.254222 O2-
0.784879 0.832841 0.309778 O2-
0.355777 0.446708 0.238295 O2-
0.644223 0.946708 0.293850 O2-
0.649890 0.536665 0.332355 O2-
0.350110 0.036665 0.276800 O2-
0.785996 0.649394 0.316216 O2-
0.214004 0.149394 0.260661 O2-
0.340793 0.651785 0.234431 O2-
0.659207 0.151785 0.289986 O2-
0.258044 0.728542 0.325156 O2-
0.741956 0.228542 0.269600 O2-
0.725734 0.758375 0.245240 O2-
0.274266 0.258375 0.300796 O2-
0.642950 0.828801 0.224593 O2-
0.357050 0.328801 0.280148 O2-
0.205272 0.829973 0.254074 O2-
0.794728 0.329973 0.309629 O2-
0.347295 0.944360 0.238100 O2-
0.652705 0.444360 0.293655 O2-
0.677470 0.919559 0.264209 O2-
0.322530 0.419559 0.319764 O2-
0.678914 0.057634 0.250812 O2-
0.321086 0.557634 0.306368 O2-
0.069000 0.035413 0.436092 O2-
0.931000 0.535413 0.380536 O2-
0.951087 0.140628 0.336645 O2-
0.048913 0.640628 0.392201 O2-
0.080018 0.275856 0.341450 O2-
0.919982 0.775856 0.397006 O2-
0.926681 0.392259 0.349433 O2-
0.073319 0.892259 0.404989 O2-
0.942022 0.978148 0.419106 O2-
0.057978 0.478148 0.363551 O2-
0.076781 0.590622 0.443285 O2-
0.923219 0.090622 0.387730 O2-
0.921841 0.709404 0.339736 O2-
0.078159 0.209404 0.395292 O2-
0.049265 0.843555 0.344833 O2-
0.950735 0.343555 0.400389 O2-
0.918787 0.943480 0.356912 O2-
0.081213 0.443480 0.412467 O2-
0.944691 0.504327 0.429144 O2-
0.055309 0.004327 0.373589 O2-
0.322795 0.926111 0.430552 O2-
0.677205 0.426111 0.374997 O2-
0.313918 0.066074 0.417677 O2-
0.686082 0.566074 0.362121 O2-
0.643576 0.041349 0.443726 O2-
0.356424 0.541349 0.388170 O2-
0.795305 0.153257 0.427562 O2-
0.204695 0.653257 0.372006 O2-
0.351974 0.154647 0.346141 O2-
0.648026 0.654647 0.401696 O2-
0.281781 0.224590 0.436472 O2-
0.718219 0.724590 0.380916 O2-
0.751546 0.252705 0.356469 O2-
0.248454 0.752705 0.412024 O2-
0.656290 0.330648 0.336347 O2-
0.343710 0.830648 0.391903 O2-
0.215121 0.332841 0.365333 O2-
0.784879 0.832841 0.420889 O2-
0.355777 0.446708 0.349406 O2-
0.644223 0.946708 0.404961 O2-
0.649890 0.536665 0.443467 O2-
0.350110 0.036665 0.387911 O2-
0.785996 0.649394 0.427328 O2-
0.214004 0.149394 0.371772 O2-
0.340793 0.651785 0.345542 O2-
0.659207 0.151785 0.401097 O2-
0.258044 0.728542 0.436267 O2-
0.741956 0.228542 0.380711 O2-
0.725734 0.758375 0.356351 O2-
0.274266 0.258375 0.411907 O2-
0.642950 0.828801 0.335704 O2-
0.357050 0.328801 0.391259 O2-
0.205272 0.829973 0.365185 O2-
0.794728 0.329973 0.420740 O2-
0.347295 0.944360 0.349211 O2-
0.652705 0.444360 0.404767 O2-
0.677470 0.919559 0.375320 O2-
0.322530 0.419559 0.430875 O2-
0.678914 0.057634 0.361923 O2-
0.321086 0.557634 0.417479 O2-
0.069000 0.035413 0.547203 O2-
0.931000 0.535413 0.491647 O2-
0.951087 0.140628 0.447756 O2-
0.048913 0.640628 0.503312 O2-
0.080018 0.275856 0.452561 O2-
0.919982 0.775856 0.508117 O2-
0.926681 0.392259 0.460544 O2-
0.073319 0.892259 0.516100 O2-
0.942022 0.978148 0.530217 O2-
0.057978 0.478148 0.474662 O2-
0.076781 0.590622 0.554397 O2-
0.923219 0.090622 0.498841 O2-
0.921841 0.709404 0.450847 O2-
0.078159 0.209404 0.506403 O2-
0.049265 0.843555 0.455944 O2-
0.950735 0.343555 0.511500 O2-
0.918787 0.943480 0.468023 O2-
0.081213 0.443480 0.523579 O2-
0.944691 0.504327 0.540255 O2-
0.055309 0.004327 0.484700 O2-
0.322795 0.926111 0.541663 O2-
0.677205 0.426111 0.486108 O2-
0.313918 0.066074 0.528788 O2-
0.686082 0.566074 0.473232 O2-
0.643576 0.041349 0.554837 O2-
0.356424 0.541349 0.499281 O2-
0.795305 0.153257 0.538673 O2-
0.204695 0.653257 0.483117 O2-
0.351974 0.154647 0.457252 O2-
0.648026 0.654647 0.512807 O2-
0.281781 0.224590 0.547583 O2-
0.718219 0.724590 0.492028 O2-
0.751546 0.252705 0.467580 O2-
0.248454 0.752705 0.523136 O2-
0.656290 0.330648 0.447459 O2-
0.343710 0.830648 0.503014 O2-
0.215121 0.332841 0.476444 O2-
0.784879 0.832841 0.532000 O2-
0.355777 0.446708 0.460517 O2-
0.644223 0.946708 0.516072 O2-
0.649890 0.536665 0.554578 O2-
0.350110 0.036665 0.499022 O2-
0.785996 0.649394 0.538439 O2-
0.214004 0.149394 0.482883 O2-
0.340793 0.651785 0.456653 O2-
0.659207 0.151785 0.512208 O2-
0.258044 0.728542 0.547378 O2-
0.741956 0.228542 0.491822 O2-
0.725734 0.758375 0.467462 O2-
0.274266 0.258375 0.523018 O2-
0.642950 0.828801 0.446815 O2-
0.357050 0.328801 0.502370 O2-
0.205272 0.829973 0.476296 O2-
0.794728 0.329973 0.531851 O2-
0.347295 0.944360 0.460322 O2-
0.652705 0.444360 0.515878 O2-
0.677470 0.919559 0.486431 O2-
0.322530 0.419559 0.541986 O2-
0.678914 0.057634 0.473035 O2-
0.321086 0.557634 0.528590 O2-
0.069000 0.035413 0.658314 O2-
0.931000 0.535413 0.602759 O2-
0.951087 0.140628 0.558867 O2-
0.048913 0.640628 0.614423 O2-
0.080018 0.275856 0.563672 O2-
0.919982 0.775856 0.619228 O2-
0.926681 0.392259 0.571656 O2-
0.073319 0.892259 0.627211 O2-
0.942022 0.978148 0.641328 O2-
0.057978 0.478148 0.585773 O2-
0.076781 0.590622 0.665508 O2-
0.923219 0.090622 0.609952 O2-
0.921841 0.709404 0.561958 O2-
0.078159 0.209404 0.617514 O2-
0.049265 0.843555 0.567055 O2-
0.950735 0.343555 0.622611 O2-
0.918787 0.943480 0.579134 O2-
0.081213 0.443480 0.634690 O2-
0.944691 0.504327 0.651367 O2-
0.055309 0.004327 0.595811 O2-
0.322795 0.926111 0.652775 O2-
0.677205 0.426111 0.597219 O2-
0.313918 0.066074 0.639899 O2-
0.686082 0.566074 0.584343 O2-
0.643576 0.041349 0.665948 O2-
0.356424 0.541349 0.610392 O2-
0.795305 0.153257 0.649784 O2-
0.204695 0.653257 0.594228 O2-
0.351974 0.154647 0.568363 O2-
0.648026 0.654647 0.623918 O2-
0.281781 0.224590 0.658694 O2-
0.718219 0.724590 0.603139 O2-
0.751546 0.252705 0.578691 O2-
0.248454 0.752705 0.634247 O2-
0.656290 0.330648 0.558570 O2-
0.343710 0.830648 0.614125 O2-
0.215121 0.332841 0.587555 O2-
0.784879 0.832841 0.643111 O2-
0.355777 0.446708 0.571628 O2-
0.644223 0.946708 0.627184 O2-
0.649890 0.536665 0.665689 O2-
0.350110 0.036665 0.610133 O2-
0.785996 0.649394 0.649550 O2-
0.214004 0.149394 0.593994 O2-
0.340793 0.651785 0.567764 O2-
0.659207 0.151785 0.623320 O2-
0.258044 0.728542 0.658489 O2-
0.741956 0.228542 0.602934 O2-
0.725734 0.758375 0.578573 O2-
0.274266 0.258375 0.634129 O2-
0.642950 0.828801 0.557926 O2-
0.357050 0.328801 0.613482 O2-
0.205272 0.829973 0.587407 O2-
0.794728 0.329973 0.642962 O2-
0.347295 0.944360 0.571433 O2-
0.652705 0.444360 0.626989 O2-
0.677470 0.919559 0.597542 O2-
0.322530 0.419559 0.653097 O2-
0.678914 0.057634 0.584146 O2-
0.321086 0.557634 0.639701 O2-
0.069000 0.035413 0.769425 O2-
0.931000 0.535413 0.713870 O2-
0.951087 0.140628 0.669978 O2-
0.048913 0.640628 0.725534 O2-
0.080018 0.275856 0.674783 O2-
0.919982 0.775856 0.730339 O2-
0.926681 0.392259 0.682767 O2-
0.073319 0.892259 0.738322 O2-
0.942022 0.978148 0.752439 O2-
0.057978 0.478148 0.696884 O2-
0.076781 0.590622 0.776619 O2-
0.923219 0.090622 0.721063 O2-
0.921841 0.709404 0.673069 O2-
0.078159 0.209404 0.728625 O2-
0.049265 0.843555 0.678167 O2-
0.950735 0.343555 0.733722 O2-
0.918787 0.943480 0.690245 O2-
0.081213 0.443480 0.745801 O2-
0.944691 0.504327 0.762478 O2-
0.055309 0.004327 0.706922 O2-
0.322795 0.926111 0.763886 O2-
0.677205 0.426111 0.708330 O2-
0.313918 0.066074 0.751010 O2-
0.686082 0.566074 0.695454 O2-
0.643576 0.041349 0.777059 O2-
0.356424 0.541349 0.721503 O2-
0.795305 0.153257 0.760895 O2-
0.204695 0.653257 0.705339 O2-
0.351974 0.154647 0.679474 O2-
0.648026 0.654647 0.735030 O2-
0.281781 0.224590 0.769805 O2-
0.718219 0.724590 0.714250 O2-
0.751546 0.252705 0.689802 O2-
0.248454 0.752705 0.745358 O2-
0.656290 0.330648 0.669681 O2-
0.343710 0.830648 0.725236 O2-
0.215121 0.332841 0.698666 O2-
0.784879 0.832841 0.754222 O2-
0.355777 0.446708 0.682739 O2-
0.644223 0.946708 0.738295 O2-
0.649890 0.536665 0.776800 O2-
0.350110 0.036665 0.721244 O2-
0.785996 0.649394 0.760661 O2-
0.214004 0.149394 0.705105 O2-
0.340793 0.651785 0.678875 O2-
0.659207 0.151785 0.734431 O2-
0.258044 0.728542 0.769600 O2-
0.741956 0.228542 0.714045 O2-
0.725734 0.758375 0.689684 O2-
0.274266 0.258375 0.745240 O2-
0.642950 0.828801 0.669037 O2-
0.357050 0.328801 0.724593 O2-
0.205272 0.829973 0.698518 O2-
0.794728 0.329973 0.754074 O2-
0.347295 0.944360 0.682544 O2-
0.652705 0.444360 0.738100 O2-
0.677470 0.919559 0.708653 O2-
0.322530 0.419559 0.764209 O2-
0.678914 0.057634 0.695257 O2-
0.321086 0.557634 0.750812 O2-
