Li5 P2 N1 O6                            
   1.00000000000000     
    -0.0153154687201318   -0.0598539599592178    4.8612014174169511
     6.5941675882583528   -0.0948061530989844   -0.0180676779297524
    -0.0822435187243602    5.2588263814993104   -0.0657621629416041
   Li   P    N    O 
     5     2     1     6
Direct
  0.5003803257843435 -0.0159717275449502  0.8592228002613691
  0.5033713985170640  0.7473991893813069  0.3158601215011246
  0.0049770890106568  0.7856674082422299  0.6452728575273129
 -0.0047783260187155  0.2065747548736061  0.6593211939132165
  0.5036155958957729  0.2541555558972583  0.3183336576474495
  0.5869537568434300  0.5081523572036591  0.8319760292315349
  0.0031208525049306  0.0030566703333100  0.1797732324407156
  0.5996733387501925  0.7074832975841377  0.6902893522067916
  0.1160118864327028  0.1941546257505670  0.3270314332019788
  0.1116963726461025  0.8095674751568924  0.3053584221336437
  0.6169071794741667  0.2973084666849661  0.6990374757447809
  0.5435901657978087  0.4914620207702970  0.1143193682622164
  0.0958496490510507  0.0061521122777322  0.8938234674125289
  0.6818227153105222  0.0048377933889879  0.1865045885153381
 
  0.00000000E+00  0.00000000E+00  0.00000000E+00
  0.00000000E+00  0.00000000E+00  0.00000000E+00
  0.00000000E+00  0.00000000E+00  0.00000000E+00
  0.00000000E+00  0.00000000E+00  0.00000000E+00
  0.00000000E+00  0.00000000E+00  0.00000000E+00
  0.00000000E+00  0.00000000E+00  0.00000000E+00
  0.00000000E+00  0.00000000E+00  0.00000000E+00
  0.00000000E+00  0.00000000E+00  0.00000000E+00
  0.00000000E+00  0.00000000E+00  0.00000000E+00
  0.00000000E+00  0.00000000E+00  0.00000000E+00
  0.00000000E+00  0.00000000E+00  0.00000000E+00
  0.00000000E+00  0.00000000E+00  0.00000000E+00
  0.00000000E+00  0.00000000E+00  0.00000000E+00
  0.00000000E+00  0.00000000E+00  0.00000000E+00
