Li140 P140 O420
1.0
13.312980 0.000000 5.521558
23.948210 16.540545 0.000000
0.000000 0.000000 60.737138
Li P O
140 140 420
Selective dynamics
direct
0.308258 0.818220 0.068984 F F F Li
0.808258 0.318220 0.024510 T T T Li
0.954826 0.934004 0.009279 T T T Li
0.454826 0.434004 0.057567 F F F Li
0.603500 0.049457 0.043160 F F F Li
0.103500 0.549457 0.087563 F F F Li
0.253749 0.164548 0.075087 F F F Li
0.753749 0.664548 0.028319 T T T Li
0.029328 0.241566 0.048721 T T T Li
0.529328 0.741566 0.004579 T T T Li
0.305977 0.318286 0.071609 F F F Li
0.805977 0.818286 0.022301 T T T Li
0.953995 0.433730 0.008618 T T T Li
0.453995 0.933730 0.058379 F F F Li
0.601365 0.550453 0.045851 F F F Li
0.101365 0.050453 0.085260 F F F Li
0.248464 0.667016 0.072887 F F F Li
0.748464 0.167016 0.031480 T T T Li
0.023195 0.743634 0.046379 F F F Li
0.523195 0.243634 0.008036 T T T Li
0.308258 0.818220 0.159893 F F F Li
0.808258 0.318220 0.115419 F F F Li
0.954826 0.934004 0.100188 F F F Li
0.454826 0.434004 0.148476 F F F Li
0.603500 0.049457 0.134069 F F F Li
0.103500 0.549457 0.178472 F F F Li
0.253749 0.164548 0.165996 F F F Li
0.753749 0.664548 0.119228 F F F Li
0.029328 0.241566 0.139630 F F F Li
0.529328 0.741566 0.095488 F F F Li
0.305977 0.318286 0.162518 F F F Li
0.805977 0.818286 0.113210 F F F Li
0.953995 0.433730 0.099527 F F F Li
0.453995 0.933730 0.149288 F F F Li
0.601365 0.550453 0.136760 F F F Li
0.101365 0.050453 0.176170 F F F Li
0.248464 0.667016 0.163796 F F F Li
0.748464 0.167016 0.122389 F F F Li
0.023195 0.743634 0.137289 F F F Li
0.523195 0.243634 0.098945 F F F Li
0.308258 0.818220 0.250803 F F F Li
0.808258 0.318220 0.206329 F F F Li
0.954826 0.934004 0.191097 F F F Li
0.454826 0.434004 0.239385 F F F Li
0.603500 0.049457 0.224979 F F F Li
0.103500 0.549457 0.269381 F F F Li
0.253749 0.164548 0.256905 F F F Li
0.753749 0.664548 0.210137 F F F Li
0.029328 0.241566 0.230540 F F F Li
0.529328 0.741566 0.186397 F F F Li
0.305977 0.318286 0.253427 F F F Li
0.805977 0.818286 0.204119 F F F Li
0.953995 0.433730 0.190436 F F F Li
0.453995 0.933730 0.240197 F F F Li
0.601365 0.550453 0.227669 F F F Li
0.101365 0.050453 0.267079 F F F Li
0.248464 0.667016 0.254705 F F F Li
0.748464 0.167016 0.213298 F F F Li
0.023195 0.743634 0.228198 F F F Li
0.523195 0.243634 0.189854 F F F Li
0.308258 0.818220 0.341712 F F F Li
0.808258 0.318220 0.297238 F F F Li
0.954826 0.934004 0.282007 F F F Li
0.454826 0.434004 0.330294 F F F Li
0.603500 0.049457 0.315888 F F F Li
0.103500 0.549457 0.360290 F F F Li
0.253749 0.164548 0.347814 F F F Li
0.753749 0.664548 0.301046 F F F Li
0.029328 0.241566 0.321449 F F F Li
0.529328 0.741566 0.277306 F F F Li
0.305977 0.318286 0.344336 F F F Li
0.805977 0.818286 0.295028 F F F Li
0.953995 0.433730 0.281345 F F F Li
0.453995 0.933730 0.331106 F F F Li
0.601365 0.550453 0.318579 F F F Li
0.101365 0.050453 0.357988 F F F Li
0.248464 0.667016 0.345614 F F F Li
0.748464 0.167016 0.304207 F F F Li
0.023195 0.743634 0.319107 F F F Li
0.523195 0.243634 0.280763 F F F Li
0.308258 0.818220 0.432621 F F F Li
0.808258 0.318220 0.388147 F F F Li
0.954826 0.934004 0.372916 F F F Li
0.454826 0.434004 0.421203 F F F Li
0.603500 0.049457 0.406797 F F F Li
0.103500 0.549457 0.451200 F F F Li
0.253749 0.164548 0.438723 F F F Li
0.753749 0.664548 0.391955 F F F Li
0.029328 0.241566 0.412358 F F F Li
0.529328 0.741566 0.368215 F F F Li
0.305977 0.318286 0.435245 F F F Li
0.805977 0.818286 0.385937 F F F Li
0.953995 0.433730 0.372254 F F F Li
0.453995 0.933730 0.422016 F F F Li
0.601365 0.550453 0.409488 F F F Li
0.101365 0.050453 0.448897 F F F Li
0.248464 0.667016 0.436523 F F F Li
0.748464 0.167016 0.395116 F F F Li
0.023195 0.743634 0.410016 F F F Li
0.523195 0.243634 0.371672 F F F Li
0.308258 0.818220 0.523530 F F F Li
0.808258 0.318220 0.479056 F F F Li
0.954826 0.934004 0.463825 F F F Li
0.454826 0.434004 0.512112 F F F Li
0.603500 0.049457 0.497706 F F F Li
0.103500 0.549457 0.542109 F F F Li
0.253749 0.164548 0.529632 F F F Li
0.753749 0.664548 0.482864 F F F Li
0.029328 0.241566 0.503267 F F F Li
0.529328 0.741566 0.459124 F F F Li
0.305977 0.318286 0.526154 F F F Li
0.805977 0.818286 0.476846 F F F Li
0.953995 0.433730 0.463163 F F F Li
0.453995 0.933730 0.512925 F F F Li
0.601365 0.550453 0.500397 F F F Li
0.101365 0.050453 0.539806 F F F Li
0.248464 0.667016 0.527432 F F F Li
0.748464 0.167016 0.486025 F F F Li
0.023195 0.743634 0.500925 F F F Li
0.523195 0.243634 0.462581 F F F Li
0.308258 0.818220 0.614439 T T T Li
0.808258 0.318220 0.569965 F F F Li
0.954826 0.934004 0.554734 F F F Li
0.454826 0.434004 0.603021 F F F Li
0.603500 0.049457 0.588615 F F F Li
0.103500 0.549457 0.633018 T T T Li
0.253749 0.164548 0.620541 T T T Li
0.753749 0.664548 0.573773 F F F Li
0.029328 0.241566 0.594176 T T T Li
0.529328 0.741566 0.550033 F F F Li
0.305977 0.318286 0.617063 T T T Li
0.805977 0.818286 0.567755 F F F Li
0.953995 0.433730 0.554072 F F F Li
0.453995 0.933730 0.603834 F F F Li
0.601365 0.550453 0.591306 F F F Li
0.101365 0.050453 0.630715 T T T Li
0.248464 0.667016 0.618341 T T T Li
0.748464 0.167016 0.576934 F F F Li
0.023195 0.743634 0.591834 F F F Li
0.523195 0.243634 0.553490 F F F Li
0.000366 0.000413 0.068863 F F F P
0.500366 0.500413 0.080612 F F F P
0.701107 0.093280 0.064972 T T T P
0.201107 0.593280 0.048005 F F F P
0.401802 0.197061 0.032647 F F F P
0.901802 0.697061 0.043839 F F F P
0.100084 0.308311 0.027398 F F F P
0.600084 0.808311 0.013038 T T T P
0.800152 0.408249 0.084733 F F F P
0.300152 0.908249 0.010235 T T T P
0.760353 0.574567 0.059642 F F F P
0.260353 0.074567 0.042563 F F F P
0.460110 0.674438 0.026063 T T T P
0.960110 0.174438 0.039823 T T T P
0.157222 0.786455 0.020685 T T T P
0.657222 0.286455 0.009362 T T T P
0.858010 0.889856 0.078761 F F F P
0.358010 0.389856 0.005688 T T T P
0.558735 0.982845 0.074874 F F F P
0.058735 0.482845 0.063989 F F F P
0.000366 0.000413 0.159772 F F F P
0.500366 0.500413 0.171521 F F F P
0.701107 0.093280 0.155881 F F F P
0.201107 0.593280 0.138914 F F F P
0.401802 0.197061 0.123556 F F F P
0.901802 0.697061 0.134748 F F F P
0.100084 0.308311 0.118307 F F F P
0.600084 0.808311 0.103947 F F F P
0.800152 0.408249 0.175642 F F F P
0.300152 0.908249 0.101144 F F F P
0.760353 0.574567 0.150551 F F F P
0.260353 0.074567 0.133472 F F F P
0.460110 0.674438 0.116972 F F F P
0.960110 0.174438 0.130732 F F F P
0.157222 0.786455 0.111594 F F F P
0.657222 0.286455 0.100271 F F F P
0.858010 0.889856 0.169670 F F F P
0.358010 0.389856 0.096597 F F F P
0.558735 0.982845 0.165783 F F F P
0.058735 0.482845 0.154898 F F F P
0.000366 0.000413 0.250681 F F F P
0.500366 0.500413 0.262431 F F F P
0.701107 0.093280 0.246790 F F F P
0.201107 0.593280 0.229823 F F F P
0.401802 0.197061 0.214466 F F F P
0.901802 0.697061 0.225658 F F F P
0.100084 0.308311 0.209216 F F F P
0.600084 0.808311 0.194856 F F F P
0.800152 0.408249 0.266551 F F F P
0.300152 0.908249 0.192054 F F F P
0.760353 0.574567 0.241460 F F F P
0.260353 0.074567 0.224382 F F F P
0.460110 0.674438 0.207881 F F F P
0.960110 0.174438 0.221641 F F F P
0.157222 0.786455 0.202503 F F F P
0.657222 0.286455 0.191180 F F F P
0.858010 0.889856 0.260579 F F F P
0.358010 0.389856 0.187506 F F F P
0.558735 0.982845 0.256692 F F F P
0.058735 0.482845 0.245807 F F F P
0.000366 0.000413 0.341590 F F F P
0.500366 0.500413 0.353340 F F F P
0.701107 0.093280 0.337699 F F F P
0.201107 0.593280 0.320732 F F F P
0.401802 0.197061 0.305375 F F F P
0.901802 0.697061 0.316567 F F F P
0.100084 0.308311 0.300125 F F F P
0.600084 0.808311 0.285765 F F F P
0.800152 0.408249 0.357461 F F F P
0.300152 0.908249 0.282963 F F F P
0.760353 0.574567 0.332369 F F F P
0.260353 0.074567 0.315291 F F F P
0.460110 0.674438 0.298790 F F F P
0.960110 0.174438 0.312550 F F F P
0.157222 0.786455 0.293412 F F F P
0.657222 0.286455 0.282089 F F F P
0.858010 0.889856 0.351488 F F F P
0.358010 0.389856 0.278415 F F F P
0.558735 0.982845 0.347601 F F F P
0.058735 0.482845 0.336716 F F F P
0.000366 0.000413 0.432499 F F F P
0.500366 0.500413 0.444249 F F F P
0.701107 0.093280 0.428608 F F F P
0.201107 0.593280 0.411641 F F F P
0.401802 0.197061 0.396284 F F F P
0.901802 0.697061 0.407476 F F F P
0.100084 0.308311 0.391034 F F F P
0.600084 0.808311 0.376674 F F F P
0.800152 0.408249 0.448370 F F F P
0.300152 0.908249 0.373872 F F F P
0.760353 0.574567 0.423278 F F F P
0.260353 0.074567 0.406200 F F F P
0.460110 0.674438 0.389699 F F F P
0.960110 0.174438 0.403459 F F F P
0.157222 0.786455 0.384321 F F F P
0.657222 0.286455 0.372998 F F F P
0.858010 0.889856 0.442397 F F F P
0.358010 0.389856 0.369324 F F F P
0.558735 0.982845 0.438510 F F F P
0.058735 0.482845 0.427625 F F F P
0.000366 0.000413 0.523408 F F F P
0.500366 0.500413 0.535158 F F F P
0.701107 0.093280 0.519517 F F F P
0.201107 0.593280 0.502551 F F F P
0.401802 0.197061 0.487193 F F F P
0.901802 0.697061 0.498385 F F F P
0.100084 0.308311 0.481943 F F F P
0.600084 0.808311 0.467583 F F F P
0.800152 0.408249 0.539279 F F F P
0.300152 0.908249 0.464781 F F F P
0.760353 0.574567 0.514187 F F F P
0.260353 0.074567 0.497109 F F F P
0.460110 0.674438 0.480608 F F F P
0.960110 0.174438 0.494368 F F F P
0.157222 0.786455 0.475231 F F F P
0.657222 0.286455 0.463907 F F F P
0.858010 0.889856 0.533306 F F F P
0.358010 0.389856 0.460233 F F F P
0.558735 0.982845 0.529419 F F F P
0.058735 0.482845 0.518534 F F F P
0.000366 0.000413 0.614317 T T T P
0.500366 0.500413 0.626067 T T T P
0.701107 0.093280 0.610426 T T T P
0.201107 0.593280 0.593460 T T T P
0.401802 0.197061 0.578102 T T T P
0.901802 0.697061 0.589294 F F F P
0.100084 0.308311 0.572852 F F F P
0.600084 0.808311 0.558493 F F F P
0.800152 0.408249 0.630188 T T T P
0.300152 0.908249 0.555690 F F F P
0.760353 0.574567 0.605096 T T T P
0.260353 0.074567 0.588018 F F F P
0.460110 0.674438 0.571517 F F F P
0.960110 0.174438 0.585277 F F F P
0.157222 0.786455 0.566140 F F F P
0.657222 0.286455 0.554816 F F F P
0.858010 0.889856 0.624215 T T T P
0.358010 0.389856 0.551143 F F F P
0.558735 0.982845 0.620328 T T T P
0.058735 0.482845 0.609443 F F F P
0.834602 0.035413 0.073353 F F F O
0.334602 0.535413 0.015353 F F F O
0.519193 0.140628 0.000398 F F F O
0.019193 0.640628 0.054745 F F F O
0.205494 0.275856 0.040637 F F F O
0.705494 0.775856 0.071543 F F F O
0.900837 0.392259 0.054393 F F F O
0.400837 0.892259 0.022269 T T T O
0.102004 0.978148 0.037500 T T T O
0.602004 0.478148 0.002587 F F F O
0.659442 0.590622 0.089983 F F F O
0.159442 0.090622 0.030569 F F F O
0.353822 0.709404 0.012773 T T T O
0.853822 0.209404 0.072438 F F F O
0.039646 0.843555 0.052918 F F F O
0.539646 0.343555 0.089415 F F F O
0.731088 0.943480 0.069107 F F F O
0.231088 0.443480 0.038419 T T T O
0.959302 0.504327 0.050715 F F F O
0.459302 0.004327 0.015317 F F F O
0.103062 0.926111 0.072019 F F F O
0.603062 0.426111 0.058784 F F F O
0.939017 0.066074 0.086126 F F F O
0.439017 0.566074 0.074504 F F F O
0.754026 0.041349 0.042003 F F F O
0.254026 0.541349 0.061353 F F F O
0.675687 0.153257 0.062918 T T T O
0.175687 0.653257 0.054681 F F F O
0.405695 0.154647 0.047160 F F F O
0.905695 0.654647 0.028619 F F F O
0.452827 0.224590 0.036494 F F F O
0.952827 0.724590 0.030716 F F F O
0.116625 0.252705 0.018855 F F F O
0.616625 0.752705 0.018573 T T T O
0.141832 0.330648 0.007903 T T T O
0.641832 0.830648 0.024942 T T T O
0.876575 0.332841 0.082821 F F F O
0.376575 0.832841 0.089162 F F F O
0.792187 0.446708 0.012370 F F F O
0.292187 0.946708 0.084047 F F F O
0.765726 0.536665 0.041513 F F F O
0.265726 0.036665 0.059715 F F F O
0.685519 0.649394 0.061178 F F F O
0.185519 0.149394 0.054633 F F F O
0.416809 0.651785 0.045133 T T T O
0.916809 0.151785 0.028625 T T T O
0.446770 0.728542 0.034887 T T T O
0.946770 0.228542 0.033424 F F F O
0.106345 0.758375 0.017443 F F F O
0.606345 0.258375 0.021855 T T T O
0.151319 0.828801 0.005828 T T T O
0.651319 0.328801 0.025292 T T T O
0.883647 0.829973 0.081282 F F F O
0.383647 0.329973 0.089415 F F F O
0.798636 0.944360 0.011013 F F F O
0.298636 0.444360 0.084232 F F F O
0.613260 0.919559 0.057881 F F F O
0.113260 0.419559 0.071068 F F F O
0.457676 0.057634 0.072156 F F F O
0.957676 0.557634 0.085081 F F F O
0.834602 0.035413 0.164262 F F F O
0.334602 0.535413 0.106262 F F F O
0.519193 0.140628 0.091307 F F F O
0.019193 0.640628 0.145655 F F F O
0.205494 0.275856 0.131546 F F F O
0.705494 0.775856 0.162452 F F F O
0.900837 0.392259 0.145302 F F F O
0.400837 0.892259 0.113178 F F F O
0.102004 0.978148 0.128409 F F F O
0.602004 0.478148 0.093496 F F F O
0.659442 0.590622 0.180893 F F F O
0.159442 0.090622 0.121478 F F F O
0.353822 0.709404 0.103682 F F F O
0.853822 0.209404 0.163347 F F F O
0.039646 0.843555 0.143827 F F F O
0.539646 0.343555 0.180324 F F F O
0.731088 0.943480 0.160016 F F F O
0.231088 0.443480 0.129328 F F F O
0.959302 0.504327 0.141624 F F F O
0.459302 0.004327 0.106226 F F F O
0.103062 0.926111 0.162928 F F F O
0.603062 0.426111 0.149693 F F F O
0.939017 0.066074 0.177035 F F F O
0.439017 0.566074 0.165413 F F F O
0.754026 0.041349 0.132912 F F F O
0.254026 0.541349 0.152262 F F F O
0.675687 0.153257 0.153827 F F F O
0.175687 0.653257 0.145590 F F F O
0.405695 0.154647 0.138069 F F F O
0.905695 0.654647 0.119528 F F F O
0.452827 0.224590 0.127403 F F F O
0.952827 0.724590 0.121625 F F F O
0.116625 0.252705 0.109764 F F F O
0.616625 0.752705 0.109483 F F F O
0.141832 0.330648 0.098813 F F F O
0.641832 0.830648 0.115851 F F F O
0.876575 0.332841 0.173730 F F F O
0.376575 0.832841 0.180071 F F F O
0.792187 0.446708 0.103279 F F F O
0.292187 0.946708 0.174956 F F F O
0.765726 0.536665 0.132422 F F F O
0.265726 0.036665 0.150624 F F F O
0.685519 0.649394 0.152087 F F F O
0.185519 0.149394 0.145542 F F F O
0.416809 0.651785 0.136042 F F F O
0.916809 0.151785 0.119534 F F F O
0.446770 0.728542 0.125796 F F F O
0.946770 0.228542 0.124333 F F F O
0.106345 0.758375 0.108352 F F F O
0.606345 0.258375 0.112764 F F F O
0.151319 0.828801 0.096737 F F F O
0.651319 0.328801 0.116201 F F F O
0.883647 0.829973 0.172191 F F F O
0.383647 0.329973 0.180324 F F F O
0.798636 0.944360 0.101922 F F F O
0.298636 0.444360 0.175141 F F F O
0.613260 0.919559 0.148790 F F F O
0.113260 0.419559 0.161977 F F F O
0.457676 0.057634 0.163065 F F F O
0.957676 0.557634 0.175990 F F F O
0.834602 0.035413 0.255171 F F F O
0.334602 0.535413 0.197171 F F F O
0.519193 0.140628 0.182216 F F F O
0.019193 0.640628 0.236564 F F F O
0.205494 0.275856 0.222455 F F F O
0.705494 0.775856 0.253361 F F F O
0.900837 0.392259 0.236211 F F F O
0.400837 0.892259 0.204087 F F F O
0.102004 0.978148 0.219318 F F F O
0.602004 0.478148 0.184405 F F F O
0.659442 0.590622 0.271802 F F F O
0.159442 0.090622 0.212387 F F F O
0.353822 0.709404 0.194591 F F F O
0.853822 0.209404 0.254256 F F F O
0.039646 0.843555 0.234736 F F F O
0.539646 0.343555 0.271234 F F F O
0.731088 0.943480 0.250925 F F F O
0.231088 0.443480 0.220237 F F F O
0.959302 0.504327 0.232534 F F F O
0.459302 0.004327 0.197135 F F F O
0.103062 0.926111 0.253837 F F F O
0.603062 0.426111 0.240602 F F F O
0.939017 0.066074 0.267944 F F F O
0.439017 0.566074 0.256322 F F F O
0.754026 0.041349 0.223821 F F F O
0.254026 0.541349 0.243171 F F F O
0.675687 0.153257 0.244736 F F F O
0.175687 0.653257 0.236499 F F F O
0.405695 0.154647 0.228978 F F F O
0.905695 0.654647 0.210437 F F F O
0.452827 0.224590 0.218312 F F F O
0.952827 0.724590 0.212534 F F F O
0.116625 0.252705 0.200673 F F F O
0.616625 0.752705 0.200392 F F F O
0.141832 0.330648 0.189722 F F F O
0.641832 0.830648 0.206760 F F F O
0.876575 0.332841 0.264639 F F F O
0.376575 0.832841 0.270980 F F F O
0.792187 0.446708 0.194188 F F F O
0.292187 0.946708 0.265865 F F F O
0.765726 0.536665 0.223331 F F F O
0.265726 0.036665 0.241533 F F F O
0.685519 0.649394 0.242996 F F F O
0.185519 0.149394 0.236451 F F F O
0.416809 0.651785 0.226951 F F F O
0.916809 0.151785 0.210443 F F F O
0.446770 0.728542 0.216705 F F F O
0.946770 0.228542 0.215242 F F F O
0.106345 0.758375 0.199261 F F F O
0.606345 0.258375 0.203673 F F F O
0.151319 0.828801 0.187646 F F F O
0.651319 0.328801 0.207110 F F F O
0.883647 0.829973 0.263100 F F F O
0.383647 0.329973 0.271233 F F F O
0.798636 0.944360 0.192831 F F F O
0.298636 0.444360 0.266050 F F F O
0.613260 0.919559 0.239699 F F F O
0.113260 0.419559 0.252886 F F F O
0.457676 0.057634 0.253974 F F F O
0.957676 0.557634 0.266899 F F F O
0.834602 0.035413 0.346080 F F F O
0.334602 0.535413 0.288080 F F F O
0.519193 0.140628 0.273125 F F F O
0.019193 0.640628 0.327473 F F F O
0.205494 0.275856 0.313364 F F F O
0.705494 0.775856 0.344270 F F F O
0.900837 0.392259 0.327120 F F F O
0.400837 0.892259 0.294996 F F F O
0.102004 0.978148 0.310227 F F F O
0.602004 0.478148 0.275314 F F F O
0.659442 0.590622 0.362711 F F F O
0.159442 0.090622 0.303296 F F F O
0.353822 0.709404 0.285500 F F F O
0.853822 0.209404 0.345165 F F F O
0.039646 0.843555 0.325645 F F F O
0.539646 0.343555 0.362143 F F F O
0.731088 0.943480 0.341834 F F F O
0.231088 0.443480 0.311146 F F F O
0.959302 0.504327 0.323443 F F F O
0.459302 0.004327 0.288044 F F F O
0.103062 0.926111 0.344747 F F F O
0.603062 0.426111 0.331511 F F F O
0.939017 0.066074 0.358853 F F F O
0.439017 0.566074 0.347231 F F F O
0.754026 0.041349 0.314730 F F F O
0.254026 0.541349 0.334080 F F F O
0.675687 0.153257 0.335645 F F F O
0.175687 0.653257 0.327408 F F F O
0.405695 0.154647 0.319887 F F F O
0.905695 0.654647 0.301346 F F F O
0.452827 0.224590 0.309221 F F F O
0.952827 0.724590 0.303443 F F F O
0.116625 0.252705 0.291582 F F F O
0.616625 0.752705 0.291301 F F F O
0.141832 0.330648 0.280631 F F F O
0.641832 0.830648 0.297669 F F F O
0.876575 0.332841 0.355548 F F F O
0.376575 0.832841 0.361889 F F F O
0.792187 0.446708 0.285097 F F F O
0.292187 0.946708 0.356774 F F F O
0.765726 0.536665 0.314240 F F F O
0.265726 0.036665 0.332442 F F F O
0.685519 0.649394 0.333905 F F F O
0.185519 0.149394 0.327360 F F F O
0.416809 0.651785 0.317860 F F F O
0.916809 0.151785 0.301352 F F F O
0.446770 0.728542 0.307614 F F F O
0.946770 0.228542 0.306151 F F F O
0.106345 0.758375 0.290170 F F F O
0.606345 0.258375 0.294582 F F F O
0.151319 0.828801 0.278555 F F F O
0.651319 0.328801 0.298019 F F F O
0.883647 0.829973 0.354009 F F F O
0.383647 0.329973 0.362142 F F F O
0.798636 0.944360 0.283740 F F F O
0.298636 0.444360 0.356959 F F F O
0.613260 0.919559 0.330608 F F F O
0.113260 0.419559 0.343795 F F F O
0.457676 0.057634 0.344883 F F F O
0.957676 0.557634 0.357808 F F F O
0.834602 0.035413 0.436989 F F F O
0.334602 0.535413 0.378989 F F F O
0.519193 0.140628 0.364034 F F F O
0.019193 0.640628 0.418382 F F F O
0.205494 0.275856 0.404273 F F F O
0.705494 0.775856 0.435179 F F F O
0.900837 0.392259 0.418029 F F F O
0.400837 0.892259 0.385906 F F F O
0.102004 0.978148 0.401136 F F F O
0.602004 0.478148 0.366223 F F F O
0.659442 0.590622 0.453620 F F F O
0.159442 0.090622 0.394205 F F F O
0.353822 0.709404 0.376409 F F F O
0.853822 0.209404 0.436074 F F F O
0.039646 0.843555 0.416554 F F F O
0.539646 0.343555 0.453052 F F F O
0.731088 0.943480 0.432744 F F F O
0.231088 0.443480 0.402055 F F F O
0.959302 0.504327 0.414352 F F F O
0.459302 0.004327 0.378953 F F F O
0.103062 0.926111 0.435656 F F F O
0.603062 0.426111 0.422420 F F F O
0.939017 0.066074 0.449762 F F F O
0.439017 0.566074 0.438140 F F F O
0.754026 0.041349 0.405639 F F F O
0.254026 0.541349 0.424989 F F F O
0.675687 0.153257 0.426554 F F F O
0.175687 0.653257 0.418317 F F F O
0.405695 0.154647 0.410796 F F F O
0.905695 0.654647 0.392255 F F F O
0.452827 0.224590 0.400130 F F F O
0.952827 0.724590 0.394352 F F F O
0.116625 0.252705 0.382491 F F F O
0.616625 0.752705 0.382210 F F F O
0.141832 0.330648 0.371540 F F F O
0.641832 0.830648 0.388578 F F F O
0.876575 0.332841 0.446457 F F F O
0.376575 0.832841 0.452798 F F F O
0.792187 0.446708 0.376006 F F F O
0.292187 0.946708 0.447683 F F F O
0.765726 0.536665 0.405149 F F F O
0.265726 0.036665 0.423351 F F F O
0.685519 0.649394 0.424814 F F F O
0.185519 0.149394 0.418270 F F F O
0.416809 0.651785 0.408769 F F F O
0.916809 0.151785 0.392262 F F F O
0.446770 0.728542 0.398523 F F F O
0.946770 0.228542 0.397060 F F F O
0.106345 0.758375 0.381079 F F F O
0.606345 0.258375 0.385491 F F F O
0.151319 0.828801 0.369465 F F F O
0.651319 0.328801 0.388928 F F F O
0.883647 0.829973 0.444919 F F F O
0.383647 0.329973 0.453051 F F F O
0.798636 0.944360 0.374649 F F F O
0.298636 0.444360 0.447868 F F F O
0.613260 0.919559 0.421517 F F F O
0.113260 0.419559 0.434704 F F F O
0.457676 0.057634 0.435793 F F F O
0.957676 0.557634 0.448717 F F F O
0.834602 0.035413 0.527898 F F F O
0.334602 0.535413 0.469898 F F F O
0.519193 0.140628 0.454943 F F F O
0.019193 0.640628 0.509291 F F F O
0.205494 0.275856 0.495182 F F F O
0.705494 0.775856 0.526088 F F F O
0.900837 0.392259 0.508938 F F F O
0.400837 0.892259 0.476815 F F F O
0.102004 0.978148 0.492045 F F F O
0.602004 0.478148 0.457132 F F F O
0.659442 0.590622 0.544529 F F F O
0.159442 0.090622 0.485114 F F F O
0.353822 0.709404 0.467318 F F F O
0.853822 0.209404 0.526983 F F F O
0.039646 0.843555 0.507463 F F F O
0.539646 0.343555 0.543961 F F F O
0.731088 0.943480 0.523653 F F F O
0.231088 0.443480 0.492964 F F F O
0.959302 0.504327 0.505261 F F F O
0.459302 0.004327 0.469862 F F F O
0.103062 0.926111 0.526565 F F F O
0.603062 0.426111 0.513329 F F F O
0.939017 0.066074 0.540671 F F F O
0.439017 0.566074 0.529049 F F F O
0.754026 0.041349 0.496548 F F F O
0.254026 0.541349 0.515898 F F F O
0.675687 0.153257 0.517463 F F F O
0.175687 0.653257 0.509226 F F F O
0.405695 0.154647 0.501705 F F F O
0.905695 0.654647 0.483165 F F F O
0.452827 0.224590 0.491039 F F F O
0.952827 0.724590 0.485261 F F F O
0.116625 0.252705 0.473400 F F F O
0.616625 0.752705 0.473119 F F F O
0.141832 0.330648 0.462449 F F F O
0.641832 0.830648 0.479487 F F F O
0.876575 0.332841 0.537366 F F F O
0.376575 0.832841 0.543708 F F F O
0.792187 0.446708 0.466915 F F F O
0.292187 0.946708 0.538592 F F F O
0.765726 0.536665 0.496059 F F F O
0.265726 0.036665 0.514260 F F F O
0.685519 0.649394 0.515723 F F F O
0.185519 0.149394 0.509179 F F F O
0.416809 0.651785 0.499678 F F F O
0.916809 0.151785 0.483171 F F F O
0.446770 0.728542 0.489432 F F F O
0.946770 0.228542 0.487970 F F F O
0.106345 0.758375 0.471988 F F F O
0.606345 0.258375 0.476400 F F F O
0.151319 0.828801 0.460374 F F F O
0.651319 0.328801 0.479837 F F F O
0.883647 0.829973 0.535828 F F F O
0.383647 0.329973 0.543960 F F F O
0.798636 0.944360 0.465558 F F F O
0.298636 0.444360 0.538777 F F F O
0.613260 0.919559 0.512426 F F F O
0.113260 0.419559 0.525614 F F F O
0.457676 0.057634 0.526702 F F F O
0.957676 0.557634 0.539626 F F F O
0.834602 0.035413 0.618807 T T T O
0.334602 0.535413 0.560807 F F F O
0.519193 0.140628 0.545852 F F F O
0.019193 0.640628 0.600200 F F F O
0.205494 0.275856 0.586091 F F F O
0.705494 0.775856 0.616997 F F F O
0.900837 0.392259 0.599848 T T T O
0.400837 0.892259 0.567724 F F F O
0.102004 0.978148 0.582954 F F F O
0.602004 0.478148 0.548041 F F F O
0.659442 0.590622 0.635438 F F F O
0.159442 0.090622 0.576023 F F F O
0.353822 0.709404 0.558227 F F F O
0.853822 0.209404 0.617892 F F F O
0.039646 0.843555 0.598373 F F F O
0.539646 0.343555 0.634870 F F F O
0.731088 0.943480 0.614562 T T T O
0.231088 0.443480 0.583873 F F F O
0.959302 0.504327 0.596170 F F F O
0.459302 0.004327 0.560771 F F F O
0.103062 0.926111 0.617474 F F F O
0.603062 0.426111 0.604238 T T T O
0.939017 0.066074 0.631580 T T T O
0.439017 0.566074 0.619959 T T T O
0.754026 0.041349 0.587457 T T T O
0.254026 0.541349 0.606807 F F F O
0.675687 0.153257 0.608372 T T T O
0.175687 0.653257 0.600135 T T T O
0.405695 0.154647 0.592614 T T T O
0.905695 0.654647 0.574074 F F F O
0.452827 0.224590 0.581948 F F F O
0.952827 0.724590 0.576170 F F F O
0.116625 0.252705 0.564309 F F F O
0.616625 0.752705 0.564028 F F F O
0.141832 0.330648 0.553358 F F F O
0.641832 0.830648 0.570396 F F F O
0.876575 0.332841 0.628275 T T T O
0.376575 0.832841 0.634617 F F F O
0.792187 0.446708 0.557824 F F F O
0.292187 0.946708 0.629501 F F F O
0.765726 0.536665 0.586968 F F F O
0.265726 0.036665 0.605169 F F F O
0.685519 0.649394 0.606632 T T T O
0.185519 0.149394 0.600088 F F F O
0.416809 0.651785 0.590588 F F F O
0.916809 0.151785 0.574080 F F F O
0.446770 0.728542 0.580341 F F F O
0.946770 0.228542 0.578879 F F F O
0.106345 0.758375 0.562897 F F F O
0.606345 0.258375 0.567309 F F F O
0.151319 0.828801 0.551283 F F F O
0.651319 0.328801 0.570746 F F F O
0.883647 0.829973 0.626737 T T T O
0.383647 0.329973 0.634869 T T T O
0.798636 0.944360 0.556467 F F F O
0.298636 0.444360 0.629686 F F F O
0.613260 0.919559 0.603335 T T T O
0.113260 0.419559 0.616523 F F F O
0.457676 0.057634 0.617611 T T T O
0.957676 0.557634 0.630535 T T T O
