Li56 P28 N28 O56
1.0
5.461026 0.000000 0.000000
-0.000000 9.155868 4.748969
0.000000 0.000000 56.987628
Li P N O
56 28 28 56
Selective dynamics
direct
0.340535 0.665671 0.062718 F F F Li
0.340535 0.334329 0.006997 T T T Li
0.659465 0.334329 0.048663 F F F Li
0.659465 0.665671 0.021051 T T T Li
0.840536 0.165671 0.021051 T T T Li
0.840536 0.834329 0.048663 F F F Li
0.159465 0.834329 0.006997 T T T Li
0.159465 0.165671 0.062718 F F F Li
0.340535 0.665671 0.146051 F F F Li
0.340535 0.334329 0.090330 F F F Li
0.659465 0.334329 0.131997 F F F Li
0.659465 0.665671 0.104385 F F F Li
0.840536 0.165671 0.104385 F F F Li
0.840536 0.834329 0.131997 F F F Li
0.159465 0.834329 0.090330 F F F Li
0.159465 0.165671 0.146051 F F F Li
0.340535 0.665671 0.229385 F F F Li
0.340535 0.334329 0.173663 F F F Li
0.659465 0.334329 0.215330 F F F Li
0.659465 0.665671 0.187718 F F F Li
0.840536 0.165671 0.187718 F F F Li
0.840536 0.834329 0.215330 F F F Li
0.159465 0.834329 0.173663 F F F Li
0.159465 0.165671 0.229385 F F F Li
0.340535 0.665671 0.312718 F F F Li
0.340535 0.334329 0.256997 F F F Li
0.659465 0.334329 0.298663 F F F Li
0.659465 0.665671 0.271051 F F F Li
0.840536 0.165671 0.271051 F F F Li
0.840536 0.834329 0.298663 F F F Li
0.159465 0.834329 0.256997 F F F Li
0.159465 0.165671 0.312718 F F F Li
0.340535 0.665671 0.396051 F F F Li
0.340535 0.334329 0.340330 F F F Li
0.659465 0.334329 0.381997 F F F Li
0.659465 0.665671 0.354385 F F F Li
0.840536 0.165671 0.354385 F F F Li
0.840536 0.834329 0.381997 F F F Li
0.159465 0.834329 0.340330 F F F Li
0.159465 0.165671 0.396051 F F F Li
0.340535 0.665671 0.479385 F F F Li
0.340535 0.334329 0.423663 F F F Li
0.659465 0.334329 0.465330 F F F Li
0.659465 0.665671 0.437718 F F F Li
0.840536 0.165671 0.437718 F F F Li
0.840536 0.834329 0.465330 F F F Li
0.159465 0.834329 0.423663 F F F Li
0.159465 0.165671 0.479385 F F F Li
0.340535 0.665671 0.562718 T T T Li
0.340535 0.334329 0.506997 F F F Li
0.659465 0.334329 0.548663 T T T Li
0.659465 0.665671 0.521051 F F F Li
0.840536 0.165671 0.521051 F F F Li
0.840536 0.834329 0.548663 T T T Li
0.159465 0.834329 0.506997 F F F Li
0.159465 0.165671 0.562718 T T T Li
0.346250 0.000000 0.035111 T T T P
0.653750 0.000000 0.076778 F F F P
0.846250 0.500000 0.076778 F F F P
0.153750 0.500000 0.035111 T T T P
0.346250 0.000000 0.118444 F F F P
0.653750 0.000000 0.160111 F F F P
0.846250 0.500000 0.160111 F F F P
0.153750 0.500000 0.118444 F F F P
0.346250 0.000000 0.201778 F F F P
0.653750 0.000000 0.243444 F F F P
0.846250 0.500000 0.243444 F F F P
0.153750 0.500000 0.201778 F F F P
0.346250 0.000000 0.285111 F F F P
0.653750 0.000000 0.326778 F F F P
0.846250 0.500000 0.326778 F F F P
0.153750 0.500000 0.285111 F F F P
0.346250 0.000000 0.368444 F F F P
0.653750 0.000000 0.410111 F F F P
0.846250 0.500000 0.410111 F F F P
0.153750 0.500000 0.368444 F F F P
0.346250 0.000000 0.451778 F F F P
0.653750 0.000000 0.493444 F F F P
0.846250 0.500000 0.493444 F F F P
0.153750 0.500000 0.451778 F F F P
0.346250 0.000000 0.535111 T T T P
0.653750 0.000000 0.576778 T T T P
0.846250 0.500000 0.576778 T T T P
0.153750 0.500000 0.535111 T T T P
0.613000 0.000000 0.048222 F F F N
0.387000 0.000000 0.006556 T T T N
0.113000 0.500000 0.006556 T T T N
0.887000 0.500000 0.048222 F F F N
0.613000 0.000000 0.131556 F F F N
0.387000 0.000000 0.089889 F F F N
0.113000 0.500000 0.089889 F F F N
0.887000 0.500000 0.131556 F F F N
0.613000 0.000000 0.214889 F F F N
0.387000 0.000000 0.173222 F F F N
0.113000 0.500000 0.173222 F F F N
0.887000 0.500000 0.214889 F F F N
0.613000 0.000000 0.298222 F F F N
0.387000 0.000000 0.256556 F F F N
0.113000 0.500000 0.256556 F F F N
0.887000 0.500000 0.298222 F F F N
0.613000 0.000000 0.381556 F F F N
0.387000 0.000000 0.339889 F F F N
0.113000 0.500000 0.339889 F F F N
0.887000 0.500000 0.381556 F F F N
0.613000 0.000000 0.464889 F F F N
0.387000 0.000000 0.423222 F F F N
0.113000 0.500000 0.423222 F F F N
0.887000 0.500000 0.464889 F F F N
0.613000 0.000000 0.548222 T T T N
0.387000 0.000000 0.506556 F F F N
0.113000 0.500000 0.506556 F F F N
0.887000 0.500000 0.548222 T T T N
0.194550 0.139047 0.030141 T T T O
0.194550 0.860953 0.053316 F F F O
0.805450 0.860953 0.011649 T T T O
0.805450 0.139047 0.071808 F F F O
0.694550 0.639047 0.071808 F F F O
0.694550 0.360953 0.011649 T T T O
0.305450 0.360953 0.053316 F F F O
0.305450 0.639047 0.030141 T T T O
0.194550 0.139047 0.113475 F F F O
0.194550 0.860953 0.136649 F F F O
0.805450 0.860953 0.094982 F F F O
0.805450 0.139047 0.155141 F F F O
0.694550 0.639047 0.155141 F F F O
0.694550 0.360953 0.094982 F F F O
0.305450 0.360953 0.136649 F F F O
0.305450 0.639047 0.113475 F F F O
0.194550 0.139047 0.196808 F F F O
0.194550 0.860953 0.219982 F F F O
0.805450 0.860953 0.178316 F F F O
0.805450 0.139047 0.238475 F F F O
0.694550 0.639047 0.238475 F F F O
0.694550 0.360953 0.178316 F F F O
0.305450 0.360953 0.219982 F F F O
0.305450 0.639047 0.196808 F F F O
0.194550 0.139047 0.280141 F F F O
0.194550 0.860953 0.303316 F F F O
0.805450 0.860953 0.261649 F F F O
0.805450 0.139047 0.321808 F F F O
0.694550 0.639047 0.321808 F F F O
0.694550 0.360953 0.261649 F F F O
0.305450 0.360953 0.303316 F F F O
0.305450 0.639047 0.280141 F F F O
0.194550 0.139047 0.363475 F F F O
0.194550 0.860953 0.386649 F F F O
0.805450 0.860953 0.344982 F F F O
0.805450 0.139047 0.405141 F F F O
0.694550 0.639047 0.405141 F F F O
0.694550 0.360953 0.344982 F F F O
0.305450 0.360953 0.386649 F F F O
0.305450 0.639047 0.363475 F F F O
0.194550 0.139047 0.446808 F F F O
0.194550 0.860953 0.469982 F F F O
0.805450 0.860953 0.428316 F F F O
0.805450 0.139047 0.488475 F F F O
0.694550 0.639047 0.488475 F F F O
0.694550 0.360953 0.428316 F F F O
0.305450 0.360953 0.469982 F F F O
0.305450 0.639047 0.446808 F F F O
0.194550 0.139047 0.530141 T T T O
0.194550 0.860953 0.553316 T T T O
0.805450 0.860953 0.511649 F F F O
0.805450 0.139047 0.571808 T T T O
0.694550 0.639047 0.571808 T T T O
0.694550 0.360953 0.511649 F F F O
0.305450 0.360953 0.553316 T T T O
0.305450 0.639047 0.530141 T T T O
