Li42 P14 O56
1.0
4.922448 0.000000 0.000000
0.000000 6.176136 0.000000
0.000000 0.000000 58.260422
Li P O
42 14 56
direct
0.490583 0.000000 0.089722 Li+
0.990583 0.500000 0.061453 Li+
0.491637 0.252873 0.045911 Li+
0.991637 0.247127 0.014354 Li+
0.991637 0.752873 0.014354 Li+
0.491637 0.747127 0.045911 Li+
0.490583 0.000000 0.180631 Li+
0.990583 0.500000 0.152362 Li+
0.491637 0.252873 0.136820 Li+
0.991637 0.247127 0.105263 Li+
0.991637 0.752873 0.105263 Li+
0.491637 0.747127 0.136820 Li+
0.490583 0.000000 0.271540 Li+
0.990583 0.500000 0.243271 Li+
0.491637 0.252873 0.227729 Li+
0.991637 0.247127 0.196172 Li+
0.991637 0.752873 0.196172 Li+
0.491637 0.747127 0.227729 Li+
0.490583 0.000000 0.362449 Li+
0.990583 0.500000 0.334180 Li+
0.491637 0.252873 0.318639 Li+
0.991637 0.247127 0.287081 Li+
0.991637 0.752873 0.287081 Li+
0.491637 0.747127 0.318639 Li+
0.490583 0.000000 0.453358 Li+
0.990583 0.500000 0.425089 Li+
0.491637 0.252873 0.409548 Li+
0.991637 0.247127 0.377990 Li+
0.991637 0.752873 0.377990 Li+
0.491637 0.747127 0.409548 Li+
0.490583 0.000000 0.544267 Li+
0.990583 0.500000 0.515998 Li+
0.491637 0.252873 0.500457 Li+
0.991637 0.247127 0.468899 Li+
0.991637 0.752873 0.468899 Li+
0.491637 0.747127 0.500457 Li+
0.490583 0.000000 0.635176 Li+
0.990583 0.500000 0.606907 Li+
0.491637 0.252873 0.591366 Li+
0.991637 0.247127 0.559808 Li+
0.991637 0.752873 0.559808 Li+
0.491637 0.747127 0.591366 Li+
0.498580 0.500000 0.000654 P5+
0.998580 0.000000 0.059611 P5+
0.498580 0.500000 0.091563 P5+
0.998580 0.000000 0.150520 P5+
0.498580 0.500000 0.182472 P5+
0.998580 0.000000 0.241429 P5+
0.498580 0.500000 0.273382 P5+
0.998580 0.000000 0.332338 P5+
0.498580 0.500000 0.364291 P5+
0.998580 0.000000 0.423247 P5+
0.498580 0.500000 0.455200 P5+
0.998580 0.000000 0.514156 P5+
0.498580 0.500000 0.546109 P5+
0.998580 0.000000 0.605065 P5+
0.892990 0.792862 0.047086 O2-
0.397874 0.500000 0.066177 O2-
0.814809 0.500000 0.001187 O2-
0.314809 0.000000 0.059078 O2-
0.392990 0.292862 0.013179 O2-
0.892990 0.207138 0.047086 O2-
0.897874 0.000000 0.084997 O2-
0.392990 0.707138 0.013179 O2-
0.892990 0.792862 0.137995 O2-
0.397874 0.500000 0.157086 O2-
0.814809 0.500000 0.092097 O2-
0.314809 0.000000 0.149987 O2-
0.392990 0.292862 0.104088 O2-
0.892990 0.207138 0.137995 O2-
0.897874 0.000000 0.175906 O2-
0.392990 0.707138 0.104088 O2-
0.892990 0.792862 0.228904 O2-
0.397874 0.500000 0.247995 O2-
0.814809 0.500000 0.183006 O2-
0.314809 0.000000 0.240896 O2-
0.392990 0.292862 0.194997 O2-
0.892990 0.207138 0.228904 O2-
0.897874 0.000000 0.266815 O2-
0.392990 0.707138 0.194997 O2-
0.892990 0.792862 0.319814 O2-
0.397874 0.500000 0.338905 O2-
0.814809 0.500000 0.273915 O2-
0.314809 0.000000 0.331805 O2-
0.392990 0.292862 0.285906 O2-
0.892990 0.207138 0.319814 O2-
0.897874 0.000000 0.357724 O2-
0.392990 0.707138 0.285906 O2-
0.892990 0.792862 0.410723 O2-
0.397874 0.500000 0.429814 O2-
0.814809 0.500000 0.364824 O2-
0.314809 0.000000 0.422714 O2-
0.392990 0.292862 0.376815 O2-
0.892990 0.207138 0.410723 O2-
0.897874 0.000000 0.448633 O2-
0.392990 0.707138 0.376815 O2-
0.892990 0.792862 0.501632 O2-
0.397874 0.500000 0.520723 O2-
0.814809 0.500000 0.455733 O2-
0.314809 0.000000 0.513623 O2-
0.392990 0.292862 0.467724 O2-
0.892990 0.207138 0.501632 O2-
0.897874 0.000000 0.539542 O2-
0.392990 0.707138 0.467724 O2-
0.892990 0.792862 0.592541 O2-
0.397874 0.500000 0.611632 O2-
0.814809 0.500000 0.546642 O2-
0.314809 0.000000 0.604532 O2-
0.392990 0.292862 0.558633 O2-
0.892990 0.207138 0.592541 O2-
0.897874 0.000000 0.630451 O2-
0.392990 0.707138 0.558633 O2-
