Li8 P56
1.0
-6.705671 6.705671 7.301985
6.705671 -6.705671 7.301985
6.705671 6.705671 -7.301985
Li P
8 56
direct
0.117913 0.117913 0.735827 Li
0.867913 0.632087 0.500000 Li
0.132087 0.367913 0.500000 Li
0.382087 0.382087 0.264173 Li
0.632087 0.132087 0.764173 Li
0.882087 0.617913 0.000000 Li
0.617913 0.882087 -0.000000 Li
0.367913 0.867913 0.235827 Li
0.794883 0.767986 0.383477 P
0.517986 0.634510 0.473103 P
0.161407 0.044883 0.526897 P
0.865490 0.982014 0.526897 P
0.455117 0.338593 0.473103 P
0.384510 0.411407 0.616523 P
0.732014 0.705117 0.616523 P
0.088593 0.115490 0.383477 P
0.955117 0.482014 0.116523 P
0.232014 0.615490 0.026897 P
0.588593 0.205117 0.973103 P
0.884510 0.267986 0.973103 P
0.294883 0.911407 0.026897 P
0.365490 0.838593 0.883477 P
0.017986 0.544883 0.883477 P
0.661407 0.134510 0.116523 P
0.584183 0.709989 0.246929 P
0.459989 0.713059 0.625806 P
0.087254 0.834183 0.374194 P
0.786941 0.040011 0.374194 P
0.665817 0.412746 0.625806 P
0.463059 0.337254 0.753071 P
0.790011 0.915817 0.753071 P
0.162746 0.036941 0.246929 P
0.165817 0.540011 0.253071 P
0.290011 0.536941 0.874194 P
0.662746 0.415817 0.125806 P
0.963059 0.209989 0.125806 P
0.084183 0.837254 0.874194 P
0.286941 0.912746 0.746929 P
0.959989 0.334183 0.746929 P
0.587254 0.213059 0.253071 P
0.717863 0.969909 0.594398 P
0.719909 0.625512 0.752046 P
0.873465 0.967863 0.247953 P
0.874488 0.780091 0.247953 P
0.532137 0.626535 0.752046 P
0.375512 0.123465 0.405602 P
0.530091 0.782137 0.405602 P
0.376535 0.124488 0.594398 P
0.032137 0.280091 0.905602 P
0.030091 0.624488 0.747954 P
0.876535 0.282137 0.252047 P
0.875512 0.469909 0.252047 P
0.217863 0.623465 0.747954 P
0.374488 0.126535 0.094398 P
0.219909 0.467863 0.094398 P
0.373465 0.125512 0.905602 P
0.625000 0.914279 0.789279 P
0.664279 0.375000 0.789279 P
0.585721 0.875000 0.210721 P
0.125000 0.835721 0.210721 P
0.125000 0.335721 0.710721 P
0.085721 0.875000 0.710721 P
0.164279 0.375000 0.289279 P
0.625000 0.414279 0.289279 P
