Li1 N3
1.0
1.730919 2.933278 0.000387
-1.730919 2.933278 0.000387
0.000000 1.528773 4.917274
Li N
1 3
direct
-0.000000 -0.000000 -0.000000 Li
0.605876 0.605876 0.256533 N
0.394124 0.394124 0.743467 N
0.500000 0.500000 0.500000 N
