Li28 O28
1.0
2.754274 0.000000 -1.590181
-0.000000 7.703522 -3.180362
0.000000 0.000000 47.705428
Li O
28 28
direct
0.000000 0.500000 0.026621 Li+
0.000000 0.000000 0.059954 Li+
0.333333 0.750000 0.021065 Li+
0.666667 0.250000 0.032176 Li+
0.000000 0.500000 0.093287 Li+
0.000000 0.000000 0.126621 Li+
0.333333 0.750000 0.087732 Li+
0.666667 0.250000 0.098843 Li+
0.000000 0.500000 0.159954 Li+
0.000000 0.000000 0.193287 Li+
0.333333 0.750000 0.154398 Li+
0.666667 0.250000 0.165510 Li+
0.000000 0.500000 0.226621 Li+
0.000000 0.000000 0.259954 Li+
0.333333 0.750000 0.221065 Li+
0.666667 0.250000 0.232176 Li+
0.000000 0.500000 0.293287 Li+
0.000000 0.000000 0.326621 Li+
0.333333 0.750000 0.287732 Li+
0.666667 0.250000 0.298843 Li+
0.000000 0.500000 0.359954 Li+
0.000000 0.000000 0.393287 Li+
0.333333 0.750000 0.354398 Li+
0.666667 0.250000 0.365510 Li+
0.000000 0.500000 0.426621 Li+
0.000000 0.000000 0.459954 Li+
0.333333 0.750000 0.421065 Li+
0.666667 0.250000 0.432176 Li+
0.333333 0.149310 0.047686 O-
0.666667 0.649310 0.058797 O-
0.666667 0.850690 0.005556 O-
0.333333 0.350690 0.061111 O-
0.333333 0.149310 0.114352 O-
0.666667 0.649310 0.125464 O-
0.666667 0.850690 0.072222 O-
0.333333 0.350690 0.127778 O-
0.333333 0.149310 0.181019 O-
0.666667 0.649310 0.192130 O-
0.666667 0.850690 0.138889 O-
0.333333 0.350690 0.194444 O-
0.333333 0.149310 0.247686 O-
0.666667 0.649310 0.258797 O-
0.666667 0.850690 0.205556 O-
0.333333 0.350690 0.261111 O-
0.333333 0.149310 0.314352 O-
0.666667 0.649310 0.325464 O-
0.666667 0.850690 0.272222 O-
0.333333 0.350690 0.327778 O-
0.333333 0.149310 0.381019 O-
0.666667 0.649310 0.392130 O-
0.666667 0.850690 0.338889 O-
0.333333 0.350690 0.394444 O-
0.333333 0.149310 0.447686 O-
0.666667 0.649310 0.458797 O-
0.666667 0.850690 0.405556 O-
0.333333 0.350690 0.461111 O-
