Li1 N3
1.0
1.636717 2.773639 0.000366
-1.636717 2.773639 0.000366
0.000000 1.445572 4.649659
Li N
1 3
direct
-0.000000 -0.000000 -0.000000 Li
0.605876 0.605876 0.256533 N
0.394124 0.394124 0.743467 N
0.500000 0.500000 0.500000 N
