Li140 P140 O420
1.0
13.312980 0.000000 0.000000
-10.635230 16.540545 0.000000
0.000000 0.000000 60.737138
Li P O
140 140 420
direct
0.126478 0.181780 0.024148 Li+
0.126478 0.681780 0.023167 Li+
0.888830 0.065996 0.025074 Li+
0.888830 0.565996 0.022241 Li+
0.652957 0.950543 0.023132 Li+
0.652957 0.450543 0.024183 Li+
0.418297 0.835452 0.023001 Li+
0.418297 0.335452 0.024314 Li+
0.270894 0.758434 0.069768 Li+
0.270894 0.258434 0.068456 Li+
0.624263 0.681714 0.021731 Li+
0.624263 0.181714 0.025584 Li+
0.387725 0.566270 0.025811 Li+
0.387725 0.066270 0.021504 Li+
0.151818 0.449547 0.020635 Li+
0.151818 0.949547 0.026680 Li+
0.915480 0.332984 0.025681 Li+
0.915480 0.832984 0.021633 Li+
0.766829 0.256366 0.072667 Li+
0.766829 0.756366 0.065556 Li+
0.126478 0.181780 0.115057 Li+
0.126478 0.681780 0.114076 Li+
0.888830 0.065996 0.115983 Li+
0.888830 0.565996 0.113150 Li+
0.652957 0.950543 0.114041 Li+
0.652957 0.450543 0.115092 Li+
0.418297 0.835452 0.113910 Li+
0.418297 0.335452 0.115223 Li+
0.270894 0.758434 0.160677 Li+
0.270894 0.258434 0.159365 Li+
0.624263 0.681714 0.112640 Li+
0.624263 0.181714 0.116493 Li+
0.387725 0.566270 0.116720 Li+
0.387725 0.066270 0.112413 Li+
0.151818 0.449547 0.111544 Li+
0.151818 0.949547 0.117589 Li+
0.915480 0.332984 0.116590 Li+
0.915480 0.832984 0.112543 Li+
0.766829 0.256366 0.163577 Li+
0.766829 0.756366 0.156465 Li+
0.126478 0.181780 0.205966 Li+
0.126478 0.681780 0.204985 Li+
0.888830 0.065996 0.206892 Li+
0.888830 0.565996 0.204059 Li+
0.652957 0.950543 0.204950 Li+
0.652957 0.450543 0.206001 Li+
0.418297 0.835452 0.204819 Li+
0.418297 0.335452 0.206132 Li+
0.270894 0.758434 0.251586 Li+
0.270894 0.258434 0.250274 Li+
0.624263 0.681714 0.203549 Li+
0.624263 0.181714 0.207402 Li+
0.387725 0.566270 0.207629 Li+
0.387725 0.066270 0.203322 Li+
0.151818 0.449547 0.202453 Li+
0.151818 0.949547 0.208498 Li+
0.915480 0.332984 0.207499 Li+
0.915480 0.832984 0.203452 Li+
0.766829 0.256366 0.254486 Li+
0.766829 0.756366 0.247375 Li+
0.126478 0.181780 0.296875 Li+
0.126478 0.681780 0.295894 Li+
0.888830 0.065996 0.297801 Li+
0.888830 0.565996 0.294968 Li+
0.652957 0.950543 0.295859 Li+
0.652957 0.450543 0.296910 Li+
0.418297 0.835452 0.295728 Li+
0.418297 0.335452 0.297041 Li+
0.270894 0.758434 0.342495 Li+
0.270894 0.258434 0.341183 Li+
0.624263 0.681714 0.294458 Li+
0.624263 0.181714 0.298311 Li+
0.387725 0.566270 0.298538 Li+
0.387725 0.066270 0.294231 Li+
0.151818 0.449547 0.293362 Li+
0.151818 0.949547 0.299407 Li+
0.915480 0.332984 0.298409 Li+
0.915480 0.832984 0.294361 Li+
0.766829 0.256366 0.345395 Li+
0.766829 0.756366 0.338284 Li+
0.126478 0.181780 0.387784 Li+
0.126478 0.681780 0.386803 Li+
0.888830 0.065996 0.388710 Li+
0.888830 0.565996 0.385877 Li+
0.652957 0.950543 0.386768 Li+
0.652957 0.450543 0.387820 Li+
0.418297 0.835452 0.386637 Li+
0.418297 0.335452 0.387950 Li+
0.270894 0.758434 0.433404 Li+
0.270894 0.258434 0.432092 Li+
0.624263 0.681714 0.385367 Li+
0.624263 0.181714 0.389220 Li+
0.387725 0.566270 0.389447 Li+
0.387725 0.066270 0.385140 Li+
0.151818 0.449547 0.384271 Li+
0.151818 0.949547 0.390316 Li+
0.915480 0.332984 0.389318 Li+
0.915480 0.832984 0.385270 Li+
0.766829 0.256366 0.436304 Li+
0.766829 0.756366 0.429193 Li+
0.126478 0.181780 0.478693 Li+
0.126478 0.681780 0.477713 Li+
0.888830 0.065996 0.479619 Li+
0.888830 0.565996 0.476786 Li+
0.652957 0.950543 0.477677 Li+
0.652957 0.450543 0.478729 Li+
0.418297 0.835452 0.477546 Li+
0.418297 0.335452 0.478860 Li+
0.270894 0.758434 0.524313 Li+
0.270894 0.258434 0.523001 Li+
0.624263 0.681714 0.476276 Li+
0.624263 0.181714 0.480130 Li+
0.387725 0.566270 0.480356 Li+
0.387725 0.066270 0.476049 Li+
0.151818 0.449547 0.475180 Li+
0.151818 0.949547 0.481226 Li+
0.915480 0.332984 0.480227 Li+
0.915480 0.832984 0.476179 Li+
0.766829 0.256366 0.527213 Li+
0.766829 0.756366 0.520102 Li+
0.126478 0.181780 0.569602 Li+
0.126478 0.681780 0.568622 Li+
0.888830 0.065996 0.570528 Li+
0.888830 0.565996 0.567695 Li+
0.652957 0.950543 0.568586 Li+
0.652957 0.450543 0.569638 Li+
0.418297 0.835452 0.568455 Li+
0.418297 0.335452 0.569769 Li+
0.270894 0.758434 0.615223 Li+
0.270894 0.258434 0.613910 Li+
0.624263 0.681714 0.567185 Li+
0.624263 0.181714 0.571039 Li+
0.387725 0.566270 0.571265 Li+
0.387725 0.066270 0.566959 Li+
0.151818 0.449547 0.566089 Li+
0.151818 0.949547 0.572135 Li+
0.915480 0.332984 0.571136 Li+
0.915480 0.832984 0.567088 Li+
0.766829 0.256366 0.618122 Li+
0.766829 0.756366 0.611011 Li+
0.000779 0.999587 0.052259 P5+
0.000779 0.499587 0.085964 P5+
0.794387 0.906720 0.083356 P5+
0.794387 0.406720 0.054868 P5+
0.598863 0.802939 0.051981 P5+
0.598863 0.302939 0.086243 P5+
0.408395 0.691689 0.084659 P5+
0.408395 0.191689 0.053564 P5+
0.208401 0.591751 0.054590 P5+
0.208401 0.091751 0.083634 P5+
0.334920 0.425433 0.083300 P5+
0.334920 0.925433 0.054924 P5+
0.134548 0.325562 0.053264 P5+
0.134548 0.825562 0.084959 P5+
0.943677 0.213545 0.086178 P5+
0.943677 0.713545 0.052046 P5+
0.747866 0.110144 0.055303 P5+
0.747866 0.610144 0.082921 P5+
0.541580 0.017155 0.086397 P5+
0.541580 0.517155 0.051827 P5+
0.000779 0.999587 0.143169 P5+
0.000779 0.499587 0.176873 P5+
0.794387 0.906720 0.174265 P5+
0.794387 0.406720 0.145777 P5+
0.598863 0.802939 0.142890 P5+
0.598863 0.302939 0.177152 P5+
0.408395 0.691689 0.175569 P5+
0.408395 0.191689 0.144473 P5+
0.208401 0.591751 0.145499 P5+
0.208401 0.091751 0.174543 P5+
0.334920 0.425433 0.174209 P5+
0.334920 0.925433 0.145833 P5+
0.134548 0.325562 0.144174 P5+
0.134548 0.825562 0.175868 P5+
0.943677 0.213545 0.177087 P5+
0.943677 0.713545 0.142955 P5+
0.747866 0.110144 0.146212 P5+
0.747866 0.610144 0.173830 P5+
0.541580 0.017155 0.177306 P5+
0.541580 0.517155 0.142736 P5+
0.000779 0.999587 0.234078 P5+
0.000779 0.499587 0.267783 P5+
0.794387 0.906720 0.265174 P5+
0.794387 0.406720 0.236686 P5+
0.598863 0.802939 0.233799 P5+
0.598863 0.302939 0.268061 P5+
0.408395 0.691689 0.266478 P5+
0.408395 0.191689 0.235383 P5+
0.208401 0.591751 0.236408 P5+
0.208401 0.091751 0.265452 P5+
0.334920 0.425433 0.265118 P5+
0.334920 0.925433 0.236742 P5+
0.134548 0.325562 0.235083 P5+
0.134548 0.825562 0.266778 P5+
0.943677 0.213545 0.267996 P5+
0.943677 0.713545 0.233864 P5+
0.747866 0.110144 0.237121 P5+
0.747866 0.610144 0.264739 P5+
0.541580 0.017155 0.268215 P5+
0.541580 0.517155 0.233645 P5+
0.000779 0.999587 0.324987 P5+
0.000779 0.499587 0.358692 P5+
0.794387 0.906720 0.356083 P5+
0.794387 0.406720 0.327595 P5+
0.598863 0.802939 0.324708 P5+
0.598863 0.302939 0.358970 P5+
0.408395 0.691689 0.357387 P5+
0.408395 0.191689 0.326292 P5+
0.208401 0.591751 0.327317 P5+
0.208401 0.091751 0.356361 P5+
0.334920 0.425433 0.356027 P5+
0.334920 0.925433 0.327651 P5+
0.134548 0.325562 0.325992 P5+
0.134548 0.825562 0.357687 P5+
0.943677 0.213545 0.358905 P5+
0.943677 0.713545 0.324774 P5+
0.747866 0.110144 0.328030 P5+
0.747866 0.610144 0.355648 P5+
0.541580 0.017155 0.359124 P5+
0.541580 0.517155 0.324554 P5+
0.000779 0.999587 0.415896 P5+
0.000779 0.499587 0.449601 P5+
0.794387 0.906720 0.446992 P5+
0.794387 0.406720 0.418504 P5+
0.598863 0.802939 0.415617 P5+
0.598863 0.302939 0.449880 P5+
0.408395 0.691689 0.448296 P5+
0.408395 0.191689 0.417201 P5+
0.208401 0.591751 0.418227 P5+
0.208401 0.091751 0.447270 P5+
0.334920 0.425433 0.446936 P5+
0.334920 0.925433 0.418560 P5+
0.134548 0.325562 0.416901 P5+
0.134548 0.825562 0.448596 P5+
0.943677 0.213545 0.449814 P5+
0.943677 0.713545 0.415683 P5+
0.747866 0.110144 0.418939 P5+
0.747866 0.610144 0.446557 P5+
0.541580 0.017155 0.450033 P5+
0.541580 0.517155 0.415463 P5+
0.000779 0.999587 0.506805 P5+
0.000779 0.499587 0.540510 P5+
0.794387 0.906720 0.537901 P5+
0.794387 0.406720 0.509413 P5+
0.598863 0.802939 0.506526 P5+
0.598863 0.302939 0.540789 P5+
0.408395 0.691689 0.539205 P5+
0.408395 0.191689 0.508110 P5+
0.208401 0.591751 0.509136 P5+
0.208401 0.091751 0.538179 P5+
0.334920 0.425433 0.537846 P5+
0.334920 0.925433 0.509469 P5+
0.134548 0.325562 0.507810 P5+
0.134548 0.825562 0.539505 P5+
0.943677 0.213545 0.540723 P5+
0.943677 0.713545 0.506592 P5+
0.747866 0.110144 0.509848 P5+
0.747866 0.610144 0.537467 P5+
0.541580 0.017155 0.540942 P5+
0.541580 0.517155 0.506373 P5+
0.000779 0.999587 0.597714 P5+
0.000779 0.499587 0.631419 P5+
0.794387 0.906720 0.628810 P5+
0.794387 0.406720 0.600323 P5+
0.598863 0.802939 0.597435 P5+
0.598863 0.302939 0.631698 P5+
0.408395 0.691689 0.630114 P5+
0.408395 0.191689 0.599019 P5+
0.208401 0.591751 0.600045 P5+
0.208401 0.091751 0.629088 P5+
0.334920 0.425433 0.628755 P5+
0.334920 0.925433 0.600378 P5+
0.134548 0.325562 0.598719 P5+
0.134548 0.825562 0.630414 P5+
0.943677 0.213545 0.631632 P5+
0.943677 0.713545 0.597501 P5+
0.747866 0.110144 0.600757 P5+
0.747866 0.610144 0.628376 P5+
0.541580 0.017155 0.631851 P5+
0.541580 0.517155 0.597282 P5+
0.870015 0.964587 0.062839 O2-
0.870015 0.464587 0.075385 O2-
0.659821 0.859372 0.073559 O2-
0.659821 0.359372 0.064665 O2-
0.481350 0.724144 0.061838 O2-
0.481350 0.224144 0.076386 O2-
0.293096 0.607741 0.075777 O2-
0.293096 0.107741 0.062447 O2-
0.080152 0.021852 0.074383 O2-
0.080152 0.521852 0.063841 O2-
0.250064 0.409378 0.062132 O2-
0.250064 0.909378 0.076092 O2-
0.063226 0.290596 0.076217 O2-
0.063226 0.790596 0.062007 O2-
0.883201 0.156445 0.064633 O2-
0.883201 0.656445 0.073591 O2-
0.674568 0.056520 0.076495 O2-
0.674568 0.556520 0.061729 O2-
0.463629 0.495673 0.074140 O2-
0.463629 0.995673 0.064084 O2-
0.029173 0.073889 0.039767 O2-
0.029173 0.573889 0.007548 O2-
0.005091 0.933926 0.040574 O2-
0.005091 0.433926 0.006741 O2-
0.795375 0.958651 0.010605 O2-
0.795375 0.458651 0.036710 O2-
0.828944 0.846743 0.087721 O2-
0.828944 0.346743 0.050503 O2-
0.560342 0.845353 0.037114 O2-
0.560342 0.345353 0.010200 O2-
0.677417 0.775410 0.043495 O2-
0.677417 0.275410 0.003819 O2-
0.369330 0.747295 0.000790 O2-
0.369330 0.247295 0.046525 O2-
0.472480 0.669352 0.009449 O2-
0.472480 0.169352 0.037866 O2-
0.209416 0.667159 0.049555 O2-
0.209416 0.167159 0.088668 O2-
0.238895 0.553292 0.036769 O2-
0.238895 0.053292 0.010546 O2-
0.302391 0.463335 0.010031 O2-
0.302391 0.963335 0.037284 O2-
0.334913 0.350606 0.088567 O2-
0.334913 0.850606 0.049657 O2-
0.068594 0.348215 0.038131 O2-
0.068594 0.848215 0.009184 O2-
0.175312 0.271458 0.045653 O2-
0.175312 0.771458 0.001661 O2-
0.864720 0.241625 0.003136 O2-
0.864720 0.741625 0.044179 O2-
0.980120 0.171199 0.010662 O2-
0.980120 0.671199 0.036653 O2-
0.713620 0.170027 0.050451 O2-
0.713620 0.670027 0.087773 O2-
0.742996 0.055640 0.037540 O2-
0.742996 0.555640 0.009775 O2-
0.532819 0.080441 0.007524 O2-
0.532819 0.580441 0.039791 O2-
0.515310 0.942366 0.007392 O2-
0.515310 0.442366 0.039922 O2-
0.870015 0.964587 0.153748 O2-
0.870015 0.464587 0.166294 O2-
0.659821 0.859372 0.164468 O2-
0.659821 0.359372 0.155574 O2-
0.481350 0.724144 0.152747 O2-
0.481350 0.224144 0.167295 O2-
0.293096 0.607741 0.166686 O2-
0.293096 0.107741 0.153356 O2-
0.080152 0.021852 0.165292 O2-
0.080152 0.521852 0.154750 O2-
0.250064 0.409378 0.153041 O2-
0.250064 0.909378 0.167001 O2-
0.063226 0.290596 0.167126 O2-
0.063226 0.790596 0.152916 O2-
0.883201 0.156445 0.155542 O2-
0.883201 0.656445 0.164500 O2-
0.674568 0.056520 0.167404 O2-
0.674568 0.556520 0.152638 O2-
0.463629 0.495673 0.165049 O2-
0.463629 0.995673 0.154993 O2-
0.029173 0.073889 0.130676 O2-
0.029173 0.573889 0.098457 O2-
0.005091 0.933926 0.131483 O2-
0.005091 0.433926 0.097650 O2-
0.795375 0.958651 0.101514 O2-
0.795375 0.458651 0.127619 O2-
0.828944 0.846743 0.178630 O2-
0.828944 0.346743 0.141412 O2-
0.560342 0.845353 0.128023 O2-
0.560342 0.345353 0.101110 O2-
0.677417 0.775410 0.134405 O2-
0.677417 0.275410 0.094728 O2-
0.369330 0.747295 0.091699 O2-
0.369330 0.247295 0.137434 O2-
0.472480 0.669352 0.100358 O2-
0.472480 0.169352 0.128775 O2-
0.209416 0.667159 0.140465 O2-
0.209416 0.167159 0.179577 O2-
0.238895 0.553292 0.127678 O2-
0.238895 0.053292 0.101455 O2-
0.302391 0.463335 0.100940 O2-
0.302391 0.963335 0.128193 O2-
0.334913 0.350606 0.179476 O2-
0.334913 0.850606 0.140566 O2-
0.068594 0.348215 0.129040 O2-
0.068594 0.848215 0.100093 O2-
0.175312 0.271458 0.136562 O2-
0.175312 0.771458 0.092570 O2-
0.864720 0.241625 0.094045 O2-
0.864720 0.741625 0.135088 O2-
0.980120 0.171199 0.101571 O2-
0.980120 0.671199 0.127562 O2-
0.713620 0.170027 0.141360 O2-
0.713620 0.670027 0.178682 O2-
0.742996 0.055640 0.128449 O2-
0.742996 0.555640 0.100684 O2-
0.532819 0.080441 0.098433 O2-
0.532819 0.580441 0.130700 O2-
0.515310 0.942366 0.098302 O2-
0.515310 0.442366 0.130831 O2-
0.870015 0.964587 0.244657 O2-
0.870015 0.464587 0.257203 O2-
0.659821 0.859372 0.255377 O2-
0.659821 0.359372 0.246483 O2-
0.481350 0.724144 0.243656 O2-
0.481350 0.224144 0.258204 O2-
0.293096 0.607741 0.257595 O2-
0.293096 0.107741 0.244265 O2-
0.080152 0.021852 0.256201 O2-
0.080152 0.521852 0.245659 O2-
0.250064 0.409378 0.243950 O2-
0.250064 0.909378 0.257910 O2-
0.063226 0.290596 0.258035 O2-
0.063226 0.790596 0.243825 O2-
0.883201 0.156445 0.246451 O2-
0.883201 0.656445 0.255409 O2-
0.674568 0.056520 0.258313 O2-
0.674568 0.556520 0.243547 O2-
0.463629 0.495673 0.255958 O2-
0.463629 0.995673 0.245902 O2-
0.029173 0.073889 0.221585 O2-
0.029173 0.573889 0.189366 O2-
0.005091 0.933926 0.222392 O2-
0.005091 0.433926 0.188559 O2-
0.795375 0.958651 0.192423 O2-
0.795375 0.458651 0.218528 O2-
0.828944 0.846743 0.269539 O2-
0.828944 0.346743 0.232321 O2-
0.560342 0.845353 0.218932 O2-
0.560342 0.345353 0.192019 O2-
0.677417 0.775410 0.225314 O2-
0.677417 0.275410 0.185637 O2-
0.369330 0.747295 0.182608 O2-
0.369330 0.247295 0.228343 O2-
0.472480 0.669352 0.191267 O2-
0.472480 0.169352 0.219684 O2-
0.209416 0.667159 0.231374 O2-
0.209416 0.167159 0.270487 O2-
0.238895 0.553292 0.218587 O2-
0.238895 0.053292 0.192364 O2-
0.302391 0.463335 0.191849 O2-
0.302391 0.963335 0.219102 O2-
0.334913 0.350606 0.270385 O2-
0.334913 0.850606 0.231475 O2-
0.068594 0.348215 0.219949 O2-
0.068594 0.848215 0.191002 O2-
0.175312 0.271458 0.227472 O2-
0.175312 0.771458 0.183480 O2-
0.864720 0.241625 0.184954 O2-
0.864720 0.741625 0.225997 O2-
0.980120 0.171199 0.192480 O2-
0.980120 0.671199 0.218471 O2-
0.713620 0.170027 0.232269 O2-
0.713620 0.670027 0.269591 O2-
0.742996 0.055640 0.219358 O2-
0.742996 0.555640 0.191593 O2-
0.532819 0.080441 0.189342 O2-
0.532819 0.580441 0.221609 O2-
0.515310 0.942366 0.189211 O2-
0.515310 0.442366 0.221740 O2-
0.870015 0.964587 0.335566 O2-
0.870015 0.464587 0.348112 O2-
0.659821 0.859372 0.346286 O2-
0.659821 0.359372 0.337393 O2-
0.481350 0.724144 0.334565 O2-
0.481350 0.224144 0.349114 O2-
0.293096 0.607741 0.348505 O2-
0.293096 0.107741 0.335174 O2-
0.080152 0.021852 0.347110 O2-
0.080152 0.521852 0.336568 O2-
0.250064 0.409378 0.334859 O2-
0.250064 0.909378 0.348819 O2-
0.063226 0.290596 0.348945 O2-
0.063226 0.790596 0.334734 O2-
0.883201 0.156445 0.337361 O2-
0.883201 0.656445 0.346318 O2-
0.674568 0.056520 0.349222 O2-
0.674568 0.556520 0.334456 O2-
0.463629 0.495673 0.346867 O2-
0.463629 0.995673 0.336811 O2-
0.029173 0.073889 0.312494 O2-
0.029173 0.573889 0.280275 O2-
0.005091 0.933926 0.313301 O2-
0.005091 0.433926 0.279468 O2-
0.795375 0.958651 0.283332 O2-
0.795375 0.458651 0.309437 O2-
0.828944 0.846743 0.360448 O2-
0.828944 0.346743 0.323231 O2-
0.560342 0.845353 0.309842 O2-
0.560342 0.345353 0.282928 O2-
0.677417 0.775410 0.316223 O2-
0.677417 0.275410 0.276547 O2-
0.369330 0.747295 0.273517 O2-
0.369330 0.247295 0.319252 O2-
0.472480 0.669352 0.282176 O2-
0.472480 0.169352 0.310593 O2-
0.209416 0.667159 0.322283 O2-
0.209416 0.167159 0.361396 O2-
0.238895 0.553292 0.309496 O2-
0.238895 0.053292 0.283273 O2-
0.302391 0.463335 0.282758 O2-
0.302391 0.963335 0.310011 O2-
0.334913 0.350606 0.361294 O2-
0.334913 0.850606 0.322384 O2-
0.068594 0.348215 0.310858 O2-
0.068594 0.848215 0.281911 O2-
0.175312 0.271458 0.318381 O2-
0.175312 0.771458 0.274389 O2-
0.864720 0.241625 0.275863 O2-
0.864720 0.741625 0.316906 O2-
0.980120 0.171199 0.283389 O2-
0.980120 0.671199 0.309380 O2-
0.713620 0.170027 0.323178 O2-
0.713620 0.670027 0.360500 O2-
0.742996 0.055640 0.310267 O2-
0.742996 0.555640 0.282502 O2-
0.532819 0.080441 0.280251 O2-
0.532819 0.580441 0.312518 O2-
0.515310 0.942366 0.280120 O2-
0.515310 0.442366 0.312650 O2-
0.870015 0.964587 0.426476 O2-
0.870015 0.464587 0.439021 O2-
0.659821 0.859372 0.437195 O2-
0.659821 0.359372 0.428302 O2-
0.481350 0.724144 0.425474 O2-
0.481350 0.224144 0.440023 O2-
0.293096 0.607741 0.439414 O2-
0.293096 0.107741 0.426083 O2-
0.080152 0.021852 0.438019 O2-
0.080152 0.521852 0.427478 O2-
0.250064 0.409378 0.425768 O2-
0.250064 0.909378 0.439728 O2-
0.063226 0.290596 0.439854 O2-
0.063226 0.790596 0.425643 O2-
0.883201 0.156445 0.428270 O2-
0.883201 0.656445 0.437227 O2-
0.674568 0.056520 0.440131 O2-
0.674568 0.556520 0.425365 O2-
0.463629 0.495673 0.437776 O2-
0.463629 0.995673 0.427720 O2-
0.029173 0.073889 0.403403 O2-
0.029173 0.573889 0.371184 O2-
0.005091 0.933926 0.404210 O2-
0.005091 0.433926 0.370377 O2-
0.795375 0.958651 0.374241 O2-
0.795375 0.458651 0.400346 O2-
0.828944 0.846743 0.451357 O2-
0.828944 0.346743 0.414140 O2-
0.560342 0.845353 0.400751 O2-
0.560342 0.345353 0.373837 O2-
0.677417 0.775410 0.407132 O2-
0.677417 0.275410 0.367456 O2-
0.369330 0.747295 0.364426 O2-
0.369330 0.247295 0.410162 O2-
0.472480 0.669352 0.373086 O2-
0.472480 0.169352 0.401502 O2-
0.209416 0.667159 0.413192 O2-
0.209416 0.167159 0.452305 O2-
0.238895 0.553292 0.400405 O2-
0.238895 0.053292 0.374183 O2-
0.302391 0.463335 0.373667 O2-
0.302391 0.963335 0.400920 O2-
0.334913 0.350606 0.452203 O2-
0.334913 0.850606 0.413293 O2-
0.068594 0.348215 0.401767 O2-
0.068594 0.848215 0.372820 O2-
0.175312 0.271458 0.409290 O2-
0.175312 0.771458 0.365298 O2-
0.864720 0.241625 0.366772 O2-
0.864720 0.741625 0.407815 O2-
0.980120 0.171199 0.374298 O2-
0.980120 0.671199 0.400289 O2-
0.713620 0.170027 0.414087 O2-
0.713620 0.670027 0.451409 O2-
0.742996 0.055640 0.401176 O2-
0.742996 0.555640 0.373411 O2-
0.532819 0.080441 0.371160 O2-
0.532819 0.580441 0.403427 O2-
0.515310 0.942366 0.371029 O2-
0.515310 0.442366 0.403559 O2-
0.870015 0.964587 0.517385 O2-
0.870015 0.464587 0.529930 O2-
0.659821 0.859372 0.528104 O2-
0.659821 0.359372 0.519211 O2-
0.481350 0.724144 0.516383 O2-
0.481350 0.224144 0.530932 O2-
0.293096 0.607741 0.530323 O2-
0.293096 0.107741 0.516992 O2-
0.080152 0.021852 0.528928 O2-
0.080152 0.521852 0.518387 O2-
0.250064 0.409378 0.516677 O2-
0.250064 0.909378 0.530637 O2-
0.063226 0.290596 0.530763 O2-
0.063226 0.790596 0.516552 O2-
0.883201 0.156445 0.519179 O2-
0.883201 0.656445 0.528136 O2-
0.674568 0.056520 0.531040 O2-
0.674568 0.556520 0.516274 O2-
0.463629 0.495673 0.528685 O2-
0.463629 0.995673 0.518629 O2-
0.029173 0.073889 0.494312 O2-
0.029173 0.573889 0.462093 O2-
0.005091 0.933926 0.495119 O2-
0.005091 0.433926 0.461286 O2-
0.795375 0.958651 0.465150 O2-
0.795375 0.458651 0.491255 O2-
0.828944 0.846743 0.542266 O2-
0.828944 0.346743 0.505049 O2-
0.560342 0.845353 0.491660 O2-
0.560342 0.345353 0.464746 O2-
0.677417 0.775410 0.498041 O2-
0.677417 0.275410 0.458365 O2-
0.369330 0.747295 0.455335 O2-
0.369330 0.247295 0.501071 O2-
0.472480 0.669352 0.463995 O2-
0.472480 0.169352 0.492411 O2-
0.209416 0.667159 0.504101 O2-
0.209416 0.167159 0.543214 O2-
0.238895 0.553292 0.491314 O2-
0.238895 0.053292 0.465092 O2-
0.302391 0.463335 0.464576 O2-
0.302391 0.963335 0.491829 O2-
0.334913 0.350606 0.543112 O2-
0.334913 0.850606 0.504202 O2-
0.068594 0.348215 0.492676 O2-
0.068594 0.848215 0.463729 O2-
0.175312 0.271458 0.500199 O2-
0.175312 0.771458 0.456207 O2-
0.864720 0.241625 0.457682 O2-
0.864720 0.741625 0.498724 O2-
0.980120 0.171199 0.465207 O2-
0.980120 0.671199 0.491198 O2-
0.713620 0.170027 0.504996 O2-
0.713620 0.670027 0.542318 O2-
0.742996 0.055640 0.492085 O2-
0.742996 0.555640 0.464321 O2-
0.532819 0.080441 0.462069 O2-
0.532819 0.580441 0.494336 O2-
0.515310 0.942366 0.461938 O2-
0.515310 0.442366 0.494468 O2-
0.870015 0.964587 0.608294 O2-
0.870015 0.464587 0.620839 O2-
0.659821 0.859372 0.619013 O2-
0.659821 0.359372 0.610120 O2-
0.481350 0.724144 0.607292 O2-
0.481350 0.224144 0.621841 O2-
0.293096 0.607741 0.621232 O2-
0.293096 0.107741 0.607901 O2-
0.080152 0.021852 0.619837 O2-
0.080152 0.521852 0.609296 O2-
0.250064 0.409378 0.607586 O2-
0.250064 0.909378 0.621547 O2-
0.063226 0.290596 0.621672 O2-
0.063226 0.790596 0.607461 O2-
0.883201 0.156445 0.610088 O2-
0.883201 0.656445 0.619045 O2-
0.674568 0.056520 0.621949 O2-
0.674568 0.556520 0.607183 O2-
0.463629 0.495673 0.619595 O2-
0.463629 0.995673 0.609538 O2-
0.029173 0.073889 0.585221 O2-
0.029173 0.573889 0.553002 O2-
0.005091 0.933926 0.586028 O2-
0.005091 0.433926 0.552195 O2-
0.795375 0.958651 0.556060 O2-
0.795375 0.458651 0.582164 O2-
0.828944 0.846743 0.633175 O2-
0.828944 0.346743 0.595958 O2-
0.560342 0.845353 0.582569 O2-
0.560342 0.345353 0.555655 O2-
0.677417 0.775410 0.588950 O2-
0.677417 0.275410 0.549274 O2-
0.369330 0.747295 0.546244 O2-
0.369330 0.247295 0.591980 O2-
0.472480 0.669352 0.554904 O2-
0.472480 0.169352 0.583320 O2-
0.209416 0.667159 0.595010 O2-
0.209416 0.167159 0.634123 O2-
0.238895 0.553292 0.582223 O2-
0.238895 0.053292 0.556001 O2-
0.302391 0.463335 0.555486 O2-
0.302391 0.963335 0.582738 O2-
0.334913 0.350606 0.634021 O2-
0.334913 0.850606 0.595112 O2-
0.068594 0.348215 0.583585 O2-
0.068594 0.848215 0.554639 O2-
0.175312 0.271458 0.591108 O2-
0.175312 0.771458 0.547116 O2-
0.864720 0.241625 0.548591 O2-
0.864720 0.741625 0.589633 O2-
0.980120 0.171199 0.556116 O2-
0.980120 0.671199 0.582107 O2-
0.713620 0.170027 0.595905 O2-
0.713620 0.670027 0.633228 O2-
0.742996 0.055640 0.582994 O2-
0.742996 0.555640 0.555230 O2-
0.532819 0.080441 0.552978 O2-
0.532819 0.580441 0.585246 O2-
0.515310 0.942366 0.552847 O2-
0.515310 0.442366 0.585377 O2-
