Li5 P2 N1 O6                            
   1.00000000000000     
    -0.3993422554798345    0.2896714981644139    4.9098013427611846
     6.3621218748317396    0.2188478710019513   -0.5455661657712901
     0.1621784996494182    5.2205336871168724    0.3104245653013162
   Li   P    N    O 
     5     2     1     6
Direct
  0.4911951171238939  0.0058496426226145  0.8980582820022186
  0.4035117059335636  0.6960940942794165  0.3146542935889860
  0.0592199269840157  0.7748167256575678  0.6911988284137704
  0.0326929757832835  0.2711075945298492  0.6512206800434704
  0.5273913416160555  0.2464798872881901  0.3383933366356366
  0.5042089783360886  0.4587849615711052  0.8299472704613992
 -0.0245057588016752 -0.0043625978716095  0.1945535194062679
  0.3088274310683529  0.5715516805079407  0.6893424778103081
  0.1169820172898588  0.1953035092430410  0.3123210001566128
  0.0397372400794696  0.7932279549141559  0.3335307187454702
  0.6349419184373314  0.2791403443036376  0.7055720156108619
  0.6011367275912360  0.5055943289573740  0.0879613347432547
  0.0920657289454574  0.0107867244856177  0.8980652393416370
  0.6539676496130967 -0.0115128504889013  0.2132100030401132
 
  0.00000000E+00  0.00000000E+00  0.00000000E+00
  0.00000000E+00  0.00000000E+00  0.00000000E+00
  0.00000000E+00  0.00000000E+00  0.00000000E+00
  0.00000000E+00  0.00000000E+00  0.00000000E+00
  0.00000000E+00  0.00000000E+00  0.00000000E+00
  0.00000000E+00  0.00000000E+00  0.00000000E+00
  0.00000000E+00  0.00000000E+00  0.00000000E+00
  0.00000000E+00  0.00000000E+00  0.00000000E+00
  0.00000000E+00  0.00000000E+00  0.00000000E+00
  0.00000000E+00  0.00000000E+00  0.00000000E+00
  0.00000000E+00  0.00000000E+00  0.00000000E+00
  0.00000000E+00  0.00000000E+00  0.00000000E+00
  0.00000000E+00  0.00000000E+00  0.00000000E+00
  0.00000000E+00  0.00000000E+00  0.00000000E+00
