Li71 P24 N1 O94                         
   1.00000000000000     
    14.7027577458251990   -0.0077558010597924   -0.0029832454031171
    -0.0055611091737802   10.5597780403847992   -0.0153198965852177
    -0.0025004310364177   -0.0178448738231275   12.3305903918089612
   Li   P    N    O 
    71    24     1    94
Direct
  0.1709755712768793  0.4212063935214796 -0.0020900519933273
  0.1688618797460953  0.4188689113224757  0.5042326872912011
  0.1736955370382418  0.9269506609321886  0.0047742035274776
  0.1706849568048560  0.9209912640075224  0.4997284844097386
  0.5015921293385384  0.4218780004148220  0.0007268141971066
  0.5040476327103263  0.4226299914873347  0.4998072187841745
  0.5020699437929573  0.9224224086534585  0.0002003456271457
  0.5025227461427063  0.9219731165383378  0.4995879330171227
  0.8353397465563226  0.4230432240736097 -0.0011385474022308
  0.8368926009129046  0.4223029197035897  0.4998528002550068
  0.8338685005442740  0.9180698761104510  0.0004398302554134
  0.8363006987003960  0.9214375602824315  0.5004404756303270
  0.0024937833406419  0.0653020450509250  0.2693142441890778
  0.0037321015590740  0.0763441555807840  0.7449180815574512
  0.0043362123893848  0.5807633367800537  0.2508701516488482
  0.0037718849612700  0.5774191478747087  0.7487675094995933
  0.3309156151712048  0.0802265940021896  0.2458305226002523
  0.3369597427355218  0.0777314384599743  0.7509244720259650
  0.3343953345174023  0.5756593885229117  0.2504089545155835
  0.3368266633380702  0.5776586983608496  0.7503926234569442
  0.6682867190249679  0.0783294003474940  0.2503322353920955
  0.6685556405709394  0.0775892283963795  0.7498756280576739
  0.6701580755337165  0.5766889179060087  0.2499388645283968
  0.6689237219519603  0.5778350600847588  0.7498483457042482
  0.1709061609793617  0.1627186549225608  0.6265206126271047
  0.1699671333593965  0.6658832323142905  0.1251809795283356
  0.1702524467342109  0.6625636419771210  0.6264518270453753
  0.5012002193918779  0.1632461077461732  0.1259731726681479
  0.5024450180694308  0.1629218652093205  0.6263464509969224
  0.5021627127752681  0.6630923696646878  0.1268395689085947
  0.5023603235195920  0.6633646981064294  0.6261916547911978
  0.8335528926187428  0.1633128115371931  0.1280555043981793
  0.8355382189765935  0.1632830868199892  0.6266537186699315
  0.8362546938837403  0.6624159627508346  0.1262375371242332
  0.8359644361615108  0.6634925110001139  0.6267879735913187
  0.0007713519118234  0.3560202827546876  0.1221145877477565
  0.0027000618119626  0.3369113349496819  0.6237124774995968
  0.0035632010498927  0.8350320218026983  0.1249871432249558
  0.0035506288163796  0.8362312755687804  0.6236973181264125
  0.3310269412797302  0.3326612259960402  0.1240652772729244
  0.3368613232826530  0.3360072830575416  0.6229961718367925
  0.3365126464871134  0.8377545487146971  0.1235316197336126
  0.3359129733590444  0.8368210484424947  0.6235844166539778
  0.6692430284590375  0.3369321825758059  0.1231590319970599
  0.6692430428322900  0.3370335739856511  0.6233180340749517
  0.6685398935557612  0.8371324885753131  0.1242249253138378
  0.6692569608713006  0.8369972781244795  0.6236928010439409
  0.0075764303896910  0.3383041265418449  0.3754417822286836
  0.0024171092426340  0.3397355851272389  0.8734985230085700
  0.0045797312482344  0.8337634900340446  0.3774493385186618
  0.0033496808287349  0.8335345145341346  0.8728301956018895
  0.3410020261474540  0.3358540985300774  0.3757298681285128
  0.3371930495483298  0.3353927239577226  0.8770876424154737
  0.3349918390264224  0.8363791892017083  0.3757102211767996
  0.3363705196699563  0.8372148705902724  0.8771498162579274
  0.6693001822412906  0.3366784593662395  0.3758319075633448
  0.6685683567541205  0.3374322877010145  0.8761842402333586
  0.6691801857209911  0.8370945222469121  0.3757899549976029
  0.6686589721156303  0.8367721436389964  0.8760229430596242
  0.1706517097086379  0.1606657071659850  0.3757834704301287
  0.1735699419492110  0.1638701452653964  0.8755108313533388
  0.1687412319124316  0.6614376868482441  0.3766922085079016
  0.1705139655104859  0.6638551289115122  0.8735100384772571
  0.5022881432987585  0.1626209566903368  0.3732181647526264
  0.5024129000256186  0.1631768853362829  0.8739035843849799
  0.5023331158663211  0.6631646049004649  0.3731982791342935
  0.5023727794178696  0.6632881040949655  0.8741174131550423
  0.8363157182331844  0.1639153790298924  0.3749109907929309
  0.8335721352293445  0.1656697720384428  0.8713120836155250
  0.8367309186945276  0.6629171038268632  0.3737461610003535
  0.8356888908481793  0.6632419393317369  0.8732736143808387
  0.1655997649977106  0.4164968107848300  0.2450335807446851
  0.1674439521518109  0.4121673325149237  0.7500055940794971
  0.1674591292196107  0.9111440830167954  0.2528210715712301
  0.1670841075540679  0.9122582433014780  0.7501907507073241
  0.5013459285331795  0.4121944477318751  0.2488212360880205
  0.5004136616158468  0.4122831073306881  0.7499991647200860
  0.4999967422707893  0.9126601835497751  0.2499516668517786
  0.5004273532397303  0.9119452784150001  0.7498839867509547
  0.8352237987123466  0.4112399332526030  0.2501172346707446
  0.8335585549333215  0.4125750846895482  0.7497325716042070
  0.8346946530295933  0.9122510412804242  0.2495393573942362
  0.8341456195216609  0.9126997276335999  0.7506299951848655
 -0.0010265925842274  0.0849951388291369 -0.0067965895543255
  0.0000632247228177  0.0875789321704358  0.5018089117546580
  0.0000064532347958  0.5889257780439673 -0.0019791613640549
 -0.0003185852438017  0.5873883538471141  0.5009391499526581
  0.3334126219991733  0.0872076806515782 -0.0011828159291271
  0.3341067914140587  0.0866311612602632  0.5003616631712856
  0.3334674196862262  0.5876837095833963  0.0001906152730281
  0.3341470912097555  0.5866530943840915  0.5004729062412138
  0.6670088948138607  0.0877815447838818  0.0000978437115705
  0.6673562284170246  0.0877413830892894  0.5001131835612358
  0.6671666269688253  0.5881704314894937  0.0001475867988932
  0.6676112293070239  0.5883574149613383  0.4997968892531238
  0.2066104099401689  0.3483793413394344  0.3527489569739066
  0.0353139045275891  0.1568872915586322  0.3983357600549810
  0.0357764803554854  0.1581431748569768  0.8934837572519763
  0.0347023900761403  0.6559386177688113  0.3971338298194417
  0.0351494203008183  0.6574906507124189  0.8943530273747354
  0.3697016165724302  0.1553315475624772  0.3969636294575551
  0.3709566511778066  0.1564808580726953  0.8952996815156816
  0.3683925525069781  0.6560769750155970  0.3965078953386072
  0.3692653637466092  0.6568061158550813  0.8965981882553632
  0.7031059387105849  0.1569233011387017  0.3965673253634786
  0.7024576555700121  0.1570413898762801  0.8964326832452165
  0.7033239137451794  0.6572941261627482  0.3961439021542795
  0.7025305951417412  0.6572771239007441  0.8963868296535273
  0.2008286765678197  0.0486453844511235  0.2588398357082798
  0.2004082846991682  0.0523385075357440  0.7496990331173475
  0.1966178791059899  0.5584880010895973  0.2511300644712513
  0.2007753757089384  0.5524012107035956  0.7499765859561451
  0.5347532875001425  0.0523913260624965  0.2498206465518801
  0.5344328707366239  0.0520409916100981  0.7499343652142524
  0.5358358395035751  0.5521748398043231  0.2497682937976203
  0.5341748264567037  0.5525371305864044  0.7499095747611262
  0.8701631110232856  0.0523438007441422  0.2494734336789926
  0.8683979751348083  0.0528274665319440  0.7510277864127959
  0.8685260401301804  0.5515360611721762  0.2492662535724731
  0.8677729882260271  0.5524139521304446  0.7500704080783721
  0.0584620134660142  0.4127691138392459  0.2456967629548249
  0.0613085701648629  0.4095471962289188  0.7492983765636334
  0.0605118930977395  0.9073878644127489  0.2503884478056933
  0.0607363197426980  0.9099056956690420  0.7501362999924821
  0.3957797890067126  0.4097340763367754  0.2478341078107799
  0.3945663487559400  0.4092923971098027  0.7500238452153088
  0.3942884483861565  0.9101991271837457  0.2502196327306914
  0.3945927509185841  0.9088187930477124  0.7499010732180686
  0.7294122742582207  0.4077318566537644  0.2493820991000364
  0.7277253291985124  0.4096775022820247  0.7500502754373444
  0.7289502673831920  0.9112369610973894  0.2497368869177958
  0.7283457538550864  0.9100336322659586  0.7506447032690520
  0.2290303628679291  0.0873590665531173 -0.0052065287292190
  0.2281840797725952  0.0885079520083652  0.5015366618815394
  0.2275180194127984  0.5917108870739105 -0.0007176413874664
  0.2280664031853978  0.5868053433388987  0.5011519331662933
  0.5614540526162709  0.0905041558180462  0.0001317727692563
  0.5615676633677219  0.0905164541762586  0.4997761480089193
  0.5613769880843510  0.5905882750158172  0.0001939589936257
  0.5617698214562132  0.5914734358044811  0.4996569264104270
  0.8935155593665381  0.0917491667715579  0.0000702562482082
  0.8941272438588581  0.0900747921975427  0.5011211458029363
  0.8940573590394001  0.5910386905826548 -0.0009632074213645
  0.8937283936887466  0.5908425394195036  0.5007852403056919
  0.1996142326573960  0.3534652959009208  0.1398771881725313
  0.2026660917117176  0.3422761485802290  0.6466260600770402
  0.2023441793977740  0.8433858525003833  0.1477917284693161
  0.2015058854657426  0.8425320139668727  0.6461381059616914
  0.5374304820649326  0.3429227716612537  0.1453473391959014
  0.5360235086206901  0.3430023031172796  0.6462057694659111
  0.5355438577469687  0.8430221155353222  0.1461934626098483
  0.5359982962262203  0.8429311854459001  0.6459516229993881
  0.8709999544252780  0.3412837531018904  0.1458630592668491
  0.8688633541869544  0.3429427707033851  0.6461395770859003
  0.8694453766948315  0.8430563466940919  0.1453377047009894
  0.8696674439420448  0.8434445461347686  0.6470110986742683
  0.0354612562794654  0.1569621574177202  0.6053015845626661
  0.0354788629126920  0.6574068797195539  0.1019685273838660
  0.0354250676928558  0.6570672213678804  0.6044444947250114
  0.3696071735277295  0.1566447432476939  0.1023763422220848
  0.3693904601161709  0.1559097307287054  0.6044873647221078
  0.3685179013851035  0.6566766043794299  0.1044159920053626
  0.3686052794821797  0.6573925680694248  0.6042316380463530
  0.7029025976758596  0.1568709561020028  0.1039659792753843
  0.7026191114780405  0.1568942968121601  0.6042339546156570
  0.7028950017606912  0.6574108322614405  0.1040093896635787
  0.7029387493016063  0.6573471055578572  0.6039476866683424
  0.0333669825644867  0.4485670339115669 -0.0033112320345581
  0.0330162791118933  0.4474116969005882  0.5013253663908670
  0.0344258633690433  0.9471468562255881 -0.0003711316895813
  0.0337148112940160  0.9476180573086237  0.5005599969705997
  0.3668034835885314  0.4475828505593331 -0.0000267142032687
  0.3699898578303547  0.4478109428701805  0.5010309643616417
  0.3691591270979567  0.9471011771309007 -0.0003601894991623
  0.3676911165935616  0.9463721048301538  0.5003456331003197
  0.7013862485774381  0.4482077886355098 -0.0001047157804121
  0.7012076864258142  0.4481033011971263  0.4995616238842215
  0.7011490992080793  0.9477729021316178 -0.0000439252384584
  0.7013366464733549  0.9476870092094792  0.4999647080945525
  0.2023846353624794  0.3435495062577889  0.8536600481282518
  0.1997951836542249  0.8368954979020715  0.3558072767102671
  0.2017781258570448  0.8431070928370390  0.8537688401403903
  0.5361340063574612  0.3429167120453561  0.3529461697179829
  0.5358511724178230  0.3435938561003014  0.8537987898287854
  0.5357577703542776  0.8434302449374295  0.3535484318407445
  0.5359887703017677  0.8429506442283520  0.8534890121172153
  0.8707635581663541  0.3426497812594494  0.3535954215952052
  0.8688978800236682  0.3433324127460183  0.8535572897581272
  0.8701824730387597  0.8434262577116965  0.3530657436544125
  0.8695333932648047  0.8440423664105402  0.8546876986740302
 
  0.00000000E+00  0.00000000E+00  0.00000000E+00
  0.00000000E+00  0.00000000E+00  0.00000000E+00
  0.00000000E+00  0.00000000E+00  0.00000000E+00
  0.00000000E+00  0.00000000E+00  0.00000000E+00
  0.00000000E+00  0.00000000E+00  0.00000000E+00
  0.00000000E+00  0.00000000E+00  0.00000000E+00
  0.00000000E+00  0.00000000E+00  0.00000000E+00
  0.00000000E+00  0.00000000E+00  0.00000000E+00
  0.00000000E+00  0.00000000E+00  0.00000000E+00
  0.00000000E+00  0.00000000E+00  0.00000000E+00
  0.00000000E+00  0.00000000E+00  0.00000000E+00
  0.00000000E+00  0.00000000E+00  0.00000000E+00
  0.00000000E+00  0.00000000E+00  0.00000000E+00
  0.00000000E+00  0.00000000E+00  0.00000000E+00
  0.00000000E+00  0.00000000E+00  0.00000000E+00
  0.00000000E+00  0.00000000E+00  0.00000000E+00
  0.00000000E+00  0.00000000E+00  0.00000000E+00
  0.00000000E+00  0.00000000E+00  0.00000000E+00
  0.00000000E+00  0.00000000E+00  0.00000000E+00
  0.00000000E+00  0.00000000E+00  0.00000000E+00
  0.00000000E+00  0.00000000E+00  0.00000000E+00
  0.00000000E+00  0.00000000E+00  0.00000000E+00
  0.00000000E+00  0.00000000E+00  0.00000000E+00
  0.00000000E+00  0.00000000E+00  0.00000000E+00
  0.00000000E+00  0.00000000E+00  0.00000000E+00
  0.00000000E+00  0.00000000E+00  0.00000000E+00
  0.00000000E+00  0.00000000E+00  0.00000000E+00
  0.00000000E+00  0.00000000E+00  0.00000000E+00
  0.00000000E+00  0.00000000E+00  0.00000000E+00
  0.00000000E+00  0.00000000E+00  0.00000000E+00
  0.00000000E+00  0.00000000E+00  0.00000000E+00
  0.00000000E+00  0.00000000E+00  0.00000000E+00
  0.00000000E+00  0.00000000E+00  0.00000000E+00
  0.00000000E+00  0.00000000E+00  0.00000000E+00
  0.00000000E+00  0.00000000E+00  0.00000000E+00
  0.00000000E+00  0.00000000E+00  0.00000000E+00
  0.00000000E+00  0.00000000E+00  0.00000000E+00
  0.00000000E+00  0.00000000E+00  0.00000000E+00
  0.00000000E+00  0.00000000E+00  0.00000000E+00
  0.00000000E+00  0.00000000E+00  0.00000000E+00
  0.00000000E+00  0.00000000E+00  0.00000000E+00
  0.00000000E+00  0.00000000E+00  0.00000000E+00
  0.00000000E+00  0.00000000E+00  0.00000000E+00
  0.00000000E+00  0.00000000E+00  0.00000000E+00
  0.00000000E+00  0.00000000E+00  0.00000000E+00
  0.00000000E+00  0.00000000E+00  0.00000000E+00
  0.00000000E+00  0.00000000E+00  0.00000000E+00
  0.00000000E+00  0.00000000E+00  0.00000000E+00
  0.00000000E+00  0.00000000E+00  0.00000000E+00
  0.00000000E+00  0.00000000E+00  0.00000000E+00
  0.00000000E+00  0.00000000E+00  0.00000000E+00
  0.00000000E+00  0.00000000E+00  0.00000000E+00
  0.00000000E+00  0.00000000E+00  0.00000000E+00
  0.00000000E+00  0.00000000E+00  0.00000000E+00
  0.00000000E+00  0.00000000E+00  0.00000000E+00
  0.00000000E+00  0.00000000E+00  0.00000000E+00
  0.00000000E+00  0.00000000E+00  0.00000000E+00
  0.00000000E+00  0.00000000E+00  0.00000000E+00
  0.00000000E+00  0.00000000E+00  0.00000000E+00
  0.00000000E+00  0.00000000E+00  0.00000000E+00
  0.00000000E+00  0.00000000E+00  0.00000000E+00
  0.00000000E+00  0.00000000E+00  0.00000000E+00
  0.00000000E+00  0.00000000E+00  0.00000000E+00
  0.00000000E+00  0.00000000E+00  0.00000000E+00
  0.00000000E+00  0.00000000E+00  0.00000000E+00
  0.00000000E+00  0.00000000E+00  0.00000000E+00
  0.00000000E+00  0.00000000E+00  0.00000000E+00
  0.00000000E+00  0.00000000E+00  0.00000000E+00
  0.00000000E+00  0.00000000E+00  0.00000000E+00
  0.00000000E+00  0.00000000E+00  0.00000000E+00
  0.00000000E+00  0.00000000E+00  0.00000000E+00
  0.00000000E+00  0.00000000E+00  0.00000000E+00
  0.00000000E+00  0.00000000E+00  0.00000000E+00
  0.00000000E+00  0.00000000E+00  0.00000000E+00
  0.00000000E+00  0.00000000E+00  0.00000000E+00
  0.00000000E+00  0.00000000E+00  0.00000000E+00
  0.00000000E+00  0.00000000E+00  0.00000000E+00
  0.00000000E+00  0.00000000E+00  0.00000000E+00
  0.00000000E+00  0.00000000E+00  0.00000000E+00
  0.00000000E+00  0.00000000E+00  0.00000000E+00
  0.00000000E+00  0.00000000E+00  0.00000000E+00
  0.00000000E+00  0.00000000E+00  0.00000000E+00
  0.00000000E+00  0.00000000E+00  0.00000000E+00
  0.00000000E+00  0.00000000E+00  0.00000000E+00
  0.00000000E+00  0.00000000E+00  0.00000000E+00
  0.00000000E+00  0.00000000E+00  0.00000000E+00
  0.00000000E+00  0.00000000E+00  0.00000000E+00
  0.00000000E+00  0.00000000E+00  0.00000000E+00
  0.00000000E+00  0.00000000E+00  0.00000000E+00
  0.00000000E+00  0.00000000E+00  0.00000000E+00
  0.00000000E+00  0.00000000E+00  0.00000000E+00
  0.00000000E+00  0.00000000E+00  0.00000000E+00
  0.00000000E+00  0.00000000E+00  0.00000000E+00
  0.00000000E+00  0.00000000E+00  0.00000000E+00
  0.00000000E+00  0.00000000E+00  0.00000000E+00
  0.00000000E+00  0.00000000E+00  0.00000000E+00
  0.00000000E+00  0.00000000E+00  0.00000000E+00
  0.00000000E+00  0.00000000E+00  0.00000000E+00
  0.00000000E+00  0.00000000E+00  0.00000000E+00
  0.00000000E+00  0.00000000E+00  0.00000000E+00
  0.00000000E+00  0.00000000E+00  0.00000000E+00
  0.00000000E+00  0.00000000E+00  0.00000000E+00
  0.00000000E+00  0.00000000E+00  0.00000000E+00
  0.00000000E+00  0.00000000E+00  0.00000000E+00
  0.00000000E+00  0.00000000E+00  0.00000000E+00
  0.00000000E+00  0.00000000E+00  0.00000000E+00
  0.00000000E+00  0.00000000E+00  0.00000000E+00
  0.00000000E+00  0.00000000E+00  0.00000000E+00
  0.00000000E+00  0.00000000E+00  0.00000000E+00
  0.00000000E+00  0.00000000E+00  0.00000000E+00
  0.00000000E+00  0.00000000E+00  0.00000000E+00
  0.00000000E+00  0.00000000E+00  0.00000000E+00
  0.00000000E+00  0.00000000E+00  0.00000000E+00
  0.00000000E+00  0.00000000E+00  0.00000000E+00
  0.00000000E+00  0.00000000E+00  0.00000000E+00
  0.00000000E+00  0.00000000E+00  0.00000000E+00
  0.00000000E+00  0.00000000E+00  0.00000000E+00
  0.00000000E+00  0.00000000E+00  0.00000000E+00
  0.00000000E+00  0.00000000E+00  0.00000000E+00
  0.00000000E+00  0.00000000E+00  0.00000000E+00
  0.00000000E+00  0.00000000E+00  0.00000000E+00
  0.00000000E+00  0.00000000E+00  0.00000000E+00
  0.00000000E+00  0.00000000E+00  0.00000000E+00
  0.00000000E+00  0.00000000E+00  0.00000000E+00
  0.00000000E+00  0.00000000E+00  0.00000000E+00
  0.00000000E+00  0.00000000E+00  0.00000000E+00
  0.00000000E+00  0.00000000E+00  0.00000000E+00
  0.00000000E+00  0.00000000E+00  0.00000000E+00
  0.00000000E+00  0.00000000E+00  0.00000000E+00
  0.00000000E+00  0.00000000E+00  0.00000000E+00
  0.00000000E+00  0.00000000E+00  0.00000000E+00
  0.00000000E+00  0.00000000E+00  0.00000000E+00
  0.00000000E+00  0.00000000E+00  0.00000000E+00
  0.00000000E+00  0.00000000E+00  0.00000000E+00
  0.00000000E+00  0.00000000E+00  0.00000000E+00
  0.00000000E+00  0.00000000E+00  0.00000000E+00
  0.00000000E+00  0.00000000E+00  0.00000000E+00
  0.00000000E+00  0.00000000E+00  0.00000000E+00
  0.00000000E+00  0.00000000E+00  0.00000000E+00
  0.00000000E+00  0.00000000E+00  0.00000000E+00
  0.00000000E+00  0.00000000E+00  0.00000000E+00
  0.00000000E+00  0.00000000E+00  0.00000000E+00
  0.00000000E+00  0.00000000E+00  0.00000000E+00
  0.00000000E+00  0.00000000E+00  0.00000000E+00
  0.00000000E+00  0.00000000E+00  0.00000000E+00
  0.00000000E+00  0.00000000E+00  0.00000000E+00
  0.00000000E+00  0.00000000E+00  0.00000000E+00
  0.00000000E+00  0.00000000E+00  0.00000000E+00
  0.00000000E+00  0.00000000E+00  0.00000000E+00
  0.00000000E+00  0.00000000E+00  0.00000000E+00
  0.00000000E+00  0.00000000E+00  0.00000000E+00
  0.00000000E+00  0.00000000E+00  0.00000000E+00
  0.00000000E+00  0.00000000E+00  0.00000000E+00
  0.00000000E+00  0.00000000E+00  0.00000000E+00
  0.00000000E+00  0.00000000E+00  0.00000000E+00
  0.00000000E+00  0.00000000E+00  0.00000000E+00
  0.00000000E+00  0.00000000E+00  0.00000000E+00
  0.00000000E+00  0.00000000E+00  0.00000000E+00
  0.00000000E+00  0.00000000E+00  0.00000000E+00
  0.00000000E+00  0.00000000E+00  0.00000000E+00
  0.00000000E+00  0.00000000E+00  0.00000000E+00
  0.00000000E+00  0.00000000E+00  0.00000000E+00
  0.00000000E+00  0.00000000E+00  0.00000000E+00
  0.00000000E+00  0.00000000E+00  0.00000000E+00
  0.00000000E+00  0.00000000E+00  0.00000000E+00
  0.00000000E+00  0.00000000E+00  0.00000000E+00
  0.00000000E+00  0.00000000E+00  0.00000000E+00
  0.00000000E+00  0.00000000E+00  0.00000000E+00
  0.00000000E+00  0.00000000E+00  0.00000000E+00
  0.00000000E+00  0.00000000E+00  0.00000000E+00
  0.00000000E+00  0.00000000E+00  0.00000000E+00
  0.00000000E+00  0.00000000E+00  0.00000000E+00
  0.00000000E+00  0.00000000E+00  0.00000000E+00
  0.00000000E+00  0.00000000E+00  0.00000000E+00
  0.00000000E+00  0.00000000E+00  0.00000000E+00
  0.00000000E+00  0.00000000E+00  0.00000000E+00
  0.00000000E+00  0.00000000E+00  0.00000000E+00
  0.00000000E+00  0.00000000E+00  0.00000000E+00
  0.00000000E+00  0.00000000E+00  0.00000000E+00
  0.00000000E+00  0.00000000E+00  0.00000000E+00
  0.00000000E+00  0.00000000E+00  0.00000000E+00
  0.00000000E+00  0.00000000E+00  0.00000000E+00
  0.00000000E+00  0.00000000E+00  0.00000000E+00
  0.00000000E+00  0.00000000E+00  0.00000000E+00
  0.00000000E+00  0.00000000E+00  0.00000000E+00
  0.00000000E+00  0.00000000E+00  0.00000000E+00
  0.00000000E+00  0.00000000E+00  0.00000000E+00
  0.00000000E+00  0.00000000E+00  0.00000000E+00
  0.00000000E+00  0.00000000E+00  0.00000000E+00
  0.00000000E+00  0.00000000E+00  0.00000000E+00
