P2 N2 O2                                
   1.00000000000000     
    -2.1911280000000000    2.3449580000000001    3.4116309999999999
     2.1911280000000000   -2.3449580000000001    3.4116309999999999
     2.1911280000000000    2.3449580000000001   -3.4116309999999999
   P    N    O 
     2     2     2
Direct
  0.8893899999999988  0.1393899999999988  0.7500000000000000
  0.6106100000000012  0.3606100000000012  0.2500000000000000
  0.2500000000000000  0.1136279999999985  0.8636279999999985
  0.7500000000000000  0.3863720000000015  0.6363720000000015
  0.6305699999999987  0.7500000000000000  0.3805699999999987
  0.8694300000000013  0.2500000000000000  0.1194300000000013
 
  0.00000000E+00  0.00000000E+00  0.00000000E+00
  0.00000000E+00  0.00000000E+00  0.00000000E+00
  0.00000000E+00  0.00000000E+00  0.00000000E+00
  0.00000000E+00  0.00000000E+00  0.00000000E+00
  0.00000000E+00  0.00000000E+00  0.00000000E+00
  0.00000000E+00  0.00000000E+00  0.00000000E+00
