Li28 P14 N14 O28
1.0
5.326139 0.000000 0.213140
2.513782 6.660749 0.530285
0.000000 0.000000 43.506175
Li P N O
28 14 14 28
Selective dynamics
direct
0.912578 0.864365 0.972928 T T T Li
0.320385 0.017292 0.998416 T T T Li
0.959671 0.433721 0.984488 T T T Li
0.551864 0.280793 0.959000 T T T Li
0.681809 0.402826 0.896005 F F F Li
0.089616 0.555754 0.921493 F F F Li
0.728901 0.972182 0.907565 F F F Li
0.321095 0.819255 0.882077 F F F Li
0.451040 0.941288 0.819082 F F F Li
0.858847 0.094215 0.844570 F F F Li
0.498132 0.510644 0.830642 F F F Li
0.090325 0.357716 0.805154 F F F Li
0.220271 0.479749 0.742159 F F F Li
0.628078 0.632677 0.767647 F F F Li
0.267363 0.049105 0.753719 F F F Li
0.859556 0.896178 0.728231 F F F Li
0.989502 0.018211 0.665236 F F F Li
0.397308 0.171138 0.690724 F F F Li
0.036594 0.587567 0.676796 F F F Li
0.628787 0.434639 0.651308 F F F Li
0.758732 0.556672 0.588313 F F F Li
0.166539 0.709600 0.613801 F F F Li
0.805824 0.126029 0.599873 F F F Li
0.398018 0.973101 0.574385 F F F Li
0.527963 0.095134 0.511390 T T T Li
0.935770 0.248061 0.536878 F F F Li
0.575055 0.664490 0.522949 T T T Li
0.167248 0.511563 0.497462 T T T Li
0.497404 0.711057 0.947885 T T T P
0.145481 0.122211 0.933077 F F F P
0.266635 0.249518 0.870962 F F F P
0.914712 0.660672 0.856154 F F F P
0.035866 0.787980 0.794039 F F F P
0.683943 0.199134 0.779231 F F F P
0.805096 0.326442 0.717116 F F F P
0.453173 0.737595 0.702308 F F F P
0.574327 0.864903 0.640192 F F F P
0.222404 0.276057 0.625385 F F F P
0.343558 0.403365 0.563269 F F F P
0.991635 0.814518 0.548462 F F F P
0.112789 0.941826 0.486346 T T T P
0.760866 0.352980 0.471539 T T T P
0.328520 0.749453 0.980507 T T T N
0.386981 0.914376 0.924660 F F F N
0.097751 0.287915 0.903584 F F F N
0.156212 0.452838 0.847737 F F F N
0.866981 0.826377 0.826661 F F F N
0.925443 0.991300 0.770814 F F F N
0.636212 0.364838 0.749737 F F F N
0.694674 0.529761 0.693891 F F F N
0.405443 0.903300 0.672814 F F F N
0.463905 0.068223 0.616968 F F F N
0.174674 0.441761 0.595891 F F F N
0.233135 0.606684 0.540045 F F F N
0.943905 0.980223 0.518968 F F F N
0.002366 0.145146 0.463122 T T T N
0.461287 0.534107 0.931628 T T T O
0.803557 0.662458 0.953020 T T T O
0.218249 0.213642 0.961551 F F F O
0.875979 0.085291 0.940159 F F F O
0.230518 0.072568 0.854705 F F F O
0.572787 0.200919 0.876097 F F F O
0.987480 0.752104 0.884628 F F F O
0.645210 0.623753 0.863236 F F F O
0.999749 0.611030 0.777782 F F F O
0.342018 0.739381 0.799174 F F F O
0.756710 0.290566 0.807704 F F F O
0.414441 0.162214 0.786313 F F F O
0.768979 0.149491 0.700859 F F F O
0.111249 0.277842 0.722251 F F F O
0.525941 0.829027 0.730781 F F F O
0.183672 0.700676 0.709390 F F F O
0.538210 0.687953 0.623936 F F F O
0.880480 0.816304 0.645328 F F F O
0.295172 0.367489 0.653858 F F F O
0.952902 0.239138 0.632467 F F F O
0.307441 0.226414 0.547013 F F F O
0.649710 0.354766 0.568404 F F F O
0.064403 0.905950 0.576935 F F F O
0.722133 0.777599 0.555543 F F F O
0.076672 0.764876 0.470090 T T T O
0.418941 0.893227 0.491481 T T T O
0.833634 0.444412 0.500012 T T T O
0.491364 0.316061 0.478620 T T T O
