Li73 P24 N1 O95                         
   1.00000000000000     
    14.7043071117860613   -0.0001572390138947   -0.0056238216735930
    -0.0001206494807077   10.5628691485422621    0.0061850679068370
    -0.0047102727892785    0.0071848244334550   12.3375889002724595
   Li   P    N    O 
    73    24     1    95
Direct
  0.1643252407260070  0.4167285237170784 -0.0006032448523653
  0.1692067284684038  0.4218278782644178  0.4967484379936591
  0.1685695736821485  0.9224092287656714  0.0004870551179376
  0.1687494310669715  0.9222660832646921  0.4996429191873935
  0.5055953483655101  0.4229868670724926 -0.0021243123946263
  0.5033169992428085  0.4231255984787306  0.5007776491917321
  0.5033747322629089  0.9210364662258931 -0.0011929668019679
  0.5034607498148785  0.9227633089608434  0.5002530741222780
  0.8364345389173542  0.4226250536266834  0.0003618152530231
  0.8369991795845066  0.4224575108971672  0.4993904875615993
  0.8371727969190412  0.9223033082793700 -0.0000108049473310
  0.8369445933104452  0.9222061168171150  0.5001491590224997
  0.0042311689920285  0.0827342204498551  0.2501470554241825
  0.0027639082762936  0.0775582045489349  0.7496078987286676
  0.0010965491289181  0.5710690586466298  0.2501620552916969
  0.0024685464523267  0.5768741370039541  0.7493877045032709
  0.3359243327503317  0.0733707154497864  0.2520273561991327
  0.3364236916869285  0.0783920533146320  0.7488233239555204
  0.3446205882798816  0.5942310727330473  0.2713881297268448
  0.3353414434848720  0.5753112934508702  0.7483694701419755
  0.6707411290411022  0.0773186321129834  0.2505118461876132
  0.6703818104028523  0.0781569110376180  0.7494947641558425
  0.6711204088224203  0.5784700523615651  0.2500457311170599
  0.6708338769250838  0.5771350671462216  0.7494521449201621
  0.1692980585420561  0.1679074784843217  0.1283917767388223
  0.1692298838557510  0.1631299285342534  0.6258126306894498
  0.1645246104502598  0.6652384371800175  0.1293153749305589
  0.1684411819311620  0.6631715135644682  0.6265669586098852
  0.5068610349446481  0.1591778070013442  0.1263239969868893
  0.5028886008232472  0.1634333873634730  0.6258616495649354
  0.5051463125756150  0.6651479923675458  0.1249752352337102
  0.5033532388563665  0.6634839073183130  0.6275336533581743
  0.8362549039792898  0.1634193641140356  0.1260995412859164
  0.8363652966748130  0.1632400538659941  0.6261973470479093
  0.8363849521274286  0.6632879891256591  0.1262090996533135
  0.8368386672419447  0.6632608374661434  0.6263181008337028
  0.0003623612818685  0.3381200024966716  0.1256211671401689
  0.0028037073627884  0.3362646777797544  0.6232846346734643
  0.0021046530671875  0.8377416158141721  0.1237386455760609
  0.0024374007685491  0.8363101516720528  0.6240033168578432
  0.3473859173063051  0.3117819083587826  0.1241960443417269
  0.3361159191807612  0.3372950290244522  0.6231502128884169
  0.3353161002720256  0.8370528047833515  0.1232384180107405
  0.3359735582295091  0.8375574506921086  0.6242671702698006
  0.6698950471305969  0.3368141218518653  0.1232755289526623
  0.6698948334509987  0.3365282202930909  0.6235838846217829
  0.6704996507052399  0.8373834710225073  0.1236481758685535
  0.6701349932522345  0.8368422983551197  0.6234710022479490
  0.0019096163104981  0.3379806949897687  0.3741520397875295
  0.0016589044971334  0.3360192738825582  0.8754781010670518
  0.0028995564303809  0.8368419132513242  0.3765287276350677
  0.0022356913598184  0.8368811975100124  0.8757543721521320
  0.3368160541007916  0.3383077907071607  0.3762204135188493
  0.3356949584799271  0.3345318978261089  0.8755651463143852
  0.3356705112155428  0.8401538686730924  0.3793256175823664
  0.3352669463048052  0.8379939607067483  0.8719487744386133
  0.6688225432955064  0.3370393527626583  0.3762999251836485
  0.6701884634664889  0.3364709111457147  0.8759746318410979
  0.6709624512788782  0.8373215263250262  0.3766764824205602
  0.6702893563472704  0.8373468067378838  0.8760196430543647
  0.1688086160451008  0.1675010873658329  0.3735524708874836
  0.1693446967507573  0.1619763297708783  0.8740633529442517
  0.1685291998557769  0.6598870272175233  0.3722035182690062
  0.1673610820886593  0.6627109526480373  0.8734596476673813
  0.5026615884083542  0.1627833406364405  0.3736953163469095
  0.5036607511937634  0.1626338875679565  0.8731227851891352
  0.5069718114718024  0.6657834696110612  0.3767628579665097
  0.5064611738298694  0.6644836931233473  0.8705666348703961
  0.8364728826157587  0.1635716919388702  0.3739562434851409
  0.8364790182465471  0.1631395267389400  0.8734259352171974
  0.8365477421084522  0.6630594464035936  0.3736942376711909
  0.8360058340678655  0.6635074803606594  0.8728920908280002
  0.2855154227327317  0.4891939090159666  0.1420437840191673
  0.1639322455748858  0.4095453253909790  0.2535534036581840
  0.1669383764800421  0.4113656034663568  0.7501513815388958
  0.1669460479547230  0.9125130776625857  0.2502142558080860
  0.1668733095370337  0.9119167373484568  0.7499017111425567
  0.4987630196138045  0.4154793799664774  0.2479502421715324
  0.5007327550335351  0.4116318664663192  0.7499900745381445
  0.5011116249953629  0.9113740776289319  0.2502726018468630
  0.5010025971949523  0.9130870259117677  0.7492418018127437
  0.8309343944893447  0.4120535637605620  0.2500380372973354
  0.8332899616687076  0.4118967713748155  0.7498628093796791
  0.8338726847992661  0.9127233801706337  0.2500685950149243
  0.8333126719778264  0.9124572157051868  0.7499543746312441
  0.0003931877165876  0.0876238402842826 -0.0009595602365841
  0.0000775594129031  0.0870005988951040  0.5008323632166052
 -0.0006736019429300  0.5884989593304251 -0.0017307976869548
  0.0002472669484456  0.5881905285542965  0.5010321538937416
  0.3346284003203441  0.0823829343466046 -0.0008839171483052
  0.3338278526410748  0.0885254867525645  0.4999834059679804
  0.3369968471192414  0.5912214853110355 -0.0065647559406975
  0.3349352978253506  0.5899084730292447  0.5046871422336324
  0.6672621375151955  0.0871045850181280 -0.0005575854109734
  0.6668970683993056  0.0879968588718082  0.4999126468602110
  0.6667645457976743  0.5882941793689831 -0.0007457752892706
  0.6672816942088269  0.5876055316621063  0.5007509851217802
  0.0592653006282491  0.4076697924135070  0.2488339453504834
  0.0354027537593160  0.1557720057314712  0.3976009518124602
  0.0354510325513086  0.1561912774691086  0.8947400146122647
  0.0357837734073030  0.6585307790722967  0.3982351077743468
  0.0345002122730718  0.6574926158388729  0.8940660502770227
  0.3697061243841001  0.1565510760880104  0.3958949051073140
  0.3699533211102153  0.1550853242099888  0.8972057736291480
  0.3734890244131525  0.6641115092824008  0.4048931359114027
  0.3707288372900097  0.6583943270077999  0.8902742831880019
  0.7014495293766497  0.1571795800729776  0.3958916028119179
  0.7024997791366977  0.1567646172801625  0.8960344631364865
  0.7016406154559287  0.6570512728022655  0.3967670178982731
  0.7018488720167197  0.6571210325060806  0.8953663275632422
  0.2013513045608062  0.0521549664197631  0.2502403046792746
  0.2013744198134088  0.0517089142868004  0.7504340983657124
  0.2105333905774339  0.5510725433669268  0.2497385130076509
  0.2006964297580320  0.5515795080815419  0.7510585590892022
  0.5340647734650880  0.0517255023874692  0.2505099447600300
  0.5348332951283594  0.0529661204435109  0.7492888785332423
  0.5333013914019823  0.5548965914441615  0.2492838610827273
  0.5348537472167542  0.5514495180410633  0.7498721241572401
  0.8673743922558387  0.0527832064103759  0.2499112297314325
  0.8670264658919065  0.0524346270477860  0.7499558102242083
  0.8632664398128129  0.5527055400960665  0.2498245801555510
  0.8667670931901325  0.5520073646756207  0.7499048338107722
  0.0611856317300128  0.4083518533262982  0.7500208530139987
  0.0611339815124669  0.9103175407250114  0.2500032286193786
  0.0610823776931984  0.9096633769945242  0.7499168774326148
  0.3918594149569004  0.4174530506276027  0.2447463670927815
  0.3947198888382864  0.4087146612902161  0.7505786213526696
  0.3950778094675199  0.9058735127818910  0.2506566004003339
  0.3950958302945343  0.9110468821556679  0.7489327875456218
  0.7244945514973767  0.4093558122985014  0.2500583474068808
  0.7272914760926472  0.4090057294291644  0.7497467508218780
  0.7278069313499768  0.9097528461721325  0.2500075035021780
  0.7273317802402518  0.9098449526877703  0.7497396147986007
  0.2290467484993023  0.0897534898113660  0.0014710492876727
  0.2280569741106498  0.0903279146698365  0.4997727223814511
  0.2307316729552860  0.5891184960083204  0.0010040146923156
  0.2293603494392951  0.5925331909170521  0.5009682783499719
  0.5612530323744748  0.0889307181499935 -0.0012736875898545
  0.5608908016844919  0.0908300771744154  0.5000477131800316
  0.5606115853554478  0.5915633957901260 -0.0011508946568428
  0.5612834706829176  0.5903439256830889  0.5015844455881602
  0.8943846020475961  0.0906501228761103 -0.0005353743710056
  0.8940435153218351  0.0899083070219115  0.5008031540795451
  0.8933508067550667  0.5914092769169480 -0.0009898170357022
  0.8941312235609089  0.5911672077520512  0.5003391922704812
  0.2137757860837559  0.3450726101893568  0.1479328263681085
  0.2028602586065140  0.3430820170943763  0.6465646635275457
  0.2021480744697436  0.8430069355678859  0.1463211865079234
  0.2023200199026274  0.8430959857562238  0.6462376772973575
  0.5327184111300192  0.3442460159246412  0.1447850713732255
  0.5356531537393662  0.3427006925828945  0.6462573785237793
  0.5362989275118445  0.8434776597912151  0.1460208458795715
  0.5361375171333833  0.8434162374568399  0.6458685206674951
  0.8645660574027438  0.3431261905215250  0.1456203144937542
  0.8685968698716998  0.3428619527171021  0.6463562648994269
  0.8686751254511432  0.8435538238210522  0.1462594259839661
  0.8684708904255063  0.8432030096640105  0.6464439497461812
  0.0363014037860244  0.1567544357513755  0.1018349548317774
  0.0352988695858345  0.1558482266099410  0.6048603574601822
  0.0347944980033040  0.6590623767487205  0.1008946373484173
  0.0348700304517800  0.6573639832576246  0.6054351528370243
  0.3736516965493961  0.1444288092042977  0.1043250089023373
  0.3690362165635609  0.1583280700280442  0.6034555814534782
  0.3706060331116707  0.6568597100655303  0.1000729336026245
  0.3687678896874412  0.6564719351723385  0.6099315181867899
  0.7011030853866067  0.1564210931905145  0.1036780941162722
  0.7022461664182534  0.1571120392864249  0.6035062754223434
  0.7015698722501346  0.6573564186253451  0.1030146746351903
  0.7027960773392055  0.6566617017647839  0.6042437553750066
  0.0325971590283396  0.4484867846804434 -0.0032641675278642
  0.0336418708312521  0.4483702354333851  0.5026887611005286
  0.0336988432873817  0.9472315399291519 -0.0010023226176300
  0.0335690147308903  0.9467141411459149  0.5011973369539240
  0.3686324193624828  0.4495413736196966 -0.0001734305538117
  0.3694249515688381  0.4504885855361986  0.5010231369032490
  0.3666466671244586  0.9418726256472308 -0.0038249612250094
  0.3681678533976696  0.9486344469236117  0.5010691842172880
  0.6995980294974493  0.4479752505015139 -0.0004707833078789
  0.7003436104764603  0.4473928007944648  0.5002493297354019
  0.7014387616859139  0.9473759330932514 -0.0002557499574046
  0.7007516514708958  0.9480486351227414  0.5000582015348495
  0.2083938300199767  0.3429973563722858  0.3563010770831625
  0.2024274618097932  0.3421058149188386  0.8541980912413699
  0.2025704678787467  0.8423440959046560  0.3535364402904771
  0.2020412380184928  0.8420405191012834  0.8536616006418181
  0.5311233740063400  0.3450197081793726  0.3520373315301622
  0.5359698490656648  0.3425226360872793  0.8538877936053224
  0.5373330230000996  0.8432161751871644  0.3539124581535493
  0.5362117634284176  0.8437508002140893  0.8530570333508624
  0.8651775109703804  0.3430217443070854  0.3541735248732050
  0.8682096658784201  0.3428750126616318  0.8538528121509446
  0.8688000573266086  0.8434075280812228  0.3538956836041863
  0.8683331515392045  0.8432820376788536  0.8538262239798883
 
  0.00000000E+00  0.00000000E+00  0.00000000E+00
  0.00000000E+00  0.00000000E+00  0.00000000E+00
  0.00000000E+00  0.00000000E+00  0.00000000E+00
  0.00000000E+00  0.00000000E+00  0.00000000E+00
  0.00000000E+00  0.00000000E+00  0.00000000E+00
  0.00000000E+00  0.00000000E+00  0.00000000E+00
  0.00000000E+00  0.00000000E+00  0.00000000E+00
  0.00000000E+00  0.00000000E+00  0.00000000E+00
  0.00000000E+00  0.00000000E+00  0.00000000E+00
  0.00000000E+00  0.00000000E+00  0.00000000E+00
  0.00000000E+00  0.00000000E+00  0.00000000E+00
  0.00000000E+00  0.00000000E+00  0.00000000E+00
  0.00000000E+00  0.00000000E+00  0.00000000E+00
  0.00000000E+00  0.00000000E+00  0.00000000E+00
  0.00000000E+00  0.00000000E+00  0.00000000E+00
  0.00000000E+00  0.00000000E+00  0.00000000E+00
  0.00000000E+00  0.00000000E+00  0.00000000E+00
  0.00000000E+00  0.00000000E+00  0.00000000E+00
  0.00000000E+00  0.00000000E+00  0.00000000E+00
  0.00000000E+00  0.00000000E+00  0.00000000E+00
  0.00000000E+00  0.00000000E+00  0.00000000E+00
  0.00000000E+00  0.00000000E+00  0.00000000E+00
  0.00000000E+00  0.00000000E+00  0.00000000E+00
  0.00000000E+00  0.00000000E+00  0.00000000E+00
  0.00000000E+00  0.00000000E+00  0.00000000E+00
  0.00000000E+00  0.00000000E+00  0.00000000E+00
  0.00000000E+00  0.00000000E+00  0.00000000E+00
  0.00000000E+00  0.00000000E+00  0.00000000E+00
  0.00000000E+00  0.00000000E+00  0.00000000E+00
  0.00000000E+00  0.00000000E+00  0.00000000E+00
  0.00000000E+00  0.00000000E+00  0.00000000E+00
  0.00000000E+00  0.00000000E+00  0.00000000E+00
  0.00000000E+00  0.00000000E+00  0.00000000E+00
  0.00000000E+00  0.00000000E+00  0.00000000E+00
  0.00000000E+00  0.00000000E+00  0.00000000E+00
  0.00000000E+00  0.00000000E+00  0.00000000E+00
  0.00000000E+00  0.00000000E+00  0.00000000E+00
  0.00000000E+00  0.00000000E+00  0.00000000E+00
  0.00000000E+00  0.00000000E+00  0.00000000E+00
  0.00000000E+00  0.00000000E+00  0.00000000E+00
  0.00000000E+00  0.00000000E+00  0.00000000E+00
  0.00000000E+00  0.00000000E+00  0.00000000E+00
  0.00000000E+00  0.00000000E+00  0.00000000E+00
  0.00000000E+00  0.00000000E+00  0.00000000E+00
  0.00000000E+00  0.00000000E+00  0.00000000E+00
  0.00000000E+00  0.00000000E+00  0.00000000E+00
  0.00000000E+00  0.00000000E+00  0.00000000E+00
  0.00000000E+00  0.00000000E+00  0.00000000E+00
  0.00000000E+00  0.00000000E+00  0.00000000E+00
  0.00000000E+00  0.00000000E+00  0.00000000E+00
  0.00000000E+00  0.00000000E+00  0.00000000E+00
  0.00000000E+00  0.00000000E+00  0.00000000E+00
  0.00000000E+00  0.00000000E+00  0.00000000E+00
  0.00000000E+00  0.00000000E+00  0.00000000E+00
  0.00000000E+00  0.00000000E+00  0.00000000E+00
  0.00000000E+00  0.00000000E+00  0.00000000E+00
  0.00000000E+00  0.00000000E+00  0.00000000E+00
  0.00000000E+00  0.00000000E+00  0.00000000E+00
  0.00000000E+00  0.00000000E+00  0.00000000E+00
  0.00000000E+00  0.00000000E+00  0.00000000E+00
  0.00000000E+00  0.00000000E+00  0.00000000E+00
  0.00000000E+00  0.00000000E+00  0.00000000E+00
  0.00000000E+00  0.00000000E+00  0.00000000E+00
  0.00000000E+00  0.00000000E+00  0.00000000E+00
  0.00000000E+00  0.00000000E+00  0.00000000E+00
  0.00000000E+00  0.00000000E+00  0.00000000E+00
  0.00000000E+00  0.00000000E+00  0.00000000E+00
  0.00000000E+00  0.00000000E+00  0.00000000E+00
  0.00000000E+00  0.00000000E+00  0.00000000E+00
  0.00000000E+00  0.00000000E+00  0.00000000E+00
  0.00000000E+00  0.00000000E+00  0.00000000E+00
  0.00000000E+00  0.00000000E+00  0.00000000E+00
  0.00000000E+00  0.00000000E+00  0.00000000E+00
  0.00000000E+00  0.00000000E+00  0.00000000E+00
  0.00000000E+00  0.00000000E+00  0.00000000E+00
  0.00000000E+00  0.00000000E+00  0.00000000E+00
  0.00000000E+00  0.00000000E+00  0.00000000E+00
  0.00000000E+00  0.00000000E+00  0.00000000E+00
  0.00000000E+00  0.00000000E+00  0.00000000E+00
  0.00000000E+00  0.00000000E+00  0.00000000E+00
  0.00000000E+00  0.00000000E+00  0.00000000E+00
  0.00000000E+00  0.00000000E+00  0.00000000E+00
  0.00000000E+00  0.00000000E+00  0.00000000E+00
  0.00000000E+00  0.00000000E+00  0.00000000E+00
  0.00000000E+00  0.00000000E+00  0.00000000E+00
  0.00000000E+00  0.00000000E+00  0.00000000E+00
  0.00000000E+00  0.00000000E+00  0.00000000E+00
  0.00000000E+00  0.00000000E+00  0.00000000E+00
  0.00000000E+00  0.00000000E+00  0.00000000E+00
  0.00000000E+00  0.00000000E+00  0.00000000E+00
  0.00000000E+00  0.00000000E+00  0.00000000E+00
  0.00000000E+00  0.00000000E+00  0.00000000E+00
  0.00000000E+00  0.00000000E+00  0.00000000E+00
  0.00000000E+00  0.00000000E+00  0.00000000E+00
  0.00000000E+00  0.00000000E+00  0.00000000E+00
  0.00000000E+00  0.00000000E+00  0.00000000E+00
  0.00000000E+00  0.00000000E+00  0.00000000E+00
  0.00000000E+00  0.00000000E+00  0.00000000E+00
  0.00000000E+00  0.00000000E+00  0.00000000E+00
  0.00000000E+00  0.00000000E+00  0.00000000E+00
  0.00000000E+00  0.00000000E+00  0.00000000E+00
  0.00000000E+00  0.00000000E+00  0.00000000E+00
  0.00000000E+00  0.00000000E+00  0.00000000E+00
  0.00000000E+00  0.00000000E+00  0.00000000E+00
  0.00000000E+00  0.00000000E+00  0.00000000E+00
  0.00000000E+00  0.00000000E+00  0.00000000E+00
  0.00000000E+00  0.00000000E+00  0.00000000E+00
  0.00000000E+00  0.00000000E+00  0.00000000E+00
  0.00000000E+00  0.00000000E+00  0.00000000E+00
  0.00000000E+00  0.00000000E+00  0.00000000E+00
  0.00000000E+00  0.00000000E+00  0.00000000E+00
  0.00000000E+00  0.00000000E+00  0.00000000E+00
  0.00000000E+00  0.00000000E+00  0.00000000E+00
  0.00000000E+00  0.00000000E+00  0.00000000E+00
  0.00000000E+00  0.00000000E+00  0.00000000E+00
  0.00000000E+00  0.00000000E+00  0.00000000E+00
  0.00000000E+00  0.00000000E+00  0.00000000E+00
  0.00000000E+00  0.00000000E+00  0.00000000E+00
  0.00000000E+00  0.00000000E+00  0.00000000E+00
  0.00000000E+00  0.00000000E+00  0.00000000E+00
  0.00000000E+00  0.00000000E+00  0.00000000E+00
  0.00000000E+00  0.00000000E+00  0.00000000E+00
  0.00000000E+00  0.00000000E+00  0.00000000E+00
  0.00000000E+00  0.00000000E+00  0.00000000E+00
  0.00000000E+00  0.00000000E+00  0.00000000E+00
  0.00000000E+00  0.00000000E+00  0.00000000E+00
  0.00000000E+00  0.00000000E+00  0.00000000E+00
  0.00000000E+00  0.00000000E+00  0.00000000E+00
  0.00000000E+00  0.00000000E+00  0.00000000E+00
  0.00000000E+00  0.00000000E+00  0.00000000E+00
  0.00000000E+00  0.00000000E+00  0.00000000E+00
  0.00000000E+00  0.00000000E+00  0.00000000E+00
  0.00000000E+00  0.00000000E+00  0.00000000E+00
  0.00000000E+00  0.00000000E+00  0.00000000E+00
  0.00000000E+00  0.00000000E+00  0.00000000E+00
  0.00000000E+00  0.00000000E+00  0.00000000E+00
  0.00000000E+00  0.00000000E+00  0.00000000E+00
  0.00000000E+00  0.00000000E+00  0.00000000E+00
  0.00000000E+00  0.00000000E+00  0.00000000E+00
  0.00000000E+00  0.00000000E+00  0.00000000E+00
  0.00000000E+00  0.00000000E+00  0.00000000E+00
  0.00000000E+00  0.00000000E+00  0.00000000E+00
  0.00000000E+00  0.00000000E+00  0.00000000E+00
  0.00000000E+00  0.00000000E+00  0.00000000E+00
  0.00000000E+00  0.00000000E+00  0.00000000E+00
  0.00000000E+00  0.00000000E+00  0.00000000E+00
  0.00000000E+00  0.00000000E+00  0.00000000E+00
  0.00000000E+00  0.00000000E+00  0.00000000E+00
  0.00000000E+00  0.00000000E+00  0.00000000E+00
  0.00000000E+00  0.00000000E+00  0.00000000E+00
  0.00000000E+00  0.00000000E+00  0.00000000E+00
  0.00000000E+00  0.00000000E+00  0.00000000E+00
  0.00000000E+00  0.00000000E+00  0.00000000E+00
  0.00000000E+00  0.00000000E+00  0.00000000E+00
  0.00000000E+00  0.00000000E+00  0.00000000E+00
  0.00000000E+00  0.00000000E+00  0.00000000E+00
  0.00000000E+00  0.00000000E+00  0.00000000E+00
  0.00000000E+00  0.00000000E+00  0.00000000E+00
  0.00000000E+00  0.00000000E+00  0.00000000E+00
  0.00000000E+00  0.00000000E+00  0.00000000E+00
  0.00000000E+00  0.00000000E+00  0.00000000E+00
  0.00000000E+00  0.00000000E+00  0.00000000E+00
  0.00000000E+00  0.00000000E+00  0.00000000E+00
  0.00000000E+00  0.00000000E+00  0.00000000E+00
  0.00000000E+00  0.00000000E+00  0.00000000E+00
  0.00000000E+00  0.00000000E+00  0.00000000E+00
  0.00000000E+00  0.00000000E+00  0.00000000E+00
  0.00000000E+00  0.00000000E+00  0.00000000E+00
  0.00000000E+00  0.00000000E+00  0.00000000E+00
  0.00000000E+00  0.00000000E+00  0.00000000E+00
  0.00000000E+00  0.00000000E+00  0.00000000E+00
  0.00000000E+00  0.00000000E+00  0.00000000E+00
  0.00000000E+00  0.00000000E+00  0.00000000E+00
  0.00000000E+00  0.00000000E+00  0.00000000E+00
  0.00000000E+00  0.00000000E+00  0.00000000E+00
  0.00000000E+00  0.00000000E+00  0.00000000E+00
  0.00000000E+00  0.00000000E+00  0.00000000E+00
  0.00000000E+00  0.00000000E+00  0.00000000E+00
  0.00000000E+00  0.00000000E+00  0.00000000E+00
  0.00000000E+00  0.00000000E+00  0.00000000E+00
  0.00000000E+00  0.00000000E+00  0.00000000E+00
  0.00000000E+00  0.00000000E+00  0.00000000E+00
  0.00000000E+00  0.00000000E+00  0.00000000E+00
  0.00000000E+00  0.00000000E+00  0.00000000E+00
  0.00000000E+00  0.00000000E+00  0.00000000E+00
  0.00000000E+00  0.00000000E+00  0.00000000E+00
  0.00000000E+00  0.00000000E+00  0.00000000E+00
  0.00000000E+00  0.00000000E+00  0.00000000E+00
  0.00000000E+00  0.00000000E+00  0.00000000E+00
  0.00000000E+00  0.00000000E+00  0.00000000E+00
  0.00000000E+00  0.00000000E+00  0.00000000E+00
  0.00000000E+00  0.00000000E+00  0.00000000E+00
  0.00000000E+00  0.00000000E+00  0.00000000E+00
