Li21 N7
1.0
3.888635 0.000000 0.000000
0.000000 3.161590 -5.476035
0.000000 0.000000 65.712418
Li N
21 7
direct
0.500000 0.000000 0.027778 Li+
0.000000 0.666667 0.027778 Li+
0.000000 0.333333 0.027778 Li+
0.500000 0.000000 0.083333 Li+
0.000000 0.666667 0.083333 Li+
0.000000 0.333333 0.083333 Li+
0.500000 0.000000 0.138889 Li+
0.000000 0.666667 0.138889 Li+
0.000000 0.333333 0.138889 Li+
0.500000 0.000000 0.194444 Li+
0.000000 0.666667 0.194444 Li+
0.000000 0.333333 0.194444 Li+
0.500000 0.000000 0.250000 Li+
0.000000 0.666667 0.250000 Li+
0.000000 0.333333 0.250000 Li+
0.500000 0.000000 0.305556 Li+
0.000000 0.666667 0.305556 Li+
0.000000 0.333333 0.305556 Li+
0.500000 0.000000 0.361111 Li+
0.000000 0.666667 0.361111 Li+
0.000000 0.333333 0.361111 Li+
0.000000 0.000000 0.027778 N3-
0.000000 0.000000 0.083333 N3-
0.000000 0.000000 0.138889 N3-
0.000000 0.000000 0.194444 N3-
0.000000 0.000000 0.250000 N3-
0.000000 0.000000 0.305556 N3-
0.000000 0.000000 0.361111 N3-
