Li61 P7 N32                             
   1.00000000000000     
     0.0072575692193622    9.4877964983458796    0.0088908821904958
    -0.0194787349240503    0.0086753492654338    9.5423600078951480
     9.5282399138900864    0.0074878120611481   -0.0195043206086626
   Li   P    N 
    61     7    32
Direct
  0.4987041911986105  0.0019769814936398  0.4981091535852127
  0.0100981933859856  0.4969996544718923  0.0032479666176544
  0.4996288241988602 -0.0022850303362582 -0.0012595220809580
  0.0029956009645638  0.0008374429335552  0.4974326035580132
  0.4940394920362232  0.5066426914451135  0.0035693791415991
  0.0064691700411700  0.5016858686856791  0.5024033483997723
  0.7503393110756020 -0.0090055857453619  0.4968786555313680
  0.2507652000901193 -0.0008186359508688  0.4978038189171004
  0.7689787760750824  0.4992597125034967  0.4874570990496404
  0.2394721982977141  0.5003320274471367  0.4968631591866463
  0.2633253585666857  0.0001973598094286 -0.0026733430403080
  0.7351800798899917 -0.0026691893140100 -0.0002982414428607
  0.6734888190194446  0.4187157651855163  0.0835867785768274
  0.5070494395330846  0.2443322519652783 -0.0112120810623270
  0.5063154015801069  0.7564509778919424  0.0122724286833647
 -0.0028748357223213  0.4882544719818486  0.2567120371877886
  0.0227509628036661  0.5164127144237453  0.7572319217305327
  0.2398796219186385  0.2166618405035482  0.2131287627467939
  0.2285142142423421  0.7847811729891769  0.7765721312623146
  0.2467559016655642  0.2926411722266813  0.7102572961042891
  0.2634911659342379  0.7177505487317111  0.2793231763455898
  0.7604204003982935  0.2977777934074597  0.2994777852053817
  0.7336277550415305  0.7370618078029609  0.7048308095128808
  0.7289441160882408  0.2000392919094735  0.8076924227252924
  0.7422159941570999  0.7997885871559381  0.2003142169958303
  0.9899947047304918  0.2463293485780526  0.2412123819880068
  0.9791286976053439  0.7522919399714574  0.7513001428933574
  0.2649612448807010  0.2422283495075936  0.4676401649175201
  0.2654961771308135  0.7553254751175760  0.5238802043264156
  0.7550645292666237  0.2182605382208418  0.5407057006481550
  0.7467328473789178  0.7578670183986254  0.4547119357721359
  0.7418045571200534  0.5468445920696628  0.2717551931030606
  0.8039630224117646  0.5098121305476312  0.7134800456619097
  0.2387633151932236  0.4652168948315431  0.2562222144826898
  0.2482566417146606  0.5393952970799973  0.7358317939594612
  0.5149662255724119  0.7456567252345799  0.2527436504260263
  0.4907471750834002  0.2475492207861372  0.7517696079806506
  0.2375908565087401  0.9728155211173076  0.2520445863802059
  0.2390254708567925  0.0301314133508620  0.7440719584499972
  0.2656768496777181  0.2415601795743834  0.9619682023366877
  0.2623870994565653  0.7616322603345193  0.0311140196228235
  0.7643497223008759  0.9737811264281031  0.7408493348884988
  0.7578924776060058  0.0411350538263761  0.2633539851077237
  0.7659223753106382  0.7778826403810890  0.9541723237154441
  0.7732476233029052  0.2118900363069500  0.0579729208667248
  0.0009787031241417  0.2483965190908708  0.7591073624789876
  0.0141893674807988  0.7456073714152930  0.2334284994721640
  0.4886785513450102  0.2651611317158721  0.2440081346492649
  0.4768232811449571  0.7368329488610793  0.7585915897752975
  0.0161558112839268  0.2606160566598219  0.0106725989669721
  0.0140181278341584  0.7394647121306087 -0.0175709057363994
  0.5029600111148581  0.2377476405206104  0.4891780195845254
  0.5053657957401038  0.7642305071267286  0.5063158437546725
  0.4903986381935571  0.5158681335289167  0.2389363589819067
  0.4773942096221385  0.4917269280613811  0.7710427891282783
 -0.0014049521387794 -0.0053058502984312  0.2588854949288518
  0.0015165176481312  0.0026590845988395  0.7356554451711832
  0.6377975614123244  0.3832842114011920  0.6646074322926240
  0.8251031497261564  0.4021916249865605  0.9156735100467601
  0.8279819956416133  0.5873129551966377  0.0718057862534901
  0.6738027617019298  0.5762205981089493  0.9007280656563642
  0.4982150232808969  0.5039510214259000  0.4972414865804342
  0.0023390713194835  0.0005782900110574 -0.0023959042093915
  0.2529462839480904  0.5020554154074013 -0.0013781095992892
  0.0043063761467107  0.7502189242113597  0.4955791000504378
  0.0043240756582815  0.2519989630181860  0.4989194826436646
  0.4991387602745251  0.0032055450313371  0.2479271329858736
  0.4995031528185864 -0.0046275642869839  0.7487398493304623
  0.6074587498462812  0.5968512632157759  0.6043301114497065
  0.6023519925414759  0.4024529887496890  0.3947548702369368
  0.8981728602505374  0.8965504995662177  0.0964273915573751
  0.8961018479468641  0.1049509227910816  0.8985342089147970
  0.1055921432271269  0.9042683927656219  0.8908151745682348
  0.1061277208649399  0.0978420956163844  0.1036319901860803
  0.3955001612009885  0.6095495477247828  0.4032903107765196
  0.3991440007237662  0.3962166924164164  0.5987974031062174
  0.1053010617340693  0.3499100069138139  0.3918330308159569
  0.1054391039018071  0.6538491049859250  0.6073484672516152
  0.1117817115411754  0.1525848508569925  0.6010434940376652
  0.1135307393010117  0.8500559370678409  0.3959968729367512
  0.8933908805444027  0.1486829007621062  0.4033595020986438
  0.8893805226843821  0.8523247724376978  0.5899630908858792
  0.8689662944472903  0.3819377142600967  0.1280287838361754
  0.8732510609797711  0.6171903092720943  0.8689382312097796
  0.1539062329283754  0.5996928123659940  0.1116098993426714
  0.1563203811793464  0.4037611655376412  0.8838658403865282
  0.3997189436468153  0.8935531776245657  0.1497552566580509
  0.3993759807902088  0.1003903965592832  0.8519205987890903
  0.3892025515051643  0.1037710747927261  0.3480144307803068
  0.3901114523106259  0.8979512447366764  0.6473751444526072
  0.3518057463169865  0.3886421744215195  0.0967037487881346
  0.3511742361210446  0.6155601073776417  0.9002420934077874
  0.6097432303013057  0.0978449098477263  0.6487295373506285
  0.6116943608102521  0.9079042188445822  0.3501718349815574
  0.6340869385503731  0.6303259782552547  0.1147109718122762
  0.6271952227326345  0.3731482494667094  0.8715235304266645
  0.9005469642404607  0.3552293643994476  0.6046671889911894
  0.9069749602743892  0.6453732729236826  0.3894261254248889
  0.5996050261816558  0.1093574678332127  0.1455975364855798
  0.6032966804636837  0.8878347624056007  0.8458051339016313
 
  0.00000000E+00  0.00000000E+00  0.00000000E+00
  0.00000000E+00  0.00000000E+00  0.00000000E+00
  0.00000000E+00  0.00000000E+00  0.00000000E+00
  0.00000000E+00  0.00000000E+00  0.00000000E+00
  0.00000000E+00  0.00000000E+00  0.00000000E+00
  0.00000000E+00  0.00000000E+00  0.00000000E+00
  0.00000000E+00  0.00000000E+00  0.00000000E+00
  0.00000000E+00  0.00000000E+00  0.00000000E+00
  0.00000000E+00  0.00000000E+00  0.00000000E+00
  0.00000000E+00  0.00000000E+00  0.00000000E+00
  0.00000000E+00  0.00000000E+00  0.00000000E+00
  0.00000000E+00  0.00000000E+00  0.00000000E+00
  0.00000000E+00  0.00000000E+00  0.00000000E+00
  0.00000000E+00  0.00000000E+00  0.00000000E+00
  0.00000000E+00  0.00000000E+00  0.00000000E+00
  0.00000000E+00  0.00000000E+00  0.00000000E+00
  0.00000000E+00  0.00000000E+00  0.00000000E+00
  0.00000000E+00  0.00000000E+00  0.00000000E+00
  0.00000000E+00  0.00000000E+00  0.00000000E+00
  0.00000000E+00  0.00000000E+00  0.00000000E+00
  0.00000000E+00  0.00000000E+00  0.00000000E+00
  0.00000000E+00  0.00000000E+00  0.00000000E+00
  0.00000000E+00  0.00000000E+00  0.00000000E+00
  0.00000000E+00  0.00000000E+00  0.00000000E+00
  0.00000000E+00  0.00000000E+00  0.00000000E+00
  0.00000000E+00  0.00000000E+00  0.00000000E+00
  0.00000000E+00  0.00000000E+00  0.00000000E+00
  0.00000000E+00  0.00000000E+00  0.00000000E+00
  0.00000000E+00  0.00000000E+00  0.00000000E+00
  0.00000000E+00  0.00000000E+00  0.00000000E+00
  0.00000000E+00  0.00000000E+00  0.00000000E+00
  0.00000000E+00  0.00000000E+00  0.00000000E+00
  0.00000000E+00  0.00000000E+00  0.00000000E+00
  0.00000000E+00  0.00000000E+00  0.00000000E+00
  0.00000000E+00  0.00000000E+00  0.00000000E+00
  0.00000000E+00  0.00000000E+00  0.00000000E+00
  0.00000000E+00  0.00000000E+00  0.00000000E+00
  0.00000000E+00  0.00000000E+00  0.00000000E+00
  0.00000000E+00  0.00000000E+00  0.00000000E+00
  0.00000000E+00  0.00000000E+00  0.00000000E+00
  0.00000000E+00  0.00000000E+00  0.00000000E+00
  0.00000000E+00  0.00000000E+00  0.00000000E+00
  0.00000000E+00  0.00000000E+00  0.00000000E+00
  0.00000000E+00  0.00000000E+00  0.00000000E+00
  0.00000000E+00  0.00000000E+00  0.00000000E+00
  0.00000000E+00  0.00000000E+00  0.00000000E+00
  0.00000000E+00  0.00000000E+00  0.00000000E+00
  0.00000000E+00  0.00000000E+00  0.00000000E+00
  0.00000000E+00  0.00000000E+00  0.00000000E+00
  0.00000000E+00  0.00000000E+00  0.00000000E+00
  0.00000000E+00  0.00000000E+00  0.00000000E+00
  0.00000000E+00  0.00000000E+00  0.00000000E+00
  0.00000000E+00  0.00000000E+00  0.00000000E+00
  0.00000000E+00  0.00000000E+00  0.00000000E+00
  0.00000000E+00  0.00000000E+00  0.00000000E+00
  0.00000000E+00  0.00000000E+00  0.00000000E+00
  0.00000000E+00  0.00000000E+00  0.00000000E+00
  0.00000000E+00  0.00000000E+00  0.00000000E+00
  0.00000000E+00  0.00000000E+00  0.00000000E+00
  0.00000000E+00  0.00000000E+00  0.00000000E+00
  0.00000000E+00  0.00000000E+00  0.00000000E+00
  0.00000000E+00  0.00000000E+00  0.00000000E+00
  0.00000000E+00  0.00000000E+00  0.00000000E+00
  0.00000000E+00  0.00000000E+00  0.00000000E+00
  0.00000000E+00  0.00000000E+00  0.00000000E+00
  0.00000000E+00  0.00000000E+00  0.00000000E+00
  0.00000000E+00  0.00000000E+00  0.00000000E+00
  0.00000000E+00  0.00000000E+00  0.00000000E+00
  0.00000000E+00  0.00000000E+00  0.00000000E+00
  0.00000000E+00  0.00000000E+00  0.00000000E+00
  0.00000000E+00  0.00000000E+00  0.00000000E+00
  0.00000000E+00  0.00000000E+00  0.00000000E+00
  0.00000000E+00  0.00000000E+00  0.00000000E+00
  0.00000000E+00  0.00000000E+00  0.00000000E+00
  0.00000000E+00  0.00000000E+00  0.00000000E+00
  0.00000000E+00  0.00000000E+00  0.00000000E+00
  0.00000000E+00  0.00000000E+00  0.00000000E+00
  0.00000000E+00  0.00000000E+00  0.00000000E+00
  0.00000000E+00  0.00000000E+00  0.00000000E+00
  0.00000000E+00  0.00000000E+00  0.00000000E+00
  0.00000000E+00  0.00000000E+00  0.00000000E+00
  0.00000000E+00  0.00000000E+00  0.00000000E+00
  0.00000000E+00  0.00000000E+00  0.00000000E+00
  0.00000000E+00  0.00000000E+00  0.00000000E+00
  0.00000000E+00  0.00000000E+00  0.00000000E+00
  0.00000000E+00  0.00000000E+00  0.00000000E+00
  0.00000000E+00  0.00000000E+00  0.00000000E+00
  0.00000000E+00  0.00000000E+00  0.00000000E+00
  0.00000000E+00  0.00000000E+00  0.00000000E+00
  0.00000000E+00  0.00000000E+00  0.00000000E+00
  0.00000000E+00  0.00000000E+00  0.00000000E+00
  0.00000000E+00  0.00000000E+00  0.00000000E+00
  0.00000000E+00  0.00000000E+00  0.00000000E+00
  0.00000000E+00  0.00000000E+00  0.00000000E+00
  0.00000000E+00  0.00000000E+00  0.00000000E+00
  0.00000000E+00  0.00000000E+00  0.00000000E+00
  0.00000000E+00  0.00000000E+00  0.00000000E+00
  0.00000000E+00  0.00000000E+00  0.00000000E+00
  0.00000000E+00  0.00000000E+00  0.00000000E+00
  0.00000000E+00  0.00000000E+00  0.00000000E+00
