Li42 P14 O56
1.0
4.922448 0.000000 0.000000
0.000000 6.176136 0.000000
0.000000 0.000000 58.260422
Li P O
42 14 56
Selective dynamics
direct
0.490583 0.000000 0.059589 T T T Li+
0.990583 0.500000 0.031320 T T T Li+
0.491637 0.252873 0.015779 T T T Li+
0.991637 0.247127 0.075130 T T T Li+
0.991637 0.752873 0.075130 T T T Li+
0.491637 0.747127 0.015779 T T T Li+
0.490583 0.000000 0.150498 F F F Li+
0.990583 0.500000 0.122229 F F F Li+
0.491637 0.252873 0.106688 F F F Li+
0.991637 0.247127 0.166039 F F F Li+
0.991637 0.752873 0.166039 F F F Li+
0.491637 0.747127 0.106688 F F F Li+
0.490583 0.000000 0.241407 F F F Li+
0.990583 0.500000 0.213138 F F F Li+
0.491637 0.252873 0.197597 F F F Li+
0.991637 0.247127 0.256949 F F F Li+
0.991637 0.752873 0.256949 F F F Li+
0.491637 0.747127 0.197597 F F F Li+
0.490583 0.000000 0.332316 F F F Li+
0.990583 0.500000 0.304047 F F F Li+
0.491637 0.252873 0.288506 F F F Li+
0.991637 0.247127 0.347858 F F F Li+
0.991637 0.752873 0.347858 F F F Li+
0.491637 0.747127 0.288506 F F F Li+
0.490583 0.000000 0.423225 F F F Li+
0.990583 0.500000 0.394956 F F F Li+
0.491637 0.252873 0.379415 F F F Li+
0.991637 0.247127 0.438767 F F F Li+
0.991637 0.752873 0.438767 F F F Li+
0.491637 0.747127 0.379415 F F F Li+
0.490583 0.000000 0.514135 F F F Li+
0.990583 0.500000 0.485865 F F F Li+
0.491637 0.252873 0.470324 F F F Li+
0.991637 0.247127 0.529676 T T T Li+
0.991637 0.752873 0.529676 T T T Li+
0.491637 0.747127 0.470324 F F F Li+
0.490583 0.000000 0.605044 T T T Li+
0.990583 0.500000 0.576775 T T T Li+
0.491637 0.252873 0.561233 T T T Li+
0.991637 0.247127 0.620585 T T T Li+
0.991637 0.752873 0.620585 T T T Li+
0.491637 0.747127 0.561233 T T T Li+
0.498580 0.500000 0.061431 T T T P5+
0.998580 0.000000 0.029478 T T T P5+
0.498580 0.500000 0.152340 F F F P5+
0.998580 0.000000 0.120387 F F F P5+
0.498580 0.500000 0.243249 F F F P5+
0.998580 0.000000 0.211296 F F F P5+
0.498580 0.500000 0.334158 F F F P5+
0.998580 0.000000 0.302206 F F F P5+
0.498580 0.500000 0.425067 F F F P5+
0.998580 0.000000 0.393115 F F F P5+
0.498580 0.500000 0.515976 F F F P5+
0.998580 0.000000 0.484024 F F F P5+
0.498580 0.500000 0.606885 T T T P5+
0.998580 0.000000 0.574933 T T T P5+
0.892990 0.792862 0.016954 T T T O2-
0.397874 0.500000 0.036045 T T T O2-
0.814809 0.500000 0.061964 T T T O2-
0.314809 0.000000 0.028945 T T T O2-
0.392990 0.292862 0.073955 T T T O2-
0.892990 0.207138 0.016954 T T T O2-
0.897874 0.000000 0.054864 T T T O2-
0.392990 0.707138 0.073955 T T T O2-
0.892990 0.792862 0.107863 F F F O2-
0.397874 0.500000 0.126954 F F F O2-
0.814809 0.500000 0.152873 F F F O2-
0.314809 0.000000 0.119854 F F F O2-
0.392990 0.292862 0.164864 F F F O2-
0.892990 0.207138 0.107863 F F F O2-
0.897874 0.000000 0.145773 F F F O2-
0.392990 0.707138 0.164864 F F F O2-
0.892990 0.792862 0.198772 F F F O2-
0.397874 0.500000 0.217863 F F F O2-
0.814809 0.500000 0.243782 F F F O2-
0.314809 0.000000 0.210763 F F F O2-
0.392990 0.292862 0.255774 F F F O2-
0.892990 0.207138 0.198772 F F F O2-
0.897874 0.000000 0.236683 F F F O2-
0.392990 0.707138 0.255774 F F F O2-
0.892990 0.792862 0.289681 F F F O2-
0.397874 0.500000 0.308772 F F F O2-
0.814809 0.500000 0.334691 F F F O2-
0.314809 0.000000 0.301672 F F F O2-
0.392990 0.292862 0.346683 F F F O2-
0.892990 0.207138 0.289681 F F F O2-
0.897874 0.000000 0.327592 F F F O2-
0.392990 0.707138 0.346683 F F F O2-
0.892990 0.792862 0.380590 F F F O2-
0.397874 0.500000 0.399681 F F F O2-
0.814809 0.500000 0.425600 F F F O2-
0.314809 0.000000 0.392581 F F F O2-
0.392990 0.292862 0.437592 F F F O2-
0.892990 0.207138 0.380590 F F F O2-
0.897874 0.000000 0.418501 F F F O2-
0.392990 0.707138 0.437592 F F F O2-
0.892990 0.792862 0.471499 F F F O2-
0.397874 0.500000 0.490590 F F F O2-
0.814809 0.500000 0.516509 F F F O2-
0.314809 0.000000 0.483491 F F F O2-
0.392990 0.292862 0.528501 F F F O2-
0.892990 0.207138 0.471499 F F F O2-
0.897874 0.000000 0.509410 F F F O2-
0.392990 0.707138 0.528501 F F F O2-
0.892990 0.792862 0.562408 T T T O2-
0.397874 0.500000 0.581499 T T T O2-
0.814809 0.500000 0.607419 T T T O2-
0.314809 0.000000 0.574400 T T T O2-
0.392990 0.292862 0.619410 T T T O2-
0.892990 0.207138 0.562408 T T T O2-
0.897874 0.000000 0.600319 T T T O2-
0.392990 0.707138 0.619410 T T T O2-
