Li3 N1
1.0
1.798691 -3.115424 0.000000
1.798691 3.115424 0.000000
0.000000 -0.000000 3.830409
Li N
3 1
direct
0.000000 -0.000000 0.500000 Li
0.333333 0.666667 0.000000 Li
0.666667 0.333333 -0.000000 Li
0.000000 -0.000000 -0.000000 N
