Li71 P24 N1 O94                         
   1.00000000000000     
    14.6816930050926686    0.0137328886953966   -0.0074354149218207
     0.0099135908733476   10.5835324571728044   -0.0029747679831728
    -0.0062455975233784   -0.0034962851325208   12.3183756227138144
   Li   P    N    O 
    71    24     1    94
Direct
  0.1708645729140796  0.4242397606704369 -0.0044947460877558
  0.1688328096971451  0.4246317897654411  0.5037414301578799
  0.1693245945477080  0.9314790619612583  0.0065026843220280
  0.1707160222558164  0.9208018071457238  0.5002785253337055
  0.5029574723754502  0.4221986476130944 -0.0013848226583850
  0.5026293424705953  0.4221808083161447  0.5009993294131908
  0.5039938651771010  0.9235595163977085 -0.0003337664006066
  0.5029807336118537  0.9232201142319312  0.4999721573912785
  0.8349468075656044  0.4230466553622725 -0.0013092880030921
  0.8365126497952922  0.4222684442432689  0.5008011572819445
  0.8357284746342672  0.9202138273499393 -0.0014658629833074
  0.8361567518824057  0.9216389611589590  0.5002445173803205
  0.0095804355140950  0.0741550227292621  0.2466887007335870
  0.0037627856850383  0.0766926732707627  0.7513263613320879
 -0.0107670338428937  0.6237513777256657  0.2502525911335928
  0.0032597699449884  0.5779835462358808  0.7503757967207786
  0.3304636847145909  0.0777922461983800  0.2450725381731172
  0.3359428036565656  0.0777613278597377  0.7514975718284234
  0.3460212008826015  0.5886780638275189  0.2493553617937077
  0.3367125998321785  0.5776991758990104  0.7501270009461536
  0.6706479660203581  0.0765208970605593  0.2496424661849593
  0.6696520459940640  0.0770047208936674  0.7498472397686500
  0.6681018755610016  0.5764940772935514  0.2502107418522976
  0.6691021331076704  0.5778567668197632  0.7501216567329548
  0.1696869691755498  0.1629315515662916  0.6259834936180276
  0.1707327326858789  0.6667605850092889  0.1221366309971712
  0.1698999603352321  0.6646989921639227  0.6274239306455109
  0.5020083699830327  0.1614008390959084  0.1261520989624204
  0.5024057402817185  0.1629879901345461  0.6264459466569767
  0.5033586015328891  0.6649488879665897  0.1246550031050400
  0.5030048828299244  0.6637796119800484  0.6268838452034962
  0.8398984078886998  0.1604335963348435  0.1253895913128997
  0.8361553604941588  0.1624426003006828  0.6265421455557172
  0.8328981828252494  0.6636090434501924  0.1243826582319035
  0.8353297863772298  0.6634791741972922  0.6271541089664061
 -0.0009917680361091  0.3258659934288133  0.1053549033594468
  0.0025757738172422  0.3356523005666019  0.6265669969061011
  0.0042106159360824  0.8406403903119839  0.1211694651241304
  0.0025793540408202  0.8364917775098415  0.6251611816358899
  0.3389648356906484  0.3311901794487932  0.1161226193455669
  0.3358772411808342  0.3358562235556686  0.6242448245661862
  0.3364607225456254  0.8393399527022637  0.1217394734262637
  0.3363159985368478  0.8371702162595036  0.6241229612924802
  0.6694539423274144  0.3356978160143962  0.1245770351194466
  0.6694506112414695  0.3364748368361828  0.6237576545722991
  0.6692868876156534  0.8371638235861224  0.1237376602371255
  0.6694011259344514  0.8371748433166307  0.6231212750334029
  0.0078684233694122  0.3276490507556056  0.3910361119161512
  0.0029351525085811  0.3358186134831618  0.8747082407593559
  0.0041624251239288  0.8391340864224694  0.3798935635520936
  0.0035474766033378  0.8374936944259992  0.8767197107963703
  0.3372170106573072  0.3334499359588299  0.3818284297760880
  0.3369678204656188  0.3345527134494627  0.8753607521940506
  0.3352521493097015  0.8375560029333415  0.3766268812393477
  0.3362329095121172  0.8385005041338199  0.8770305734725973
  0.6684436357225368  0.3360619610883055  0.3760714051340480
  0.6694912037967414  0.3362876232466855  0.8762049463085716
  0.6690411577965519  0.8372250532839777  0.3761948696843524
  0.6696974244844982  0.8369982075750440  0.8763695482570524
  0.1688972162287264  0.1580342784496642  0.3698716554102665
  0.1684229096705319  0.1632087935439697  0.8782804123021035
  0.1690121486410316  0.6613728052479765  0.3776363628918250
  0.1702694285826991  0.6657594314003420  0.8731430250967718
  0.5013808987333208  0.1617439093902195  0.3729926630967645
  0.5039193737067842  0.1629865522819093  0.8735846508731636
  0.5032601188839196  0.6647356948823210  0.3752837742991723
  0.5028319433503924  0.6641109666176811  0.8727835429395236
  0.8382884177027660  0.1619976116723462  0.3725459955988251
  0.8355744516007938  0.1623488347512573  0.8714966391621398
  0.8325853582595729  0.6639025895205470  0.3759207029995967
  0.8362186876316318  0.6632234008114679  0.8730845989595909
  0.1968945234643067  0.4170388698167619  0.2516024361648601
  0.1670597781257155  0.4127082831733845  0.7503379435619848
  0.1679440481940342  0.9072092528427815  0.2527792968466998
  0.1669346572367245  0.9125494590051207  0.7507103041940597
  0.4974283609047154  0.4120280118417596  0.2498192704919036
  0.5006348080337911  0.4123064501501136  0.7497700882208901
  0.5005108599748055  0.9121094233804773  0.2500592334540475
  0.5008905983631354  0.9122174193083410  0.7496567680967721
  0.8368926997390643  0.4135429390832018  0.2499724246298159
  0.8335100178496737  0.4125255163956565  0.7500919094028017
  0.8346638428562119  0.9102211098625986  0.2501535923995328
  0.8336550158379927  0.9112943012321760  0.7493375641678935
 -0.0031979269884193  0.0867886555631422  0.0001610863629715
 -0.0003432312078277  0.0854724014863193  0.5010957476037526
 -0.0001071711211748  0.5876928517192166  0.0007515411314856
 -0.0014799576558094  0.5873281922684922  0.5007780119863449
  0.3347244881722103  0.0867407289335094 -0.0021625260175988
  0.3331660371614094  0.0868335551844287  0.5004163491193090
  0.3345332306743866  0.5886285123793995 -0.0017495412811279
  0.3342535033608795  0.5881276073908690  0.5014051180098825
  0.6681228791994908  0.0880934801356420  0.0001294953967677
  0.6675256335039336  0.0884269759775414  0.4996620717720968
  0.6664884905848548  0.5871937072207524  0.0001747768727418
  0.6664735616913458  0.5870999208821417  0.5000164968461789
  0.1878200949578737  0.3435596261613302  0.3576427544716918
  0.0342253000682314  0.1521068770803804  0.3961029619756222
  0.0333129074615065  0.1577229593715253  0.8975263380047419
  0.0341707826386640  0.6537525374731386  0.3955559300272464
  0.0356866732353689  0.6564887619416689  0.8976314143263651
  0.3683713221931190  0.1562083426207030  0.3967423906302068
  0.3725619884066973  0.1571017094392625  0.8949774720963650
  0.3698924600260874  0.6570626464586713  0.3976989535918232
  0.3697811748866037  0.6574881541775617  0.8945624912857894
  0.7033807213939207  0.1576770783097478  0.3960192164952873
  0.7026010983915264  0.1567737318141680  0.8957474049236833
  0.7007334136635615  0.6561619140142729  0.3956284032950251
  0.7026728345989299  0.6563437029926943  0.8970135972393970
  0.2020591806299250  0.0435967906954997  0.2582472101133295
  0.1994843099151364  0.0526045676401719  0.7499422078981142
  0.2037490947388185  0.5623844586851360  0.2486980550337079
  0.2003645385130064  0.5526227930089320  0.7501573031350114
  0.5349841456105535  0.0515408125174020  0.2501649960606589
  0.5350676591658514  0.0517551499723535  0.7494884533531323
  0.5303229987292553  0.5522881753465474  0.2500416674734127
  0.5344375125742334  0.5520406261208092  0.7497456940018243
  0.8685449930056642  0.0494258044763225  0.2502580242092612
  0.8676294497421230  0.0507636132234670  0.7488914800903195
  0.8683953164878938  0.5546196862553248  0.2501736566016184
  0.8676122457154839  0.5520764145789050  0.7499661337184881
  0.0607826499378821  0.4104119372659236  0.7506852352438990
  0.0611063355875770  0.9019879871554791  0.2510431379506730
  0.0606654634951120  0.9087517881729512  0.7504182246762969
  0.3906516428795804  0.4091172368370631  0.2494306162232799
  0.3946337930652912  0.4096413653808448  0.7497566436310875
  0.3946475568597158  0.9088686012466088  0.2498995240945486
  0.3949298102637746  0.9096137625890410  0.7498941431401828
  0.7309236213060584  0.4084994336032816  0.2513193349353863
  0.7274920894124308  0.4102773133532837  0.7500819801213616
  0.7285587630390868  0.9076789497721804  0.2501645102991919
  0.7275715814330657  0.9088969919884450  0.7497546219517286
  0.2305760236777315  0.0870450525226083 -0.0061594560837365
  0.2273272740356069  0.0882742673228854  0.5010278332404380
  0.2285199773784092  0.5922288881498231 -0.0020349366157832
  0.2282818413980805  0.5914014489430800  0.5020922808591296
  0.5622227048555692  0.0914614014805365  0.0006224967916042
  0.5615021598046582  0.0916408167377021  0.4993422574919701
  0.5605952749032476  0.5900782526210796 -0.0007295975040827
  0.5605598829871153  0.5894497927277839  0.5004418511773819
  0.8903484555685128  0.0854593627373352 -0.0053533930378181
  0.8935366401907672  0.0888307749356535  0.5006695789753464
  0.8939304067889349  0.5903789402065935  0.0004182677848365
  0.8925962257253645  0.5912261718174464  0.5003325671335966
  0.2031182640635745  0.3604267100023576  0.1387012672497570
  0.2018959928194172  0.3434742397869129  0.6465397944821101
  0.2031912453277897  0.8402517080126315  0.1473722234557584
  0.2022938761098372  0.8430167754646896  0.6467801326778363
  0.5337128309603589  0.3434568565172012  0.1463512912631190
  0.5359442531560132  0.3429996361149197  0.6458964009693082
  0.5365063906467619  0.8428349942820288  0.1464458712395721
  0.5360527718530623  0.8430505482290949  0.6455638174965435
  0.8724892490438999  0.3463715957345057  0.1453884264473755
  0.8687067431742329  0.3428777787235083  0.6463997595299046
  0.8699357873476872  0.8399301457705992  0.1465639890061984
  0.8684308377969110  0.8418843450637933  0.6452978478966448
  0.0240317509218959  0.1555427674308176  0.1057608912842785
  0.0347361312571718  0.1568800997003526  0.6038769501211497
  0.0351961007457930  0.6558569761135258  0.1054876907620667
  0.0349492930715202  0.6572662358094236  0.6032783305567875
  0.3706375212626531  0.1557370229896459  0.1021158774678660
  0.3686449394525436  0.1564746799382514  0.6042159334854795
  0.3702008262406116  0.6577987035844445  0.1020454022124366
  0.3697972975826000  0.6569607829088354  0.6051214858041573
  0.7042184508199005  0.1572506454249021  0.1038495890622275
  0.7027305686304609  0.1571334860023471  0.6037924547685085
  0.7009702806815729  0.6559139768074375  0.1047847867197007
  0.7021324949821045  0.6565494331392396  0.6034427725168744
  0.0342703961287207  0.4479067190973696  0.0013032606536463
  0.0317104456622720  0.4474583889757850  0.5023786284693817
  0.0329652968019998  0.9479006540013765 -0.0004587984486761
  0.0338639895823044  0.9460525767995713  0.5025582056632905
  0.3682422515741792  0.4487115134161478 -0.0018395842416727
  0.3678445124443377  0.4481008046945342  0.5010230853140247
  0.3714258528691767  0.9473601112120432 -0.0010255303471937
  0.3680133145729753  0.9473489356630449  0.5002853635824909
  0.7004907546574894  0.4473498851193534  0.0007976203498777
  0.7009513230917479  0.4474635026481125  0.4993721512523046
  0.7012257456591044  0.9477566983528671  0.0001750301499187
  0.7011359261068177  0.9484058485127720  0.4994213290550765
  0.2024119852988865  0.3436779596593278  0.8539254923961879
  0.2011177371108502  0.8337242432625008  0.3562645414037801
  0.2022457461089513  0.8435362714913124  0.8543252404973163
  0.5331163940293441  0.3433967962276619  0.3536337836867666
  0.5363901746263628  0.3434888057176150  0.8535341065513911
  0.5359945103663483  0.8431271295732391  0.3541639426535480
  0.5367689899000417  0.8429013106308468  0.8531964313781728
  0.8758520465683349  0.3448785119464456  0.3523262317227698
  0.8688171644938075  0.3436394156004209  0.8541141303705749
  0.8699598713118371  0.8402240738951361  0.3539572161278455
  0.8690700922061685  0.8414267716808697  0.8527768403755384
 
  0.00000000E+00  0.00000000E+00  0.00000000E+00
  0.00000000E+00  0.00000000E+00  0.00000000E+00
  0.00000000E+00  0.00000000E+00  0.00000000E+00
  0.00000000E+00  0.00000000E+00  0.00000000E+00
  0.00000000E+00  0.00000000E+00  0.00000000E+00
  0.00000000E+00  0.00000000E+00  0.00000000E+00
  0.00000000E+00  0.00000000E+00  0.00000000E+00
  0.00000000E+00  0.00000000E+00  0.00000000E+00
  0.00000000E+00  0.00000000E+00  0.00000000E+00
  0.00000000E+00  0.00000000E+00  0.00000000E+00
  0.00000000E+00  0.00000000E+00  0.00000000E+00
  0.00000000E+00  0.00000000E+00  0.00000000E+00
  0.00000000E+00  0.00000000E+00  0.00000000E+00
  0.00000000E+00  0.00000000E+00  0.00000000E+00
  0.00000000E+00  0.00000000E+00  0.00000000E+00
  0.00000000E+00  0.00000000E+00  0.00000000E+00
  0.00000000E+00  0.00000000E+00  0.00000000E+00
  0.00000000E+00  0.00000000E+00  0.00000000E+00
  0.00000000E+00  0.00000000E+00  0.00000000E+00
  0.00000000E+00  0.00000000E+00  0.00000000E+00
  0.00000000E+00  0.00000000E+00  0.00000000E+00
  0.00000000E+00  0.00000000E+00  0.00000000E+00
  0.00000000E+00  0.00000000E+00  0.00000000E+00
  0.00000000E+00  0.00000000E+00  0.00000000E+00
  0.00000000E+00  0.00000000E+00  0.00000000E+00
  0.00000000E+00  0.00000000E+00  0.00000000E+00
  0.00000000E+00  0.00000000E+00  0.00000000E+00
  0.00000000E+00  0.00000000E+00  0.00000000E+00
  0.00000000E+00  0.00000000E+00  0.00000000E+00
  0.00000000E+00  0.00000000E+00  0.00000000E+00
  0.00000000E+00  0.00000000E+00  0.00000000E+00
  0.00000000E+00  0.00000000E+00  0.00000000E+00
  0.00000000E+00  0.00000000E+00  0.00000000E+00
  0.00000000E+00  0.00000000E+00  0.00000000E+00
  0.00000000E+00  0.00000000E+00  0.00000000E+00
  0.00000000E+00  0.00000000E+00  0.00000000E+00
  0.00000000E+00  0.00000000E+00  0.00000000E+00
  0.00000000E+00  0.00000000E+00  0.00000000E+00
  0.00000000E+00  0.00000000E+00  0.00000000E+00
  0.00000000E+00  0.00000000E+00  0.00000000E+00
  0.00000000E+00  0.00000000E+00  0.00000000E+00
  0.00000000E+00  0.00000000E+00  0.00000000E+00
  0.00000000E+00  0.00000000E+00  0.00000000E+00
  0.00000000E+00  0.00000000E+00  0.00000000E+00
  0.00000000E+00  0.00000000E+00  0.00000000E+00
  0.00000000E+00  0.00000000E+00  0.00000000E+00
  0.00000000E+00  0.00000000E+00  0.00000000E+00
  0.00000000E+00  0.00000000E+00  0.00000000E+00
  0.00000000E+00  0.00000000E+00  0.00000000E+00
  0.00000000E+00  0.00000000E+00  0.00000000E+00
  0.00000000E+00  0.00000000E+00  0.00000000E+00
  0.00000000E+00  0.00000000E+00  0.00000000E+00
  0.00000000E+00  0.00000000E+00  0.00000000E+00
  0.00000000E+00  0.00000000E+00  0.00000000E+00
  0.00000000E+00  0.00000000E+00  0.00000000E+00
  0.00000000E+00  0.00000000E+00  0.00000000E+00
  0.00000000E+00  0.00000000E+00  0.00000000E+00
  0.00000000E+00  0.00000000E+00  0.00000000E+00
  0.00000000E+00  0.00000000E+00  0.00000000E+00
  0.00000000E+00  0.00000000E+00  0.00000000E+00
  0.00000000E+00  0.00000000E+00  0.00000000E+00
  0.00000000E+00  0.00000000E+00  0.00000000E+00
  0.00000000E+00  0.00000000E+00  0.00000000E+00
  0.00000000E+00  0.00000000E+00  0.00000000E+00
  0.00000000E+00  0.00000000E+00  0.00000000E+00
  0.00000000E+00  0.00000000E+00  0.00000000E+00
  0.00000000E+00  0.00000000E+00  0.00000000E+00
  0.00000000E+00  0.00000000E+00  0.00000000E+00
  0.00000000E+00  0.00000000E+00  0.00000000E+00
  0.00000000E+00  0.00000000E+00  0.00000000E+00
  0.00000000E+00  0.00000000E+00  0.00000000E+00
  0.00000000E+00  0.00000000E+00  0.00000000E+00
  0.00000000E+00  0.00000000E+00  0.00000000E+00
  0.00000000E+00  0.00000000E+00  0.00000000E+00
  0.00000000E+00  0.00000000E+00  0.00000000E+00
  0.00000000E+00  0.00000000E+00  0.00000000E+00
  0.00000000E+00  0.00000000E+00  0.00000000E+00
  0.00000000E+00  0.00000000E+00  0.00000000E+00
  0.00000000E+00  0.00000000E+00  0.00000000E+00
  0.00000000E+00  0.00000000E+00  0.00000000E+00
  0.00000000E+00  0.00000000E+00  0.00000000E+00
  0.00000000E+00  0.00000000E+00  0.00000000E+00
  0.00000000E+00  0.00000000E+00  0.00000000E+00
  0.00000000E+00  0.00000000E+00  0.00000000E+00
  0.00000000E+00  0.00000000E+00  0.00000000E+00
  0.00000000E+00  0.00000000E+00  0.00000000E+00
  0.00000000E+00  0.00000000E+00  0.00000000E+00
  0.00000000E+00  0.00000000E+00  0.00000000E+00
  0.00000000E+00  0.00000000E+00  0.00000000E+00
  0.00000000E+00  0.00000000E+00  0.00000000E+00
  0.00000000E+00  0.00000000E+00  0.00000000E+00
  0.00000000E+00  0.00000000E+00  0.00000000E+00
  0.00000000E+00  0.00000000E+00  0.00000000E+00
  0.00000000E+00  0.00000000E+00  0.00000000E+00
  0.00000000E+00  0.00000000E+00  0.00000000E+00
  0.00000000E+00  0.00000000E+00  0.00000000E+00
  0.00000000E+00  0.00000000E+00  0.00000000E+00
  0.00000000E+00  0.00000000E+00  0.00000000E+00
  0.00000000E+00  0.00000000E+00  0.00000000E+00
  0.00000000E+00  0.00000000E+00  0.00000000E+00
  0.00000000E+00  0.00000000E+00  0.00000000E+00
  0.00000000E+00  0.00000000E+00  0.00000000E+00
  0.00000000E+00  0.00000000E+00  0.00000000E+00
  0.00000000E+00  0.00000000E+00  0.00000000E+00
  0.00000000E+00  0.00000000E+00  0.00000000E+00
  0.00000000E+00  0.00000000E+00  0.00000000E+00
  0.00000000E+00  0.00000000E+00  0.00000000E+00
  0.00000000E+00  0.00000000E+00  0.00000000E+00
  0.00000000E+00  0.00000000E+00  0.00000000E+00
  0.00000000E+00  0.00000000E+00  0.00000000E+00
  0.00000000E+00  0.00000000E+00  0.00000000E+00
  0.00000000E+00  0.00000000E+00  0.00000000E+00
  0.00000000E+00  0.00000000E+00  0.00000000E+00
  0.00000000E+00  0.00000000E+00  0.00000000E+00
  0.00000000E+00  0.00000000E+00  0.00000000E+00
  0.00000000E+00  0.00000000E+00  0.00000000E+00
  0.00000000E+00  0.00000000E+00  0.00000000E+00
  0.00000000E+00  0.00000000E+00  0.00000000E+00
  0.00000000E+00  0.00000000E+00  0.00000000E+00
  0.00000000E+00  0.00000000E+00  0.00000000E+00
  0.00000000E+00  0.00000000E+00  0.00000000E+00
  0.00000000E+00  0.00000000E+00  0.00000000E+00
  0.00000000E+00  0.00000000E+00  0.00000000E+00
  0.00000000E+00  0.00000000E+00  0.00000000E+00
  0.00000000E+00  0.00000000E+00  0.00000000E+00
  0.00000000E+00  0.00000000E+00  0.00000000E+00
  0.00000000E+00  0.00000000E+00  0.00000000E+00
  0.00000000E+00  0.00000000E+00  0.00000000E+00
  0.00000000E+00  0.00000000E+00  0.00000000E+00
  0.00000000E+00  0.00000000E+00  0.00000000E+00
  0.00000000E+00  0.00000000E+00  0.00000000E+00
  0.00000000E+00  0.00000000E+00  0.00000000E+00
  0.00000000E+00  0.00000000E+00  0.00000000E+00
  0.00000000E+00  0.00000000E+00  0.00000000E+00
  0.00000000E+00  0.00000000E+00  0.00000000E+00
  0.00000000E+00  0.00000000E+00  0.00000000E+00
  0.00000000E+00  0.00000000E+00  0.00000000E+00
  0.00000000E+00  0.00000000E+00  0.00000000E+00
  0.00000000E+00  0.00000000E+00  0.00000000E+00
  0.00000000E+00  0.00000000E+00  0.00000000E+00
  0.00000000E+00  0.00000000E+00  0.00000000E+00
  0.00000000E+00  0.00000000E+00  0.00000000E+00
  0.00000000E+00  0.00000000E+00  0.00000000E+00
  0.00000000E+00  0.00000000E+00  0.00000000E+00
  0.00000000E+00  0.00000000E+00  0.00000000E+00
  0.00000000E+00  0.00000000E+00  0.00000000E+00
  0.00000000E+00  0.00000000E+00  0.00000000E+00
  0.00000000E+00  0.00000000E+00  0.00000000E+00
  0.00000000E+00  0.00000000E+00  0.00000000E+00
  0.00000000E+00  0.00000000E+00  0.00000000E+00
  0.00000000E+00  0.00000000E+00  0.00000000E+00
  0.00000000E+00  0.00000000E+00  0.00000000E+00
  0.00000000E+00  0.00000000E+00  0.00000000E+00
  0.00000000E+00  0.00000000E+00  0.00000000E+00
  0.00000000E+00  0.00000000E+00  0.00000000E+00
  0.00000000E+00  0.00000000E+00  0.00000000E+00
  0.00000000E+00  0.00000000E+00  0.00000000E+00
  0.00000000E+00  0.00000000E+00  0.00000000E+00
  0.00000000E+00  0.00000000E+00  0.00000000E+00
  0.00000000E+00  0.00000000E+00  0.00000000E+00
  0.00000000E+00  0.00000000E+00  0.00000000E+00
  0.00000000E+00  0.00000000E+00  0.00000000E+00
  0.00000000E+00  0.00000000E+00  0.00000000E+00
  0.00000000E+00  0.00000000E+00  0.00000000E+00
  0.00000000E+00  0.00000000E+00  0.00000000E+00
  0.00000000E+00  0.00000000E+00  0.00000000E+00
  0.00000000E+00  0.00000000E+00  0.00000000E+00
  0.00000000E+00  0.00000000E+00  0.00000000E+00
  0.00000000E+00  0.00000000E+00  0.00000000E+00
  0.00000000E+00  0.00000000E+00  0.00000000E+00
  0.00000000E+00  0.00000000E+00  0.00000000E+00
  0.00000000E+00  0.00000000E+00  0.00000000E+00
  0.00000000E+00  0.00000000E+00  0.00000000E+00
  0.00000000E+00  0.00000000E+00  0.00000000E+00
  0.00000000E+00  0.00000000E+00  0.00000000E+00
  0.00000000E+00  0.00000000E+00  0.00000000E+00
  0.00000000E+00  0.00000000E+00  0.00000000E+00
  0.00000000E+00  0.00000000E+00  0.00000000E+00
  0.00000000E+00  0.00000000E+00  0.00000000E+00
  0.00000000E+00  0.00000000E+00  0.00000000E+00
  0.00000000E+00  0.00000000E+00  0.00000000E+00
  0.00000000E+00  0.00000000E+00  0.00000000E+00
  0.00000000E+00  0.00000000E+00  0.00000000E+00
  0.00000000E+00  0.00000000E+00  0.00000000E+00
  0.00000000E+00  0.00000000E+00  0.00000000E+00
  0.00000000E+00  0.00000000E+00  0.00000000E+00
  0.00000000E+00  0.00000000E+00  0.00000000E+00
  0.00000000E+00  0.00000000E+00  0.00000000E+00
  0.00000000E+00  0.00000000E+00  0.00000000E+00
  0.00000000E+00  0.00000000E+00  0.00000000E+00
