Li56 P28 O98
1.0
6.730959 0.000000 -2.599490
-2.035903 8.419349 0.002996
0.000000 0.000000 63.126504
Li P O
56 28 98
direct
0.144977 0.012029 0.070391 Li+
0.855023 0.987971 0.027802 Li+
0.588727 0.248347 0.016123 Li+
0.411273 0.751653 0.082069 Li+
0.327738 0.208724 0.046782 Li+
0.672262 0.791276 0.051410 Li+
0.241886 0.549204 0.044350 Li+
0.758114 0.450796 0.053842 Li+
0.144977 0.012029 0.153724 Li+
0.855023 0.987971 0.111135 Li+
0.588727 0.248347 0.099457 Li+
0.411273 0.751653 0.165403 Li+
0.327738 0.208724 0.130116 Li+
0.672262 0.791276 0.134744 Li+
0.241886 0.549204 0.127684 Li+
0.758114 0.450796 0.137176 Li+
0.144977 0.012029 0.237058 Li+
0.855023 0.987971 0.194468 Li+
0.588727 0.248347 0.182790 Li+
0.411273 0.751653 0.248736 Li+
0.327738 0.208724 0.213449 Li+
0.672262 0.791276 0.218077 Li+
0.241886 0.549204 0.211017 Li+
0.758114 0.450796 0.220509 Li+
0.144977 0.012029 0.320391 Li+
0.855023 0.987971 0.277802 Li+
0.588727 0.248347 0.266123 Li+
0.411273 0.751653 0.332069 Li+
0.327738 0.208724 0.296782 Li+
0.672262 0.791276 0.301410 Li+
0.241886 0.549204 0.294350 Li+
0.758114 0.450796 0.303842 Li+
0.144977 0.012029 0.403724 Li+
0.855023 0.987971 0.361135 Li+
0.588727 0.248347 0.349457 Li+
0.411273 0.751653 0.415403 Li+
0.327738 0.208724 0.380116 Li+
0.672262 0.791276 0.384744 Li+
0.241886 0.549204 0.377684 Li+
0.758114 0.450796 0.387176 Li+
0.144977 0.012029 0.487058 Li+
0.855023 0.987971 0.444468 Li+
0.588727 0.248347 0.432790 Li+
0.411273 0.751653 0.498736 Li+
0.327738 0.208724 0.463449 Li+
0.672262 0.791276 0.468077 Li+
0.241886 0.549204 0.461017 Li+
0.758114 0.450796 0.470509 Li+
0.144977 0.012029 0.570391 Li+
0.855023 0.987971 0.527802 Li+
0.588727 0.248347 0.516123 Li+
0.411273 0.751653 0.582069 Li+
0.327738 0.208724 0.546782 Li+
0.672262 0.791276 0.551410 Li+
0.241886 0.549204 0.544350 Li+
0.758114 0.450796 0.553842 Li+
0.213298 0.368044 0.001264 P5+
0.786702 0.631956 0.013596 P5+
0.779241 0.154498 0.067074 P5+
0.220759 0.845502 0.031119 P5+
0.213298 0.368044 0.084597 P5+
0.786702 0.631956 0.096929 P5+
0.779241 0.154498 0.150407 P5+
0.220759 0.845502 0.114452 P5+
0.213298 0.368044 0.167931 P5+
0.786702 0.631956 0.180262 P5+
0.779241 0.154498 0.233740 P5+
0.220759 0.845502 0.197786 P5+
0.213298 0.368044 0.251264 P5+
0.786702 0.631956 0.263596 P5+
0.779241 0.154498 0.317074 P5+
0.220759 0.845502 0.281119 P5+
0.213298 0.368044 0.334597 P5+
0.786702 0.631956 0.346929 P5+
0.779241 0.154498 0.400407 P5+
0.220759 0.845502 0.364452 P5+
0.213298 0.368044 0.417931 P5+
0.786702 0.631956 0.430262 P5+
0.779241 0.154498 0.483740 P5+
0.220759 0.845502 0.447786 P5+
0.213298 0.368044 0.501264 P5+
0.786702 0.631956 0.513596 P5+
0.779241 0.154498 0.567074 P5+
0.220759 0.845502 0.531119 P5+
0.741759 0.125660 0.005770 O2-
0.605720 0.209316 0.048586 O2-
0.394280 0.790684 0.049607 O2-
0.848591 0.018024 0.058854 O2-
0.743350 0.623545 0.071383 O2-
0.256650 0.376455 0.026810 O2-
0.732189 0.473810 0.022859 O2-
0.267811 0.526190 0.075333 O2-
0.702403 0.763496 0.020911 O2-
0.297597 0.236504 0.077282 O2-
0.962384 0.316106 0.071341 O2-
0.037616 0.683894 0.026852 O2-
0.151409 0.981976 0.039339 O2-
0.258241 0.874340 0.009089 O2-
0.741759 0.125660 0.089104 O2-
0.605720 0.209316 0.131919 O2-
0.394280 0.790684 0.132941 O2-
0.848591 0.018024 0.142187 O2-
0.743350 0.623545 0.154716 O2-
0.256650 0.376455 0.110143 O2-
0.732189 0.473810 0.106193 O2-
0.267811 0.526190 0.158667 O2-
0.702403 0.763496 0.104245 O2-
0.297597 0.236504 0.160615 O2-
0.962384 0.316106 0.154674 O2-
0.037616 0.683894 0.110185 O2-
0.151409 0.981976 0.122672 O2-
0.258241 0.874340 0.092422 O2-
0.741759 0.125660 0.172437 O2-
0.605720 0.209316 0.215252 O2-
0.394280 0.790684 0.216274 O2-
0.848591 0.018024 0.225520 O2-
0.743350 0.623545 0.238050 O2-
0.256650 0.376455 0.193476 O2-
0.732189 0.473810 0.189526 O2-
0.267811 0.526190 0.242000 O2-
0.702403 0.763496 0.187578 O2-
0.297597 0.236504 0.243948 O2-
0.962384 0.316106 0.238007 O2-
0.037616 0.683894 0.193519 O2-
0.151409 0.981976 0.206006 O2-
0.258241 0.874340 0.175756 O2-
0.741759 0.125660 0.255770 O2-
0.605720 0.209316 0.298586 O2-
0.394280 0.790684 0.299607 O2-
0.848591 0.018024 0.308854 O2-
0.743350 0.623545 0.321383 O2-
0.256650 0.376455 0.276810 O2-
0.732189 0.473810 0.272859 O2-
0.267811 0.526190 0.325333 O2-
0.702403 0.763496 0.270911 O2-
0.297597 0.236504 0.327282 O2-
0.962384 0.316106 0.321341 O2-
0.037616 0.683894 0.276852 O2-
0.151409 0.981976 0.289339 O2-
0.258241 0.874340 0.259089 O2-
0.741759 0.125660 0.339104 O2-
0.605720 0.209316 0.381919 O2-
0.394280 0.790684 0.382941 O2-
0.848591 0.018024 0.392187 O2-
0.743350 0.623545 0.404716 O2-
0.256650 0.376455 0.360143 O2-
0.732189 0.473810 0.356193 O2-
0.267811 0.526190 0.408667 O2-
0.702403 0.763496 0.354245 O2-
0.297597 0.236504 0.410615 O2-
0.962384 0.316106 0.404674 O2-
0.037616 0.683894 0.360185 O2-
0.151409 0.981976 0.372672 O2-
0.258241 0.874340 0.342422 O2-
0.741759 0.125660 0.422437 O2-
0.605720 0.209316 0.465252 O2-
0.394280 0.790684 0.466274 O2-
0.848591 0.018024 0.475520 O2-
0.743350 0.623545 0.488050 O2-
0.256650 0.376455 0.443476 O2-
0.732189 0.473810 0.439526 O2-
0.267811 0.526190 0.492000 O2-
0.702403 0.763496 0.437578 O2-
0.297597 0.236504 0.493948 O2-
0.962384 0.316106 0.488007 O2-
0.037616 0.683894 0.443519 O2-
0.151409 0.981976 0.456006 O2-
0.258241 0.874340 0.425756 O2-
0.741759 0.125660 0.505770 O2-
0.605720 0.209316 0.548586 O2-
0.394280 0.790684 0.549607 O2-
0.848591 0.018024 0.558854 O2-
0.743350 0.623545 0.571383 O2-
0.256650 0.376455 0.526810 O2-
0.732189 0.473810 0.522859 O2-
0.267811 0.526190 0.575333 O2-
0.702403 0.763496 0.520911 O2-
0.297597 0.236504 0.577282 O2-
0.962384 0.316106 0.571341 O2-
0.037616 0.683894 0.526852 O2-
0.151409 0.981976 0.539339 O2-
0.258241 0.874340 0.509089 O2-
