Li71 P24 N1 O94                         
   1.00000000000000     
    14.7068607983692772    0.0025847534827219    0.0102565405734476
     0.0018768884300777   10.5915075630744564    0.0012417776706335
     0.0085680055323079    0.0014056263409065   12.2815199736706955
   Li   P    N    O 
    71    24     1    94
Direct
  0.1740590319806425  0.4227782491341062  0.0033584858769333
  0.1695978161890212  0.4230565255287999  0.4980832448682397
  0.1591459200421722  0.8971473389056466  0.0051726916684180
  0.1701402209465710  0.9227824891008400  0.4982516860173536
  0.5034683335761135  0.4237295660596935  0.0007501765499151
  0.5030690637438515  0.4229471216301471  0.4994637217839873
  0.5083586805488814  0.9193996278760311  0.0005698364309080
  0.5027701262398441  0.9231053162100838  0.4993602445103772
  0.8410398139118490  0.4260234014026515  0.0004376155310551
  0.8368736937347174  0.4227262246378258  0.4993666164341481
  0.8345068656233642  0.9198108582111327 -0.0007092789401852
  0.8368527569282365  0.9232875907059721  0.4993038026558680
  0.0087604765799487  0.0781527121073826  0.2482527535485904
  0.0009643379737241  0.0765347537051696  0.7492311144178792
  0.0036161976989520  0.5766419461095530  0.2502368068664851
  0.0021820757665684  0.5758804417592769  0.7501415376847798
  0.3328945922616161  0.0777841637397158  0.2508676879732334
  0.3360871797266367  0.0762529792557950  0.7469259134904647
  0.3347672720500495  0.5773177852608424  0.2509191710758554
  0.3370561499328106  0.5775050911914940  0.7498159665767141
  0.6711844670262549  0.0778296370494524  0.2506956362022907
  0.6696893054941331  0.0772022033409095  0.7486631406673223
  0.6704370920000214  0.5768923803821495  0.2504283843706784
  0.6698035005895052  0.5772037835476436  0.7496708553212514
  0.1690200082967640  0.1637580859858005  0.6244222085834370
  0.1690564080186128  0.6606589914488739  0.1289448313596062
  0.1693245566574887  0.6638587178528951  0.6269098529668982
  0.5074669167879078  0.1645486432033086  0.1291423878166015
  0.5025080612838572  0.1635166712715030  0.6254488748501615
  0.5039839737611437  0.6630040257712088  0.1272967577182517
  0.5030696537877606  0.6632377080489078  0.6260387858828336
  0.8397469537672633  0.1624520449259613  0.1244638311994720
  0.8361017150925678  0.1638545455380592  0.6250584953144294
  0.8353657521546741  0.6653737083733993  0.1280307252453422
  0.8358061175954564  0.6632559050949940  0.6266331952951503
  0.0067401869212578  0.3262873402442359  0.1246375062634299
  0.0031886692979633  0.3364382697058874  0.6237992174617446
  0.0000636964911574  0.8396751931618753  0.1273182603971337
  0.0028237651357041  0.8365155219380683  0.6231663102695478
  0.3347306214331577  0.3385600761887385  0.1248454301126839
  0.3358892472798651  0.3367317389665913  0.6229812144407234
  0.3357939317930996  0.8342700509180364  0.1267042467594532
  0.3368653621342995  0.8365609715063099  0.6231107201958993
  0.6715014885094265  0.3373656968089286  0.1232759741571324
  0.6695531137782799  0.3366207352626209  0.6229713330526047
  0.6700604483042799  0.8368121242034472  0.1249256981428543
  0.6692994727310295  0.8364908660014310  0.6226690678415033
  0.0045190689521597  0.3371630782214728  0.3747000536920757
 -0.0004842565000234  0.3290075216510595  0.8778332469983885
  0.0032664086947027  0.8368651480449290  0.3765831776581900
 -0.0007271539286652  0.8387431728544741  0.8747460661670953
  0.3351777515470922  0.3373105458064325  0.3757226035172594
  0.3372545424679707  0.3403076610045105  0.8762657504726161
  0.3353388747388099  0.8361492878731388  0.3761322284765939
  0.3359212885758404  0.8342191746165404  0.8750900759989970
  0.6701076993333038  0.3367983203318463  0.3763034551250979
  0.6704339496566141  0.3378324551878606  0.8769202977480703
  0.6695955636251212  0.8367133040555919  0.3768465557547251
  0.6697212625106836  0.8365254193291660  0.8753509012010302
  0.1704904969201470  0.1643006233138583  0.3669673573128468
  0.1625962475599373  0.1712105209901541  0.8650330452390484
  0.1681795388168338  0.6622579515389959  0.3755757603400112
  0.1689408176530762  0.6611932383120890  0.8739488648198825
  0.5027424310473033  0.1636517981700751  0.3738084307576532
  0.5074388414321549  0.1643534685663234  0.8716105953817692
  0.5028241233305382  0.6633113152014878  0.3738001578013674
  0.5040359653590922  0.6628555367756530  0.8734252025392744
  0.8376108883026345  0.1640251625780219  0.3729530534499739
  0.8338352946704743  0.1620982796171355  0.8720411620241966
  0.8368734458673525  0.6636067805866636  0.3738674944752993
  0.8347777743610419  0.6645546349775683  0.8725622075858560
  0.1684930266563299  0.4144338392781159  0.2481151986266868
  0.1672733515314161  0.4119304811713138  0.7506747585694732
  0.1684349497995113  0.9103521813402082  0.2518987387513939
  0.1666023536886890  0.9130490518773676  0.7522803141248159
  0.5011024997557236  0.4125002419757969  0.2503334493310402
  0.5005891938905476  0.4122032608651188  0.7496264062421076
  0.5008180153491086  0.9125016174587819  0.2503641103326177
  0.5003084916669147  0.9121635933056059  0.7498270705812758
  0.8344977981113401  0.4124170818206722  0.2496066005968275
  0.8331540491534319  0.4117288914804450  0.7497006685075592
  0.8333530020093819  0.9132850941425504  0.2507688231103368
  0.8326656336019044  0.9122877910696420  0.7484132632975629
 -0.0023100832267212  0.0844431748410462  0.0002578583027033
  0.0009457349161068  0.0881268418883125  0.4999081015402088
 -0.0008799297090780  0.5941387329773516 -0.0000369660004110
 -0.0001473228021622  0.5876735616755782  0.5007457303604845
  0.3394229819637061  0.0869778489848825  0.0004192293590401
  0.3333023125446491  0.0882026750861127  0.4995234060970643
  0.3350495006581898  0.5894381283541498  0.0000715011291808
  0.3339243296479635  0.5878501694333603  0.5006506425935345
  0.6662913047546154  0.0876286691467361 -0.0002242018144276
  0.6671846566951077  0.0880079830897321  0.4998407447956426
  0.6675077996023319  0.5883725966402698  0.0000934080214603
  0.6671818705972808  0.5879268797820135  0.4999781922880632
  0.0382121960185730  0.4504487997481595 -0.0021641954962321
  0.0365018566874985  0.1575164681729303  0.3963602258549649
  0.0358380342992081  0.1524842858241799  0.8961129142219351
  0.0345125508778549  0.6569711218380512  0.3966873586876342
  0.0345662175071946  0.6610548858342205  0.8943278520988833
  0.3692344970573952  0.1577859452612404  0.3960977342904816
  0.3681584816661128  0.1571281816312076  0.8943384934039544
  0.3694049796187894  0.6568613524637448  0.3966332909567591
  0.3706716905759742  0.6578510235597926  0.8954949402660990
  0.7028336473848590  0.1573552688681422  0.3960722583322988
  0.7002628731233046  0.1564433542735246  0.8949051985023709
  0.7026214604985900  0.6572671495790062  0.3960719523527719
  0.7017807568253742  0.6577850412557310  0.8955304187898948
  0.2047589027444409  0.0461118363135716  0.2546996673756798
  0.2006063680623910  0.0531001683585816  0.7537161656659038
  0.1992971565898814  0.5560746710468405  0.2536887592111904
  0.2004680769864512  0.5516875047217906  0.7507941086469520
  0.5351743868441540  0.0518932331681819  0.2504401908714926
  0.5338117737931918  0.0519577386971843  0.7496626429012851
  0.5352197101299166  0.5519184861249021  0.2505048491899416
  0.5344195927631065  0.5516852109801705  0.7496516195329267
  0.8673857577808134  0.0524019550510532  0.2504022364463970
  0.8663496436617575  0.0518793481909380  0.7481651898128840
  0.8676622437372549  0.5524000505391740  0.2499318701186768
  0.8671021632371638  0.5512970338849301  0.7505074764141687
  0.0621138903999291  0.4099635556037157  0.2472041041025264
  0.0612927147841518  0.4074839282554035  0.7533148070272884
  0.0623580899402702  0.9080360422757076  0.2509995943024406
  0.0609592944693402  0.9100990188659464  0.7504534677252307
  0.3953445997892902  0.4100845421063070  0.2502397557939345
  0.3946635804072737  0.4095437777056574  0.7495270220534624
  0.3950118848918558  0.9104031341905239  0.2498887015335000
  0.3943311635906070  0.9096380543498952  0.7505392242319882
  0.7284784879538625  0.4094335614348359  0.2500726490085102
  0.7272624806064004  0.4094697737320517  0.7492935409254212
  0.7273766100940755  0.9102631196802607  0.2511225857311306
  0.7267984301371659  0.9095632895617288  0.7486001287476635
  0.2275399534426837  0.0910783672655718  0.4996163188872959
  0.2294399515528156  0.5947406820902312 -0.0000284648271090
  0.2281264822953212  0.5906811733404287  0.5017720154688773
  0.5600389025648437  0.0906364059738592  0.0004367564532747
  0.5612425514866275  0.0905775044716286  0.4997936962779567
  0.5615384483948345  0.5902688319228989  0.0001989761555631
  0.5612671283932044  0.5905369019497572  0.4999500582461168
  0.8916693415478449  0.0847700535320396 -0.0060975299512583
  0.8950019362930194  0.0906764794392091  0.4998097062937625
  0.8929470585214750  0.6002375191009257  0.0001652319828033
  0.8939897469118246  0.5902782610495597  0.5011775516093397
  0.2073846982449615  0.3538145754582652  0.1443738940195748
  0.2014057926207045  0.3434408775068011  0.6457707303645350
  0.2029680973950095  0.8408115097934341  0.1463692831302215
  0.2033609913449850  0.8441555878362560  0.6490684217718163
  0.5366628294563877  0.3434918180077226  0.1460383189020101
  0.5357950501336595  0.3426768266338933  0.6457511913205336
  0.5362947220510521  0.8432139160509110  0.1462399236159032
  0.5352010906559772  0.8432143259230310  0.6455942020983019
  0.8696510514940505  0.3437325505737465  0.1453626321841643
  0.8689864051847158  0.3431270938718813  0.6456045023596331
  0.8676234330253237  0.8440577434985266  0.1462538977000638
  0.8685274518858144  0.8429355533911447  0.6447415697099464
  0.0269377823822224  0.1523391374069623  0.1047243156651059
  0.0356138825907103  0.1567764177530817  0.6047841426930529
  0.0342907271517218  0.6623284998727359  0.1046565379627851
  0.0353632736260951  0.6566301375778247  0.6049779851747604
  0.3708300459419929  0.1574517282988956  0.1041306410510205
  0.3684634380608410  0.1567890725702583  0.6042022884625027
  0.3709098846739993  0.6573741224490068  0.1043069169273687
  0.3694646270969278  0.6569513828646493  0.6047555703007775
  0.7021901340688446  0.1566641429249956  0.1032749630532467
  0.7021097135257868  0.1570903297075305  0.6041002779526418
  0.7020439305423866  0.6578448667623006  0.1042536245269180
  0.7020248331004201  0.6569901890202486  0.6043042425373872
  0.0339130487857431  0.4481537229431535  0.5006195302634093
  0.0326466564724456  0.9446546970763100 -0.0002560733481030
  0.0346765352612613  0.9483495492318769  0.5004785945774990
  0.3682047484123651  0.4494041411575264 -0.0005736723734110
  0.3677069848514591  0.4481614822044090  0.5004216990903657
  0.3683043862461154  0.9459249269875178 -0.0000658842999116
  0.3671862679591190  0.9484707566825635  0.4997332225859173
  0.7022954322763938  0.4492826691952945 -0.0001115685763749
  0.7010268444577047  0.4483475633373042  0.4999191758758375
  0.6988722495715278  0.9474986136535253 -0.0004483197598969
  0.7009073524867241  0.9483799172178770  0.4999797820445703
  0.2022980318750390  0.3449704509685975  0.3532776084638175
  0.2046992754214653  0.3420760196768470  0.8535564462717427
  0.2020008893382932  0.8368758373847933  0.3551621326570724
  0.2013128563602692  0.8449935577995265  0.8576340353390254
  0.5362888098004313  0.3428816121515377  0.3542080689342161
  0.5355499078659826  0.3432672783444939  0.8540982010626076
  0.5356712320794775  0.8430660531152362  0.3544129629540629
  0.5358321903184901  0.8431936083147434  0.8538284480398851
  0.8699047383562868  0.3435955856204146  0.3537868987257061
  0.8675440437889457  0.3416855380533110  0.8536821605297397
  0.8688821170265475  0.8434178256512733  0.3543845348651264
  0.8673512903644829  0.8430384876287962  0.8525282961727464
 
  0.00000000E+00  0.00000000E+00  0.00000000E+00
  0.00000000E+00  0.00000000E+00  0.00000000E+00
  0.00000000E+00  0.00000000E+00  0.00000000E+00
  0.00000000E+00  0.00000000E+00  0.00000000E+00
  0.00000000E+00  0.00000000E+00  0.00000000E+00
  0.00000000E+00  0.00000000E+00  0.00000000E+00
  0.00000000E+00  0.00000000E+00  0.00000000E+00
  0.00000000E+00  0.00000000E+00  0.00000000E+00
  0.00000000E+00  0.00000000E+00  0.00000000E+00
  0.00000000E+00  0.00000000E+00  0.00000000E+00
  0.00000000E+00  0.00000000E+00  0.00000000E+00
  0.00000000E+00  0.00000000E+00  0.00000000E+00
  0.00000000E+00  0.00000000E+00  0.00000000E+00
  0.00000000E+00  0.00000000E+00  0.00000000E+00
  0.00000000E+00  0.00000000E+00  0.00000000E+00
  0.00000000E+00  0.00000000E+00  0.00000000E+00
  0.00000000E+00  0.00000000E+00  0.00000000E+00
  0.00000000E+00  0.00000000E+00  0.00000000E+00
  0.00000000E+00  0.00000000E+00  0.00000000E+00
  0.00000000E+00  0.00000000E+00  0.00000000E+00
  0.00000000E+00  0.00000000E+00  0.00000000E+00
  0.00000000E+00  0.00000000E+00  0.00000000E+00
  0.00000000E+00  0.00000000E+00  0.00000000E+00
  0.00000000E+00  0.00000000E+00  0.00000000E+00
  0.00000000E+00  0.00000000E+00  0.00000000E+00
  0.00000000E+00  0.00000000E+00  0.00000000E+00
  0.00000000E+00  0.00000000E+00  0.00000000E+00
  0.00000000E+00  0.00000000E+00  0.00000000E+00
  0.00000000E+00  0.00000000E+00  0.00000000E+00
  0.00000000E+00  0.00000000E+00  0.00000000E+00
  0.00000000E+00  0.00000000E+00  0.00000000E+00
  0.00000000E+00  0.00000000E+00  0.00000000E+00
  0.00000000E+00  0.00000000E+00  0.00000000E+00
  0.00000000E+00  0.00000000E+00  0.00000000E+00
  0.00000000E+00  0.00000000E+00  0.00000000E+00
  0.00000000E+00  0.00000000E+00  0.00000000E+00
  0.00000000E+00  0.00000000E+00  0.00000000E+00
  0.00000000E+00  0.00000000E+00  0.00000000E+00
  0.00000000E+00  0.00000000E+00  0.00000000E+00
  0.00000000E+00  0.00000000E+00  0.00000000E+00
  0.00000000E+00  0.00000000E+00  0.00000000E+00
  0.00000000E+00  0.00000000E+00  0.00000000E+00
  0.00000000E+00  0.00000000E+00  0.00000000E+00
  0.00000000E+00  0.00000000E+00  0.00000000E+00
  0.00000000E+00  0.00000000E+00  0.00000000E+00
  0.00000000E+00  0.00000000E+00  0.00000000E+00
  0.00000000E+00  0.00000000E+00  0.00000000E+00
  0.00000000E+00  0.00000000E+00  0.00000000E+00
  0.00000000E+00  0.00000000E+00  0.00000000E+00
  0.00000000E+00  0.00000000E+00  0.00000000E+00
  0.00000000E+00  0.00000000E+00  0.00000000E+00
  0.00000000E+00  0.00000000E+00  0.00000000E+00
  0.00000000E+00  0.00000000E+00  0.00000000E+00
  0.00000000E+00  0.00000000E+00  0.00000000E+00
  0.00000000E+00  0.00000000E+00  0.00000000E+00
  0.00000000E+00  0.00000000E+00  0.00000000E+00
  0.00000000E+00  0.00000000E+00  0.00000000E+00
  0.00000000E+00  0.00000000E+00  0.00000000E+00
  0.00000000E+00  0.00000000E+00  0.00000000E+00
  0.00000000E+00  0.00000000E+00  0.00000000E+00
  0.00000000E+00  0.00000000E+00  0.00000000E+00
  0.00000000E+00  0.00000000E+00  0.00000000E+00
  0.00000000E+00  0.00000000E+00  0.00000000E+00
  0.00000000E+00  0.00000000E+00  0.00000000E+00
  0.00000000E+00  0.00000000E+00  0.00000000E+00
  0.00000000E+00  0.00000000E+00  0.00000000E+00
  0.00000000E+00  0.00000000E+00  0.00000000E+00
  0.00000000E+00  0.00000000E+00  0.00000000E+00
  0.00000000E+00  0.00000000E+00  0.00000000E+00
  0.00000000E+00  0.00000000E+00  0.00000000E+00
  0.00000000E+00  0.00000000E+00  0.00000000E+00
  0.00000000E+00  0.00000000E+00  0.00000000E+00
  0.00000000E+00  0.00000000E+00  0.00000000E+00
  0.00000000E+00  0.00000000E+00  0.00000000E+00
  0.00000000E+00  0.00000000E+00  0.00000000E+00
  0.00000000E+00  0.00000000E+00  0.00000000E+00
  0.00000000E+00  0.00000000E+00  0.00000000E+00
  0.00000000E+00  0.00000000E+00  0.00000000E+00
  0.00000000E+00  0.00000000E+00  0.00000000E+00
  0.00000000E+00  0.00000000E+00  0.00000000E+00
  0.00000000E+00  0.00000000E+00  0.00000000E+00
  0.00000000E+00  0.00000000E+00  0.00000000E+00
  0.00000000E+00  0.00000000E+00  0.00000000E+00
  0.00000000E+00  0.00000000E+00  0.00000000E+00
  0.00000000E+00  0.00000000E+00  0.00000000E+00
  0.00000000E+00  0.00000000E+00  0.00000000E+00
  0.00000000E+00  0.00000000E+00  0.00000000E+00
  0.00000000E+00  0.00000000E+00  0.00000000E+00
  0.00000000E+00  0.00000000E+00  0.00000000E+00
  0.00000000E+00  0.00000000E+00  0.00000000E+00
  0.00000000E+00  0.00000000E+00  0.00000000E+00
  0.00000000E+00  0.00000000E+00  0.00000000E+00
  0.00000000E+00  0.00000000E+00  0.00000000E+00
  0.00000000E+00  0.00000000E+00  0.00000000E+00
  0.00000000E+00  0.00000000E+00  0.00000000E+00
  0.00000000E+00  0.00000000E+00  0.00000000E+00
  0.00000000E+00  0.00000000E+00  0.00000000E+00
  0.00000000E+00  0.00000000E+00  0.00000000E+00
  0.00000000E+00  0.00000000E+00  0.00000000E+00
  0.00000000E+00  0.00000000E+00  0.00000000E+00
  0.00000000E+00  0.00000000E+00  0.00000000E+00
  0.00000000E+00  0.00000000E+00  0.00000000E+00
  0.00000000E+00  0.00000000E+00  0.00000000E+00
  0.00000000E+00  0.00000000E+00  0.00000000E+00
  0.00000000E+00  0.00000000E+00  0.00000000E+00
  0.00000000E+00  0.00000000E+00  0.00000000E+00
  0.00000000E+00  0.00000000E+00  0.00000000E+00
  0.00000000E+00  0.00000000E+00  0.00000000E+00
  0.00000000E+00  0.00000000E+00  0.00000000E+00
  0.00000000E+00  0.00000000E+00  0.00000000E+00
  0.00000000E+00  0.00000000E+00  0.00000000E+00
  0.00000000E+00  0.00000000E+00  0.00000000E+00
  0.00000000E+00  0.00000000E+00  0.00000000E+00
  0.00000000E+00  0.00000000E+00  0.00000000E+00
  0.00000000E+00  0.00000000E+00  0.00000000E+00
  0.00000000E+00  0.00000000E+00  0.00000000E+00
  0.00000000E+00  0.00000000E+00  0.00000000E+00
  0.00000000E+00  0.00000000E+00  0.00000000E+00
  0.00000000E+00  0.00000000E+00  0.00000000E+00
  0.00000000E+00  0.00000000E+00  0.00000000E+00
  0.00000000E+00  0.00000000E+00  0.00000000E+00
  0.00000000E+00  0.00000000E+00  0.00000000E+00
  0.00000000E+00  0.00000000E+00  0.00000000E+00
  0.00000000E+00  0.00000000E+00  0.00000000E+00
  0.00000000E+00  0.00000000E+00  0.00000000E+00
  0.00000000E+00  0.00000000E+00  0.00000000E+00
  0.00000000E+00  0.00000000E+00  0.00000000E+00
  0.00000000E+00  0.00000000E+00  0.00000000E+00
  0.00000000E+00  0.00000000E+00  0.00000000E+00
  0.00000000E+00  0.00000000E+00  0.00000000E+00
  0.00000000E+00  0.00000000E+00  0.00000000E+00
  0.00000000E+00  0.00000000E+00  0.00000000E+00
  0.00000000E+00  0.00000000E+00  0.00000000E+00
  0.00000000E+00  0.00000000E+00  0.00000000E+00
  0.00000000E+00  0.00000000E+00  0.00000000E+00
  0.00000000E+00  0.00000000E+00  0.00000000E+00
  0.00000000E+00  0.00000000E+00  0.00000000E+00
  0.00000000E+00  0.00000000E+00  0.00000000E+00
  0.00000000E+00  0.00000000E+00  0.00000000E+00
  0.00000000E+00  0.00000000E+00  0.00000000E+00
  0.00000000E+00  0.00000000E+00  0.00000000E+00
  0.00000000E+00  0.00000000E+00  0.00000000E+00
  0.00000000E+00  0.00000000E+00  0.00000000E+00
  0.00000000E+00  0.00000000E+00  0.00000000E+00
  0.00000000E+00  0.00000000E+00  0.00000000E+00
  0.00000000E+00  0.00000000E+00  0.00000000E+00
  0.00000000E+00  0.00000000E+00  0.00000000E+00
  0.00000000E+00  0.00000000E+00  0.00000000E+00
  0.00000000E+00  0.00000000E+00  0.00000000E+00
  0.00000000E+00  0.00000000E+00  0.00000000E+00
  0.00000000E+00  0.00000000E+00  0.00000000E+00
  0.00000000E+00  0.00000000E+00  0.00000000E+00
  0.00000000E+00  0.00000000E+00  0.00000000E+00
  0.00000000E+00  0.00000000E+00  0.00000000E+00
  0.00000000E+00  0.00000000E+00  0.00000000E+00
  0.00000000E+00  0.00000000E+00  0.00000000E+00
  0.00000000E+00  0.00000000E+00  0.00000000E+00
  0.00000000E+00  0.00000000E+00  0.00000000E+00
  0.00000000E+00  0.00000000E+00  0.00000000E+00
  0.00000000E+00  0.00000000E+00  0.00000000E+00
  0.00000000E+00  0.00000000E+00  0.00000000E+00
  0.00000000E+00  0.00000000E+00  0.00000000E+00
  0.00000000E+00  0.00000000E+00  0.00000000E+00
  0.00000000E+00  0.00000000E+00  0.00000000E+00
  0.00000000E+00  0.00000000E+00  0.00000000E+00
  0.00000000E+00  0.00000000E+00  0.00000000E+00
  0.00000000E+00  0.00000000E+00  0.00000000E+00
  0.00000000E+00  0.00000000E+00  0.00000000E+00
  0.00000000E+00  0.00000000E+00  0.00000000E+00
  0.00000000E+00  0.00000000E+00  0.00000000E+00
  0.00000000E+00  0.00000000E+00  0.00000000E+00
  0.00000000E+00  0.00000000E+00  0.00000000E+00
  0.00000000E+00  0.00000000E+00  0.00000000E+00
  0.00000000E+00  0.00000000E+00  0.00000000E+00
  0.00000000E+00  0.00000000E+00  0.00000000E+00
  0.00000000E+00  0.00000000E+00  0.00000000E+00
  0.00000000E+00  0.00000000E+00  0.00000000E+00
  0.00000000E+00  0.00000000E+00  0.00000000E+00
  0.00000000E+00  0.00000000E+00  0.00000000E+00
  0.00000000E+00  0.00000000E+00  0.00000000E+00
  0.00000000E+00  0.00000000E+00  0.00000000E+00
  0.00000000E+00  0.00000000E+00  0.00000000E+00
  0.00000000E+00  0.00000000E+00  0.00000000E+00
  0.00000000E+00  0.00000000E+00  0.00000000E+00
  0.00000000E+00  0.00000000E+00  0.00000000E+00
  0.00000000E+00  0.00000000E+00  0.00000000E+00
  0.00000000E+00  0.00000000E+00  0.00000000E+00
  0.00000000E+00  0.00000000E+00  0.00000000E+00
  0.00000000E+00  0.00000000E+00  0.00000000E+00
  0.00000000E+00  0.00000000E+00  0.00000000E+00
