Li1
1.0
-1.735956 1.735956 1.735956
1.735956 -1.735956 1.735956
1.735956 1.735956 -1.735956
Li
1
direct
0.000000 0.000000 0.000000 Li
