(2, 1, 2)                               
   1.00000000000000     
     5.8897840900495844    0.8858276462148180   -7.0593324019805479
     0.1875255523378367    3.9697612464320615   -3.8418234906982529
     0.9061914622518903   -1.8537529378049875   32.7189847803510645
   Li   N 
    24     8
Selective dynamics
Direct
  0.2388234722493685  0.3684745005472745  0.0433184544210766   T   T   T
  0.5462455218967989  0.5011068426036086  0.0826056871864547   T   T   T
  0.1769843486514359 -0.0260585792435272  0.0625389214492210   T   T   T
  0.7085764729019691 -0.1298594391232654  0.0028928999505890   T   T   T
  0.4219612156667111 -0.3801750478402714 -0.0206211449003351   T   T   T
  0.8333322790115076  0.0000000000000000  0.1014077465251262   F   F   F
 -0.0025925134801358  0.4726316409213599  0.1317506246720454   T   T   T
  0.5000000000000000  0.5000006428991171  0.1935971923341029   F   F   F
  0.1666677209884924  0.0000000000000000  0.1751592231718462   F   F   F
  0.6666677209884924  0.0000000000000000  0.1198461928688133   F   F   F
  0.3333322790115076  0.0000000000000000  0.1567207768281520   F   F   F
  0.8333322790115076  0.0000000000000000  0.2120353222827021   F   F   F
  0.0000000000000000  0.5000006428991171  0.2489102226371358   F   F   F
  0.5024317573534552  0.5271777263673240  0.3107082135761438   T   T   T
  0.1666677209884924  0.0000000000000000  0.2857867989294220   F   F   F
  0.6666677209884924  0.0000000000000000  0.2304737686263891   F   F   F
  0.3333322790115076  0.0000000000000000  0.2673483525857279   F   F   F
  0.8333322790115076  0.0000000000000000  0.3226613828887608   F   F   F
 -0.0465150419575559  0.4991967048087193  0.3598978299924994   T   T   T
  0.2609483076808232  0.6313751963258305  0.3991641439363862   T   T   T
  0.0781617127109448  0.3799504458575144  0.4631904269225933   T   T   T
  0.6666677209884924  0.0000000000000000  0.3410998292324550   F   F   F
  0.3228578555256547  0.0261477632068326  0.3799831752862002   T   T   T
  0.7913572960147456  0.1296111589395529  0.4395908893147076   T   T   T
  0.0238426706619426 -0.0637782811307474  0.0797683010924415   T   T   T
  0.5101502805832392  0.0340682185441570  0.0321675520061105   T   T   T
  0.0000000000000000  0.0000000000000000  0.1935972727272741   F   F   F
  0.5000000000000000  0.0000000000000000  0.1382842424242412   F   F   F
  0.0000000000000000  0.0000000000000000  0.3042248484848500   F   F   F
  0.5000000000000000  0.0000000000000000  0.2489103030302999   F   F   F
 -0.0102380974703686 -0.0343154110433960  0.4102966673582661   T   T   T
  0.4762920475603324  0.0635584192200929  0.3627451213246030   T   T   T
 
  0.00000000E+00  0.00000000E+00  0.00000000E+00
  0.00000000E+00  0.00000000E+00  0.00000000E+00
  0.00000000E+00  0.00000000E+00  0.00000000E+00
  0.00000000E+00  0.00000000E+00  0.00000000E+00
  0.00000000E+00  0.00000000E+00  0.00000000E+00
  0.00000000E+00  0.00000000E+00  0.00000000E+00
  0.00000000E+00  0.00000000E+00  0.00000000E+00
  0.00000000E+00  0.00000000E+00  0.00000000E+00
  0.00000000E+00  0.00000000E+00  0.00000000E+00
  0.00000000E+00  0.00000000E+00  0.00000000E+00
  0.00000000E+00  0.00000000E+00  0.00000000E+00
  0.00000000E+00  0.00000000E+00  0.00000000E+00
  0.00000000E+00  0.00000000E+00  0.00000000E+00
  0.00000000E+00  0.00000000E+00  0.00000000E+00
  0.00000000E+00  0.00000000E+00  0.00000000E+00
  0.00000000E+00  0.00000000E+00  0.00000000E+00
  0.00000000E+00  0.00000000E+00  0.00000000E+00
  0.00000000E+00  0.00000000E+00  0.00000000E+00
  0.00000000E+00  0.00000000E+00  0.00000000E+00
  0.00000000E+00  0.00000000E+00  0.00000000E+00
  0.00000000E+00  0.00000000E+00  0.00000000E+00
  0.00000000E+00  0.00000000E+00  0.00000000E+00
  0.00000000E+00  0.00000000E+00  0.00000000E+00
  0.00000000E+00  0.00000000E+00  0.00000000E+00
  0.00000000E+00  0.00000000E+00  0.00000000E+00
  0.00000000E+00  0.00000000E+00  0.00000000E+00
  0.00000000E+00  0.00000000E+00  0.00000000E+00
  0.00000000E+00  0.00000000E+00  0.00000000E+00
  0.00000000E+00  0.00000000E+00  0.00000000E+00
  0.00000000E+00  0.00000000E+00  0.00000000E+00
  0.00000000E+00  0.00000000E+00  0.00000000E+00
  0.00000000E+00  0.00000000E+00  0.00000000E+00
