(2, 1, 2)
1.0
6.323180 0.000000 -7.301380
-0.000000 3.888635 -3.650690
0.000000 0.000000 33.000000
Li N
24 8
Selective dynamics
Cartesian
0.00000 1.94432 -0.91268 T T T Li+ 
3.16159 1.94432 -2.73804 T T T Li+ 
1.05387 0.00000 0.91269 T T T Li+ 
4.21546 0.00000 -4.56338 T T T Li+ 
2.10772 0.00000 -0.91267 T T T Li+ 
5.26931 0.00000 -2.73802 F F F Li+ 
0.00000 1.94432 2.73803 T T T Li+ 
3.16159 1.94432 0.91267 F F F Li+ 
1.05387 0.00000 4.56335 F F F Li+ 
4.21546 0.00000 -0.91267 F F F Li+ 
2.10772 0.00000 2.73800 F F F Li+ 
5.26931 0.00000 0.91269 F F F Li+ 
0.00000 1.94432 6.38869 F F F Li+ 
3.16159 1.94432 4.56338 T T T Li+ 
1.05387 0.00000 8.21406 F F F Li+ 
4.21546 0.00000 2.73804 F F F Li+ 
2.10772 0.00000 6.38871 F F F Li+ 
5.26931 0.00000 4.56335 F F F Li+ 
0.00000 1.94432 10.03940 T T T Li+ 
3.16159 1.94432 8.21404 T T T Li+ 
1.05387 0.00000 11.86472 T T T Li+ 
4.21546 0.00000 6.38870 F F F Li+ 
2.10772 0.00000 10.03942 T T T Li+ 
5.26931 0.00000 8.21406 T T T Li+ 
0.00000 0.00000 2.73800 T T T N3- 
3.16159 0.00000 -2.73802 T T T N3- 
0.00000 0.00000 6.38871 F F F N3- 
3.16159 0.00000 0.91269 F F F N3- 
0.00000 0.00000 10.03942 F F F N3- 
3.16159 0.00000 4.56335 F F F N3- 
0.00000 0.00000 13.69008 T T T N3- 
3.16159 0.00000 8.21406 T T T N3- 
