Li1 N3
1.0
1.642562 2.783545 0.000367
-1.642562 2.783545 0.000367
0.000000 1.450735 4.666265
Li N
1 3
direct
-0.000000 -0.000000 -0.000000 Li
0.605876 0.605876 0.256533 N
0.394124 0.394124 0.743467 N
0.500000 0.500000 0.500000 N
