Li5 P2 N1 O6                            
   1.00000000000000     
     0.0553223243206926    0.0711889833672559    4.9892529663534493
     6.3416739886818023    0.0093735829723728    0.0709372084286077
     0.0076630815797008    5.3421057492341024    0.0770967239986080
   Li   P    N    O 
     5     2     1     6
Direct
  0.4930918707155603 -0.0302950535256021  0.8707745610870229
  0.0075277196851594  0.4979634722579945  0.1649707696799932
  0.4996924178827894  0.7504723768816497  0.3268768190883579
  0.0113263911879596  0.7618285561233117  0.6632758916716077
  0.0640444800922671  0.2441929869868630  0.6864322552908855
  0.5096598285989621  0.5206023148143969  0.8293593634702199
 -0.0102998164013886 -0.0065956303170468  0.1736759350641346
  0.0439531878987775  0.2098123053292467  0.3244731203847459
  0.6097148809964512  0.7150819214350936  0.6737919259837718
  0.1089471012957812  0.7904731923716749  0.3042834161730028
  0.6143854344790184  0.5201342054022619  0.0958963674720878
  0.1104375410644802 -0.0034273957548029  0.8951651696162597
  0.1988615751915081  0.5050371040661332  0.8149015398269805
  0.6810843873126982 -0.0210153560711762  0.1631978651909349
 
  0.00000000E+00  0.00000000E+00  0.00000000E+00
  0.00000000E+00  0.00000000E+00  0.00000000E+00
  0.00000000E+00  0.00000000E+00  0.00000000E+00
  0.00000000E+00  0.00000000E+00  0.00000000E+00
  0.00000000E+00  0.00000000E+00  0.00000000E+00
  0.00000000E+00  0.00000000E+00  0.00000000E+00
  0.00000000E+00  0.00000000E+00  0.00000000E+00
  0.00000000E+00  0.00000000E+00  0.00000000E+00
  0.00000000E+00  0.00000000E+00  0.00000000E+00
  0.00000000E+00  0.00000000E+00  0.00000000E+00
  0.00000000E+00  0.00000000E+00  0.00000000E+00
  0.00000000E+00  0.00000000E+00  0.00000000E+00
  0.00000000E+00  0.00000000E+00  0.00000000E+00
  0.00000000E+00  0.00000000E+00  0.00000000E+00
