Li56 P28 O98
1.0
6.730959 0.000000 7.860032
2.035903 8.419349 5.263538
0.000000 0.000000 68.387046
Li P O
56 28 98
direct
0.144977 0.987971 0.037204 Li+
0.855023 0.012029 0.020048 Li+
0.588727 0.751653 0.071341 Li+
0.411273 0.248347 0.062834 Li+
0.327738 0.791276 0.060069 Li+
0.672262 0.208724 0.074107 Li+
0.241886 0.450796 0.018186 Li+
0.758114 0.549204 0.039067 Li+
0.144977 0.987971 0.114127 Li+
0.855023 0.012029 0.096971 Li+
0.588727 0.751653 0.148265 Li+
0.411273 0.248347 0.139757 Li+
0.327738 0.791276 0.136992 Li+
0.672262 0.208724 0.151030 Li+
0.241886 0.450796 0.095109 Li+
0.758114 0.549204 0.115990 Li+
0.144977 0.987971 0.191051 Li+
0.855023 0.012029 0.173894 Li+
0.588727 0.751653 0.225188 Li+
0.411273 0.248347 0.216680 Li+
0.327738 0.791276 0.213915 Li+
0.672262 0.208724 0.227953 Li+
0.241886 0.450796 0.172032 Li+
0.758114 0.549204 0.192913 Li+
0.144977 0.987971 0.267974 Li+
0.855023 0.012029 0.250817 Li+
0.588727 0.751653 0.302111 Li+
0.411273 0.248347 0.293603 Li+
0.327738 0.791276 0.290838 Li+
0.672262 0.208724 0.304876 Li+
0.241886 0.450796 0.248955 Li+
0.758114 0.549204 0.269836 Li+
0.144977 0.987971 0.344897 Li+
0.855023 0.012029 0.327741 Li+
0.588727 0.751653 0.379034 Li+
0.411273 0.248347 0.370527 Li+
0.327738 0.791276 0.367761 Li+
0.672262 0.208724 0.381799 Li+
0.241886 0.450796 0.325878 Li+
0.758114 0.549204 0.346759 Li+
0.144977 0.987971 0.421820 Li+
0.855023 0.012029 0.404664 Li+
0.588727 0.751653 0.455957 Li+
0.411273 0.248347 0.447450 Li+
0.327738 0.791276 0.444684 Li+
0.672262 0.208724 0.458722 Li+
0.241886 0.450796 0.402801 Li+
0.758114 0.549204 0.423682 Li+
0.144977 0.987971 0.498743 Li+
0.855023 0.012029 0.481587 Li+
0.588727 0.751653 0.532880 Li+
0.411273 0.248347 0.524373 Li+
0.327738 0.791276 0.521607 Li+
0.672262 0.208724 0.535645 Li+
0.241886 0.450796 0.479724 Li+
0.758114 0.549204 0.500606 Li+
0.213298 0.631956 0.046221 P5+
0.786702 0.368044 0.011031 P5+
0.779241 0.845502 0.002436 P5+
0.220759 0.154498 0.054816 P5+
0.213298 0.631956 0.123144 P5+
0.786702 0.368044 0.087954 P5+
0.779241 0.845502 0.079359 P5+
0.220759 0.154498 0.131739 P5+
0.213298 0.631956 0.200068 P5+
0.786702 0.368044 0.164877 P5+
0.779241 0.845502 0.156282 P5+
0.220759 0.154498 0.208663 P5+
0.213298 0.631956 0.276991 P5+
0.786702 0.368044 0.241800 P5+
0.779241 0.845502 0.233205 P5+
0.220759 0.154498 0.285586 P5+
0.213298 0.631956 0.353914 P5+
0.786702 0.368044 0.318724 P5+
0.779241 0.845502 0.310129 P5+
0.220759 0.154498 0.362509 P5+
0.213298 0.631956 0.430837 P5+
0.786702 0.368044 0.395647 P5+
0.779241 0.845502 0.387052 P5+
0.220759 0.154498 0.439432 P5+
0.213298 0.631956 0.507760 P5+
0.786702 0.368044 0.472570 P5+
0.779241 0.845502 0.463975 P5+
0.220759 0.154498 0.516355 P5+
0.741759 0.874340 0.059689 O2-
0.605720 0.790684 0.037067 O2-
0.394280 0.209316 0.020186 O2-
0.848591 0.981976 0.071114 O2-
0.743350 0.376455 0.037300 O2-
0.256650 0.623545 0.019953 O2-
0.732189 0.526190 0.071431 O2-
0.267811 0.473810 0.062744 O2-
0.702403 0.236504 0.020881 O2-
0.297597 0.763496 0.036371 O2-
0.962384 0.683894 0.073764 O2-
0.037616 0.316106 0.060412 O2-
0.151409 0.018024 0.063061 O2-
0.258241 0.125660 0.074487 O2-
0.741759 0.874340 0.136612 O2-
0.605720 0.790684 0.113990 O2-
0.394280 0.209316 0.097109 O2-
0.848591 0.981976 0.148037 O2-
0.743350 0.376455 0.114223 O2-
0.256650 0.623545 0.096876 O2-
0.732189 0.526190 0.148354 O2-
0.267811 0.473810 0.139667 O2-
0.702403 0.236504 0.097804 O2-
0.297597 0.763496 0.113294 O2-
0.962384 0.683894 0.150687 O2-
0.037616 0.316106 0.137335 O2-
0.151409 0.018024 0.139984 O2-
0.258241 0.125660 0.151410 O2-
0.741759 0.874340 0.213535 O2-
0.605720 0.790684 0.190913 O2-
0.394280 0.209316 0.174032 O2-
0.848591 0.981976 0.224960 O2-
0.743350 0.376455 0.191146 O2-
0.256650 0.623545 0.173799 O2-
0.732189 0.526190 0.225277 O2-
0.267811 0.473810 0.216591 O2-
0.702403 0.236504 0.174727 O2-
0.297597 0.763496 0.190217 O2-
0.962384 0.683894 0.227610 O2-
0.037616 0.316106 0.214258 O2-
0.151409 0.018024 0.216908 O2-
0.258241 0.125660 0.228333 O2-
0.741759 0.874340 0.290458 O2-
0.605720 0.790684 0.267836 O2-
0.394280 0.209316 0.250955 O2-
0.848591 0.981976 0.301884 O2-
0.743350 0.376455 0.268069 O2-
0.256650 0.623545 0.250722 O2-
0.732189 0.526190 0.302201 O2-
0.267811 0.473810 0.293514 O2-
0.702403 0.236504 0.251651 O2-
0.297597 0.763496 0.267141 O2-
0.962384 0.683894 0.304533 O2-
0.037616 0.316106 0.291181 O2-
0.151409 0.018024 0.293831 O2-
0.258241 0.125660 0.305256 O2-
0.741759 0.874340 0.367381 O2-
0.605720 0.790684 0.344759 O2-
0.394280 0.209316 0.327878 O2-
0.848591 0.981976 0.378807 O2-
0.743350 0.376455 0.344992 O2-
0.256650 0.623545 0.327645 O2-
0.732189 0.526190 0.379124 O2-
0.267811 0.473810 0.370437 O2-
0.702403 0.236504 0.328574 O2-
0.297597 0.763496 0.344064 O2-
0.962384 0.683894 0.381456 O2-
0.037616 0.316106 0.368104 O2-
0.151409 0.018024 0.370754 O2-
0.258241 0.125660 0.382179 O2-
0.741759 0.874340 0.444304 O2-
0.605720 0.790684 0.421682 O2-
0.394280 0.209316 0.404801 O2-
0.848591 0.981976 0.455730 O2-
0.743350 0.376455 0.421915 O2-
0.256650 0.623545 0.404568 O2-
0.732189 0.526190 0.456047 O2-
0.267811 0.473810 0.447360 O2-
0.702403 0.236504 0.405497 O2-
0.297597 0.763496 0.420987 O2-
0.962384 0.683894 0.458379 O2-
0.037616 0.316106 0.445027 O2-
0.151409 0.018024 0.447677 O2-
0.258241 0.125660 0.459102 O2-
0.741759 0.874340 0.521227 O2-
0.605720 0.790684 0.498605 O2-
0.394280 0.209316 0.481724 O2-
0.848591 0.981976 0.532653 O2-
0.743350 0.376455 0.498838 O2-
0.256650 0.623545 0.481491 O2-
0.732189 0.526190 0.532970 O2-
0.267811 0.473810 0.524283 O2-
0.702403 0.236504 0.482420 O2-
0.297597 0.763496 0.497910 O2-
0.962384 0.683894 0.535303 O2-
0.037616 0.316106 0.521950 O2-
0.151409 0.018024 0.524600 O2-
0.258241 0.125660 0.536025 O2-
