Li61 P7 N32                             
   1.00000000000000     
     0.0403005152207663    9.5937665875854705   -0.0197471442212501
     0.0226917442863629   -0.0207488561764688    9.6006289575985093
     9.6118284354771646    0.0411644614178596    0.0220462437026506
   Li   P    N 
    61     7    32
Direct
  0.5069959927445155  0.9975840777893462  0.4986248384820697
  0.9927366931433736  0.5147015723083568  0.0071850543934858
  0.4985642073463614  0.9960346170701068  0.9975031345278981
  0.0004770265150232  0.0012389677050203  0.5014432989200865
  0.4890404287246673  0.4928016921686684  0.9953343088765770
  0.9962096685688347  0.5030140634114963  0.5005975419983177
  0.7544683899365225  0.0030671956937983  0.4864127524753966
  0.2454850054001299  0.9772166862242258  0.5176814363450664
  0.7744704855144227  0.5029431653594414  0.4945496239191403
  0.2183300117596200  0.4666431568258524  0.5228205595023520
  0.2587338754308235  0.9907689603871441  0.0185729741758325
  0.7368523431133390  0.0053910825042797  0.9864815827553226
  0.4200476725017383  0.5747593890729877  0.5733059418059787
  0.4903859677360564  0.2436115551644344  0.0099009308694901
  0.4747374162857963  0.7496451787671180  0.9790249632491018
 -0.0107690093369727  0.4899469062030354  0.2523022558540202
  0.0131654327496356  0.5233119996683652  0.7522860292448680
  0.2710782970656259  0.2114846903979202  0.1995782577865343
  0.2633864144605532  0.7284977818907145  0.7264843797503937
  0.2893294567295305  0.2109437375117065  0.6918015623099120
  0.2980486283286727  0.7143238319909404  0.2176030757171468
  0.7775067230531232  0.2862941484505699  0.2785106025371785
  0.7722439479411550  0.7062881915340723  0.7195963376420883
  0.7687400745429808  0.1959312357306639  0.7516519912255434
  0.7843362927462585  0.7770188841819911  0.2304244678710647
  0.0232802836314307  0.2191896109108095  0.2628681947990212
  0.0114212777571945  0.7821708506148096  0.7465062749524553
  0.2506405083972896  0.2226478335592366  0.4591533751721051
  0.2293777326260382  0.7101187306732898  0.4537669929248218
  0.7434948145326370  0.2488777128733365  0.5064464023884260
  0.7320780212129893  0.7565150996477781  0.4885374937712309
  0.7404922499925793  0.5120326109291530  0.2480367196633526
  0.7525269754565236  0.4824042224560819  0.7372527674105569
  0.2360691795564231  0.4815198131177625  0.2629790531173790
  0.2744166501032783  0.4535644985330922  0.7636131459178080
  0.5320847783824545  0.7424886878258476  0.2225680351561566
  0.5133885093363605  0.2627955054262681  0.7650441629598423
  0.2400857663023199  0.9626749577697504  0.2690969746234225
  0.2460128257520785  0.9830738683684944  0.7757399756641065
  0.2521709856189446  0.2367316577169122  0.9540004143807415
  0.2123078695381380  0.7475561311220924 -0.0191872828869273
  0.7534209251686358  0.9519014894977690  0.7247220123927300
  0.7556014762971244  0.0224908436505253  0.2364697169667785
  0.7206003639362843  0.7618645578263071  0.9659969257790773
  0.7302485068529779  0.2404398244965546  0.0386359845781715
  0.0517116220622461  0.2643850283631936  0.7581184510439608
  0.0376684441794056  0.7322962917345252  0.2380975676294509
  0.5344519380615754  0.2417629718607761  0.2708735626467129
  0.5346075699622924  0.7618217741649680  0.7132310421067932
  0.0157823733457436  0.2648880458922543  0.0291553178679858
  0.9671996598253845  0.7524535233247104  0.9913949722539861
  0.4962863434681447  0.2184647901302892  0.5126634392053564
  0.4689284406250549  0.7815818907192188  0.4623099940088968
  0.5783755150346488  0.5784581257188252  0.4172072920507438
  0.5146468744978102  0.5198156658629254  0.7770018691584516
  0.9963180879153539  0.9830282861244255  0.2626690888618535
  0.0006194311931389  0.0250041149766803  0.7447533040878845
  0.4226722794061213  0.4127866341490655  0.4171157973813273
  0.5794999040737843  0.4176155942068321  0.5778103837633601
  0.8787692743103700  0.3429719422000065  0.8818452453601798
  0.4897944940678244  0.4945880937004430  0.2181060359282793
  0.9973030818804703  0.0085975355552695  0.0044723883355918
  0.7422206417179656  0.5050761138971138 -0.0008730008333830
  0.2373311385546307  0.4951259091649986  0.0021341008492562
  0.9922999393959506  0.7542623561737382  0.4943012941861137
  0.9993391625612331  0.2478657834494213  0.5077680411561100
  0.5000921813482927  0.9961725641722137  0.2432560404829392
  0.5009710379381231  0.0012527742218369  0.7518104935463563
  0.6247586156497689  0.6119233331778917  0.6157477236386354
  0.6281550507650935  0.3813312887996016  0.3819474764268814
  0.8884507627095730  0.9077727857885125  0.1003164534932493
  0.9037867133010435  0.1226177259649394  0.9059758646664615
  0.0934525202829712  0.9040748679239459  0.8989119105492315
  0.1059344855604537  0.0978650707270306  0.1108367445209372
  0.3830207112904350  0.6100822377516907  0.3698103222687247
  0.3843474139896758  0.3706418075549490  0.6157362151567080
  0.0943831420613034  0.3513683329457690  0.3979395926940280
  0.0933302064633456  0.6549658457269001  0.6020962106443597
  0.1095630474861694  0.1444879550342806  0.5991482706831794
  0.0998016593836292  0.8546349989154112  0.3959114438543119
  0.8942568403469618  0.1488142524629693  0.4055330830698717
  0.8873002360296632  0.8530897786318243  0.5964680237617365
  0.8459540004668878  0.4062662288724959  0.1027394348185827
  0.8459927468671731  0.5993059277938593  0.8898600337732817
  0.1441570486461241  0.5986259359118243  0.1097590623972345
  0.1291986693996619  0.3992255425995073  0.9000736352079763
  0.4005827926879284  0.8892817910406210  0.1460663643598844
  0.3979757735874381  0.1044585788051783  0.8513679624734203
  0.3946007757447912  0.0948599100927744  0.3475697277820796
  0.3949229046152016  0.9009684254007455  0.6510680064740524
  0.3391308434647568  0.3837928415990737  0.0919015548521940
  0.3373874409841046  0.6001652068679715  0.8968682240090122
  0.6117578344457532  0.0975567373436205  0.6501223096040707
  0.6121701789415052  0.9004812101106010  0.3421857272560350
  0.6383680037097748  0.6099912536637214  0.0919012032122061
  0.6503901286438788  0.3887764941276107  0.9008206469566785
  0.9023204710996651  0.3451223718594441  0.6216047497705024
  0.8969967053463526  0.6524012990028919  0.3860512158191698
  0.5962900316622292  0.1038868888176413  0.1392899130290745
  0.6000516654876283  0.8951099898928101  0.8514089297319427
 
  0.00000000E+00  0.00000000E+00  0.00000000E+00
  0.00000000E+00  0.00000000E+00  0.00000000E+00
  0.00000000E+00  0.00000000E+00  0.00000000E+00
  0.00000000E+00  0.00000000E+00  0.00000000E+00
  0.00000000E+00  0.00000000E+00  0.00000000E+00
  0.00000000E+00  0.00000000E+00  0.00000000E+00
  0.00000000E+00  0.00000000E+00  0.00000000E+00
  0.00000000E+00  0.00000000E+00  0.00000000E+00
  0.00000000E+00  0.00000000E+00  0.00000000E+00
  0.00000000E+00  0.00000000E+00  0.00000000E+00
  0.00000000E+00  0.00000000E+00  0.00000000E+00
  0.00000000E+00  0.00000000E+00  0.00000000E+00
  0.00000000E+00  0.00000000E+00  0.00000000E+00
  0.00000000E+00  0.00000000E+00  0.00000000E+00
  0.00000000E+00  0.00000000E+00  0.00000000E+00
  0.00000000E+00  0.00000000E+00  0.00000000E+00
  0.00000000E+00  0.00000000E+00  0.00000000E+00
  0.00000000E+00  0.00000000E+00  0.00000000E+00
  0.00000000E+00  0.00000000E+00  0.00000000E+00
  0.00000000E+00  0.00000000E+00  0.00000000E+00
  0.00000000E+00  0.00000000E+00  0.00000000E+00
  0.00000000E+00  0.00000000E+00  0.00000000E+00
  0.00000000E+00  0.00000000E+00  0.00000000E+00
  0.00000000E+00  0.00000000E+00  0.00000000E+00
  0.00000000E+00  0.00000000E+00  0.00000000E+00
  0.00000000E+00  0.00000000E+00  0.00000000E+00
  0.00000000E+00  0.00000000E+00  0.00000000E+00
  0.00000000E+00  0.00000000E+00  0.00000000E+00
  0.00000000E+00  0.00000000E+00  0.00000000E+00
  0.00000000E+00  0.00000000E+00  0.00000000E+00
  0.00000000E+00  0.00000000E+00  0.00000000E+00
  0.00000000E+00  0.00000000E+00  0.00000000E+00
  0.00000000E+00  0.00000000E+00  0.00000000E+00
  0.00000000E+00  0.00000000E+00  0.00000000E+00
  0.00000000E+00  0.00000000E+00  0.00000000E+00
  0.00000000E+00  0.00000000E+00  0.00000000E+00
  0.00000000E+00  0.00000000E+00  0.00000000E+00
  0.00000000E+00  0.00000000E+00  0.00000000E+00
  0.00000000E+00  0.00000000E+00  0.00000000E+00
  0.00000000E+00  0.00000000E+00  0.00000000E+00
  0.00000000E+00  0.00000000E+00  0.00000000E+00
  0.00000000E+00  0.00000000E+00  0.00000000E+00
  0.00000000E+00  0.00000000E+00  0.00000000E+00
  0.00000000E+00  0.00000000E+00  0.00000000E+00
  0.00000000E+00  0.00000000E+00  0.00000000E+00
  0.00000000E+00  0.00000000E+00  0.00000000E+00
  0.00000000E+00  0.00000000E+00  0.00000000E+00
  0.00000000E+00  0.00000000E+00  0.00000000E+00
  0.00000000E+00  0.00000000E+00  0.00000000E+00
  0.00000000E+00  0.00000000E+00  0.00000000E+00
  0.00000000E+00  0.00000000E+00  0.00000000E+00
  0.00000000E+00  0.00000000E+00  0.00000000E+00
  0.00000000E+00  0.00000000E+00  0.00000000E+00
  0.00000000E+00  0.00000000E+00  0.00000000E+00
  0.00000000E+00  0.00000000E+00  0.00000000E+00
  0.00000000E+00  0.00000000E+00  0.00000000E+00
  0.00000000E+00  0.00000000E+00  0.00000000E+00
  0.00000000E+00  0.00000000E+00  0.00000000E+00
  0.00000000E+00  0.00000000E+00  0.00000000E+00
  0.00000000E+00  0.00000000E+00  0.00000000E+00
  0.00000000E+00  0.00000000E+00  0.00000000E+00
  0.00000000E+00  0.00000000E+00  0.00000000E+00
  0.00000000E+00  0.00000000E+00  0.00000000E+00
  0.00000000E+00  0.00000000E+00  0.00000000E+00
  0.00000000E+00  0.00000000E+00  0.00000000E+00
  0.00000000E+00  0.00000000E+00  0.00000000E+00
  0.00000000E+00  0.00000000E+00  0.00000000E+00
  0.00000000E+00  0.00000000E+00  0.00000000E+00
  0.00000000E+00  0.00000000E+00  0.00000000E+00
  0.00000000E+00  0.00000000E+00  0.00000000E+00
  0.00000000E+00  0.00000000E+00  0.00000000E+00
  0.00000000E+00  0.00000000E+00  0.00000000E+00
  0.00000000E+00  0.00000000E+00  0.00000000E+00
  0.00000000E+00  0.00000000E+00  0.00000000E+00
  0.00000000E+00  0.00000000E+00  0.00000000E+00
  0.00000000E+00  0.00000000E+00  0.00000000E+00
  0.00000000E+00  0.00000000E+00  0.00000000E+00
  0.00000000E+00  0.00000000E+00  0.00000000E+00
  0.00000000E+00  0.00000000E+00  0.00000000E+00
  0.00000000E+00  0.00000000E+00  0.00000000E+00
  0.00000000E+00  0.00000000E+00  0.00000000E+00
  0.00000000E+00  0.00000000E+00  0.00000000E+00
  0.00000000E+00  0.00000000E+00  0.00000000E+00
  0.00000000E+00  0.00000000E+00  0.00000000E+00
  0.00000000E+00  0.00000000E+00  0.00000000E+00
  0.00000000E+00  0.00000000E+00  0.00000000E+00
  0.00000000E+00  0.00000000E+00  0.00000000E+00
  0.00000000E+00  0.00000000E+00  0.00000000E+00
  0.00000000E+00  0.00000000E+00  0.00000000E+00
  0.00000000E+00  0.00000000E+00  0.00000000E+00
  0.00000000E+00  0.00000000E+00  0.00000000E+00
  0.00000000E+00  0.00000000E+00  0.00000000E+00
  0.00000000E+00  0.00000000E+00  0.00000000E+00
  0.00000000E+00  0.00000000E+00  0.00000000E+00
  0.00000000E+00  0.00000000E+00  0.00000000E+00
  0.00000000E+00  0.00000000E+00  0.00000000E+00
  0.00000000E+00  0.00000000E+00  0.00000000E+00
  0.00000000E+00  0.00000000E+00  0.00000000E+00
  0.00000000E+00  0.00000000E+00  0.00000000E+00
  0.00000000E+00  0.00000000E+00  0.00000000E+00
