(2, 1, 2)                               
   1.00000000000000     
     5.4332564990078431   -0.0978940809295334   -6.2629842997305687
    -0.0653273591478561    7.6259152872038207   -3.0690889966243118
     0.1214666608887407    0.4004156946823373   43.9507380262138909
   Li   O 
    32    32
Selective dynamics
Direct
  0.0252598568350824  0.5077866323545195  0.0409003170534550   T   T   T
  0.3545793942387659  0.4018048182455907  0.0115573640962302   T   T   T
  0.0106793745737469  0.0020638801387679  0.0727603989889457   T   T   T
  0.5450069129378503  0.0051313380972035  0.0420857090092141   T   T   T
  0.2106248951877751  0.6596473482194378  0.0301250052715218   T   T   T
  0.5119080609561591  0.6897109586051610  0.0013376307695891   T   T   T
  0.3197512598257305  0.2771007356115835  0.0592677013611231   T   T   T
  0.8368109128645357  0.2143571151126746  0.0263762488334298   T   T   T
  0.0000000000000000  0.5000000000000000  0.1035469999999989   F   F   F
  0.5000000000000000  0.5000000000000000  0.1392609999999976   F   F   F
  0.0000000000000000  0.0000000000000000  0.1392609999999976   F   F   F
  0.5000000000000000  0.0000000000000000  0.1035469999999989   F   F   F
  0.1666669999999968  0.7500000000000000  0.1094989999999996   F   F   F
  0.6649229635971630  0.7293392901605736  0.0740611588736316   T   T   T
  0.3333330000000032  0.2500000000000000  0.1333089999999970   F   F   F
  0.8333330000000032  0.2500000000000000  0.0975940000000008   F   F   F
  0.0000000000000000  0.5000000000000000  0.1749750000000034   F   F   F
  0.5072491276385541  0.5027697171695197  0.2130322748498251   T   T   T
  0.0000000000000000  0.0000000000000000  0.2106899999999996   F   F   F
  0.5000000000000000  0.0000000000000000  0.1749750000000034   F   F   F
  0.1666669999999968  0.7500000000000000  0.1809280000000015   F   F   F
  0.6666669999999968  0.7500000000000000  0.1452129999999983   F   F   F
  0.3333330000000032  0.2500000000000000  0.2047370000000015   F   F   F
  0.8333330000000032  0.2500000000000000  0.1690230000000028   F   F   F
  0.9638728967843243  0.5043166845631227  0.2367260427077510   T   T   T
  0.4912601194691372  0.4955866537070829  0.2697946439731114   T   T   T
  0.9777494647726331  0.0518189124593715  0.2833979200165744   T   T   T
  0.5151708078439748  0.9738913179864972  0.2452660644543266   T   T   T
  0.2206983661858038  0.8953676324093373  0.2705916076415585   T   T   T
  0.6666669999999968  0.7500000000000000  0.2166420000000002   F   F   F
  0.2896877942422079  0.2227620336904496  0.2716878884131480   T   T   T
  0.8409867040992473  0.2488716228560425  0.2430512826455145   T   T   T
  0.1666669999999968  0.1493099999999998  0.0665929999999975   F   F   F
  0.6755030480216042  0.1148526612422206  0.0312766279891104   T   T   T
  0.3309494616681838  0.6367136608290651  0.0054100106635960   T   T   T
  0.8333330000000032  0.6493099999999998  0.0546879999999987   F   F   F
  0.3465562188271661  0.8305694242754252  0.0276107180270217   T   T   T
  0.8333330000000032  0.8506900000000002  0.0690719999999985   F   F   F
  0.1337408828744594  0.4165047015514981  0.0136211980088542   T   T   T
  0.6646187629581228  0.3147716310127140  0.0399126297542102   T   T   T
  0.1666669999999968  0.1493099999999998  0.1380210000000019   F   F   F
  0.6666669999999968  0.1493099999999998  0.1023070000000033   F   F   F
  0.3333330000000032  0.6493099999999998  0.0904019999999974   F   F   F
  0.8333330000000032  0.6493099999999998  0.1261170000000007   F   F   F
  0.3333330000000032  0.8506900000000002  0.1047870000000017   F   F   F
  0.8333330000000032  0.8506900000000002  0.1405010000000004   F   F   F
  0.1666669999999968  0.3506900000000002  0.0809769999999972   F   F   F
  0.6666669999999968  0.3506900000000002  0.1166910000000030   F   F   F
  0.1666669999999968  0.1493099999999998  0.2094499999999968   F   F   F
  0.6666669999999968  0.1493099999999998  0.1737359999999981   F   F   F
  0.3333330000000032  0.6493099999999998  0.1618309999999994   F   F   F
  0.8333330000000032  0.6493099999999998  0.1975449999999981   F   F   F
  0.3333330000000032  0.8506900000000002  0.1762149999999991   F   F   F
  0.8333330000000032  0.8506900000000002  0.2119289999999978   F   F   F
  0.1666669999999968  0.3506900000000002  0.1524059999999992   F   F   F
  0.6666669999999968  0.3506900000000002  0.1881199999999978   F   F   F
  0.1421960670737309  0.1296271109972094  0.2766051561792492   T   T   T
  0.6548110212671203  0.1479746735032582  0.2454083101711180   T   T   T
  0.3463575657824207  0.6512124274780773  0.2338464282627698   T   T   T
  0.8940283925080557  0.6664130246349810  0.2726448084960847   T   T   T
  0.3496152382442592  0.8489655857148629  0.2476781408003507   T   T   T
  0.8798778025637798  0.8475105988787965  0.2841119789754725   T   T   T
  0.1666669999999968  0.3506900000000002  0.2238339999999965   F   F   F
  0.6633031752812768  0.3476580081600260  0.2589398019316034   T   T   T
 
  0.00000000E+00  0.00000000E+00  0.00000000E+00
  0.00000000E+00  0.00000000E+00  0.00000000E+00
  0.00000000E+00  0.00000000E+00  0.00000000E+00
  0.00000000E+00  0.00000000E+00  0.00000000E+00
  0.00000000E+00  0.00000000E+00  0.00000000E+00
  0.00000000E+00  0.00000000E+00  0.00000000E+00
  0.00000000E+00  0.00000000E+00  0.00000000E+00
  0.00000000E+00  0.00000000E+00  0.00000000E+00
  0.00000000E+00  0.00000000E+00  0.00000000E+00
  0.00000000E+00  0.00000000E+00  0.00000000E+00
  0.00000000E+00  0.00000000E+00  0.00000000E+00
  0.00000000E+00  0.00000000E+00  0.00000000E+00
  0.00000000E+00  0.00000000E+00  0.00000000E+00
  0.00000000E+00  0.00000000E+00  0.00000000E+00
  0.00000000E+00  0.00000000E+00  0.00000000E+00
  0.00000000E+00  0.00000000E+00  0.00000000E+00
  0.00000000E+00  0.00000000E+00  0.00000000E+00
  0.00000000E+00  0.00000000E+00  0.00000000E+00
  0.00000000E+00  0.00000000E+00  0.00000000E+00
  0.00000000E+00  0.00000000E+00  0.00000000E+00
  0.00000000E+00  0.00000000E+00  0.00000000E+00
  0.00000000E+00  0.00000000E+00  0.00000000E+00
  0.00000000E+00  0.00000000E+00  0.00000000E+00
  0.00000000E+00  0.00000000E+00  0.00000000E+00
  0.00000000E+00  0.00000000E+00  0.00000000E+00
  0.00000000E+00  0.00000000E+00  0.00000000E+00
  0.00000000E+00  0.00000000E+00  0.00000000E+00
  0.00000000E+00  0.00000000E+00  0.00000000E+00
  0.00000000E+00  0.00000000E+00  0.00000000E+00
  0.00000000E+00  0.00000000E+00  0.00000000E+00
  0.00000000E+00  0.00000000E+00  0.00000000E+00
  0.00000000E+00  0.00000000E+00  0.00000000E+00
  0.00000000E+00  0.00000000E+00  0.00000000E+00
  0.00000000E+00  0.00000000E+00  0.00000000E+00
  0.00000000E+00  0.00000000E+00  0.00000000E+00
  0.00000000E+00  0.00000000E+00  0.00000000E+00
  0.00000000E+00  0.00000000E+00  0.00000000E+00
  0.00000000E+00  0.00000000E+00  0.00000000E+00
  0.00000000E+00  0.00000000E+00  0.00000000E+00
  0.00000000E+00  0.00000000E+00  0.00000000E+00
  0.00000000E+00  0.00000000E+00  0.00000000E+00
  0.00000000E+00  0.00000000E+00  0.00000000E+00
  0.00000000E+00  0.00000000E+00  0.00000000E+00
  0.00000000E+00  0.00000000E+00  0.00000000E+00
  0.00000000E+00  0.00000000E+00  0.00000000E+00
  0.00000000E+00  0.00000000E+00  0.00000000E+00
  0.00000000E+00  0.00000000E+00  0.00000000E+00
  0.00000000E+00  0.00000000E+00  0.00000000E+00
  0.00000000E+00  0.00000000E+00  0.00000000E+00
  0.00000000E+00  0.00000000E+00  0.00000000E+00
  0.00000000E+00  0.00000000E+00  0.00000000E+00
  0.00000000E+00  0.00000000E+00  0.00000000E+00
  0.00000000E+00  0.00000000E+00  0.00000000E+00
  0.00000000E+00  0.00000000E+00  0.00000000E+00
  0.00000000E+00  0.00000000E+00  0.00000000E+00
  0.00000000E+00  0.00000000E+00  0.00000000E+00
  0.00000000E+00  0.00000000E+00  0.00000000E+00
  0.00000000E+00  0.00000000E+00  0.00000000E+00
  0.00000000E+00  0.00000000E+00  0.00000000E+00
  0.00000000E+00  0.00000000E+00  0.00000000E+00
  0.00000000E+00  0.00000000E+00  0.00000000E+00
  0.00000000E+00  0.00000000E+00  0.00000000E+00
  0.00000000E+00  0.00000000E+00  0.00000000E+00
  0.00000000E+00  0.00000000E+00  0.00000000E+00
