Li392 P56 N224
1.0
9.402378 0.000000 0.000000
0.000000 9.402378 -9.402378
0.000000 0.000000 103.426158
Li P N
392 56 224
direct
0.500000 0.500000 0.013089 Li+
0.000000 0.000000 0.013089 Li+
0.500000 0.000000 0.058544 Li+
0.000000 0.500000 0.013089 Li+
0.500000 0.000000 0.013089 Li+
0.000000 0.500000 0.058544 Li+
0.500000 0.000000 0.035817 Li+
0.250000 0.500000 0.013089 Li+
0.750000 0.500000 0.013089 Li+
0.000000 0.750000 0.081271 Li+
0.000000 0.250000 0.035817 Li+
0.500000 0.000000 0.081271 Li+
0.774626 0.774626 0.017567 Li+
0.725374 0.274626 0.058544 Li+
0.274626 0.725374 0.008612 Li+
0.725374 0.725374 0.058544 Li+
0.774626 0.225374 0.008612 Li+
0.225374 0.225374 0.058544 Li+
0.225374 0.774626 0.058544 Li+
0.274626 0.274626 0.017567 Li+
0.024836 0.762917 0.013960 Li+
0.737083 0.524836 0.083832 Li+
0.262917 0.475164 0.079317 Li+
0.246664 0.737083 0.077839 Li+
0.753336 0.737083 0.082355 Li+
0.475164 0.753336 0.060021 Li+
0.475164 0.246664 0.057066 Li+
0.762917 0.746664 0.037771 Li+
0.746664 0.024836 0.039249 Li+
0.746664 0.975164 0.077839 Li+
0.237083 0.253336 0.083832 Li+
0.253336 0.024836 0.082355 Li+
0.762917 0.253336 0.079317 Li+
0.237083 0.746664 0.033255 Li+
0.253336 0.975164 0.034733 Li+
0.975164 0.237083 0.057066 Li+
0.975164 0.762917 0.060021 Li+
0.024836 0.237083 0.012218 Li+
0.524836 0.753336 0.012218 Li+
0.524836 0.246664 0.013960 Li+
0.753336 0.262917 0.034733 Li+
0.246664 0.262917 0.039249 Li+
0.737083 0.475164 0.033255 Li+
0.262917 0.524836 0.037771 Li+
0.000000 0.000000 0.034509 Li+
0.500000 0.500000 0.082579 Li+
0.235613 0.500000 0.058544 Li+
0.764387 0.500000 0.058544 Li+
0.500000 0.764387 0.082579 Li+
0.500000 0.235613 0.034509 Li+
0.000000 0.735613 0.034509 Li+
0.735613 0.000000 0.058544 Li+
0.000000 0.264387 0.082579 Li+
0.264387 0.000000 0.058544 Li+
0.000000 0.000000 0.082579 Li+
0.500000 0.500000 0.034509 Li+
0.500000 0.500000 0.103998 Li+
0.000000 0.000000 0.103998 Li+
0.500000 0.000000 0.149453 Li+
0.000000 0.500000 0.103998 Li+
0.500000 0.000000 0.103998 Li+
0.000000 0.500000 0.149453 Li+
0.500000 0.000000 0.126726 Li+
0.250000 0.500000 0.103998 Li+
0.750000 0.500000 0.103998 Li+
0.000000 0.750000 0.172180 Li+
0.000000 0.250000 0.126726 Li+
0.500000 0.000000 0.172180 Li+
0.774626 0.774626 0.108476 Li+
0.725374 0.274626 0.149453 Li+
0.274626 0.725374 0.099521 Li+
0.725374 0.725374 0.149453 Li+
0.774626 0.225374 0.099521 Li+
0.225374 0.225374 0.149453 Li+
0.225374 0.774626 0.149453 Li+
0.274626 0.274626 0.108476 Li+
0.024836 0.762917 0.104869 Li+
0.737083 0.524836 0.174741 Li+
0.262917 0.475164 0.170226 Li+
0.246664 0.737083 0.168748 Li+
0.753336 0.737083 0.173264 Li+
0.475164 0.753336 0.150930 Li+
0.475164 0.246664 0.147975 Li+
0.762917 0.746664 0.128680 Li+
0.746664 0.024836 0.130158 Li+
0.746664 0.975164 0.168748 Li+
0.237083 0.253336 0.174741 Li+
0.253336 0.024836 0.173264 Li+
0.762917 0.253336 0.170226 Li+
0.237083 0.746664 0.124165 Li+
0.253336 0.975164 0.125642 Li+
0.975164 0.237083 0.147975 Li+
0.975164 0.762917 0.150930 Li+
0.024836 0.237083 0.103127 Li+
0.524836 0.753336 0.103127 Li+
0.524836 0.246664 0.104869 Li+
0.753336 0.262917 0.125642 Li+
0.246664 0.262917 0.130158 Li+
0.737083 0.475164 0.124165 Li+
0.262917 0.524836 0.128680 Li+
0.000000 0.000000 0.125418 Li+
0.500000 0.500000 0.173488 Li+
0.235613 0.500000 0.149453 Li+
0.764387 0.500000 0.149453 Li+
0.500000 0.764387 0.173488 Li+
0.500000 0.235613 0.125418 Li+
0.000000 0.735613 0.125418 Li+
0.735613 0.000000 0.149453 Li+
0.000000 0.264387 0.173488 Li+
0.264387 0.000000 0.149453 Li+
0.000000 0.000000 0.173488 Li+
0.500000 0.500000 0.125418 Li+
0.500000 0.500000 0.194907 Li+
0.000000 0.000000 0.194907 Li+
0.500000 0.000000 0.240362 Li+
0.000000 0.500000 0.194907 Li+
0.500000 0.000000 0.194907 Li+
0.000000 0.500000 0.240362 Li+
0.500000 0.000000 0.217635 Li+
0.250000 0.500000 0.194907 Li+
0.750000 0.500000 0.194907 Li+
0.000000 0.750000 0.263089 Li+
0.000000 0.250000 0.217635 Li+
0.500000 0.000000 0.263089 Li+
0.774626 0.774626 0.199385 Li+
0.725374 0.274626 0.240362 Li+
0.274626 0.725374 0.190430 Li+
0.725374 0.725374 0.240362 Li+
0.774626 0.225374 0.190430 Li+
0.225374 0.225374 0.240362 Li+
0.225374 0.774626 0.240362 Li+
0.274626 0.274626 0.199385 Li+
0.024836 0.762917 0.195778 Li+
0.737083 0.524836 0.265650 Li+
0.262917 0.475164 0.261135 Li+
0.246664 0.737083 0.259657 Li+
0.753336 0.737083 0.264173 Li+
0.475164 0.753336 0.241840 Li+
0.475164 0.246664 0.238884 Li+
0.762917 0.746664 0.219589 Li+
0.746664 0.024836 0.221067 Li+
0.746664 0.975164 0.259657 Li+
0.237083 0.253336 0.265650 Li+
0.253336 0.024836 0.264173 Li+
0.762917 0.253336 0.261135 Li+
0.237083 0.746664 0.215074 Li+
0.253336 0.975164 0.216551 Li+
0.975164 0.237083 0.238884 Li+
0.975164 0.762917 0.241840 Li+
0.024836 0.237083 0.194036 Li+
0.524836 0.753336 0.194036 Li+
0.524836 0.246664 0.195778 Li+
0.753336 0.262917 0.216551 Li+
0.246664 0.262917 0.221067 Li+
0.737083 0.475164 0.215074 Li+
0.262917 0.524836 0.219589 Li+
0.000000 0.000000 0.216327 Li+
0.500000 0.500000 0.264397 Li+
0.235613 0.500000 0.240362 Li+
0.764387 0.500000 0.240362 Li+
0.500000 0.764387 0.264397 Li+
0.500000 0.235613 0.216327 Li+
0.000000 0.735613 0.216327 Li+
0.735613 0.000000 0.240362 Li+
0.000000 0.264387 0.264397 Li+
0.264387 0.000000 0.240362 Li+
0.000000 0.000000 0.264397 Li+
0.500000 0.500000 0.216327 Li+
0.500000 0.500000 0.285817 Li+
0.000000 0.000000 0.285817 Li+
0.500000 0.000000 0.331271 Li+
0.000000 0.500000 0.285817 Li+
0.500000 0.000000 0.285817 Li+
0.000000 0.500000 0.331271 Li+
0.500000 0.000000 0.308544 Li+
0.250000 0.500000 0.285817 Li+
0.750000 0.500000 0.285817 Li+
0.000000 0.750000 0.353998 Li+
0.000000 0.250000 0.308544 Li+
0.500000 0.000000 0.353998 Li+
0.774626 0.774626 0.290294 Li+
0.725374 0.274626 0.331271 Li+
0.274626 0.725374 0.281339 Li+
0.725374 0.725374 0.331271 Li+
0.774626 0.225374 0.281339 Li+
0.225374 0.225374 0.331271 Li+
0.225374 0.774626 0.331271 Li+
0.274626 0.274626 0.290294 Li+
0.024836 0.762917 0.286688 Li+
0.737083 0.524836 0.356559 Li+
0.262917 0.475164 0.352044 Li+
0.246664 0.737083 0.350566 Li+
0.753336 0.737083 0.355082 Li+
0.475164 0.753336 0.332749 Li+
0.475164 0.246664 0.329794 Li+
0.762917 0.746664 0.310498 Li+
0.746664 0.024836 0.311976 Li+
0.746664 0.975164 0.350566 Li+
0.237083 0.253336 0.356559 Li+
0.253336 0.024836 0.355082 Li+
0.762917 0.253336 0.352044 Li+
0.237083 0.746664 0.305983 Li+
0.253336 0.975164 0.307460 Li+
0.975164 0.237083 0.329794 Li+
0.975164 0.762917 0.332749 Li+
0.024836 0.237083 0.284946 Li+
0.524836 0.753336 0.284946 Li+
0.524836 0.246664 0.286688 Li+
0.753336 0.262917 0.307460 Li+
0.246664 0.262917 0.311976 Li+
0.737083 0.475164 0.305983 Li+
0.262917 0.524836 0.310498 Li+
0.000000 0.000000 0.307236 Li+
0.500000 0.500000 0.355306 Li+
0.235613 0.500000 0.331271 Li+
0.764387 0.500000 0.331271 Li+
0.500000 0.764387 0.355306 Li+
0.500000 0.235613 0.307236 Li+
0.000000 0.735613 0.307236 Li+
0.735613 0.000000 0.331271 Li+
0.000000 0.264387 0.355306 Li+
0.264387 0.000000 0.331271 Li+
0.000000 0.000000 0.355306 Li+
0.500000 0.500000 0.307236 Li+
0.500000 0.500000 0.376726 Li+
0.000000 0.000000 0.376726 Li+
0.500000 0.000000 0.422180 Li+
0.000000 0.500000 0.376726 Li+
0.500000 0.000000 0.376726 Li+
0.000000 0.500000 0.422180 Li+
0.500000 0.000000 0.399453 Li+
0.250000 0.500000 0.376726 Li+
0.750000 0.500000 0.376726 Li+
0.000000 0.750000 0.444907 Li+
0.000000 0.250000 0.399453 Li+
0.500000 0.000000 0.444907 Li+
0.774626 0.774626 0.381203 Li+
0.725374 0.274626 0.422180 Li+
0.274626 0.725374 0.372248 Li+
0.725374 0.725374 0.422180 Li+
0.774626 0.225374 0.372248 Li+
0.225374 0.225374 0.422180 Li+
0.225374 0.774626 0.422180 Li+
0.274626 0.274626 0.381203 Li+
0.024836 0.762917 0.377597 Li+
0.737083 0.524836 0.447469 Li+
0.262917 0.475164 0.442953 Li+
0.246664 0.737083 0.441475 Li+
0.753336 0.737083 0.445991 Li+
0.475164 0.753336 0.423658 Li+
0.475164 0.246664 0.420703 Li+
0.762917 0.746664 0.401407 Li+
0.746664 0.024836 0.402885 Li+
0.746664 0.975164 0.441475 Li+
0.237083 0.253336 0.447469 Li+
0.253336 0.024836 0.445991 Li+
0.762917 0.253336 0.442953 Li+
0.237083 0.746664 0.396892 Li+
0.253336 0.975164 0.398369 Li+
0.975164 0.237083 0.420703 Li+
0.975164 0.762917 0.423658 Li+
0.024836 0.237083 0.375855 Li+
0.524836 0.753336 0.375855 Li+
0.524836 0.246664 0.377597 Li+
0.753336 0.262917 0.398369 Li+
0.246664 0.262917 0.402885 Li+
0.737083 0.475164 0.396892 Li+
0.262917 0.524836 0.401407 Li+
0.000000 0.000000 0.398145 Li+
0.500000 0.500000 0.446215 Li+
0.235613 0.500000 0.422180 Li+
0.764387 0.500000 0.422180 Li+
0.500000 0.764387 0.446215 Li+
0.500000 0.235613 0.398145 Li+
0.000000 0.735613 0.398145 Li+
0.735613 0.000000 0.422180 Li+
0.000000 0.264387 0.446215 Li+
0.264387 0.000000 0.422180 Li+
0.000000 0.000000 0.446215 Li+
0.500000 0.500000 0.398145 Li+
0.500000 0.500000 0.467635 Li+
0.000000 0.000000 0.467635 Li+
0.500000 0.000000 0.513089 Li+
0.000000 0.500000 0.467635 Li+
0.500000 0.000000 0.467635 Li+
0.000000 0.500000 0.513089 Li+
0.500000 0.000000 0.490362 Li+
0.250000 0.500000 0.467635 Li+
0.750000 0.500000 0.467635 Li+
0.000000 0.750000 0.535817 Li+
0.000000 0.250000 0.490362 Li+
0.500000 0.000000 0.535817 Li+
0.774626 0.774626 0.472112 Li+
0.725374 0.274626 0.513089 Li+
0.274626 0.725374 0.463157 Li+
0.725374 0.725374 0.513089 Li+
0.774626 0.225374 0.463157 Li+
0.225374 0.225374 0.513089 Li+
0.225374 0.774626 0.513089 Li+
0.274626 0.274626 0.472112 Li+
0.024836 0.762917 0.468506 Li+
0.737083 0.524836 0.538378 Li+
0.262917 0.475164 0.533862 Li+
0.246664 0.737083 0.532384 Li+
0.753336 0.737083 0.536900 Li+
0.475164 0.753336 0.514567 Li+
0.475164 0.246664 0.511612 Li+
0.762917 0.746664 0.492317 Li+
0.746664 0.024836 0.493794 Li+
0.746664 0.975164 0.532384 Li+
0.237083 0.253336 0.538378 Li+
0.253336 0.024836 0.536900 Li+
0.762917 0.253336 0.533862 Li+
0.237083 0.746664 0.487801 Li+
0.253336 0.975164 0.489278 Li+
0.975164 0.237083 0.511612 Li+
0.975164 0.762917 0.514567 Li+
0.024836 0.237083 0.466764 Li+
0.524836 0.753336 0.466764 Li+
0.524836 0.246664 0.468506 Li+
0.753336 0.262917 0.489278 Li+
0.246664 0.262917 0.493794 Li+
0.737083 0.475164 0.487801 Li+
0.262917 0.524836 0.492317 Li+
0.000000 0.000000 0.489054 Li+
0.500000 0.500000 0.537124 Li+
0.235613 0.500000 0.513089 Li+
0.764387 0.500000 0.513089 Li+
0.500000 0.764387 0.537124 Li+
0.500000 0.235613 0.489054 Li+
0.000000 0.735613 0.489054 Li+
0.735613 0.000000 0.513089 Li+
0.000000 0.264387 0.537124 Li+
0.264387 0.000000 0.513089 Li+
0.000000 0.000000 0.537124 Li+
0.500000 0.500000 0.489054 Li+
0.500000 0.500000 0.558544 Li+
0.000000 0.000000 0.558544 Li+
0.500000 0.000000 0.603998 Li+
0.000000 0.500000 0.558544 Li+
0.500000 0.000000 0.558544 Li+
0.000000 0.500000 0.603998 Li+
0.500000 0.000000 0.581271 Li+
0.250000 0.500000 0.558544 Li+
0.750000 0.500000 0.558544 Li+
0.000000 0.750000 0.626726 Li+
0.000000 0.250000 0.581271 Li+
0.500000 0.000000 0.626726 Li+
0.774626 0.774626 0.563021 Li+
0.725374 0.274626 0.603998 Li+
0.274626 0.725374 0.554066 Li+
0.725374 0.725374 0.603998 Li+
0.774626 0.225374 0.554066 Li+
0.225374 0.225374 0.603998 Li+
0.225374 0.774626 0.603998 Li+
0.274626 0.274626 0.563021 Li+
0.024836 0.762917 0.559415 Li+
0.737083 0.524836 0.629287 Li+
0.262917 0.475164 0.624771 Li+
0.246664 0.737083 0.623294 Li+
0.753336 0.737083 0.627809 Li+
0.475164 0.753336 0.605476 Li+
0.475164 0.246664 0.602521 Li+
0.762917 0.746664 0.583226 Li+
0.746664 0.024836 0.584703 Li+
0.746664 0.975164 0.623294 Li+
0.237083 0.253336 0.629287 Li+
0.253336 0.024836 0.627809 Li+
0.762917 0.253336 0.624771 Li+
0.237083 0.746664 0.578710 Li+
0.253336 0.975164 0.580188 Li+
0.975164 0.237083 0.602521 Li+
0.975164 0.762917 0.605476 Li+
0.024836 0.237083 0.557673 Li+
0.524836 0.753336 0.557673 Li+
0.524836 0.246664 0.559415 Li+
0.753336 0.262917 0.580188 Li+
0.246664 0.262917 0.584703 Li+
0.737083 0.475164 0.578710 Li+
0.262917 0.524836 0.583226 Li+
0.000000 0.000000 0.579963 Li+
0.500000 0.500000 0.628034 Li+
0.235613 0.500000 0.603998 Li+
0.764387 0.500000 0.603998 Li+
0.500000 0.764387 0.628034 Li+
0.500000 0.235613 0.579963 Li+
0.000000 0.735613 0.579963 Li+
0.735613 0.000000 0.603998 Li+
0.000000 0.264387 0.628034 Li+
0.264387 0.000000 0.603998 Li+
0.000000 0.000000 0.628034 Li+
0.500000 0.500000 0.579963 Li+
0.500000 0.500000 0.058544 P4+
0.000000 0.000000 0.058544 P4+
0.250000 0.000000 0.013089 P4+
0.000000 0.500000 0.035817 P4+
0.000000 0.500000 0.081271 P4+
0.500000 0.750000 0.035817 P4+
0.500000 0.250000 0.081271 P4+
0.750000 0.000000 0.013089 P4+
0.500000 0.500000 0.149453 P4+
0.000000 0.000000 0.149453 P4+
0.250000 0.000000 0.103998 P4+
0.000000 0.500000 0.126726 P4+
0.000000 0.500000 0.172180 P4+
0.500000 0.750000 0.126726 P4+
0.500000 0.250000 0.172180 P4+
0.750000 0.000000 0.103998 P4+
0.500000 0.500000 0.240362 P4+
0.000000 0.000000 0.240362 P4+
0.250000 0.000000 0.194907 P4+
0.000000 0.500000 0.217635 P4+
0.000000 0.500000 0.263089 P4+
0.500000 0.750000 0.217635 P4+
0.500000 0.250000 0.263089 P4+
0.750000 0.000000 0.194907 P4+
0.500000 0.500000 0.331271 P4+
0.000000 0.000000 0.331271 P4+
0.250000 0.000000 0.285817 P4+
0.000000 0.500000 0.308544 P4+
0.000000 0.500000 0.353998 P4+
0.500000 0.750000 0.308544 P4+
0.500000 0.250000 0.353998 P4+
0.750000 0.000000 0.285817 P4+
0.500000 0.500000 0.422180 P4+
0.000000 0.000000 0.422180 P4+
0.250000 0.000000 0.376726 P4+
0.000000 0.500000 0.399453 P4+
0.000000 0.500000 0.444907 P4+
0.500000 0.750000 0.399453 P4+
0.500000 0.250000 0.444907 P4+
0.750000 0.000000 0.376726 P4+
0.500000 0.500000 0.513089 P4+
0.000000 0.000000 0.513089 P4+
0.250000 0.000000 0.467635 P4+
0.000000 0.500000 0.490362 P4+
0.000000 0.500000 0.535817 P4+
0.500000 0.750000 0.490362 P4+
0.500000 0.250000 0.535817 P4+
0.750000 0.000000 0.467635 P4+
0.500000 0.500000 0.603998 P4+
0.000000 0.000000 0.603998 P4+
0.250000 0.000000 0.558544 P4+
0.000000 0.500000 0.581271 P4+
0.000000 0.500000 0.626726 P4+
0.500000 0.750000 0.581271 P4+
0.500000 0.250000 0.626726 P4+
0.750000 0.000000 0.558544 P4+
0.396539 0.396539 0.039733 N2-
0.103461 0.896539 0.058544 N2-
0.103461 0.103461 0.058544 N2-
0.896539 0.103461 0.077355 N2-
0.603461 0.603461 0.058544 N2-
0.396539 0.603461 0.077355 N2-
0.603461 0.396539 0.058544 N2-
0.896539 0.896539 0.039733 N2-
0.396539 0.396539 0.130642 N2-
0.103461 0.896539 0.149453 N2-
0.103461 0.103461 0.149453 N2-
0.896539 0.103461 0.168264 N2-
0.603461 0.603461 0.149453 N2-
0.396539 0.603461 0.168264 N2-
0.603461 0.396539 0.149453 N2-
0.896539 0.896539 0.130642 N2-
0.396539 0.396539 0.221551 N2-
0.103461 0.896539 0.240362 N2-
0.103461 0.103461 0.240362 N2-
0.896539 0.103461 0.259173 N2-
0.603461 0.603461 0.240362 N2-
0.396539 0.603461 0.259173 N2-
0.603461 0.396539 0.240362 N2-
0.896539 0.896539 0.221551 N2-
0.396539 0.396539 0.312460 N2-
0.103461 0.896539 0.331271 N2-
0.103461 0.103461 0.331271 N2-
0.896539 0.103461 0.350082 N2-
0.603461 0.603461 0.331271 N2-
0.396539 0.603461 0.350082 N2-
0.603461 0.396539 0.331271 N2-
0.896539 0.896539 0.312460 N2-
0.396539 0.396539 0.403369 N2-
0.103461 0.896539 0.422180 N2-
0.103461 0.103461 0.422180 N2-
0.896539 0.103461 0.440991 N2-
0.603461 0.603461 0.422180 N2-
0.396539 0.603461 0.440991 N2-
0.603461 0.396539 0.422180 N2-
0.896539 0.896539 0.403369 N2-
0.396539 0.396539 0.494278 N2-
0.103461 0.896539 0.513089 N2-
0.103461 0.103461 0.513089 N2-
0.896539 0.103461 0.531900 N2-
0.603461 0.603461 0.513089 N2-
0.396539 0.603461 0.531900 N2-
0.603461 0.396539 0.513089 N2-
0.896539 0.896539 0.494278 N2-
0.396539 0.396539 0.585187 N2-
0.103461 0.896539 0.603998 N2-
0.103461 0.103461 0.603998 N2-
0.896539 0.103461 0.622809 N2-
0.603461 0.603461 0.603998 N2-
0.396539 0.603461 0.622809 N2-
0.603461 0.396539 0.603998 N2-
0.896539 0.896539 0.585187 N2-
0.900579 0.612615 0.082351 N3-
0.887385 0.400579 0.081390 N3-
0.112615 0.599421 0.008558 N3-
0.149269 0.887385 0.011890 N3-
0.850731 0.887385 0.084722 N3-
0.599421 0.850731 0.055212 N3-
0.599421 0.149269 0.061876 N3-
0.612615 0.649269 0.017621 N3-
0.649269 0.900579 0.014289 N3-
0.649269 0.099421 0.011890 N3-
0.387385 0.350731 0.081390 N3-
0.350731 0.900579 0.084722 N3-
0.612615 0.350731 0.008558 N3-
0.387385 0.649269 0.035697 N3-
0.350731 0.099421 0.032365 N3-
0.099421 0.387385 0.061876 N3-
0.099421 0.612615 0.055212 N3-
0.900579 0.387385 0.034736 N3-
0.400579 0.850731 0.034736 N3-
0.400579 0.149269 0.082351 N3-
0.850731 0.112615 0.032365 N3-
0.149269 0.112615 0.014289 N3-
0.887385 0.599421 0.035697 N3-
0.112615 0.400579 0.017621 N3-
0.900579 0.612615 0.173261 N3-
0.887385 0.400579 0.172299 N3-
0.112615 0.599421 0.099467 N3-
0.149269 0.887385 0.102799 N3-
0.850731 0.887385 0.175631 N3-
0.599421 0.850731 0.146121 N3-
0.599421 0.149269 0.152785 N3-
0.612615 0.649269 0.108530 N3-
0.649269 0.900579 0.105198 N3-
0.649269 0.099421 0.102799 N3-
0.387385 0.350731 0.172299 N3-
0.350731 0.900579 0.175631 N3-
0.612615 0.350731 0.099467 N3-
0.387385 0.649269 0.126607 N3-
0.350731 0.099421 0.123274 N3-
0.099421 0.387385 0.152785 N3-
0.099421 0.612615 0.146121 N3-
0.900579 0.387385 0.125645 N3-
0.400579 0.850731 0.125645 N3-
0.400579 0.149269 0.173261 N3-
0.850731 0.112615 0.123274 N3-
0.149269 0.112615 0.105198 N3-
0.887385 0.599421 0.126607 N3-
0.112615 0.400579 0.108530 N3-
0.900579 0.612615 0.264170 N3-
0.887385 0.400579 0.263208 N3-
0.112615 0.599421 0.190376 N3-
0.149269 0.887385 0.193708 N3-
0.850731 0.887385 0.266541 N3-
0.599421 0.850731 0.237030 N3-
0.599421 0.149269 0.243694 N3-
0.612615 0.649269 0.199439 N3-
0.649269 0.900579 0.196107 N3-
0.649269 0.099421 0.193708 N3-
0.387385 0.350731 0.263208 N3-
0.350731 0.900579 0.266541 N3-
0.612615 0.350731 0.190376 N3-
0.387385 0.649269 0.217516 N3-
0.350731 0.099421 0.214183 N3-
0.099421 0.387385 0.243694 N3-
0.099421 0.612615 0.237030 N3-
0.900579 0.387385 0.216554 N3-
0.400579 0.850731 0.216554 N3-
0.400579 0.149269 0.264170 N3-
0.850731 0.112615 0.214183 N3-
0.149269 0.112615 0.196107 N3-
0.887385 0.599421 0.217516 N3-
0.112615 0.400579 0.199439 N3-
0.900579 0.612615 0.355079 N3-
0.887385 0.400579 0.354117 N3-
0.112615 0.599421 0.281285 N3-
0.149269 0.887385 0.284617 N3-
0.850731 0.887385 0.357450 N3-
0.599421 0.850731 0.327939 N3-
0.599421 0.149269 0.334603 N3-
0.612615 0.649269 0.290348 N3-
0.649269 0.900579 0.287016 N3-
0.649269 0.099421 0.284617 N3-
0.387385 0.350731 0.354117 N3-
0.350731 0.900579 0.357450 N3-
0.612615 0.350731 0.281285 N3-
0.387385 0.649269 0.308425 N3-
0.350731 0.099421 0.305093 N3-
0.099421 0.387385 0.334603 N3-
0.099421 0.612615 0.327939 N3-
0.900579 0.387385 0.307463 N3-
0.400579 0.850731 0.307463 N3-
0.400579 0.149269 0.355079 N3-
0.850731 0.112615 0.305093 N3-
0.149269 0.112615 0.287016 N3-
0.887385 0.599421 0.308425 N3-
0.112615 0.400579 0.290348 N3-
0.900579 0.612615 0.445988 N3-
0.887385 0.400579 0.445027 N3-
0.112615 0.599421 0.372194 N3-
0.149269 0.887385 0.375526 N3-
0.850731 0.887385 0.448359 N3-
0.599421 0.850731 0.418848 N3-
0.599421 0.149269 0.425512 N3-
0.612615 0.649269 0.381257 N3-
0.649269 0.900579 0.377925 N3-
0.649269 0.099421 0.375526 N3-
0.387385 0.350731 0.445027 N3-
0.350731 0.900579 0.448359 N3-
0.612615 0.350731 0.372194 N3-
0.387385 0.649269 0.399334 N3-
0.350731 0.099421 0.396002 N3-
0.099421 0.387385 0.425512 N3-
0.099421 0.612615 0.418848 N3-
0.900579 0.387385 0.398373 N3-
0.400579 0.850731 0.398373 N3-
0.400579 0.149269 0.445988 N3-
0.850731 0.112615 0.396002 N3-
0.149269 0.112615 0.377925 N3-
0.887385 0.599421 0.399334 N3-
0.112615 0.400579 0.381257 N3-
0.900579 0.612615 0.536897 N3-
0.887385 0.400579 0.535936 N3-
0.112615 0.599421 0.463103 N3-
0.149269 0.887385 0.466435 N3-
0.850731 0.887385 0.539268 N3-
0.599421 0.850731 0.509757 N3-
0.599421 0.149269 0.516421 N3-
0.612615 0.649269 0.472166 N3-
0.649269 0.900579 0.468834 N3-
0.649269 0.099421 0.466435 N3-
0.387385 0.350731 0.535936 N3-
0.350731 0.900579 0.539268 N3-
0.612615 0.350731 0.463103 N3-
0.387385 0.649269 0.490243 N3-
0.350731 0.099421 0.486911 N3-
0.099421 0.387385 0.516421 N3-
0.099421 0.612615 0.509757 N3-
0.900579 0.387385 0.489282 N3-
0.400579 0.850731 0.489282 N3-
0.400579 0.149269 0.536897 N3-
0.850731 0.112615 0.486911 N3-
0.149269 0.112615 0.468834 N3-
0.887385 0.599421 0.490243 N3-
0.112615 0.400579 0.472166 N3-
0.900579 0.612615 0.627806 N3-
0.887385 0.400579 0.626845 N3-
0.112615 0.599421 0.554012 N3-
0.149269 0.887385 0.557344 N3-
0.850731 0.887385 0.630177 N3-
0.599421 0.850731 0.600666 N3-
0.599421 0.149269 0.607331 N3-
0.612615 0.649269 0.563075 N3-
0.649269 0.900579 0.559743 N3-
0.649269 0.099421 0.557344 N3-
0.387385 0.350731 0.626845 N3-
0.350731 0.900579 0.630177 N3-
0.612615 0.350731 0.554012 N3-
0.387385 0.649269 0.581152 N3-
0.350731 0.099421 0.577820 N3-
0.099421 0.387385 0.607331 N3-
0.099421 0.612615 0.600666 N3-
0.900579 0.387385 0.580191 N3-
0.400579 0.850731 0.580191 N3-
0.400579 0.149269 0.627806 N3-
0.850731 0.112615 0.577820 N3-
0.149269 0.112615 0.559743 N3-
0.887385 0.599421 0.581152 N3-
0.112615 0.400579 0.563075 N3-
