Li5 P2 N1 O6                            
   1.00000000000000     
     0.0243693541266163    0.0230529065824237    5.1837645832649750
     5.9342707973199644   -0.0671230912632719    0.0189914226622666
    -0.0586947526918475    5.5326631751507085    0.0232454456758804
   Li   P    N    O 
     5     2     1     6
Direct
  0.5126516730727854  0.0031987742735960  0.8827141615341064
  0.0883325689071989  0.4895912059710185  0.1518307939623375
  0.4664634188528455  0.8442116722015920  0.3843253923383883
 -0.0106690274218765  0.7502070620245215  0.6494148152683448
 -0.0042775509744688  0.2354431717791316  0.6534627961568449
  0.4926734775968503  0.5055600041601527  0.8013237554411486
 -0.0080166950878702 -0.0129292931382811  0.1703534559520850
  0.1203651745185606 -0.0057310120714747  0.8994560692535011
  0.0574658527917108  0.2122250944609896  0.3043741903448437
  0.6045832117566683  0.7122113330989905  0.6688518607634905
  0.1139895491852770  0.7836444664132772  0.3130496397772055
  0.6250235404744131  0.2823720585978492  0.7271056325772212
  0.1912721158100786  0.4980266382095122  0.7958257425477907
  0.6974536905178546 -0.0509041759808766  0.1679696940826957
 
  0.00000000E+00  0.00000000E+00  0.00000000E+00
  0.00000000E+00  0.00000000E+00  0.00000000E+00
  0.00000000E+00  0.00000000E+00  0.00000000E+00
  0.00000000E+00  0.00000000E+00  0.00000000E+00
  0.00000000E+00  0.00000000E+00  0.00000000E+00
  0.00000000E+00  0.00000000E+00  0.00000000E+00
  0.00000000E+00  0.00000000E+00  0.00000000E+00
  0.00000000E+00  0.00000000E+00  0.00000000E+00
  0.00000000E+00  0.00000000E+00  0.00000000E+00
  0.00000000E+00  0.00000000E+00  0.00000000E+00
  0.00000000E+00  0.00000000E+00  0.00000000E+00
  0.00000000E+00  0.00000000E+00  0.00000000E+00
  0.00000000E+00  0.00000000E+00  0.00000000E+00
  0.00000000E+00  0.00000000E+00  0.00000000E+00
