Li61 P7 N32                             
   1.00000000000000     
    -0.0234554188548131    9.6199017744485857   -0.0463114439642292
     0.0336023410055221   -0.0461974000074906    9.6607181885493265
     9.6819636280550725   -0.0241458735698840    0.0347302742689809
   Li   P    N 
    61     7    32
Direct
  0.4947400962137352  0.9906020090476021  0.5025431554104045
  0.0068616330126343  0.4819108770329807  0.0079995675953592
  0.4963794823764938  0.9885370161061888  0.0027536627385510
  0.9873259466041380  0.9949577601929827  0.5091246819505763
  0.5035720500954486  0.4828343575964086  0.9842565161434187
  0.0008760289794069  0.4969174669124816  0.5005853342405006
  0.7479441205315388  0.9806838695333859  0.4925702164149915
  0.2345726069609179  0.9730883261259095  0.5270607582285644
  0.8347175611713076  0.6458781718496452  0.6759056551388241
  0.2616376514071049  0.4732815751918948  0.4953282780759272
  0.2517250455932213  0.9879363976209079  0.0367819151510752
  0.7323006535833295  0.9811302113531646  0.0007953888076862
  0.4965665033819391  0.4881260369836870  0.4668779053373983
  0.5128184594751470  0.2308499569836645  0.9919602720925497
  0.5039105240753304  0.7388918434561866  0.0311946465437851
  0.0089884221035163  0.4990676881082203  0.2489084132519350
  0.0456200328841106  0.5465929278035367  0.7785169202792025
  0.2189084528436193  0.2170442645893809  0.2119606745627289
  0.2588602162610001  0.7089793237722850  0.7058551722102032
  0.2906390500483256  0.1856415824998065  0.6874945821531993
  0.2815398417021672  0.7111593494515082  0.2134742515244344
  0.8270411841495334  0.3411312278686524  0.3553898431229576
  0.6652792086143923  0.8053962095140584  0.6707530383846440
  0.7333316699375247  0.1843362264940502  0.8141472032540048
  0.7671549034047331  0.0012798237401673  0.2365953139728021
  0.9793004293726369  0.2369194109704680  0.2259083713664150
  0.0156376527981061  0.8064395788238800  0.7380932651793652
  0.2583306499299987  0.2315372508140536  0.4647752968897892
  0.2229351742408662  0.7118835154563763  0.4527144660506885
  0.7501385875479932  0.2137800923954633  0.5608859623730252
  0.7224222972022236  0.7282129528494492  0.4618047600488879
  0.7499665333462346  0.5331228630761876  0.2703614770033368
  0.6685747788242146  0.5414721646542479  0.7973963494446820
  0.2538911311686377  0.4780374539364476  0.2547300247477532
  0.2830829985098349  0.4378396125173086  0.7583907773616890
  0.4890356921170585  0.7583204263517009  0.2941607813353717
  0.5073747563938410  0.2514519683540870  0.7345298189604608
  0.2459752340839919  0.9562245041917236  0.2833714839943431
  0.2624480192206667  0.9589963030340117  0.7968296765709687
  0.2737262169968007  0.2333887161575600  0.9517845430155508
  0.2307924976702295  0.7421104751265277  0.9710685823480417
  0.7869163787427312  0.9684721754094843  0.7551982217692945
  0.6690314430920141  0.1709347178547755  0.3388063067445006
  0.7405155408853424  0.7414642849902506  0.9450264834589579
  0.7816717620638799  0.2190500745361320  0.0347576357877681
  0.0770702733043269  0.3026827015937127  0.7181824630494841
  0.0132244380446578  0.7540855096384795  0.2387028437769558
  0.4575917834577280  0.2628611694646595  0.2436143353723400
  0.4826903579104044  0.7271123759631252  0.7862359294268713
  0.0216517355986047  0.2441091539838428  0.9805670184440233
  0.9886256155284271  0.7270739161218800 -0.0056928482412343
  0.4964412022147105  0.2551284419345148  0.4866381355192300
  0.4699416014245584  0.7198589725160126  0.5280216557918038
  0.4978467875744141  0.5098879156998117  0.2396043982383326
  0.4775925066400428  0.4986130803881457  0.6865648079545363
  0.0017210502586377 -0.0036752585506400  0.2711894932826223
  0.0249368809120476  0.0569450568959216  0.7600017512962928
  0.7186619387832021  0.4688264476744073  0.5252157704347746
  0.8447665314393636  0.3930451552261069  0.7771178105804115
  0.7616942053599861  0.7630177654100538  0.2037875750174480
  0.6603507527376898  0.3327841170038700  0.1721894741993197
  0.9934932885968766  0.9907208651236891  0.0074582758667782
  0.7651470049169492  0.4854198875346038  0.0081968293368853
  0.2506771242861702  0.4888095057784329  0.9953767180560820
  0.9840990321903901  0.7519327966508431  0.4911842449308117
  0.0019156393526136  0.2370662035455890  0.4912321915047003
  0.4996462801464340 -0.0001493687443353  0.2470589135577231
  0.5079783931260387  0.9886524149876514  0.7583451961886730
  0.6236812504604002  0.6193984031407747  0.6259124631282886
  0.6267921120727094  0.3678969927511765  0.3622330406511808
  0.8943627944931377  0.8846373515848173  0.1039366343062242
  0.8896870295939417  0.0908758878389013  0.9082642761529145
  0.0985164609640403  0.8978744857313194  0.9037294768303383
  0.0924349532427727  0.0938285732533485  0.1079557745847147
  0.3684703228852020  0.6138687998189487  0.3688009119234253
  0.3737694110480920  0.3500252137930729  0.6104508290487851
  0.0914230155435281  0.3363108938231100  0.3772330869650565
  0.0800830395292544  0.6596042653797110  0.6065079569065845
  0.1083744191342230  0.1389620749130948  0.5896841497775729
  0.0917372972883046  0.8564831782380988  0.4006400028996482
  0.8834832790129847  0.1390067073144148  0.4005105568121505
  0.8712947455649801  0.8424961975019934  0.5909524278995356
  0.8604460204006047  0.3963915718181854  0.1239333736056662
  0.8612168400523748  0.5739267162518122  0.8888976236870305
  0.1534773197695039  0.5920299770726940  0.0950581369487116
  0.1457931904488360  0.3897973958730407  0.8928790013139689
  0.4011955016981457  0.8875551806345048  0.1533683495121304
  0.4081307689733094  0.0966335046021106  0.8519025693551056
  0.3929767620297597  0.0943770027817665  0.3467817916648555
  0.3987691318689525  0.8864462993946856  0.6634431083812633
  0.3514160881508125  0.3803078398010156  0.0899640049664447
  0.3483234851579057  0.5924457874778356  0.8872291802002988
  0.6204963177041646  0.0800499081828693  0.6592790454783209
  0.6144892678647217  0.9100763193663221  0.3458222894906610
  0.6586362034218941  0.5964878581066320  0.0862342934386710
  0.6720049325149212  0.3646228541152818  0.9167363541462825
  0.9091432400686207  0.3392267713549165  0.5970324319586341
  0.8975310551184006  0.6475688690494500  0.3805547236214879
  0.5990273356692735  0.1075070871512724  0.1455104633778670
  0.6053018648320319  0.8840231647135859  0.8610620363446793
 
  0.00000000E+00  0.00000000E+00  0.00000000E+00
  0.00000000E+00  0.00000000E+00  0.00000000E+00
  0.00000000E+00  0.00000000E+00  0.00000000E+00
  0.00000000E+00  0.00000000E+00  0.00000000E+00
  0.00000000E+00  0.00000000E+00  0.00000000E+00
  0.00000000E+00  0.00000000E+00  0.00000000E+00
  0.00000000E+00  0.00000000E+00  0.00000000E+00
  0.00000000E+00  0.00000000E+00  0.00000000E+00
  0.00000000E+00  0.00000000E+00  0.00000000E+00
  0.00000000E+00  0.00000000E+00  0.00000000E+00
  0.00000000E+00  0.00000000E+00  0.00000000E+00
  0.00000000E+00  0.00000000E+00  0.00000000E+00
  0.00000000E+00  0.00000000E+00  0.00000000E+00
  0.00000000E+00  0.00000000E+00  0.00000000E+00
  0.00000000E+00  0.00000000E+00  0.00000000E+00
  0.00000000E+00  0.00000000E+00  0.00000000E+00
  0.00000000E+00  0.00000000E+00  0.00000000E+00
  0.00000000E+00  0.00000000E+00  0.00000000E+00
  0.00000000E+00  0.00000000E+00  0.00000000E+00
  0.00000000E+00  0.00000000E+00  0.00000000E+00
  0.00000000E+00  0.00000000E+00  0.00000000E+00
  0.00000000E+00  0.00000000E+00  0.00000000E+00
  0.00000000E+00  0.00000000E+00  0.00000000E+00
  0.00000000E+00  0.00000000E+00  0.00000000E+00
  0.00000000E+00  0.00000000E+00  0.00000000E+00
  0.00000000E+00  0.00000000E+00  0.00000000E+00
  0.00000000E+00  0.00000000E+00  0.00000000E+00
  0.00000000E+00  0.00000000E+00  0.00000000E+00
  0.00000000E+00  0.00000000E+00  0.00000000E+00
  0.00000000E+00  0.00000000E+00  0.00000000E+00
  0.00000000E+00  0.00000000E+00  0.00000000E+00
  0.00000000E+00  0.00000000E+00  0.00000000E+00
  0.00000000E+00  0.00000000E+00  0.00000000E+00
  0.00000000E+00  0.00000000E+00  0.00000000E+00
  0.00000000E+00  0.00000000E+00  0.00000000E+00
  0.00000000E+00  0.00000000E+00  0.00000000E+00
  0.00000000E+00  0.00000000E+00  0.00000000E+00
  0.00000000E+00  0.00000000E+00  0.00000000E+00
  0.00000000E+00  0.00000000E+00  0.00000000E+00
  0.00000000E+00  0.00000000E+00  0.00000000E+00
  0.00000000E+00  0.00000000E+00  0.00000000E+00
  0.00000000E+00  0.00000000E+00  0.00000000E+00
  0.00000000E+00  0.00000000E+00  0.00000000E+00
  0.00000000E+00  0.00000000E+00  0.00000000E+00
  0.00000000E+00  0.00000000E+00  0.00000000E+00
  0.00000000E+00  0.00000000E+00  0.00000000E+00
  0.00000000E+00  0.00000000E+00  0.00000000E+00
  0.00000000E+00  0.00000000E+00  0.00000000E+00
  0.00000000E+00  0.00000000E+00  0.00000000E+00
  0.00000000E+00  0.00000000E+00  0.00000000E+00
  0.00000000E+00  0.00000000E+00  0.00000000E+00
  0.00000000E+00  0.00000000E+00  0.00000000E+00
  0.00000000E+00  0.00000000E+00  0.00000000E+00
  0.00000000E+00  0.00000000E+00  0.00000000E+00
  0.00000000E+00  0.00000000E+00  0.00000000E+00
  0.00000000E+00  0.00000000E+00  0.00000000E+00
  0.00000000E+00  0.00000000E+00  0.00000000E+00
  0.00000000E+00  0.00000000E+00  0.00000000E+00
  0.00000000E+00  0.00000000E+00  0.00000000E+00
  0.00000000E+00  0.00000000E+00  0.00000000E+00
  0.00000000E+00  0.00000000E+00  0.00000000E+00
  0.00000000E+00  0.00000000E+00  0.00000000E+00
  0.00000000E+00  0.00000000E+00  0.00000000E+00
  0.00000000E+00  0.00000000E+00  0.00000000E+00
  0.00000000E+00  0.00000000E+00  0.00000000E+00
  0.00000000E+00  0.00000000E+00  0.00000000E+00
  0.00000000E+00  0.00000000E+00  0.00000000E+00
  0.00000000E+00  0.00000000E+00  0.00000000E+00
  0.00000000E+00  0.00000000E+00  0.00000000E+00
  0.00000000E+00  0.00000000E+00  0.00000000E+00
  0.00000000E+00  0.00000000E+00  0.00000000E+00
  0.00000000E+00  0.00000000E+00  0.00000000E+00
  0.00000000E+00  0.00000000E+00  0.00000000E+00
  0.00000000E+00  0.00000000E+00  0.00000000E+00
  0.00000000E+00  0.00000000E+00  0.00000000E+00
  0.00000000E+00  0.00000000E+00  0.00000000E+00
  0.00000000E+00  0.00000000E+00  0.00000000E+00
  0.00000000E+00  0.00000000E+00  0.00000000E+00
  0.00000000E+00  0.00000000E+00  0.00000000E+00
  0.00000000E+00  0.00000000E+00  0.00000000E+00
  0.00000000E+00  0.00000000E+00  0.00000000E+00
  0.00000000E+00  0.00000000E+00  0.00000000E+00
  0.00000000E+00  0.00000000E+00  0.00000000E+00
  0.00000000E+00  0.00000000E+00  0.00000000E+00
  0.00000000E+00  0.00000000E+00  0.00000000E+00
  0.00000000E+00  0.00000000E+00  0.00000000E+00
  0.00000000E+00  0.00000000E+00  0.00000000E+00
  0.00000000E+00  0.00000000E+00  0.00000000E+00
  0.00000000E+00  0.00000000E+00  0.00000000E+00
  0.00000000E+00  0.00000000E+00  0.00000000E+00
  0.00000000E+00  0.00000000E+00  0.00000000E+00
  0.00000000E+00  0.00000000E+00  0.00000000E+00
  0.00000000E+00  0.00000000E+00  0.00000000E+00
  0.00000000E+00  0.00000000E+00  0.00000000E+00
  0.00000000E+00  0.00000000E+00  0.00000000E+00
  0.00000000E+00  0.00000000E+00  0.00000000E+00
  0.00000000E+00  0.00000000E+00  0.00000000E+00
  0.00000000E+00  0.00000000E+00  0.00000000E+00
  0.00000000E+00  0.00000000E+00  0.00000000E+00
  0.00000000E+00  0.00000000E+00  0.00000000E+00
