Li61 P7 N32                             
   1.00000000000000     
    -0.0176120792192636    9.6150278743885451   -0.0564461710760482
     0.0407510227477254   -0.0564583559440547    9.6317452037087197
     9.6814951440365924   -0.0182409124151661    0.0418592013278410
   Li   P    N 
    61     7    32
Direct
  0.4940283540596210 -0.0169227145719391  0.5015768238223572
  0.0074108690770273  0.4797446493918177  0.0050506979537308
  0.4960076575302025 -0.0085421812232795  0.0013132853809525
 -0.0140868031555063 -0.0005472627543701  0.5122025201482456
  0.5046565076206954  0.4854243942499650 -0.0166266138236248
 -0.0003819205643700  0.5012093179415817  0.4939852613472586
  0.7457222240838627 -0.0191187434743437  0.4943302662595182
  0.2332532850752248 -0.0236562968273363  0.5303005149185535
  0.8412753262087362  0.6321828598146739  0.6652044735048860
  0.2523084089644289  0.4740108007489692  0.4956130354720913
  0.2474200245826591 -0.0192183098602317  0.0423378957952304
  0.7322726517776729 -0.0204222935622005  0.0025035041378366
  0.4842159926725406  0.4743248475180322  0.4627959892298449
  0.5071752732267222  0.2359753879307276 -0.0002505580883608
  0.5021332516707784  0.7416350181997680  0.0270538881310089
  0.0106408018277586  0.5075861089801070  0.2444541557574730
  0.0417190327724108  0.5363243917912651  0.7709408065078680
  0.2253451472958219  0.2162622945264668  0.2060514031515895
  0.2589878373057656  0.7121928769649288  0.7003458251340100
  0.2892365656572458  0.1877546612425400  0.6865993901644524
  0.2824990305091539  0.7085790696717159  0.2064518631812872
  0.8262323005693684  0.3411131830157256  0.3517800770445131
  0.6808894163839972  0.7969782395236242  0.6823131855728853
  0.7079803900927104  0.1735901525359373  0.8327558616756535
  0.7693637277183294  0.0029678741437210  0.2371108696390048
  0.9851954853679430  0.2445266642783226  0.2260144523767882
  0.0084363890320374  0.7977454306242749  0.7468428816556603
  0.2624492208875016  0.2332670839469405  0.4630224432520350
  0.2233298978454336  0.7142736857836655  0.4487289111975487
  0.7564382624134417  0.2167328713113625  0.5685348017768386
  0.7207284213278030  0.7343068611412085  0.4609923578602519
  0.7525548529644945  0.5354721321592687  0.2663672723955529
  0.6741246226261687  0.5369406220144393  0.7937939051225369
  0.2532672305614463  0.4757732183438482  0.2535519001772005
  0.2807610863287652  0.4385434981678074  0.7537298812124752
  0.4874951414173379  0.7571855041489400  0.2919744393636491
  0.5030640403978114  0.2549585338519070  0.7373735342977483
  0.2503696821275561  0.9534073346247081  0.2888384869634702
  0.2628376264633934 -0.0402310573173228  0.8009996999525086
  0.2741958806809213  0.2302482250732540  0.9479578118709197
  0.2257592386619016  0.7366756008813796 -0.0386827636244956
  0.7869399419836325  0.9764089804198194  0.7505343947964722
  0.6710045840304556  0.1708586761997941  0.3422914968252620
  0.7413187076512497  0.7409263836519575  0.9451295835868451
  0.7884034243181177  0.2209518287561068  0.0385607054684569
  0.0716504950533545  0.2954927033840601  0.7232216251590307
  0.0059223146657921  0.7677085595052288  0.2438667742287444
  0.4611517673318309  0.2653446761338223  0.2534158329934179
  0.4843284776860811  0.7262549205091016  0.7812100000117892
  0.0253054511348138  0.2417426946280354 -0.0210830699595649
 -0.0118303494215522  0.7240993139337295  0.0004000115742131
  0.5045066247899966  0.2443399809131815  0.4972201266042406
  0.4738326764496607  0.7128627033640209  0.5248655608622188
  0.5018437573657071  0.5117491778600924  0.2385258582433150
  0.4789164181467797  0.4991964355235710  0.6834506359966451
  0.0048989598366907  0.0074221347211666  0.2769005107998952
  0.0248885455793404  0.0495780012960843  0.7600718719918470
  0.7135452177939993  0.4761598086612469  0.5150891936983288
  0.8413293085555283  0.3781642748215432  0.7831771410812157
  0.7544098834216257  0.7670846342923761  0.2044731853676674
  0.6605544931829049  0.3293298495871196  0.1709692159888475
 -0.0079413103570371 -0.0084341668284599  0.0079738484384737
  0.7652249731786754  0.4866676342091219  0.0093718537367339
  0.2516013536406360  0.4861346971493934 -0.0076807043356069
 -0.0150417381003825  0.7561098780122759  0.4935789410363283
  0.0043309724822005  0.2426748347849188  0.4923864162014289
  0.5022018599459884 -0.0006233998103452  0.2469186141425204
  0.5069330838101702 -0.0107149022069322  0.7555269257896673
  0.6259340940979710  0.6198094916079705  0.6262303049343909
  0.6257931484122918  0.3679258651847533  0.3599256613441333
  0.8921338553375259  0.8859462974448585  0.1053196195664911
  0.8889650879287788  0.0921199898728004  0.9079793309368519
  0.0969442289392522  0.8969676691381747  0.9063393313933990
  0.0918021382296356  0.0947604700980281  0.1078466383690742
  0.3671390263466903  0.6128777947145485  0.3662323196157929
  0.3748275262405122  0.3504496770037863  0.6074216969648487
  0.0951051043967591  0.3409078377620095  0.3772570559089280
  0.0796993103589625  0.6600454145072835  0.6055069946312469
  0.1085542276533080  0.1420004375579890  0.5909280909513993
  0.0919910182397857  0.8621962507483421  0.4033766208861824
  0.8851963855346416  0.1439343596417090  0.4022898213957838
  0.8723587746470464  0.8450572369607066  0.5947684517548437
  0.8611229798140381  0.3999197457544330  0.1262427885091960
  0.8617111955979423  0.5719353546349339  0.8876851724726255
  0.1541155613922852  0.5894249624911797  0.0911053480475881
  0.1465959944027863  0.3866306924648220  0.8907382762855027
  0.4026852224434017  0.8882133797842534  0.1531051435817639
  0.4100731576735300  0.0986253229221419  0.8504337565758370
  0.3963434334821463  0.0926582665224165  0.3481742857951717
  0.3954653600087549  0.8870890139025926  0.6640724342416133
  0.3521106893777960  0.3773952536243847  0.0877190187839839
  0.3493906305837515  0.5901852436546268  0.8839656586841318
  0.6177782765488687  0.0830227081389310  0.6551614148312292
  0.6164189305137868  0.9071423527646999  0.3442016160327988
  0.6589272397454050  0.5997741686527348  0.0858316006136866
  0.6707383375413296  0.3636408052148757  0.9221476480913164
  0.9132866564233173  0.3465340025237613  0.5980187446507178
  0.8968129488190691  0.6535082479043944  0.3812506693309570
  0.6013915665953853  0.1075370216957222  0.1460169959840154
  0.6063745664501654  0.8864848166822364  0.8588275006371109
 
  0.00000000E+00  0.00000000E+00  0.00000000E+00
  0.00000000E+00  0.00000000E+00  0.00000000E+00
  0.00000000E+00  0.00000000E+00  0.00000000E+00
  0.00000000E+00  0.00000000E+00  0.00000000E+00
  0.00000000E+00  0.00000000E+00  0.00000000E+00
  0.00000000E+00  0.00000000E+00  0.00000000E+00
  0.00000000E+00  0.00000000E+00  0.00000000E+00
  0.00000000E+00  0.00000000E+00  0.00000000E+00
  0.00000000E+00  0.00000000E+00  0.00000000E+00
  0.00000000E+00  0.00000000E+00  0.00000000E+00
  0.00000000E+00  0.00000000E+00  0.00000000E+00
  0.00000000E+00  0.00000000E+00  0.00000000E+00
  0.00000000E+00  0.00000000E+00  0.00000000E+00
  0.00000000E+00  0.00000000E+00  0.00000000E+00
  0.00000000E+00  0.00000000E+00  0.00000000E+00
  0.00000000E+00  0.00000000E+00  0.00000000E+00
  0.00000000E+00  0.00000000E+00  0.00000000E+00
  0.00000000E+00  0.00000000E+00  0.00000000E+00
  0.00000000E+00  0.00000000E+00  0.00000000E+00
  0.00000000E+00  0.00000000E+00  0.00000000E+00
  0.00000000E+00  0.00000000E+00  0.00000000E+00
  0.00000000E+00  0.00000000E+00  0.00000000E+00
  0.00000000E+00  0.00000000E+00  0.00000000E+00
  0.00000000E+00  0.00000000E+00  0.00000000E+00
  0.00000000E+00  0.00000000E+00  0.00000000E+00
  0.00000000E+00  0.00000000E+00  0.00000000E+00
  0.00000000E+00  0.00000000E+00  0.00000000E+00
  0.00000000E+00  0.00000000E+00  0.00000000E+00
  0.00000000E+00  0.00000000E+00  0.00000000E+00
  0.00000000E+00  0.00000000E+00  0.00000000E+00
  0.00000000E+00  0.00000000E+00  0.00000000E+00
  0.00000000E+00  0.00000000E+00  0.00000000E+00
  0.00000000E+00  0.00000000E+00  0.00000000E+00
  0.00000000E+00  0.00000000E+00  0.00000000E+00
  0.00000000E+00  0.00000000E+00  0.00000000E+00
  0.00000000E+00  0.00000000E+00  0.00000000E+00
  0.00000000E+00  0.00000000E+00  0.00000000E+00
  0.00000000E+00  0.00000000E+00  0.00000000E+00
  0.00000000E+00  0.00000000E+00  0.00000000E+00
  0.00000000E+00  0.00000000E+00  0.00000000E+00
  0.00000000E+00  0.00000000E+00  0.00000000E+00
  0.00000000E+00  0.00000000E+00  0.00000000E+00
  0.00000000E+00  0.00000000E+00  0.00000000E+00
  0.00000000E+00  0.00000000E+00  0.00000000E+00
  0.00000000E+00  0.00000000E+00  0.00000000E+00
  0.00000000E+00  0.00000000E+00  0.00000000E+00
  0.00000000E+00  0.00000000E+00  0.00000000E+00
  0.00000000E+00  0.00000000E+00  0.00000000E+00
  0.00000000E+00  0.00000000E+00  0.00000000E+00
  0.00000000E+00  0.00000000E+00  0.00000000E+00
  0.00000000E+00  0.00000000E+00  0.00000000E+00
  0.00000000E+00  0.00000000E+00  0.00000000E+00
  0.00000000E+00  0.00000000E+00  0.00000000E+00
  0.00000000E+00  0.00000000E+00  0.00000000E+00
  0.00000000E+00  0.00000000E+00  0.00000000E+00
  0.00000000E+00  0.00000000E+00  0.00000000E+00
  0.00000000E+00  0.00000000E+00  0.00000000E+00
  0.00000000E+00  0.00000000E+00  0.00000000E+00
  0.00000000E+00  0.00000000E+00  0.00000000E+00
  0.00000000E+00  0.00000000E+00  0.00000000E+00
  0.00000000E+00  0.00000000E+00  0.00000000E+00
  0.00000000E+00  0.00000000E+00  0.00000000E+00
  0.00000000E+00  0.00000000E+00  0.00000000E+00
  0.00000000E+00  0.00000000E+00  0.00000000E+00
  0.00000000E+00  0.00000000E+00  0.00000000E+00
  0.00000000E+00  0.00000000E+00  0.00000000E+00
  0.00000000E+00  0.00000000E+00  0.00000000E+00
  0.00000000E+00  0.00000000E+00  0.00000000E+00
  0.00000000E+00  0.00000000E+00  0.00000000E+00
  0.00000000E+00  0.00000000E+00  0.00000000E+00
  0.00000000E+00  0.00000000E+00  0.00000000E+00
  0.00000000E+00  0.00000000E+00  0.00000000E+00
  0.00000000E+00  0.00000000E+00  0.00000000E+00
  0.00000000E+00  0.00000000E+00  0.00000000E+00
  0.00000000E+00  0.00000000E+00  0.00000000E+00
  0.00000000E+00  0.00000000E+00  0.00000000E+00
  0.00000000E+00  0.00000000E+00  0.00000000E+00
  0.00000000E+00  0.00000000E+00  0.00000000E+00
  0.00000000E+00  0.00000000E+00  0.00000000E+00
  0.00000000E+00  0.00000000E+00  0.00000000E+00
  0.00000000E+00  0.00000000E+00  0.00000000E+00
  0.00000000E+00  0.00000000E+00  0.00000000E+00
  0.00000000E+00  0.00000000E+00  0.00000000E+00
  0.00000000E+00  0.00000000E+00  0.00000000E+00
  0.00000000E+00  0.00000000E+00  0.00000000E+00
  0.00000000E+00  0.00000000E+00  0.00000000E+00
  0.00000000E+00  0.00000000E+00  0.00000000E+00
  0.00000000E+00  0.00000000E+00  0.00000000E+00
  0.00000000E+00  0.00000000E+00  0.00000000E+00
  0.00000000E+00  0.00000000E+00  0.00000000E+00
  0.00000000E+00  0.00000000E+00  0.00000000E+00
  0.00000000E+00  0.00000000E+00  0.00000000E+00
  0.00000000E+00  0.00000000E+00  0.00000000E+00
  0.00000000E+00  0.00000000E+00  0.00000000E+00
  0.00000000E+00  0.00000000E+00  0.00000000E+00
  0.00000000E+00  0.00000000E+00  0.00000000E+00
  0.00000000E+00  0.00000000E+00  0.00000000E+00
  0.00000000E+00  0.00000000E+00  0.00000000E+00
  0.00000000E+00  0.00000000E+00  0.00000000E+00
  0.00000000E+00  0.00000000E+00  0.00000000E+00
