Li14 N42
1.0
3.354050 0.000000 0.000000
-0.000000 5.428812 3.300981
0.000000 0.000000 59.862993
Li N
14 42
direct
0.000000 0.000000 0.077605 Li+
0.500000 0.500000 0.035938 Li+
0.000000 0.000000 0.160938 Li+
0.500000 0.500000 0.119272 Li+
0.000000 0.000000 0.244272 Li+
0.500000 0.500000 0.202605 Li+
0.000000 0.000000 0.327605 Li+
0.500000 0.500000 0.285938 Li+
0.000000 0.000000 0.410938 Li+
0.500000 0.500000 0.369272 Li+
0.000000 0.000000 0.494272 Li+
0.500000 0.500000 0.452605 Li+
0.000000 0.000000 0.577605 Li+
0.500000 0.500000 0.535938 Li+
0.000000 0.605811 0.005728 N3-
0.000000 0.394189 0.066148 N3-
0.000000 0.500000 0.077605 N3-
0.500000 0.105811 0.047395 N3-
0.500000 0.894189 0.024481 N3-
0.500000 0.000000 0.035938 N3-
0.000000 0.605811 0.089062 N3-
0.000000 0.394189 0.149481 N3-
0.000000 0.500000 0.160938 N3-
0.500000 0.105811 0.130728 N3-
0.500000 0.894189 0.107815 N3-
0.500000 0.000000 0.119272 N3-
0.000000 0.605811 0.172395 N3-
0.000000 0.394189 0.232815 N3-
0.000000 0.500000 0.244272 N3-
0.500000 0.105811 0.214062 N3-
0.500000 0.894189 0.191148 N3-
0.500000 0.000000 0.202605 N3-
0.000000 0.605811 0.255728 N3-
0.000000 0.394189 0.316148 N3-
0.000000 0.500000 0.327605 N3-
0.500000 0.105811 0.297395 N3-
0.500000 0.894189 0.274481 N3-
0.500000 0.000000 0.285938 N3-
0.000000 0.605811 0.339062 N3-
0.000000 0.394189 0.399481 N3-
0.000000 0.500000 0.410938 N3-
0.500000 0.105811 0.380728 N3-
0.500000 0.894189 0.357815 N3-
0.500000 0.000000 0.369272 N3-
0.000000 0.605811 0.422395 N3-
0.000000 0.394189 0.482815 N3-
0.000000 0.500000 0.494272 N3-
0.500000 0.105811 0.464062 N3-
0.500000 0.894189 0.441148 N3-
0.500000 0.000000 0.452605 N3-
0.000000 0.605811 0.505728 N3-
0.000000 0.394189 0.566148 N3-
0.000000 0.500000 0.577605 N3-
0.500000 0.105811 0.547395 N3-
0.500000 0.894189 0.524481 N3-
0.500000 0.000000 0.535938 N3-
