Li392 P56 N224
1.0
9.402378 0.000000 -9.402378
-0.000000 9.402378 -9.402378
0.000000 0.000000 103.426158
Li P N
392 56 224
direct
0.500000 0.500000 0.053010 Li+
0.000000 0.000000 0.007556 Li+
0.000000 0.500000 0.007556 Li+
0.500000 0.000000 0.007556 Li+
0.000000 0.500000 0.053010 Li+
0.500000 0.000000 0.053010 Li+
0.000000 0.500000 0.030283 Li+
0.500000 0.750000 0.075738 Li+
0.500000 0.250000 0.030283 Li+
0.250000 0.000000 0.030283 Li+
0.750000 0.000000 0.075738 Li+
0.000000 0.500000 0.075738 Li+
0.225374 0.225374 0.023567 Li+
0.725374 0.274626 0.077976 Li+
0.274626 0.725374 0.077976 Li+
0.274626 0.274626 0.077976 Li+
0.774626 0.225374 0.032522 Li+
0.774626 0.774626 0.032522 Li+
0.225374 0.774626 0.032522 Li+
0.725374 0.725374 0.069021 Li+
0.237083 0.975164 0.004427 Li+
0.475164 0.262917 0.051624 Li+
0.524836 0.737083 0.008336 Li+
0.262917 0.753336 0.011291 Li+
0.262917 0.246664 0.051624 Li+
0.246664 0.524836 0.008336 Li+
0.753336 0.524836 0.011291 Li+
0.253336 0.237083 0.004427 Li+
0.975164 0.253336 0.004427 Li+
0.024836 0.253336 0.056746 Li+
0.746664 0.762917 0.006169 Li+
0.975164 0.746664 0.006169 Li+
0.746664 0.237083 0.053791 Li+
0.253336 0.762917 0.056746 Li+
0.024836 0.746664 0.053791 Li+
0.762917 0.024836 0.056746 Li+
0.237083 0.024836 0.053791 Li+
0.762917 0.975164 0.006169 Li+
0.246664 0.475164 0.051624 Li+
0.753336 0.475164 0.049882 Li+
0.737083 0.246664 0.008336 Li+
0.737083 0.753336 0.049882 Li+
0.524836 0.262917 0.011291 Li+
0.475164 0.737083 0.049882 Li+
0.000000 0.000000 0.077046 Li+
0.500000 0.500000 0.074430 Li+
0.500000 0.764387 0.031591 Li+
0.500000 0.235613 0.074430 Li+
0.235613 0.500000 0.074430 Li+
0.764387 0.500000 0.031591 Li+
0.264387 0.000000 0.077046 Li+
0.000000 0.264387 0.077046 Li+
0.735613 0.000000 0.028975 Li+
0.000000 0.735613 0.028975 Li+
0.000000 0.000000 0.028975 Li+
0.500000 0.500000 0.031591 Li+
0.500000 0.500000 0.143919 Li+
0.000000 0.000000 0.098465 Li+
0.000000 0.500000 0.098465 Li+
0.500000 0.000000 0.098465 Li+
0.000000 0.500000 0.143919 Li+
0.500000 0.000000 0.143919 Li+
0.000000 0.500000 0.121192 Li+
0.500000 0.750000 0.166647 Li+
0.500000 0.250000 0.121192 Li+
0.250000 0.000000 0.121192 Li+
0.750000 0.000000 0.166647 Li+
0.000000 0.500000 0.166647 Li+
0.225374 0.225374 0.114476 Li+
0.725374 0.274626 0.168885 Li+
0.274626 0.725374 0.168885 Li+
0.274626 0.274626 0.168885 Li+
0.774626 0.225374 0.123431 Li+
0.774626 0.774626 0.123431 Li+
0.225374 0.774626 0.123431 Li+
0.725374 0.725374 0.159931 Li+
0.237083 0.975164 0.095336 Li+
0.475164 0.262917 0.142533 Li+
0.524836 0.737083 0.099245 Li+
0.262917 0.753336 0.102200 Li+
0.262917 0.246664 0.142533 Li+
0.246664 0.524836 0.099245 Li+
0.753336 0.524836 0.102200 Li+
0.253336 0.237083 0.095336 Li+
0.975164 0.253336 0.095336 Li+
0.024836 0.253336 0.147655 Li+
0.746664 0.762917 0.097078 Li+
0.975164 0.746664 0.097078 Li+
0.746664 0.237083 0.144700 Li+
0.253336 0.762917 0.147655 Li+
0.024836 0.746664 0.144700 Li+
0.762917 0.024836 0.147655 Li+
0.237083 0.024836 0.144700 Li+
0.762917 0.975164 0.097078 Li+
0.246664 0.475164 0.142533 Li+
0.753336 0.475164 0.140791 Li+
0.737083 0.246664 0.099245 Li+
0.737083 0.753336 0.140791 Li+
0.524836 0.262917 0.102200 Li+
0.475164 0.737083 0.140791 Li+
0.000000 0.000000 0.167955 Li+
0.500000 0.500000 0.165339 Li+
0.500000 0.764387 0.122500 Li+
0.500000 0.235613 0.165339 Li+
0.235613 0.500000 0.165339 Li+
0.764387 0.500000 0.122500 Li+
0.264387 0.000000 0.167955 Li+
0.000000 0.264387 0.167955 Li+
0.735613 0.000000 0.119884 Li+
0.000000 0.735613 0.119884 Li+
0.000000 0.000000 0.119884 Li+
0.500000 0.500000 0.122500 Li+
0.500000 0.500000 0.234829 Li+
0.000000 0.000000 0.189374 Li+
0.000000 0.500000 0.189374 Li+
0.500000 0.000000 0.189374 Li+
0.000000 0.500000 0.234829 Li+
0.500000 0.000000 0.234829 Li+
0.000000 0.500000 0.212101 Li+
0.500000 0.750000 0.257556 Li+
0.500000 0.250000 0.212101 Li+
0.250000 0.000000 0.212101 Li+
0.750000 0.000000 0.257556 Li+
0.000000 0.500000 0.257556 Li+
0.225374 0.225374 0.205385 Li+
0.725374 0.274626 0.259795 Li+
0.274626 0.725374 0.259795 Li+
0.274626 0.274626 0.259795 Li+
0.774626 0.225374 0.214340 Li+
0.774626 0.774626 0.214340 Li+
0.225374 0.774626 0.214340 Li+
0.725374 0.725374 0.250840 Li+
0.237083 0.975164 0.186245 Li+
0.475164 0.262917 0.233442 Li+
0.524836 0.737083 0.190154 Li+
0.262917 0.753336 0.193109 Li+
0.262917 0.246664 0.233442 Li+
0.246664 0.524836 0.190154 Li+
0.753336 0.524836 0.193109 Li+
0.253336 0.237083 0.186245 Li+
0.975164 0.253336 0.186245 Li+
0.024836 0.253336 0.238564 Li+
0.746664 0.762917 0.187987 Li+
0.975164 0.746664 0.187987 Li+
0.746664 0.237083 0.235609 Li+
0.253336 0.762917 0.238564 Li+
0.024836 0.746664 0.235609 Li+
0.762917 0.024836 0.238564 Li+
0.237083 0.024836 0.235609 Li+
0.762917 0.975164 0.187987 Li+
0.246664 0.475164 0.233442 Li+
0.753336 0.475164 0.231700 Li+
0.737083 0.246664 0.190154 Li+
0.737083 0.753336 0.231700 Li+
0.524836 0.262917 0.193109 Li+
0.475164 0.737083 0.231700 Li+
0.000000 0.000000 0.258864 Li+
0.500000 0.500000 0.256248 Li+
0.500000 0.764387 0.213409 Li+
0.500000 0.235613 0.256248 Li+
0.235613 0.500000 0.256248 Li+
0.764387 0.500000 0.213409 Li+
0.264387 0.000000 0.258864 Li+
0.000000 0.264387 0.258864 Li+
0.735613 0.000000 0.210793 Li+
0.000000 0.735613 0.210793 Li+
0.000000 0.000000 0.210793 Li+
0.500000 0.500000 0.213409 Li+
0.500000 0.500000 0.325738 Li+
0.000000 0.000000 0.280283 Li+
0.000000 0.500000 0.280283 Li+
0.500000 0.000000 0.280283 Li+
0.000000 0.500000 0.325738 Li+
0.500000 0.000000 0.325738 Li+
0.000000 0.500000 0.303010 Li+
0.500000 0.750000 0.348465 Li+
0.500000 0.250000 0.303010 Li+
0.250000 0.000000 0.303010 Li+
0.750000 0.000000 0.348465 Li+
0.000000 0.500000 0.348465 Li+
0.225374 0.225374 0.296294 Li+
0.725374 0.274626 0.350704 Li+
0.274626 0.725374 0.350704 Li+
0.274626 0.274626 0.350704 Li+
0.774626 0.225374 0.305249 Li+
0.774626 0.774626 0.305249 Li+
0.225374 0.774626 0.305249 Li+
0.725374 0.725374 0.341749 Li+
0.237083 0.975164 0.277154 Li+
0.475164 0.262917 0.324351 Li+
0.524836 0.737083 0.281063 Li+
0.262917 0.753336 0.284018 Li+
0.262917 0.246664 0.324351 Li+
0.246664 0.524836 0.281063 Li+
0.753336 0.524836 0.284018 Li+
0.253336 0.237083 0.277154 Li+
0.975164 0.253336 0.277154 Li+
0.024836 0.253336 0.329473 Li+
0.746664 0.762917 0.278896 Li+
0.975164 0.746664 0.278896 Li+
0.746664 0.237083 0.326518 Li+
0.253336 0.762917 0.329473 Li+
0.024836 0.746664 0.326518 Li+
0.762917 0.024836 0.329473 Li+
0.237083 0.024836 0.326518 Li+
0.762917 0.975164 0.278896 Li+
0.246664 0.475164 0.324351 Li+
0.753336 0.475164 0.322609 Li+
0.737083 0.246664 0.281063 Li+
0.737083 0.753336 0.322609 Li+
0.524836 0.262917 0.284018 Li+
0.475164 0.737083 0.322609 Li+
0.000000 0.000000 0.349773 Li+
0.500000 0.500000 0.347157 Li+
0.500000 0.764387 0.304318 Li+
0.500000 0.235613 0.347157 Li+
0.235613 0.500000 0.347157 Li+
0.764387 0.500000 0.304318 Li+
0.264387 0.000000 0.349773 Li+
0.000000 0.264387 0.349773 Li+
0.735613 0.000000 0.301702 Li+
0.000000 0.735613 0.301702 Li+
0.000000 0.000000 0.301702 Li+
0.500000 0.500000 0.304318 Li+
0.500000 0.500000 0.416647 Li+
0.000000 0.000000 0.371192 Li+
0.000000 0.500000 0.371192 Li+
0.500000 0.000000 0.371192 Li+
0.000000 0.500000 0.416647 Li+
0.500000 0.000000 0.416647 Li+
0.000000 0.500000 0.393919 Li+
0.500000 0.750000 0.439374 Li+
0.500000 0.250000 0.393919 Li+
0.250000 0.000000 0.393919 Li+
0.750000 0.000000 0.439374 Li+
0.000000 0.500000 0.439374 Li+
0.225374 0.225374 0.387203 Li+
0.725374 0.274626 0.441613 Li+
0.274626 0.725374 0.441613 Li+
0.274626 0.274626 0.441613 Li+
0.774626 0.225374 0.396158 Li+
0.774626 0.774626 0.396158 Li+
0.225374 0.774626 0.396158 Li+
0.725374 0.725374 0.432658 Li+
0.237083 0.975164 0.368063 Li+
0.475164 0.262917 0.415260 Li+
0.524836 0.737083 0.371972 Li+
0.262917 0.753336 0.374928 Li+
0.262917 0.246664 0.415260 Li+
0.246664 0.524836 0.371972 Li+
0.753336 0.524836 0.374928 Li+
0.253336 0.237083 0.368063 Li+
0.975164 0.253336 0.368063 Li+
0.024836 0.253336 0.420382 Li+
0.746664 0.762917 0.369805 Li+
0.975164 0.746664 0.369805 Li+
0.746664 0.237083 0.417427 Li+
0.253336 0.762917 0.420382 Li+
0.024836 0.746664 0.417427 Li+
0.762917 0.024836 0.420382 Li+
0.237083 0.024836 0.417427 Li+
0.762917 0.975164 0.369805 Li+
0.246664 0.475164 0.415260 Li+
0.753336 0.475164 0.413518 Li+
0.737083 0.246664 0.371972 Li+
0.737083 0.753336 0.413518 Li+
0.524836 0.262917 0.374928 Li+
0.475164 0.737083 0.413518 Li+
0.000000 0.000000 0.440682 Li+
0.500000 0.500000 0.438066 Li+
0.500000 0.764387 0.395227 Li+
0.500000 0.235613 0.438066 Li+
0.235613 0.500000 0.438066 Li+
0.764387 0.500000 0.395227 Li+
0.264387 0.000000 0.440682 Li+
0.000000 0.264387 0.440682 Li+
0.735613 0.000000 0.392612 Li+
0.000000 0.735613 0.392612 Li+
0.000000 0.000000 0.392612 Li+
0.500000 0.500000 0.395227 Li+
0.500000 0.500000 0.507556 Li+
0.000000 0.000000 0.462101 Li+
0.000000 0.500000 0.462101 Li+
0.500000 0.000000 0.462101 Li+
0.000000 0.500000 0.507556 Li+
0.500000 0.000000 0.507556 Li+
0.000000 0.500000 0.484829 Li+
0.500000 0.750000 0.530283 Li+
0.500000 0.250000 0.484829 Li+
0.250000 0.000000 0.484829 Li+
0.750000 0.000000 0.530283 Li+
0.000000 0.500000 0.530283 Li+
0.225374 0.225374 0.478112 Li+
0.725374 0.274626 0.532522 Li+
0.274626 0.725374 0.532522 Li+
0.274626 0.274626 0.532522 Li+
0.774626 0.225374 0.487067 Li+
0.774626 0.774626 0.487067 Li+
0.225374 0.774626 0.487067 Li+
0.725374 0.725374 0.523567 Li+
0.237083 0.975164 0.458972 Li+
0.475164 0.262917 0.506169 Li+
0.524836 0.737083 0.462882 Li+
0.262917 0.753336 0.465837 Li+
0.262917 0.246664 0.506169 Li+
0.246664 0.524836 0.462882 Li+
0.753336 0.524836 0.465837 Li+
0.253336 0.237083 0.458972 Li+
0.975164 0.253336 0.458972 Li+
0.024836 0.253336 0.511291 Li+
0.746664 0.762917 0.460714 Li+
0.975164 0.746664 0.460714 Li+
0.746664 0.237083 0.508336 Li+
0.253336 0.762917 0.511291 Li+
0.024836 0.746664 0.508336 Li+
0.762917 0.024836 0.511291 Li+
0.237083 0.024836 0.508336 Li+
0.762917 0.975164 0.460714 Li+
0.246664 0.475164 0.506169 Li+
0.753336 0.475164 0.504427 Li+
0.737083 0.246664 0.462882 Li+
0.737083 0.753336 0.504427 Li+
0.524836 0.262917 0.465837 Li+
0.475164 0.737083 0.504427 Li+
0.000000 0.000000 0.531591 Li+
0.500000 0.500000 0.528975 Li+
0.500000 0.764387 0.486136 Li+
0.500000 0.235613 0.528975 Li+
0.235613 0.500000 0.528975 Li+
0.764387 0.500000 0.486136 Li+
0.264387 0.000000 0.531591 Li+
0.000000 0.264387 0.531591 Li+
0.735613 0.000000 0.483521 Li+
0.000000 0.735613 0.483521 Li+
0.000000 0.000000 0.483521 Li+
0.500000 0.500000 0.486136 Li+
0.500000 0.500000 0.598465 Li+
0.000000 0.000000 0.553010 Li+
0.000000 0.500000 0.553010 Li+
0.500000 0.000000 0.553010 Li+
0.000000 0.500000 0.598465 Li+
0.500000 0.000000 0.598465 Li+
0.000000 0.500000 0.575738 Li+
0.500000 0.750000 0.621192 Li+
0.500000 0.250000 0.575738 Li+
0.250000 0.000000 0.575738 Li+
0.750000 0.000000 0.621192 Li+
0.000000 0.500000 0.621192 Li+
0.225374 0.225374 0.569021 Li+
0.725374 0.274626 0.623431 Li+
0.274626 0.725374 0.623431 Li+
0.274626 0.274626 0.623431 Li+
0.774626 0.225374 0.577976 Li+
0.774626 0.774626 0.577976 Li+
0.225374 0.774626 0.577976 Li+
0.725374 0.725374 0.614476 Li+
0.237083 0.975164 0.549882 Li+
0.475164 0.262917 0.597078 Li+
0.524836 0.737083 0.553791 Li+
0.262917 0.753336 0.556746 Li+
0.262917 0.246664 0.597078 Li+
0.246664 0.524836 0.553791 Li+
0.753336 0.524836 0.556746 Li+
0.253336 0.237083 0.549882 Li+
0.975164 0.253336 0.549882 Li+
0.024836 0.253336 0.602200 Li+
0.746664 0.762917 0.551624 Li+
0.975164 0.746664 0.551624 Li+
0.746664 0.237083 0.599245 Li+
0.253336 0.762917 0.602200 Li+
0.024836 0.746664 0.599245 Li+
0.762917 0.024836 0.602200 Li+
0.237083 0.024836 0.599245 Li+
0.762917 0.975164 0.551624 Li+
0.246664 0.475164 0.597078 Li+
0.753336 0.475164 0.595336 Li+
0.737083 0.246664 0.553791 Li+
0.737083 0.753336 0.595336 Li+
0.524836 0.262917 0.556746 Li+
0.475164 0.737083 0.595336 Li+
0.000000 0.000000 0.622500 Li+
0.500000 0.500000 0.619884 Li+
0.500000 0.764387 0.577046 Li+
0.500000 0.235613 0.619884 Li+
0.235613 0.500000 0.619884 Li+
0.764387 0.500000 0.577046 Li+
0.264387 0.000000 0.622500 Li+
0.000000 0.264387 0.622500 Li+
0.735613 0.000000 0.574430 Li+
0.000000 0.735613 0.574430 Li+
0.000000 0.000000 0.574430 Li+
0.500000 0.500000 0.577046 Li+
0.500000 0.500000 0.007556 P4+
0.000000 0.000000 0.053010 P4+
0.000000 0.750000 0.075738 P4+
0.500000 0.000000 0.075738 P4+
0.500000 0.000000 0.030283 P4+
0.250000 0.500000 0.030283 P4+
0.750000 0.500000 0.075738 P4+
0.000000 0.250000 0.030283 P4+
0.500000 0.500000 0.098465 P4+
0.000000 0.000000 0.143919 P4+
0.000000 0.750000 0.166647 P4+
0.500000 0.000000 0.166647 P4+
0.500000 0.000000 0.121192 P4+
0.250000 0.500000 0.121192 P4+
0.750000 0.500000 0.166647 P4+
0.000000 0.250000 0.121192 P4+
0.500000 0.500000 0.189374 P4+
0.000000 0.000000 0.234829 P4+
0.000000 0.750000 0.257556 P4+
0.500000 0.000000 0.257556 P4+
0.500000 0.000000 0.212101 P4+
0.250000 0.500000 0.212101 P4+
0.750000 0.500000 0.257556 P4+
0.000000 0.250000 0.212101 P4+
0.500000 0.500000 0.280283 P4+
0.000000 0.000000 0.325738 P4+
0.000000 0.750000 0.348465 P4+
0.500000 0.000000 0.348465 P4+
0.500000 0.000000 0.303010 P4+
0.250000 0.500000 0.303010 P4+
0.750000 0.500000 0.348465 P4+
0.000000 0.250000 0.303010 P4+
0.500000 0.500000 0.371192 P4+
0.000000 0.000000 0.416647 P4+
0.000000 0.750000 0.439374 P4+
0.500000 0.000000 0.439374 P4+
0.500000 0.000000 0.393919 P4+
0.250000 0.500000 0.393919 P4+
0.750000 0.500000 0.439374 P4+
0.000000 0.250000 0.393919 P4+
0.500000 0.500000 0.462101 P4+
0.000000 0.000000 0.507556 P4+
0.000000 0.750000 0.530283 P4+
0.500000 0.000000 0.530283 P4+
0.500000 0.000000 0.484829 P4+
0.250000 0.500000 0.484829 P4+
0.750000 0.500000 0.530283 P4+
0.000000 0.250000 0.484829 P4+
0.500000 0.500000 0.553010 P4+
0.000000 0.000000 0.598465 P4+
0.000000 0.750000 0.621192 P4+
0.500000 0.000000 0.621192 P4+
0.500000 0.000000 0.575738 P4+
0.250000 0.500000 0.575738 P4+
0.750000 0.500000 0.621192 P4+
0.000000 0.250000 0.575738 P4+
0.603461 0.603461 0.035772 N2-
0.103461 0.896539 0.043605 N2-
0.896539 0.896539 0.043605 N2-
0.896539 0.103461 0.043605 N2-
0.396539 0.396539 0.089059 N2-
0.396539 0.603461 0.089059 N2-
0.603461 0.396539 0.089059 N2-
0.103461 0.103461 0.081227 N2-
0.603461 0.603461 0.126682 N2-
0.103461 0.896539 0.134514 N2-
0.896539 0.896539 0.134514 N2-
0.896539 0.103461 0.134514 N2-
0.396539 0.396539 0.179968 N2-
0.396539 0.603461 0.179968 N2-
0.603461 0.396539 0.179968 N2-
0.103461 0.103461 0.172136 N2-
0.603461 0.603461 0.217591 N2-
0.103461 0.896539 0.225423 N2-
0.896539 0.896539 0.225423 N2-
0.896539 0.103461 0.225423 N2-
0.396539 0.396539 0.270878 N2-
0.396539 0.603461 0.270878 N2-
0.603461 0.396539 0.270878 N2-
0.103461 0.103461 0.263045 N2-
0.603461 0.603461 0.308500 N2-
0.103461 0.896539 0.316332 N2-
0.896539 0.896539 0.316332 N2-
0.896539 0.103461 0.316332 N2-
0.396539 0.396539 0.361787 N2-
0.396539 0.603461 0.361787 N2-
0.603461 0.396539 0.361787 N2-
0.103461 0.103461 0.353954 N2-
0.603461 0.603461 0.399409 N2-
0.103461 0.896539 0.407241 N2-
0.896539 0.896539 0.407241 N2-
0.896539 0.103461 0.407241 N2-
0.396539 0.396539 0.452696 N2-
0.396539 0.603461 0.452696 N2-
0.603461 0.396539 0.452696 N2-
0.103461 0.103461 0.444863 N2-
0.603461 0.603461 0.490318 N2-
0.103461 0.896539 0.498150 N2-
0.896539 0.896539 0.498150 N2-
0.896539 0.103461 0.498150 N2-
0.396539 0.396539 0.543605 N2-
0.396539 0.603461 0.543605 N2-
0.603461 0.396539 0.543605 N2-
0.103461 0.103461 0.535772 N2-
0.603461 0.603461 0.581227 N2-
0.103461 0.896539 0.589059 N2-
0.896539 0.896539 0.589059 N2-
0.896539 0.103461 0.589059 N2-
0.396539 0.396539 0.634514 N2-
0.396539 0.603461 0.634514 N2-
0.603461 0.396539 0.634514 N2-
0.103461 0.103461 0.626682 N2-
0.387385 0.099421 0.038241 N3-
0.599421 0.112615 0.040402 N3-
0.400579 0.887385 0.001850 N3-
0.112615 0.850731 0.086094 N3-
0.112615 0.149269 0.040402 N3-
0.149269 0.400579 0.001850 N3-
0.850731 0.400579 0.086094 N3-
0.350731 0.387385 0.038241 N3-
0.099421 0.350731 0.038241 N3-
0.900579 0.350731 0.040640 N3-
0.649269 0.612615 0.085856 N3-
0.099421 0.649269 0.085856 N3-
0.649269 0.387385 0.047304 N3-
0.350731 0.612615 0.040640 N3-
0.900579 0.649269 0.047304 N3-
0.612615 0.900579 0.040640 N3-
0.387385 0.900579 0.047304 N3-
0.612615 0.099421 0.085856 N3-
0.149269 0.599421 0.040402 N3-
0.850731 0.599421 0.083696 N3-
0.887385 0.149269 0.001850 N3-
0.887385 0.850731 0.083696 N3-
0.400579 0.112615 0.086094 N3-
0.599421 0.887385 0.083696 N3-
0.387385 0.099421 0.129150 N3-
0.599421 0.112615 0.131311 N3-
0.400579 0.887385 0.092759 N3-
0.112615 0.850731 0.177004 N3-
0.112615 0.149269 0.131311 N3-
0.149269 0.400579 0.092759 N3-
0.850731 0.400579 0.177004 N3-
0.350731 0.387385 0.129150 N3-
0.099421 0.350731 0.129150 N3-
0.900579 0.350731 0.131549 N3-
0.649269 0.612615 0.176765 N3-
0.099421 0.649269 0.176765 N3-
0.649269 0.387385 0.138213 N3-
0.350731 0.612615 0.131549 N3-
0.900579 0.649269 0.138213 N3-
0.612615 0.900579 0.131549 N3-
0.387385 0.900579 0.138213 N3-
0.612615 0.099421 0.176765 N3-
0.149269 0.599421 0.131311 N3-
0.850731 0.599421 0.174605 N3-
0.887385 0.149269 0.092759 N3-
0.887385 0.850731 0.174605 N3-
0.400579 0.112615 0.177004 N3-
0.599421 0.887385 0.174605 N3-
0.387385 0.099421 0.220059 N3-
0.599421 0.112615 0.222220 N3-
0.400579 0.887385 0.183668 N3-
0.112615 0.850731 0.267913 N3-
0.112615 0.149269 0.222220 N3-
0.149269 0.400579 0.183668 N3-
0.850731 0.400579 0.267913 N3-
0.350731 0.387385 0.220059 N3-
0.099421 0.350731 0.220059 N3-
0.900579 0.350731 0.222458 N3-
0.649269 0.612615 0.267674 N3-
0.099421 0.649269 0.267674 N3-
0.649269 0.387385 0.229122 N3-
0.350731 0.612615 0.222458 N3-
0.900579 0.649269 0.229122 N3-
0.612615 0.900579 0.222458 N3-
0.387385 0.900579 0.229122 N3-
0.612615 0.099421 0.267674 N3-
0.149269 0.599421 0.222220 N3-
0.850731 0.599421 0.265514 N3-
0.887385 0.149269 0.183668 N3-
0.887385 0.850731 0.265514 N3-
0.400579 0.112615 0.267913 N3-
0.599421 0.887385 0.265514 N3-
0.387385 0.099421 0.310968 N3-
0.599421 0.112615 0.313129 N3-
0.400579 0.887385 0.274577 N3-
0.112615 0.850731 0.358822 N3-
0.112615 0.149269 0.313129 N3-
0.149269 0.400579 0.274577 N3-
0.850731 0.400579 0.358822 N3-
0.350731 0.387385 0.310968 N3-
0.099421 0.350731 0.310968 N3-
0.900579 0.350731 0.313367 N3-
0.649269 0.612615 0.358584 N3-
0.099421 0.649269 0.358584 N3-
0.649269 0.387385 0.320032 N3-
0.350731 0.612615 0.313367 N3-
0.900579 0.649269 0.320032 N3-
0.612615 0.900579 0.313367 N3-
0.387385 0.900579 0.320032 N3-
0.612615 0.099421 0.358584 N3-
0.149269 0.599421 0.313129 N3-
0.850731 0.599421 0.356423 N3-
0.887385 0.149269 0.274577 N3-
0.887385 0.850731 0.356423 N3-
0.400579 0.112615 0.358822 N3-
0.599421 0.887385 0.356423 N3-
0.387385 0.099421 0.401877 N3-
0.599421 0.112615 0.404038 N3-
0.400579 0.887385 0.365486 N3-
0.112615 0.850731 0.449731 N3-
0.112615 0.149269 0.404038 N3-
0.149269 0.400579 0.365486 N3-
0.850731 0.400579 0.449731 N3-
0.350731 0.387385 0.401877 N3-
0.099421 0.350731 0.401877 N3-
0.900579 0.350731 0.404276 N3-
0.649269 0.612615 0.449493 N3-
0.099421 0.649269 0.449493 N3-
0.649269 0.387385 0.410941 N3-
0.350731 0.612615 0.404276 N3-
0.900579 0.649269 0.410941 N3-
0.612615 0.900579 0.404276 N3-
0.387385 0.900579 0.410941 N3-
0.612615 0.099421 0.449493 N3-
0.149269 0.599421 0.404038 N3-
0.850731 0.599421 0.447332 N3-
0.887385 0.149269 0.365486 N3-
0.887385 0.850731 0.447332 N3-
0.400579 0.112615 0.449731 N3-
0.599421 0.887385 0.447332 N3-
0.387385 0.099421 0.492786 N3-
0.599421 0.112615 0.494947 N3-
0.400579 0.887385 0.456395 N3-
0.112615 0.850731 0.540640 N3-
0.112615 0.149269 0.494947 N3-
0.149269 0.400579 0.456395 N3-
0.850731 0.400579 0.540640 N3-
0.350731 0.387385 0.492786 N3-
0.099421 0.350731 0.492786 N3-
0.900579 0.350731 0.495185 N3-
0.649269 0.612615 0.540402 N3-
0.099421 0.649269 0.540402 N3-
0.649269 0.387385 0.501850 N3-
0.350731 0.612615 0.495185 N3-
0.900579 0.649269 0.501850 N3-
0.612615 0.900579 0.495185 N3-
0.387385 0.900579 0.501850 N3-
0.612615 0.099421 0.540402 N3-
0.149269 0.599421 0.494947 N3-
0.850731 0.599421 0.538241 N3-
0.887385 0.149269 0.456395 N3-
0.887385 0.850731 0.538241 N3-
0.400579 0.112615 0.540640 N3-
0.599421 0.887385 0.538241 N3-
0.387385 0.099421 0.583696 N3-
0.599421 0.112615 0.585856 N3-
0.400579 0.887385 0.547304 N3-
0.112615 0.850731 0.631549 N3-
0.112615 0.149269 0.585856 N3-
0.149269 0.400579 0.547304 N3-
0.850731 0.400579 0.631549 N3-
0.350731 0.387385 0.583696 N3-
0.099421 0.350731 0.583696 N3-
0.900579 0.350731 0.586094 N3-
0.649269 0.612615 0.631311 N3-
0.099421 0.649269 0.631311 N3-
0.649269 0.387385 0.592759 N3-
0.350731 0.612615 0.586094 N3-
0.900579 0.649269 0.592759 N3-
0.612615 0.900579 0.586094 N3-
0.387385 0.900579 0.592759 N3-
0.612615 0.099421 0.631311 N3-
0.149269 0.599421 0.585856 N3-
0.850731 0.599421 0.629150 N3-
0.887385 0.149269 0.547304 N3-
0.887385 0.850731 0.629150 N3-
0.400579 0.112615 0.631549 N3-
0.599421 0.887385 0.629150 N3-
