Li140 P140 O420
1.0
13.312980 0.000000 -5.521558
2.677750 16.540545 0.000000
0.000000 0.000000 60.737138
Li P O
140 140 420
direct
0.944698 0.181780 0.069022 Li+
0.444698 0.681780 0.022587 Li+
0.822834 0.065996 0.058869 Li+
0.322834 0.565996 0.010582 Li+
0.702414 0.950543 0.045980 Li+
0.202414 0.450543 0.001577 Li+
0.582845 0.835452 0.034979 Li+
0.082845 0.335452 0.081747 Li+
0.512460 0.758434 0.075348 Li+
0.012460 0.258434 0.028581 Li+
0.942549 0.681714 0.066409 Li+
0.442549 0.181714 0.024808 Li+
0.821455 0.566270 0.059481 Li+
0.321455 0.066270 0.009720 Li+
0.702271 0.449547 0.043470 Li+
0.202271 0.949547 0.004061 Li+
0.582496 0.332984 0.037628 Li+
0.082496 0.832984 0.079035 Li+
0.510463 0.256366 0.078066 Li+
0.010463 0.756366 0.025500 Li+
0.944698 0.181780 0.159931 Li+
0.444698 0.681780 0.113496 Li+
0.822834 0.065996 0.149778 Li+
0.322834 0.565996 0.101491 Li+
0.702414 0.950543 0.136889 Li+
0.202414 0.450543 0.092486 Li+
0.582845 0.835452 0.125888 Li+
0.082845 0.335452 0.172656 Li+
0.512460 0.758434 0.166257 Li+
0.012460 0.258434 0.119490 Li+
0.942549 0.681714 0.157318 Li+
0.442549 0.181714 0.115717 Li+
0.821455 0.566270 0.150390 Li+
0.321455 0.066270 0.100629 Li+
0.702271 0.449547 0.134379 Li+
0.202271 0.949547 0.094970 Li+
0.582496 0.332984 0.128537 Li+
0.082496 0.832984 0.169944 Li+
0.510463 0.256366 0.168975 Li+
0.010463 0.756366 0.116409 Li+
0.944698 0.181780 0.250840 Li+
0.444698 0.681780 0.204405 Li+
0.822834 0.065996 0.240687 Li+
0.322834 0.565996 0.192400 Li+
0.702414 0.950543 0.227798 Li+
0.202414 0.450543 0.183395 Li+
0.582845 0.835452 0.216797 Li+
0.082845 0.335452 0.263565 Li+
0.512460 0.758434 0.257166 Li+
0.012460 0.258434 0.210399 Li+
0.942549 0.681714 0.248227 Li+
0.442549 0.181714 0.206626 Li+
0.821455 0.566270 0.241299 Li+
0.321455 0.066270 0.191538 Li+
0.702271 0.449547 0.225288 Li+
0.202271 0.949547 0.185879 Li+
0.582496 0.332984 0.219446 Li+
0.082496 0.832984 0.260853 Li+
0.510463 0.256366 0.259884 Li+
0.010463 0.756366 0.207318 Li+
0.944698 0.181780 0.341749 Li+
0.444698 0.681780 0.295314 Li+
0.822834 0.065996 0.331597 Li+
0.322834 0.565996 0.283309 Li+
0.702414 0.950543 0.318707 Li+
0.202414 0.450543 0.274304 Li+
0.582845 0.835452 0.307706 Li+
0.082845 0.335452 0.354474 Li+
0.512460 0.758434 0.348075 Li+
0.012460 0.258434 0.301308 Li+
0.942549 0.681714 0.339137 Li+
0.442549 0.181714 0.297535 Li+
0.821455 0.566270 0.332208 Li+
0.321455 0.066270 0.282447 Li+
0.702271 0.449547 0.316197 Li+
0.202271 0.949547 0.276788 Li+
0.582496 0.332984 0.310355 Li+
0.082496 0.832984 0.351762 Li+
0.510463 0.256366 0.350793 Li+
0.010463 0.756366 0.298227 Li+
0.944698 0.181780 0.432658 Li+
0.444698 0.681780 0.386223 Li+
0.822834 0.065996 0.422506 Li+
0.322834 0.565996 0.374218 Li+
0.702414 0.950543 0.409616 Li+
0.202414 0.450543 0.365213 Li+
0.582845 0.835452 0.398615 Li+
0.082845 0.335452 0.445383 Li+
0.512460 0.758434 0.438984 Li+
0.012460 0.258434 0.392217 Li+
0.942549 0.681714 0.430046 Li+
0.442549 0.181714 0.388445 Li+
0.821455 0.566270 0.423117 Li+
0.321455 0.066270 0.373356 Li+
0.702271 0.449547 0.407106 Li+
0.202271 0.949547 0.367697 Li+
0.582496 0.332984 0.401264 Li+
0.082496 0.832984 0.442671 Li+
0.510463 0.256366 0.441702 Li+
0.010463 0.756366 0.389136 Li+
0.944698 0.181780 0.523567 Li+
0.444698 0.681780 0.477132 Li+
0.822834 0.065996 0.513415 Li+
0.322834 0.565996 0.465127 Li+
0.702414 0.950543 0.500525 Li+
0.202414 0.450543 0.456122 Li+
0.582845 0.835452 0.489524 Li+
0.082845 0.335452 0.536292 Li+
0.512460 0.758434 0.529893 Li+
0.012460 0.258434 0.483126 Li+
0.942549 0.681714 0.520955 Li+
0.442549 0.181714 0.479354 Li+
0.821455 0.566270 0.514026 Li+
0.321455 0.066270 0.464265 Li+
0.702271 0.449547 0.498015 Li+
0.202271 0.949547 0.458606 Li+
0.582496 0.332984 0.492173 Li+
0.082496 0.832984 0.533580 Li+
0.510463 0.256366 0.532611 Li+
0.010463 0.756366 0.480045 Li+
0.944698 0.181780 0.614476 Li+
0.444698 0.681780 0.568041 Li+
0.822834 0.065996 0.604324 Li+
0.322834 0.565996 0.556036 Li+
0.702414 0.950543 0.591434 Li+
0.202414 0.450543 0.547031 Li+
0.582845 0.835452 0.580433 Li+
0.082845 0.335452 0.627201 Li+
0.512460 0.758434 0.620802 Li+
0.012460 0.258434 0.574035 Li+
0.942549 0.681714 0.611864 Li+
0.442549 0.181714 0.570263 Li+
0.821455 0.566270 0.604935 Li+
0.321455 0.066270 0.555174 Li+
0.702271 0.449547 0.588924 Li+
0.202271 0.949547 0.549515 Li+
0.582496 0.332984 0.583082 Li+
0.082496 0.832984 0.624489 Li+
0.510463 0.256366 0.623520 Li+
0.010463 0.756366 0.570954 Li+
0.001192 0.999587 0.011360 P5+
0.501192 0.499587 0.090520 P5+
0.887667 0.906720 0.032136 P5+
0.387667 0.406720 0.049103 P5+
0.795924 0.802939 0.083330 P5+
0.295924 0.302939 0.072138 P5+
0.716706 0.691689 0.017898 P5+
0.216706 0.191689 0.032257 P5+
0.616650 0.591751 0.069642 P5+
0.116650 0.091751 0.053231 P5+
0.909487 0.425433 0.034064 P5+
0.409487 0.925433 0.051142 P5+
0.808986 0.325562 0.085801 P5+
0.308986 0.825562 0.072041 P5+
0.730132 0.213545 0.020636 P5+
0.230132 0.713545 0.031960 P5+
0.637722 0.110144 0.072270 P5+
0.137722 0.610144 0.054434 P5+
0.524425 0.017155 0.002155 P5+
0.024425 0.517155 0.013040 P5+
0.001192 0.999587 0.102269 P5+
0.501192 0.499587 0.181429 P5+
0.887667 0.906720 0.123045 P5+
0.387667 0.406720 0.140012 P5+
0.795924 0.802939 0.174239 P5+
0.295924 0.302939 0.163047 P5+
0.716706 0.691689 0.108807 P5+
0.216706 0.191689 0.123166 P5+
0.616650 0.591751 0.160551 P5+
0.116650 0.091751 0.144140 P5+
0.909487 0.425433 0.124973 P5+
0.409487 0.925433 0.142051 P5+
0.808986 0.325562 0.176710 P5+
0.308986 0.825562 0.162950 P5+
0.730132 0.213545 0.111546 P5+
0.230132 0.713545 0.122869 P5+
0.637722 0.110144 0.163179 P5+
0.137722 0.610144 0.145343 P5+
0.524425 0.017155 0.093064 P5+
0.024425 0.517155 0.103949 P5+
0.001192 0.999587 0.193178 P5+
0.501192 0.499587 0.272338 P5+
0.887667 0.906720 0.213954 P5+
0.387667 0.406720 0.230921 P5+
0.795924 0.802939 0.265148 P5+
0.295924 0.302939 0.253956 P5+
0.716706 0.691689 0.199716 P5+
0.216706 0.191689 0.214075 P5+
0.616650 0.591751 0.251460 P5+
0.116650 0.091751 0.235049 P5+
0.909487 0.425433 0.215882 P5+
0.409487 0.925433 0.232960 P5+
0.808986 0.325562 0.267619 P5+
0.308986 0.825562 0.253860 P5+
0.730132 0.213545 0.202455 P5+
0.230132 0.713545 0.213778 P5+
0.637722 0.110144 0.254088 P5+
0.137722 0.610144 0.236252 P5+
0.524425 0.017155 0.183973 P5+
0.024425 0.517155 0.194858 P5+
0.001192 0.999587 0.284087 P5+
0.501192 0.499587 0.363247 P5+
0.887667 0.906720 0.304863 P5+
0.387667 0.406720 0.321830 P5+
0.795924 0.802939 0.356057 P5+
0.295924 0.302939 0.344865 P5+
0.716706 0.691689 0.290625 P5+
0.216706 0.191689 0.304985 P5+
0.616650 0.591751 0.342369 P5+
0.116650 0.091751 0.325958 P5+
0.909487 0.425433 0.306791 P5+
0.409487 0.925433 0.323869 P5+
0.808986 0.325562 0.358528 P5+
0.308986 0.825562 0.344769 P5+
0.730132 0.213545 0.293364 P5+
0.230132 0.713545 0.304687 P5+
0.637722 0.110144 0.344997 P5+
0.137722 0.610144 0.327161 P5+
0.524425 0.017155 0.274882 P5+
0.024425 0.517155 0.285767 P5+
0.001192 0.999587 0.374997 P5+
0.501192 0.499587 0.454156 P5+
0.887667 0.906720 0.395772 P5+
0.387667 0.406720 0.412739 P5+
0.795924 0.802939 0.446966 P5+
0.295924 0.302939 0.435774 P5+
0.716706 0.691689 0.381534 P5+
0.216706 0.191689 0.395894 P5+
0.616650 0.591751 0.433278 P5+
0.116650 0.091751 0.416867 P5+
0.909487 0.425433 0.397700 P5+
0.409487 0.925433 0.414779 P5+
0.808986 0.325562 0.449437 P5+
0.308986 0.825562 0.435678 P5+
0.730132 0.213545 0.384273 P5+
0.230132 0.713545 0.395596 P5+
0.637722 0.110144 0.435906 P5+
0.137722 0.610144 0.418070 P5+
0.524425 0.017155 0.365791 P5+
0.024425 0.517155 0.376676 P5+
0.001192 0.999587 0.465906 P5+
0.501192 0.499587 0.545065 P5+
0.887667 0.906720 0.486682 P5+
0.387667 0.406720 0.503648 P5+
0.795924 0.802939 0.537875 P5+
0.295924 0.302939 0.526683 P5+
0.716706 0.691689 0.472443 P5+
0.216706 0.191689 0.486803 P5+
0.616650 0.591751 0.524187 P5+
0.116650 0.091751 0.507776 P5+
0.909487 0.425433 0.488609 P5+
0.409487 0.925433 0.505688 P5+
0.808986 0.325562 0.540346 P5+
0.308986 0.825562 0.526587 P5+
0.730132 0.213545 0.475182 P5+
0.230132 0.713545 0.486505 P5+
0.637722 0.110144 0.526815 P5+
0.137722 0.610144 0.508979 P5+
0.524425 0.017155 0.456700 P5+
0.024425 0.517155 0.467585 P5+
0.001192 0.999587 0.556815 P5+
0.501192 0.499587 0.635974 P5+
0.887667 0.906720 0.577591 P5+
0.387667 0.406720 0.594557 P5+
0.795924 0.802939 0.628784 P5+
0.295924 0.302939 0.617592 P5+
0.716706 0.691689 0.563352 P5+
0.216706 0.191689 0.577712 P5+
0.616650 0.591751 0.615096 P5+
0.116650 0.091751 0.598685 P5+
0.909487 0.425433 0.579519 P5+
0.409487 0.925433 0.596597 P5+
0.808986 0.325562 0.631256 P5+
0.308986 0.825562 0.617496 P5+
0.730132 0.213545 0.566091 P5+
0.230132 0.713545 0.577414 P5+
0.637722 0.110144 0.617724 P5+
0.137722 0.610144 0.599888 P5+
0.524425 0.017155 0.547610 P5+
0.024425 0.517155 0.558494 P5+
0.905428 0.964587 0.013234 O2-
0.405428 0.464587 0.071234 O2-
0.800449 0.859372 0.014410 O2-
0.300449 0.359372 0.050971 O2-
0.757206 0.724144 0.089667 O2-
0.257206 0.224144 0.058761 O2-
0.685355 0.607741 0.006166 O2-
0.185355 0.107741 0.038289 O2-
0.058300 0.021852 0.038675 O2-
0.558300 0.521852 0.073588 O2-
0.840686 0.409378 0.006641 O2-
0.340686 0.909378 0.066056 O2-
0.772630 0.290596 0.014540 O2-
0.272630 0.790596 0.045783 O2-
0.726756 0.156445 0.089694 O2-
0.226756 0.656445 0.053197 O2-
0.618048 0.056520 0.000764 O2-
0.118048 0.556520 0.031453 O2-
0.967956 0.495673 0.030219 O2-
0.467956 0.995673 0.065618 O2-
0.955284 0.073889 0.085603 O2-
0.455284 0.573889 0.007930 O2-
0.071165 0.933926 0.006036 O2-
0.571165 0.433926 0.017657 O2-
0.836724 0.958651 0.045663 O2-
0.336724 0.458651 0.026313 O2-
0.982201 0.846743 0.045095 O2-
0.482201 0.346743 0.053332 O2-
0.714989 0.845353 0.061106 O2-
0.214989 0.345353 0.079646 O2-
0.902007 0.775410 0.084488 O2-
0.402007 0.275410 0.090267 O2-
0.622035 0.747295 0.016331 O2-
0.122035 0.247295 0.016612 O2-
0.803128 0.669352 0.041453 O2-
0.303128 0.169352 0.024415 O2-
0.542257 0.667159 0.057844 O2-
0.042257 0.167159 0.051502 O2-
0.685603 0.553292 0.058088 O2-
0.185603 0.053292 0.077321 O2-
0.839056 0.463335 0.045301 O2-
0.339056 0.963335 0.027099 O2-
0.984307 0.350606 0.046133 O2-
0.484307 0.850606 0.052677 O2-
0.720379 0.348215 0.062612 O2-
0.220379 0.848215 0.079120 O2-
0.903854 0.271458 0.086814 O2-
0.403854 0.771458 0.088277 O2-
0.623095 0.241625 0.018773 O2-
0.123095 0.741625 0.014361 O2-
0.808921 0.171199 0.043193 O2-
0.308921 0.671199 0.023729 O2-
0.543593 0.170027 0.058861 O2-
0.043593 0.670027 0.050728 O2-
0.687356 0.055640 0.059019 O2-
0.187356 0.555640 0.076709 O2-
0.452378 0.080441 0.007641 O2-
0.952378 0.580441 0.085363 O2-
0.572944 0.942366 0.018471 O2-
0.072944 0.442366 0.005546 O2-
0.905428 0.964587 0.104143 O2-
0.405428 0.464587 0.162143 O2-
0.800449 0.859372 0.105319 O2-
0.300449 0.359372 0.141880 O2-
0.757206 0.724144 0.180576 O2-
0.257206 0.224144 0.149670 O2-
0.685355 0.607741 0.097075 O2-
0.185355 0.107741 0.129198 O2-
0.058300 0.021852 0.129584 O2-
0.558300 0.521852 0.164497 O2-
0.840686 0.409378 0.097550 O2-
0.340686 0.909378 0.156965 O2-
0.772630 0.290596 0.105449 O2-
0.272630 0.790596 0.136693 O2-
0.726756 0.156445 0.180603 O2-
0.226756 0.656445 0.144106 O2-
0.618048 0.056520 0.091673 O2-
0.118048 0.556520 0.122362 O2-
0.967956 0.495673 0.121128 O2-
0.467956 0.995673 0.156527 O2-
0.955284 0.073889 0.176512 O2-
0.455284 0.573889 0.098839 O2-
0.071165 0.933926 0.096945 O2-
0.571165 0.433926 0.108566 O2-
0.836724 0.958651 0.136572 O2-
0.336724 0.458651 0.117222 O2-
0.982201 0.846743 0.136004 O2-
0.482201 0.346743 0.144241 O2-
0.714989 0.845353 0.152015 O2-
0.214989 0.345353 0.170555 O2-
0.902007 0.775410 0.175398 O2-
0.402007 0.275410 0.181176 O2-
0.622035 0.747295 0.107240 O2-
0.122035 0.247295 0.107521 O2-
0.803128 0.669352 0.132362 O2-
0.303128 0.169352 0.115324 O2-
0.542257 0.667159 0.148753 O2-
0.042257 0.167159 0.142411 O2-
0.685603 0.553292 0.148998 O2-
0.185603 0.053292 0.168230 O2-
0.839056 0.463335 0.136210 O2-
0.339056 0.963335 0.118008 O2-
0.984307 0.350606 0.137042 O2-
0.484307 0.850606 0.143586 O2-
0.720379 0.348215 0.153521 O2-
0.220379 0.848215 0.170029 O2-
0.903854 0.271458 0.177723 O2-
0.403854 0.771458 0.179186 O2-
0.623095 0.241625 0.109683 O2-
0.123095 0.741625 0.105271 O2-
0.808921 0.171199 0.134102 O2-
0.308921 0.671199 0.114638 O2-
0.543593 0.170027 0.149770 O2-
0.043593 0.670027 0.141637 O2-
0.687356 0.055640 0.149928 O2-
0.187356 0.555640 0.167618 O2-
0.452378 0.080441 0.098550 O2-
0.952378 0.580441 0.176272 O2-
0.572944 0.942366 0.109380 O2-
0.072944 0.442366 0.096455 O2-
0.905428 0.964587 0.195052 O2-
0.405428 0.464587 0.253052 O2-
0.800449 0.859372 0.196228 O2-
0.300449 0.359372 0.232789 O2-
0.757206 0.724144 0.271485 O2-
0.257206 0.224144 0.240579 O2-
0.685355 0.607741 0.187984 O2-
0.185355 0.107741 0.220108 O2-
0.058300 0.021852 0.220493 O2-
0.558300 0.521852 0.255406 O2-
0.840686 0.409378 0.188459 O2-
0.340686 0.909378 0.247874 O2-
0.772630 0.290596 0.196358 O2-
0.272630 0.790596 0.227602 O2-
0.726756 0.156445 0.271513 O2-
0.226756 0.656445 0.235015 O2-
0.618048 0.056520 0.182583 O2-
0.118048 0.556520 0.213271 O2-
0.967956 0.495673 0.212037 O2-
0.467956 0.995673 0.247436 O2-
0.955284 0.073889 0.267421 O2-
0.455284 0.573889 0.189748 O2-
0.071165 0.933926 0.187854 O2-
0.571165 0.433926 0.199475 O2-
0.836724 0.958651 0.227481 O2-
0.336724 0.458651 0.208132 O2-
0.982201 0.846743 0.226913 O2-
0.482201 0.346743 0.235150 O2-
0.714989 0.845353 0.242924 O2-
0.214989 0.345353 0.261465 O2-
0.902007 0.775410 0.266307 O2-
0.402007 0.275410 0.272085 O2-
0.622035 0.747295 0.198149 O2-
0.122035 0.247295 0.198430 O2-
0.803128 0.669352 0.223271 O2-
0.303128 0.169352 0.206233 O2-
0.542257 0.667159 0.239662 O2-
0.042257 0.167159 0.233320 O2-
0.685603 0.553292 0.239907 O2-
0.185603 0.053292 0.259139 O2-
0.839056 0.463335 0.227119 O2-
0.339056 0.963335 0.208918 O2-
0.984307 0.350606 0.227951 O2-
0.484307 0.850606 0.234495 O2-
0.720379 0.348215 0.244430 O2-
0.220379 0.848215 0.260938 O2-
0.903854 0.271458 0.268632 O2-
0.403854 0.771458 0.270095 O2-
0.623095 0.241625 0.200592 O2-
0.123095 0.741625 0.196180 O2-
0.808921 0.171199 0.225011 O2-
0.308921 0.671199 0.205547 O2-
0.543593 0.170027 0.240679 O2-
0.043593 0.670027 0.232547 O2-
0.687356 0.055640 0.240837 O2-
0.187356 0.555640 0.258527 O2-
0.452378 0.080441 0.189460 O2-
0.952378 0.580441 0.267181 O2-
0.572944 0.942366 0.200289 O2-
0.072944 0.442366 0.187364 O2-
0.905428 0.964587 0.285961 O2-
0.405428 0.464587 0.343961 O2-
0.800449 0.859372 0.287137 O2-
0.300449 0.359372 0.323698 O2-
0.757206 0.724144 0.362394 O2-
0.257206 0.224144 0.331488 O2-
0.685355 0.607741 0.278893 O2-
0.185355 0.107741 0.311017 O2-
0.058300 0.021852 0.311402 O2-
0.558300 0.521852 0.346315 O2-
0.840686 0.409378 0.279368 O2-
0.340686 0.909378 0.338783 O2-
0.772630 0.290596 0.287267 O2-
0.272630 0.790596 0.318511 O2-
0.726756 0.156445 0.362422 O2-
0.226756 0.656445 0.325924 O2-
0.618048 0.056520 0.273492 O2-
0.118048 0.556520 0.304180 O2-
0.967956 0.495673 0.302947 O2-
0.467956 0.995673 0.338345 O2-
0.955284 0.073889 0.358331 O2-
0.455284 0.573889 0.280657 O2-
0.071165 0.933926 0.278763 O2-
0.571165 0.433926 0.290385 O2-
0.836724 0.958651 0.318390 O2-
0.336724 0.458651 0.299041 O2-
0.982201 0.846743 0.317822 O2-
0.482201 0.346743 0.326059 O2-
0.714989 0.845353 0.333833 O2-
0.214989 0.345353 0.352374 O2-
0.902007 0.775410 0.357216 O2-
0.402007 0.275410 0.362994 O2-
0.622035 0.747295 0.289058 O2-
0.122035 0.247295 0.289339 O2-
0.803128 0.669352 0.314180 O2-
0.303128 0.169352 0.297142 O2-
0.542257 0.667159 0.330571 O2-
0.042257 0.167159 0.324230 O2-
0.685603 0.553292 0.330816 O2-
0.185603 0.053292 0.350048 O2-
0.839056 0.463335 0.318028 O2-
0.339056 0.963335 0.299827 O2-
0.984307 0.350606 0.318860 O2-
0.484307 0.850606 0.325405 O2-
0.720379 0.348215 0.335339 O2-
0.220379 0.848215 0.351847 O2-
0.903854 0.271458 0.359542 O2-
0.403854 0.771458 0.361004 O2-
0.623095 0.241625 0.291501 O2-
0.123095 0.741625 0.287089 O2-
0.808921 0.171199 0.315920 O2-
0.308921 0.671199 0.296456 O2-
0.543593 0.170027 0.331588 O2-
0.043593 0.670027 0.323456 O2-
0.687356 0.055640 0.331746 O2-
0.187356 0.555640 0.349436 O2-
0.452378 0.080441 0.280369 O2-
0.952378 0.580441 0.358090 O2-
0.572944 0.942366 0.291198 O2-
0.072944 0.442366 0.278273 O2-
0.905428 0.964587 0.376870 O2-
0.405428 0.464587 0.434870 O2-
0.800449 0.859372 0.378046 O2-
0.300449 0.359372 0.414608 O2-
0.757206 0.724144 0.453303 O2-
0.257206 0.224144 0.422397 O2-
0.685355 0.607741 0.369802 O2-
0.185355 0.107741 0.401926 O2-
0.058300 0.021852 0.402311 O2-
0.558300 0.521852 0.437224 O2-
0.840686 0.409378 0.370277 O2-
0.340686 0.909378 0.429692 O2-
0.772630 0.290596 0.378176 O2-
0.272630 0.790596 0.409420 O2-
0.726756 0.156445 0.453331 O2-
0.226756 0.656445 0.416833 O2-
0.618048 0.056520 0.364401 O2-
0.118048 0.556520 0.395089 O2-
0.967956 0.495673 0.393856 O2-
0.467956 0.995673 0.429254 O2-
0.955284 0.073889 0.449240 O2-
0.455284 0.573889 0.371566 O2-
0.071165 0.933926 0.369672 O2-
0.571165 0.433926 0.381294 O2-
0.836724 0.958651 0.409300 O2-
0.336724 0.458651 0.389950 O2-
0.982201 0.846743 0.408731 O2-
0.482201 0.346743 0.416968 O2-
0.714989 0.845353 0.424742 O2-
0.214989 0.345353 0.443283 O2-
0.902007 0.775410 0.448125 O2-
0.402007 0.275410 0.453903 O2-
0.622035 0.747295 0.379967 O2-
0.122035 0.247295 0.380248 O2-
0.803128 0.669352 0.405090 O2-
0.303128 0.169352 0.388051 O2-
0.542257 0.667159 0.421480 O2-
0.042257 0.167159 0.415139 O2-
0.685603 0.553292 0.421725 O2-
0.185603 0.053292 0.440957 O2-
0.839056 0.463335 0.408938 O2-
0.339056 0.963335 0.390736 O2-
0.984307 0.350606 0.409769 O2-
0.484307 0.850606 0.416314 O2-
0.720379 0.348215 0.426248 O2-
0.220379 0.848215 0.442756 O2-
0.903854 0.271458 0.450451 O2-
0.403854 0.771458 0.451913 O2-
0.623095 0.241625 0.382410 O2-
0.123095 0.741625 0.377998 O2-
0.808921 0.171199 0.406829 O2-
0.308921 0.671199 0.387365 O2-
0.543593 0.170027 0.422497 O2-
0.043593 0.670027 0.414365 O2-
0.687356 0.055640 0.422655 O2-
0.187356 0.555640 0.440345 O2-
0.452378 0.080441 0.371278 O2-
0.952378 0.580441 0.449000 O2-
0.572944 0.942366 0.382107 O2-
0.072944 0.442366 0.369182 O2-
0.905428 0.964587 0.467780 O2-
0.405428 0.464587 0.525780 O2-
0.800449 0.859372 0.468955 O2-
0.300449 0.359372 0.505517 O2-
0.757206 0.724144 0.544212 O2-
0.257206 0.224144 0.513306 O2-
0.685355 0.607741 0.460711 O2-
0.185355 0.107741 0.492835 O2-
0.058300 0.021852 0.493220 O2-
0.558300 0.521852 0.528134 O2-
0.840686 0.409378 0.461187 O2-
0.340686 0.909378 0.520601 O2-
0.772630 0.290596 0.469085 O2-
0.272630 0.790596 0.500329 O2-
0.726756 0.156445 0.544240 O2-
0.226756 0.656445 0.507743 O2-
0.618048 0.056520 0.455310 O2-
0.118048 0.556520 0.485998 O2-
0.967956 0.495673 0.484765 O2-
0.467956 0.995673 0.520163 O2-
0.955284 0.073889 0.540149 O2-
0.455284 0.573889 0.462475 O2-
0.071165 0.933926 0.460581 O2-
0.571165 0.433926 0.472203 O2-
0.836724 0.958651 0.500209 O2-
0.336724 0.458651 0.480859 O2-
0.982201 0.846743 0.499640 O2-
0.482201 0.346743 0.507878 O2-
0.714989 0.845353 0.515651 O2-
0.214989 0.345353 0.534192 O2-
0.902007 0.775410 0.539034 O2-
0.402007 0.275410 0.544812 O2-
0.622035 0.747295 0.470876 O2-
0.122035 0.247295 0.471157 O2-
0.803128 0.669352 0.495999 O2-
0.303128 0.169352 0.478960 O2-
0.542257 0.667159 0.512389 O2-
0.042257 0.167159 0.506048 O2-
0.685603 0.553292 0.512634 O2-
0.185603 0.053292 0.531866 O2-
0.839056 0.463335 0.499847 O2-
0.339056 0.963335 0.481645 O2-
0.984307 0.350606 0.500678 O2-
0.484307 0.850606 0.507223 O2-
0.720379 0.348215 0.517158 O2-
0.220379 0.848215 0.533665 O2-
0.903854 0.271458 0.541360 O2-
0.403854 0.771458 0.542822 O2-
0.623095 0.241625 0.473319 O2-
0.123095 0.741625 0.468907 O2-
0.808921 0.171199 0.497738 O2-
0.308921 0.671199 0.478274 O2-
0.543593 0.170027 0.513406 O2-
0.043593 0.670027 0.505274 O2-
0.687356 0.055640 0.513564 O2-
0.187356 0.555640 0.531254 O2-
0.452378 0.080441 0.462187 O2-
0.952378 0.580441 0.539909 O2-
0.572944 0.942366 0.473016 O2-
0.072944 0.442366 0.460091 O2-
0.905428 0.964587 0.558689 O2-
0.405428 0.464587 0.616689 O2-
0.800449 0.859372 0.559864 O2-
0.300449 0.359372 0.596426 O2-
0.757206 0.724144 0.635121 O2-
0.257206 0.224144 0.604216 O2-
0.685355 0.607741 0.551620 O2-
0.185355 0.107741 0.583744 O2-
0.058300 0.021852 0.584130 O2-
0.558300 0.521852 0.619043 O2-
0.840686 0.409378 0.552096 O2-
0.340686 0.909378 0.611510 O2-
0.772630 0.290596 0.559994 O2-
0.272630 0.790596 0.591238 O2-
0.726756 0.156445 0.635149 O2-
0.226756 0.656445 0.598652 O2-
0.618048 0.056520 0.546219 O2-
0.118048 0.556520 0.576907 O2-
0.967956 0.495673 0.575674 O2-
0.467956 0.995673 0.611072 O2-
0.955284 0.073889 0.631058 O2-
0.455284 0.573889 0.553384 O2-
0.071165 0.933926 0.551490 O2-
0.571165 0.433926 0.563112 O2-
0.836724 0.958651 0.591118 O2-
0.336724 0.458651 0.571768 O2-
0.982201 0.846743 0.590549 O2-
0.482201 0.346743 0.598787 O2-
0.714989 0.845353 0.606560 O2-
0.214989 0.345353 0.625101 O2-
0.902007 0.775410 0.629943 O2-
0.402007 0.275410 0.635721 O2-
0.622035 0.747295 0.561785 O2-
0.122035 0.247295 0.562066 O2-
0.803128 0.669352 0.586908 O2-
0.303128 0.169352 0.569870 O2-
0.542257 0.667159 0.603298 O2-
0.042257 0.167159 0.596957 O2-
0.685603 0.553292 0.603543 O2-
0.185603 0.053292 0.622775 O2-
0.839056 0.463335 0.590756 O2-
0.339056 0.963335 0.572554 O2-
0.984307 0.350606 0.591587 O2-
0.484307 0.850606 0.598132 O2-
0.720379 0.348215 0.608067 O2-
0.220379 0.848215 0.624574 O2-
0.903854 0.271458 0.632269 O2-
0.403854 0.771458 0.633731 O2-
0.623095 0.241625 0.564228 O2-
0.123095 0.741625 0.559816 O2-
0.808921 0.171199 0.588647 O2-
0.308921 0.671199 0.569183 O2-
0.543593 0.170027 0.604315 O2-
0.043593 0.670027 0.596183 O2-
0.687356 0.055640 0.604473 O2-
0.187356 0.555640 0.622163 O2-
0.452378 0.080441 0.553096 O2-
0.952378 0.580441 0.630818 O2-
0.572944 0.942366 0.563925 O2-
0.072944 0.442366 0.551000 O2-
