Li71 P24 N1 O94                         
   1.00000000000000     
    14.7007567658122458   -0.0056880458968675   -0.0110589280396099
    -0.0040664358173820   10.5748910417509929   -0.0059898814623445
    -0.0092383979304072   -0.0069840096325788   12.3105326597646858
   Li   P    N    O 
    71    24     1    94
Direct
  0.1760009173438098  0.4190720482806552 -0.0001236308834625
  0.1704625668320562  0.4225915668924460  0.4984785421223893
  0.1740192099740964  0.9261264190567888  0.0046366125098581
  0.1709984470820879  0.9229020905451876  0.4990145608695649
  0.5017211076522554  0.4221287756736251  0.0005884306511436
  0.5025025206872299  0.4225377179233762  0.4994862797955903
  0.5018986035914190  0.9224548956487936  0.0001849569994669
  0.5020287043416942  0.9226564067709300  0.4995661069407663
  0.8387502847269676  0.4252276914078415 -0.0000005782523981
  0.8362429850733841  0.4227447165469936  0.5005603841979105
  0.8337859440842776  0.9178710320007545  0.0005199496045326
  0.8364947165669079  0.9222640301932186  0.5003242276545977
  0.0025306459917615  0.0649107558002198  0.2702016203921133
  0.0035319361272049  0.0751924447010194  0.7436814342987577
  0.0051757744898282  0.5765398277854424  0.2515524699744034
  0.0036439258444981  0.5769522525293571  0.7491460445357864
  0.3313131233440210  0.0795774492642968  0.2447960960081736
  0.3369138526220036  0.0775369330544882  0.7507668076614620
  0.3345713229919778  0.5767866819672461  0.2496848527954685
  0.3367152848616684  0.5776865450753240  0.7506252569377944
  0.6679022310162400  0.0782745298847235  0.2505052052978266
  0.6684200119517115  0.0777708230058073  0.7496619655195252
  0.6690446888468425  0.5766797635185655  0.2501045630986361
  0.6691562925853879  0.5773652306869994  0.7498332640860067
  0.1706889500148969  0.1637631594675286  0.6259601614669799
  0.1709594609100590  0.6624108416795815  0.1268430812872348
  0.1700385639778542  0.6632106483065630  0.6265716072015218
  0.5013168730596960  0.1629043673491011  0.1259265743283956
  0.5021745662952530  0.1631856584705823  0.6261635034850815
  0.5027513522930575  0.6632176885906101  0.1266866141807009
  0.5026621544484144  0.6633273264938999  0.6262213247471718
  0.8328677871174589  0.1629447641830128  0.1280317928033687
  0.8357364034510442  0.1640048831327296  0.6260060251187710
  0.8355041843730756  0.6635737385588671  0.1272217419094667
  0.8360684562839622  0.6637671705198157  0.6263715388846945
 -0.0002577164088535  0.3447910770411611  0.1259069802437712
  0.0038126946453363  0.3373164462606015  0.6237857127543978
  0.0030656200325140  0.8364996887445991  0.1263633032841565
  0.0037444385211282  0.8360521916349396  0.6231656611613228
  0.3331406585921287  0.3324900588963776  0.1234450507430232
  0.3359848198941541  0.3366159020100403  0.6232481084701060
  0.3364216279057197  0.8372428582420064  0.1234286059975867
  0.3359583851705381  0.8368783884582933  0.6232318189269009
  0.6687918612328355  0.3372677823845657  0.1232653787926365
  0.6690782138619142  0.3369030098317358  0.6233538167893260
  0.6685512859255411  0.8373136670384348  0.1243436554212410
  0.6690586776127312  0.8369722701509511  0.6234365742797718
  0.0043900123346710  0.3373889874662219  0.3768931793983851
  0.0027562010924180  0.3312246180647054  0.8730079098091185
  0.0048841391407091  0.8336132358317860  0.3773892621057633
  0.0024274730389387  0.8354686050074962  0.8720510418610063
  0.3355089783721545  0.3368379466295699  0.3754469074922385
  0.3380907075962487  0.3351934106078794  0.8765347312111217
  0.3348290686266765  0.8368260880861567  0.3756667270889969
  0.3363418275909525  0.8369580628719500  0.8769965817982184
  0.6688580837793596  0.3366637116373169  0.3763934097188518
  0.6691051428215843  0.3376481714301501  0.8767201953704451
  0.6691960933139603  0.8371785552560824  0.3760615663615566
  0.6686151986783985  0.8370755747817383  0.8760086162836825
  0.1718367930874701  0.1647701174482850  0.3693266261839607
  0.1741152056502302  0.1632731962543400  0.8747917557654233
  0.1689889204537890  0.6620125089520122  0.3755522303156612
  0.1696243822010565  0.6628107477591105  0.8744950375780948
  0.5014664646259891  0.1632134332185015  0.3731516453950867
  0.5024361727867395  0.1631270630108842  0.8736782356071955
  0.5021864299409839  0.6634756584264970  0.3733367548555114
  0.5031005265629153  0.6632531503975875  0.8738260026763075
  0.8356999209032885  0.1639273343147314  0.3748310550917037
  0.8332949281090144  0.1658731989301383  0.8712212834913851
  0.8367330645478515  0.6629235072955905  0.3735262068565201
  0.8351662587704393  0.6649316786946949  0.8723789524302367
  0.1674343085067733  0.4135617275363895  0.2482037899174186
  0.1676749379112743  0.4120367793038762  0.7497568387791986
  0.1677791975051171  0.9107515087275816  0.2522828503210606
  0.1672514025403142  0.9121361684692323  0.7497508095617316
  0.5001859365975345  0.4119091617932794  0.2497359321443049
  0.5005904084395901  0.4122406719931456  0.7497861550479679
  0.5000175119647927  0.9126169005278434  0.2500863536429374
  0.5003772053996719  0.9120459360495543  0.7497578412164251
  0.8342099287596211  0.4110845192582357  0.2509892802470107
  0.8340097672883804  0.4126709731995831  0.7498016882750608
  0.8346332810537479  0.9127156413667649  0.2499835594407365
  0.8337138646199110  0.9134784185281077  0.7500867313984051
 -0.0007685942379112  0.0837734455142699 -0.0074056015503150
  0.0004960978922734  0.0881574429385893  0.5013863075908774
 -0.0005370615844647  0.5921013795157702 -0.0011750086193329
 -0.0001844153741535  0.5872602381593507  0.5006031847403395
  0.3335394802700525  0.0868133502061766 -0.0013319112455611
  0.3332227831797221  0.0883724909332324  0.4996009954114923
  0.3345779578968004  0.5883141721871465  0.0000056694542383
  0.3337395323996746  0.5877919830298388  0.5003001430576619
  0.6668070211743505  0.0877958128930878  0.0000971181659597
  0.6671437555350376  0.0878772732415400  0.4999493451154349
  0.6674845259367522  0.5881881437178562  0.0002047337096036
  0.6673441057769177  0.5881804700929079  0.4997781920877393
  0.0385284345785214  0.4480974820927311  0.0010961464634483
  0.0358206158792259  0.1579665806549708  0.3979841010172084
  0.0359900207515956  0.1539997082181952  0.8912321490481341
  0.0346092256982031  0.6558234535712251  0.3965328197580717
  0.0336491567226276  0.6607868562267895  0.8941678182730883
  0.3685569390076283  0.1577216303289233  0.3961091150759578
  0.3710802913096189  0.1561335364886463  0.8950127498193940
  0.3687690837311632  0.6568431832293834  0.3963842149829410
  0.3703840708568994  0.6571969574248382  0.8961474635887483
  0.7027666682717341  0.1570161229400603  0.3961630599796924
  0.7023332117348041  0.1571231984465968  0.8963457406730311
  0.7029593361614053  0.6571816992987292  0.3958899430449878
  0.7022594349165389  0.6576771317027865  0.8961604507535627
  0.2016430653668747  0.0477515208761068  0.2566657286875310
  0.2006846450325412  0.0519675675813197  0.7490914587201475
  0.1971002855555688  0.5557977619914362  0.2530530564850033
  0.2003105428458543  0.5523591375795395  0.7502345560466688
  0.5345056985079721  0.0522592547603849  0.2500814395867988
  0.5343430023923393  0.0519520130559188  0.7496685594451493
  0.5344559314364595  0.5517626518439048  0.2501074732217459
  0.5346320041450277  0.5521093353819688  0.7497478786359845
  0.8702752785523205  0.0525013628175636  0.2497570391042038
  0.8679071931720558  0.0533894511508216  0.7502685457558202
  0.8685629019330793  0.5506406217071461  0.2494266783930311
  0.8677490736174962  0.5524992557413265  0.7500318709494548
  0.0604387006065155  0.4071079658619686  0.2485899284793356
  0.0613038163007657  0.4087578708346000  0.7515302653728632
  0.0607586269133473  0.9080392567781845  0.2505481499641897
  0.0608802789045208  0.9098175461462389  0.7493702288516917
  0.3944380805889484  0.4091434515936538  0.2495298512985787
  0.3947329957565182  0.4096343415646871  0.7495536490695394
  0.3943202593623860  0.9100317071193434  0.2501225727446298
  0.3945466156624254  0.9089932891453945  0.7496445465349699
  0.7284420909334413  0.4085259340296066  0.2498560649167050
  0.7281780042784834  0.4092195155959486  0.7501381469396819
  0.7289113229646608  0.9117941799493074  0.2500470946297721
  0.7279324106977362  0.9105346622674425  0.7500510703240492
  0.2291474821189114  0.0869026844257890 -0.0052659202926766
  0.2273185721362190  0.0915039768152820  0.4998785982710888
  0.2288901151981844  0.5927141893718829 -0.0005313555721901
  0.2278377660934295  0.5901880622088664  0.5010818301011135
  0.5612704326425921  0.0902533819710555 -0.0000485875957256
  0.5613315680437957  0.0905929286526022  0.4996881336101000
  0.5616660037332016  0.5897637888536790  0.0002150092264855
  0.5614901004613954  0.5908999124546351  0.4996194527681080
  0.8938177130891418  0.0918489563959218  0.0000627281003163
  0.8945048911425552  0.0905960063227218  0.5005371777713651
  0.8931945083686769  0.5973194910535158 -0.0010730347715633
  0.8938515996953598  0.5903825033333790  0.5005904112109312
  0.2043307642238165  0.3522668143100829  0.1443237193029238
  0.2012099793484108  0.3441933682011940  0.6444693916868312
  0.2020900477318154  0.8414573065049255  0.1477567008676084
  0.2017603722557026  0.8428014081737283  0.6455826881584159
  0.5360035023944358  0.3429030841299860  0.1459451471680669
  0.5359454992514731  0.3429864751402329  0.6458873647522163
  0.5357875678049130  0.8432448795541287  0.1463504228304068
  0.5358147923702637  0.8430770696145089  0.6457244598627611
  0.8699412522551914  0.3397636037168174  0.1476414137301217
  0.8694490933410859  0.3433080520349903  0.6461616208089331
  0.8693093854433027  0.8436907963845580  0.1457463550292601
  0.8694853466180077  0.8439106662757945  0.6467289772337921
  0.0355736765262628  0.1572141539032469  0.6052071068674988
  0.0352347341670773  0.6578674761949844  0.1043046525826221
  0.0353192446608546  0.6567478613755739  0.6043377887599126
  0.3701289384189561  0.1559903734073284  0.1021857195855177
  0.3687584452821791  0.1569477194937368  0.6040493479849522
  0.3699239997970483  0.6568846860003352  0.1043834544905319
  0.3692357741367642  0.6569862597841681  0.6043182678377372
  0.7023832034449876  0.1569722752651721  0.1041365749709758
  0.7025759496612469  0.1571166393427521  0.6039998237258312
  0.7025443175842079  0.6577662254206113  0.1043419017901393
  0.7027397664987730  0.6573457711329337  0.6038906860369739
  0.0336454458882545  0.4476051814946487  0.5006356344919172
  0.0341877618575598  0.9459930704228111  0.0004496257064305
  0.0340023859367651  0.9483438471630189  0.5001401771591900
  0.3675769581832075  0.4481161557085621 -0.0003508961693331
  0.3675456598533021  0.4479176698279023  0.5000483020674240
  0.3691383393984243  0.9468095364187358 -0.0004236185834069
  0.3667662081316331  0.9482513240267112  0.4996383961052951
  0.7025022224603560  0.4488112654575505  0.0002188971104279
  0.7011792506067417  0.4482769831978021  0.4998511382391241
  0.7011595354472613  0.9480881726824132  0.0001283047099696
  0.7013285616769845  0.9481289696824889  0.4999317111463557
  0.2017547726766006  0.3450048244853529  0.3532487697960069
  0.2046445867700895  0.3418286908734727  0.8517198939395753
  0.2000380053107542  0.8373716033611929  0.3559635279175372
  0.2017188491672044  0.8427441550469293  0.8535827039823137
  0.5357510084577167  0.3428790067204761  0.3537518472688308
  0.5359711427999312  0.3433707375864600  0.8538183700753265
  0.5357820801168972  0.8434173207702428  0.3539642025084546
  0.5360713228158838  0.8431088045783606  0.8535762528799351
  0.8693633299037409  0.3428561306936230  0.3551942443144190
  0.8697426106747037  0.3434860835103056  0.8538326325943704
  0.8701676423933141  0.8436323532778105  0.3536191090753298
  0.8690732470678282  0.8453436825774662  0.8545841503868745
 
  0.00000000E+00  0.00000000E+00  0.00000000E+00
  0.00000000E+00  0.00000000E+00  0.00000000E+00
  0.00000000E+00  0.00000000E+00  0.00000000E+00
  0.00000000E+00  0.00000000E+00  0.00000000E+00
  0.00000000E+00  0.00000000E+00  0.00000000E+00
  0.00000000E+00  0.00000000E+00  0.00000000E+00
  0.00000000E+00  0.00000000E+00  0.00000000E+00
  0.00000000E+00  0.00000000E+00  0.00000000E+00
  0.00000000E+00  0.00000000E+00  0.00000000E+00
  0.00000000E+00  0.00000000E+00  0.00000000E+00
  0.00000000E+00  0.00000000E+00  0.00000000E+00
  0.00000000E+00  0.00000000E+00  0.00000000E+00
  0.00000000E+00  0.00000000E+00  0.00000000E+00
  0.00000000E+00  0.00000000E+00  0.00000000E+00
  0.00000000E+00  0.00000000E+00  0.00000000E+00
  0.00000000E+00  0.00000000E+00  0.00000000E+00
  0.00000000E+00  0.00000000E+00  0.00000000E+00
  0.00000000E+00  0.00000000E+00  0.00000000E+00
  0.00000000E+00  0.00000000E+00  0.00000000E+00
  0.00000000E+00  0.00000000E+00  0.00000000E+00
  0.00000000E+00  0.00000000E+00  0.00000000E+00
  0.00000000E+00  0.00000000E+00  0.00000000E+00
  0.00000000E+00  0.00000000E+00  0.00000000E+00
  0.00000000E+00  0.00000000E+00  0.00000000E+00
  0.00000000E+00  0.00000000E+00  0.00000000E+00
  0.00000000E+00  0.00000000E+00  0.00000000E+00
  0.00000000E+00  0.00000000E+00  0.00000000E+00
  0.00000000E+00  0.00000000E+00  0.00000000E+00
  0.00000000E+00  0.00000000E+00  0.00000000E+00
  0.00000000E+00  0.00000000E+00  0.00000000E+00
  0.00000000E+00  0.00000000E+00  0.00000000E+00
  0.00000000E+00  0.00000000E+00  0.00000000E+00
  0.00000000E+00  0.00000000E+00  0.00000000E+00
  0.00000000E+00  0.00000000E+00  0.00000000E+00
  0.00000000E+00  0.00000000E+00  0.00000000E+00
  0.00000000E+00  0.00000000E+00  0.00000000E+00
  0.00000000E+00  0.00000000E+00  0.00000000E+00
  0.00000000E+00  0.00000000E+00  0.00000000E+00
  0.00000000E+00  0.00000000E+00  0.00000000E+00
  0.00000000E+00  0.00000000E+00  0.00000000E+00
  0.00000000E+00  0.00000000E+00  0.00000000E+00
  0.00000000E+00  0.00000000E+00  0.00000000E+00
  0.00000000E+00  0.00000000E+00  0.00000000E+00
  0.00000000E+00  0.00000000E+00  0.00000000E+00
  0.00000000E+00  0.00000000E+00  0.00000000E+00
  0.00000000E+00  0.00000000E+00  0.00000000E+00
  0.00000000E+00  0.00000000E+00  0.00000000E+00
  0.00000000E+00  0.00000000E+00  0.00000000E+00
  0.00000000E+00  0.00000000E+00  0.00000000E+00
  0.00000000E+00  0.00000000E+00  0.00000000E+00
  0.00000000E+00  0.00000000E+00  0.00000000E+00
  0.00000000E+00  0.00000000E+00  0.00000000E+00
  0.00000000E+00  0.00000000E+00  0.00000000E+00
  0.00000000E+00  0.00000000E+00  0.00000000E+00
  0.00000000E+00  0.00000000E+00  0.00000000E+00
  0.00000000E+00  0.00000000E+00  0.00000000E+00
  0.00000000E+00  0.00000000E+00  0.00000000E+00
  0.00000000E+00  0.00000000E+00  0.00000000E+00
  0.00000000E+00  0.00000000E+00  0.00000000E+00
  0.00000000E+00  0.00000000E+00  0.00000000E+00
  0.00000000E+00  0.00000000E+00  0.00000000E+00
  0.00000000E+00  0.00000000E+00  0.00000000E+00
  0.00000000E+00  0.00000000E+00  0.00000000E+00
  0.00000000E+00  0.00000000E+00  0.00000000E+00
  0.00000000E+00  0.00000000E+00  0.00000000E+00
  0.00000000E+00  0.00000000E+00  0.00000000E+00
  0.00000000E+00  0.00000000E+00  0.00000000E+00
  0.00000000E+00  0.00000000E+00  0.00000000E+00
  0.00000000E+00  0.00000000E+00  0.00000000E+00
  0.00000000E+00  0.00000000E+00  0.00000000E+00
  0.00000000E+00  0.00000000E+00  0.00000000E+00
  0.00000000E+00  0.00000000E+00  0.00000000E+00
  0.00000000E+00  0.00000000E+00  0.00000000E+00
  0.00000000E+00  0.00000000E+00  0.00000000E+00
  0.00000000E+00  0.00000000E+00  0.00000000E+00
  0.00000000E+00  0.00000000E+00  0.00000000E+00
  0.00000000E+00  0.00000000E+00  0.00000000E+00
  0.00000000E+00  0.00000000E+00  0.00000000E+00
  0.00000000E+00  0.00000000E+00  0.00000000E+00
  0.00000000E+00  0.00000000E+00  0.00000000E+00
  0.00000000E+00  0.00000000E+00  0.00000000E+00
  0.00000000E+00  0.00000000E+00  0.00000000E+00
  0.00000000E+00  0.00000000E+00  0.00000000E+00
  0.00000000E+00  0.00000000E+00  0.00000000E+00
  0.00000000E+00  0.00000000E+00  0.00000000E+00
  0.00000000E+00  0.00000000E+00  0.00000000E+00
  0.00000000E+00  0.00000000E+00  0.00000000E+00
  0.00000000E+00  0.00000000E+00  0.00000000E+00
  0.00000000E+00  0.00000000E+00  0.00000000E+00
  0.00000000E+00  0.00000000E+00  0.00000000E+00
  0.00000000E+00  0.00000000E+00  0.00000000E+00
  0.00000000E+00  0.00000000E+00  0.00000000E+00
  0.00000000E+00  0.00000000E+00  0.00000000E+00
  0.00000000E+00  0.00000000E+00  0.00000000E+00
  0.00000000E+00  0.00000000E+00  0.00000000E+00
  0.00000000E+00  0.00000000E+00  0.00000000E+00
  0.00000000E+00  0.00000000E+00  0.00000000E+00
  0.00000000E+00  0.00000000E+00  0.00000000E+00
  0.00000000E+00  0.00000000E+00  0.00000000E+00
  0.00000000E+00  0.00000000E+00  0.00000000E+00
  0.00000000E+00  0.00000000E+00  0.00000000E+00
  0.00000000E+00  0.00000000E+00  0.00000000E+00
  0.00000000E+00  0.00000000E+00  0.00000000E+00
  0.00000000E+00  0.00000000E+00  0.00000000E+00
  0.00000000E+00  0.00000000E+00  0.00000000E+00
  0.00000000E+00  0.00000000E+00  0.00000000E+00
  0.00000000E+00  0.00000000E+00  0.00000000E+00
  0.00000000E+00  0.00000000E+00  0.00000000E+00
  0.00000000E+00  0.00000000E+00  0.00000000E+00
  0.00000000E+00  0.00000000E+00  0.00000000E+00
  0.00000000E+00  0.00000000E+00  0.00000000E+00
  0.00000000E+00  0.00000000E+00  0.00000000E+00
  0.00000000E+00  0.00000000E+00  0.00000000E+00
  0.00000000E+00  0.00000000E+00  0.00000000E+00
  0.00000000E+00  0.00000000E+00  0.00000000E+00
  0.00000000E+00  0.00000000E+00  0.00000000E+00
  0.00000000E+00  0.00000000E+00  0.00000000E+00
  0.00000000E+00  0.00000000E+00  0.00000000E+00
  0.00000000E+00  0.00000000E+00  0.00000000E+00
  0.00000000E+00  0.00000000E+00  0.00000000E+00
  0.00000000E+00  0.00000000E+00  0.00000000E+00
  0.00000000E+00  0.00000000E+00  0.00000000E+00
  0.00000000E+00  0.00000000E+00  0.00000000E+00
  0.00000000E+00  0.00000000E+00  0.00000000E+00
  0.00000000E+00  0.00000000E+00  0.00000000E+00
  0.00000000E+00  0.00000000E+00  0.00000000E+00
  0.00000000E+00  0.00000000E+00  0.00000000E+00
  0.00000000E+00  0.00000000E+00  0.00000000E+00
  0.00000000E+00  0.00000000E+00  0.00000000E+00
  0.00000000E+00  0.00000000E+00  0.00000000E+00
  0.00000000E+00  0.00000000E+00  0.00000000E+00
  0.00000000E+00  0.00000000E+00  0.00000000E+00
  0.00000000E+00  0.00000000E+00  0.00000000E+00
  0.00000000E+00  0.00000000E+00  0.00000000E+00
  0.00000000E+00  0.00000000E+00  0.00000000E+00
  0.00000000E+00  0.00000000E+00  0.00000000E+00
  0.00000000E+00  0.00000000E+00  0.00000000E+00
  0.00000000E+00  0.00000000E+00  0.00000000E+00
  0.00000000E+00  0.00000000E+00  0.00000000E+00
  0.00000000E+00  0.00000000E+00  0.00000000E+00
  0.00000000E+00  0.00000000E+00  0.00000000E+00
  0.00000000E+00  0.00000000E+00  0.00000000E+00
  0.00000000E+00  0.00000000E+00  0.00000000E+00
  0.00000000E+00  0.00000000E+00  0.00000000E+00
  0.00000000E+00  0.00000000E+00  0.00000000E+00
  0.00000000E+00  0.00000000E+00  0.00000000E+00
  0.00000000E+00  0.00000000E+00  0.00000000E+00
  0.00000000E+00  0.00000000E+00  0.00000000E+00
  0.00000000E+00  0.00000000E+00  0.00000000E+00
  0.00000000E+00  0.00000000E+00  0.00000000E+00
  0.00000000E+00  0.00000000E+00  0.00000000E+00
  0.00000000E+00  0.00000000E+00  0.00000000E+00
  0.00000000E+00  0.00000000E+00  0.00000000E+00
  0.00000000E+00  0.00000000E+00  0.00000000E+00
  0.00000000E+00  0.00000000E+00  0.00000000E+00
  0.00000000E+00  0.00000000E+00  0.00000000E+00
  0.00000000E+00  0.00000000E+00  0.00000000E+00
  0.00000000E+00  0.00000000E+00  0.00000000E+00
  0.00000000E+00  0.00000000E+00  0.00000000E+00
  0.00000000E+00  0.00000000E+00  0.00000000E+00
  0.00000000E+00  0.00000000E+00  0.00000000E+00
  0.00000000E+00  0.00000000E+00  0.00000000E+00
  0.00000000E+00  0.00000000E+00  0.00000000E+00
  0.00000000E+00  0.00000000E+00  0.00000000E+00
  0.00000000E+00  0.00000000E+00  0.00000000E+00
  0.00000000E+00  0.00000000E+00  0.00000000E+00
  0.00000000E+00  0.00000000E+00  0.00000000E+00
  0.00000000E+00  0.00000000E+00  0.00000000E+00
  0.00000000E+00  0.00000000E+00  0.00000000E+00
  0.00000000E+00  0.00000000E+00  0.00000000E+00
  0.00000000E+00  0.00000000E+00  0.00000000E+00
  0.00000000E+00  0.00000000E+00  0.00000000E+00
  0.00000000E+00  0.00000000E+00  0.00000000E+00
  0.00000000E+00  0.00000000E+00  0.00000000E+00
  0.00000000E+00  0.00000000E+00  0.00000000E+00
  0.00000000E+00  0.00000000E+00  0.00000000E+00
  0.00000000E+00  0.00000000E+00  0.00000000E+00
  0.00000000E+00  0.00000000E+00  0.00000000E+00
  0.00000000E+00  0.00000000E+00  0.00000000E+00
  0.00000000E+00  0.00000000E+00  0.00000000E+00
  0.00000000E+00  0.00000000E+00  0.00000000E+00
  0.00000000E+00  0.00000000E+00  0.00000000E+00
  0.00000000E+00  0.00000000E+00  0.00000000E+00
  0.00000000E+00  0.00000000E+00  0.00000000E+00
  0.00000000E+00  0.00000000E+00  0.00000000E+00
  0.00000000E+00  0.00000000E+00  0.00000000E+00
  0.00000000E+00  0.00000000E+00  0.00000000E+00
  0.00000000E+00  0.00000000E+00  0.00000000E+00
  0.00000000E+00  0.00000000E+00  0.00000000E+00
  0.00000000E+00  0.00000000E+00  0.00000000E+00
