Li5 P2 N1 O6                            
   1.00000000000000     
    -0.0049267358342678    0.0237142929849615    4.9723084741564607
     6.3362830743851664    0.0744394559935654   -0.0063832658176564
     0.0645780223843870    5.3490537264471305    0.0252368824804893
   Li   P    N    O 
     5     2     1     6
Direct
  0.5002889014602210  0.0020388362982281  0.8530566276394194
  0.4923390391823539  0.7742924015140225  0.3410158952060670
  0.0033813626026971  0.7542298202834055  0.6759110707167132
  0.0058282813636969  0.2522873829160246  0.6779402920509796
  0.5235596111523143  0.2262449042782325  0.3391856774442699
  0.4861632503839708  0.5000187392008827  0.8030314762648357
  0.0069514409557997 -0.0012970491242455  0.1716036064807693
  0.1263453853375256  0.1948654285840724  0.3255924914681676
  0.6081562710163545  0.7070327954643838  0.6822853892141270
  0.1149311250822709  0.8051929628956542  0.3243914784367949
  0.6092512063907994  0.2957690394683843  0.6901196839152681
  0.1008057628134577 -0.0048391883248803  0.8914456061997014
  0.1789237715350765  0.5015351349198265  0.7936768196302910
  0.6893315907234921 -0.0073712083739906  0.1717558853326007
 
  0.00000000E+00  0.00000000E+00  0.00000000E+00
  0.00000000E+00  0.00000000E+00  0.00000000E+00
  0.00000000E+00  0.00000000E+00  0.00000000E+00
  0.00000000E+00  0.00000000E+00  0.00000000E+00
  0.00000000E+00  0.00000000E+00  0.00000000E+00
  0.00000000E+00  0.00000000E+00  0.00000000E+00
  0.00000000E+00  0.00000000E+00  0.00000000E+00
  0.00000000E+00  0.00000000E+00  0.00000000E+00
  0.00000000E+00  0.00000000E+00  0.00000000E+00
  0.00000000E+00  0.00000000E+00  0.00000000E+00
  0.00000000E+00  0.00000000E+00  0.00000000E+00
  0.00000000E+00  0.00000000E+00  0.00000000E+00
  0.00000000E+00  0.00000000E+00  0.00000000E+00
  0.00000000E+00  0.00000000E+00  0.00000000E+00
