Li1 N3
1.0
1.654130 2.803148 0.000370
-1.654130 2.803148 0.000370
0.000000 1.460952 4.699128
Li N
1 3
direct
-0.000000 -0.000000 -0.000000 Li
0.605876 0.605876 0.256533 N
0.394124 0.394124 0.743467 N
0.500000 0.500000 0.500000 N
