Li5 P2 N1 O6                            
   1.00000000000000     
    -0.0946034231027667   -0.0333245529174130    5.3075594395425485
     6.1533067257562761   -0.1338700134056537   -0.1235463730483285
    -0.0980687034757514    5.3144490847068742   -0.0486766209830675
   Li   P    N    O 
     5     2     1     6
Direct
  0.4527768433279819  0.1949954247022375  0.1796468041813275
  0.9330673783044305  0.4678412284634975  0.2535314009029104
  0.4587001849784056  0.7193974084981206  0.2656020311792335
  0.1103988188735544  0.7352656841756616  0.6398018979949922
  0.0127227339776211  0.1900983550392665  0.6339474639580271
  0.6322970434359875  0.5222027534401619  0.7868456531790103
  0.9659236871384674  0.9688049906640385  0.1522249597536731
  0.5983195476139381  0.4668066252452721  0.0611428438993455
  0.1025305091161967  0.1781940602584418  0.2797039399969951
  0.4412365062635089  0.6254363944040948  0.6191003708840744
  0.0885270390973556  0.7668804687044352  0.2658176470450898
  0.8730642851465268  0.4722379183054722  0.6405743403554133
  0.0126941529807348  0.9677541773304983  0.8635929608954998
  0.6819872697453068  0.9712115107688011  0.2136376857744018
 
  0.00000000E+00  0.00000000E+00  0.00000000E+00
  0.00000000E+00  0.00000000E+00  0.00000000E+00
  0.00000000E+00  0.00000000E+00  0.00000000E+00
  0.00000000E+00  0.00000000E+00  0.00000000E+00
  0.00000000E+00  0.00000000E+00  0.00000000E+00
  0.00000000E+00  0.00000000E+00  0.00000000E+00
  0.00000000E+00  0.00000000E+00  0.00000000E+00
  0.00000000E+00  0.00000000E+00  0.00000000E+00
  0.00000000E+00  0.00000000E+00  0.00000000E+00
  0.00000000E+00  0.00000000E+00  0.00000000E+00
  0.00000000E+00  0.00000000E+00  0.00000000E+00
  0.00000000E+00  0.00000000E+00  0.00000000E+00
  0.00000000E+00  0.00000000E+00  0.00000000E+00
  0.00000000E+00  0.00000000E+00  0.00000000E+00
