Li42 P14 O56
1.0
5.296402 0.000000 0.000000
-0.000000 6.176136 -4.922448
0.000000 0.000000 63.991824
Li P O
42 14 56
direct
0.844520 0.000000 0.017277 Li+
0.155480 0.500000 0.017277 Li+
0.326434 0.747127 0.074667 Li+
0.673566 0.752873 0.036647 Li+
0.673566 0.247127 0.074667 Li+
0.326434 0.252873 0.036647 Li+
0.844520 0.000000 0.094200 Li+
0.155480 0.500000 0.094200 Li+
0.326434 0.747127 0.151590 Li+
0.673566 0.752873 0.113571 Li+
0.673566 0.247127 0.151590 Li+
0.326434 0.252873 0.113571 Li+
0.844520 0.000000 0.171123 Li+
0.155480 0.500000 0.171123 Li+
0.326434 0.747127 0.228513 Li+
0.673566 0.752873 0.190494 Li+
0.673566 0.247127 0.228513 Li+
0.326434 0.252873 0.190494 Li+
0.844520 0.000000 0.248046 Li+
0.155480 0.500000 0.248046 Li+
0.326434 0.747127 0.305436 Li+
0.673566 0.752873 0.267417 Li+
0.673566 0.247127 0.305436 Li+
0.326434 0.252873 0.267417 Li+
0.844520 0.000000 0.324969 Li+
0.155480 0.500000 0.324969 Li+
0.326434 0.747127 0.382359 Li+
0.673566 0.752873 0.344340 Li+
0.673566 0.247127 0.382359 Li+
0.326434 0.252873 0.344340 Li+
0.844520 0.000000 0.401892 Li+
0.155480 0.500000 0.401892 Li+
0.326434 0.747127 0.459282 Li+
0.673566 0.752873 0.421263 Li+
0.673566 0.247127 0.459282 Li+
0.326434 0.252873 0.421263 Li+
0.844520 0.000000 0.478815 Li+
0.155480 0.500000 0.478815 Li+
0.326434 0.747127 0.536205 Li+
0.673566 0.752873 0.498186 Li+
0.673566 0.247127 0.536205 Li+
0.326434 0.252873 0.498186 Li+
0.824261 0.500000 0.055123 P5+
0.175739 0.000000 0.055123 P5+
0.824261 0.500000 0.132046 P5+
0.175739 0.000000 0.132046 P5+
0.824261 0.500000 0.208969 P5+
0.175739 0.000000 0.208969 P5+
0.824261 0.500000 0.285892 P5+
0.175739 0.000000 0.285892 P5+
0.824261 0.500000 0.362815 P5+
0.175739 0.000000 0.362815 P5+
0.824261 0.500000 0.439739 P5+
0.175739 0.000000 0.439739 P5+
0.824261 0.500000 0.516662 P5+
0.175739 0.000000 0.516662 P5+
0.313509 0.207138 0.002256 O2-
0.103508 0.500000 0.062870 O2-
0.818396 0.500000 0.030798 O2-
0.181604 0.000000 0.030798 O2-
0.686491 0.707138 0.002256 O2-
0.313509 0.792862 0.047312 O2-
0.896492 0.000000 0.062870 O2-
0.686491 0.292862 0.047312 O2-
0.313509 0.207138 0.079179 O2-
0.103508 0.500000 0.139793 O2-
0.818396 0.500000 0.107721 O2-
0.181604 0.000000 0.107721 O2-
0.686491 0.707138 0.079179 O2-
0.313509 0.792862 0.124235 O2-
0.896492 0.000000 0.139793 O2-
0.686491 0.292862 0.124235 O2-
0.313509 0.207138 0.156102 O2-
0.103508 0.500000 0.216716 O2-
0.818396 0.500000 0.184644 O2-
0.181604 0.000000 0.184644 O2-
0.686491 0.707138 0.156102 O2-
0.313509 0.792862 0.201158 O2-
0.896492 0.000000 0.216716 O2-
0.686491 0.292862 0.201158 O2-
0.313509 0.207138 0.233025 O2-
0.103508 0.500000 0.293639 O2-
0.818396 0.500000 0.261567 O2-
0.181604 0.000000 0.261567 O2-
0.686491 0.707138 0.233025 O2-
0.313509 0.792862 0.278081 O2-
0.896492 0.000000 0.293639 O2-
0.686491 0.292862 0.278081 O2-
0.313509 0.207138 0.309948 O2-
0.103508 0.500000 0.370562 O2-
0.818396 0.500000 0.338490 O2-
0.181604 0.000000 0.338490 O2-
0.686491 0.707138 0.309948 O2-
0.313509 0.792862 0.355004 O2-
0.896492 0.000000 0.370562 O2-
0.686491 0.292862 0.355004 O2-
0.313509 0.207138 0.386871 O2-
0.103508 0.500000 0.447485 O2-
0.818396 0.500000 0.415413 O2-
0.181604 0.000000 0.415413 O2-
0.686491 0.707138 0.386871 O2-
0.313509 0.792862 0.431927 O2-
0.896492 0.000000 0.447485 O2-
0.686491 0.292862 0.431927 O2-
0.313509 0.207138 0.463795 O2-
0.103508 0.500000 0.524408 O2-
0.818396 0.500000 0.492336 O2-
0.181604 0.000000 0.492336 O2-
0.686491 0.707138 0.463795 O2-
0.313509 0.792862 0.508850 O2-
0.896492 0.000000 0.524408 O2-
0.686491 0.292862 0.508850 O2-
