Li71 P24 N1 O94                         
   1.00000000000000     
    14.7105082846253605    0.0063573759039505    0.0020382441599643
     0.0045548507249660   10.5766354275597507    0.0094536606404807
     0.0016775289760400    0.0110559491171597   12.3028203326620709
   Li   P    N    O 
    71    24     1    94
Direct
  0.1705599466604805  0.4196613437603009 -0.0020748046542792
  0.1702287961701149  0.4247023751380548  0.5038898965246811
  0.1687234165395479  0.9299178663778472  0.0039904624911854
  0.1707332612380239  0.9253087687761288  0.4990012979783053
  0.5026181641136951  0.4215117730914295 -0.0000929020676445
  0.5030129015016011  0.4222668394847725  0.5004435544820071
  0.5041428998357558  0.9232595957004770  0.0002470360417097
  0.5026561980072798  0.9231675983643531  0.4997742460091534
  0.8354537733796590  0.4219004940525064 -0.0013149616239709
  0.8342624744105137  0.4225606364726160  0.5015764769556550
  0.8357056358121493  0.9205052169957288 -0.0016083835012024
  0.8362038532307635  0.9224909810089044  0.5002786750892573
  0.0116208219670833  0.0738171389206046  0.2476932402629937
  0.0036535831653734  0.0765182970947432  0.7519368948654643
 -0.0060310271106780  0.6133442665036113  0.2497884339881999
  0.0033549762774293  0.5779840359151570  0.7504641185150407
  0.3378568846560266  0.0790300321073159  0.2451168049469421
  0.3359541751986161  0.0770868824073414  0.7517810273737749
  0.3404303268130467  0.5816384729918360  0.2495991943235935
  0.3366717516173421  0.5777063599061945  0.7506353748967470
  0.6705342301236176  0.0767429088250527  0.2491849835727373
  0.6696196251040797  0.0766047223970532  0.7499305321214795
  0.6682615917852498  0.5775617982337011  0.2496090235544949
  0.6691544872314555  0.5779078348646893  0.7500982038880784
  0.1698995389687789  0.1633650133257456  0.6274445837391662
  0.1690516265601087  0.6640167289268758  0.1229605058547519
  0.1702351174861385  0.6648645342972315  0.6274737368930643
  0.5031632985560018  0.1626725598333888  0.1254023213550955
  0.5026438342401623  0.1630828301204935  0.6268006987695166
  0.5024158845618755  0.6642631085643442  0.1253202695941497
  0.5027693244991479  0.6637925920648357  0.6265246404011389
  0.8403062513769562  0.1604585374311547  0.1253724601965314
  0.8360689268311199  0.1630494109099893  0.6265670676399081
  0.8341069074756677  0.6631765857341154  0.1244721211241325
  0.8356099683973356  0.6636995728621962  0.6267980151666372
  0.0020913578213826  0.3268956982482895  0.1103455387654023
  0.0029648426956743  0.3361182613778586  0.6263582955859737
  0.0025827015686146  0.8381401134042521  0.1200919271392713
  0.0030561210348122  0.8368908121643592  0.6241373862463174
  0.3356631691816667  0.3310748388518510  0.1214775279666790
  0.3365078852469853  0.3361293387292327  0.6245769366980299
  0.3353387633428167  0.8392217933405789  0.1227067081338941
  0.3360264421438338  0.8376455310671010  0.6237403264910145
  0.6698543463928260  0.3359603239871310  0.1237683318618170
  0.6689828964213150  0.3365676519439675  0.6241113793623810
  0.6701215114838943  0.8367965876191533  0.1236777167055992
  0.6692516032736295  0.8369589477289094  0.6234243436884778
 -0.0023572977463473  0.3297561610083741  0.3911546791951460
  0.0029602033217385  0.3351197288431654  0.8749863511470271
  0.0024198484099859  0.8391609440874966  0.3785588087976856
  0.0032732969592096  0.8366617963509215  0.8762005717381112
  0.3394270153521905  0.3358532581919710  0.3776958667471399
  0.3370182076658571  0.3339499388244195  0.8763981962553341
  0.3355734027616646  0.8387740589606113  0.3751633341250563
  0.3362148923287238  0.8377629403497528  0.8777106437969269
  0.6691441187551592  0.3367428233114790  0.3757283251895609
  0.6693780841971074  0.3365628208520205  0.8761513589428113
  0.6695893110346886  0.8371568215464381  0.3765039948437891
  0.6695065181946087  0.8368370749925299  0.8762194956616176
  0.1683856033569149  0.1672531903742890  0.3727354405035035
  0.1687410413470606  0.1625281655150496  0.8791493914152095
  0.1680604403887984  0.6646775630030395  0.3787776961186755
  0.1701695993652221  0.6640386088859900  0.8739051451349619
  0.5035680637647040  0.1627051300882911  0.3731585587916607
  0.5034840181808241  0.1626410452178728  0.8736571009694748
  0.5028502386476840  0.6642965535041930  0.3739466224472351
  0.5024280823924121  0.6634358867799381  0.8736260657191330
  0.8366437558423423  0.1612663955502041  0.3721600813606268
  0.8356431821094109  0.1623382945599531  0.8714414548995807
  0.8337481337529885  0.6636499317401950  0.3753971983479399
  0.8360071748350607  0.6629814241841990  0.8728760700560034
  0.1716579334307637  0.4185007118263842  0.2496286258258172
  0.1672901030851791  0.4125144035392558  0.7501813615293822
  0.1663891588795533  0.9063815615104243  0.2499806291048045
  0.1668692339540445  0.9122975058518713  0.7500984053578160
  0.4996617146687139  0.4122591057050802  0.2496875152164867
  0.5004834153289388  0.4124802000924970  0.7500738601237387
  0.5017015565287321  0.9114763896824731  0.2499143895920097
  0.5006760075172186  0.9117128296050109  0.7497828860938844
  0.8359599259733781  0.4135042456534455  0.2498170485213893
  0.8337604040600209  0.4126331342373783  0.7497971822397929
  0.8344319423753249  0.9106639931753444  0.2502064603969516
  0.8340157123840228  0.9112466959983794  0.7491025501482299
 -0.0030602574796620  0.0864610713323084  0.0001795096778701
  0.0000549689891961  0.0880341028634292  0.5009874733719943
 -0.0002402262685783  0.5863264327747139 -0.0001630512996625
 -0.0007094693236417  0.5873291849633805  0.5003560341725437
  0.3351034085179180  0.0866106333985996 -0.0016355072455638
  0.3340776701575424  0.0893449928173326  0.5002139692097440
  0.3336256981554498  0.5869305131190675 -0.0002970407049630
  0.3339110227855001  0.5882125779229836  0.5005838344879501
  0.6684242570330687  0.0881272150527649 -0.0002797181581458
  0.6675281581321725  0.0884215329700550  0.4999176640309030
  0.6668647692332512  0.5872651185091249 -0.0000188911424166
  0.6665235522288870  0.5875157703514018  0.4997960406966079
  0.2054933541341026  0.0484298552011376  0.2610948974134013
  0.0349018075518016  0.1585034494264466  0.3972285367915677
  0.0338588888805108  0.1573192461896691  0.8973225865309177
  0.0341971267078594  0.6563231931820183  0.3959363284233439
  0.0356273782288832  0.6555348155870574  0.8965357236431265
  0.3710551352596797  0.1591120752087703  0.3975144656775489
  0.3719289781921652  0.1560499880344636  0.8941628300871904
  0.3689254677549483  0.6573064623439945  0.3964328447254687
  0.3689048771068323  0.6563805600874150  0.8958268273083313
  0.7029335046845830  0.1576768841143774  0.3957804089680955
  0.7028557270368153  0.1570651453373226  0.8950657566233654
  0.7016446730005529  0.6562531466505690  0.3954127534359858
  0.7025601484000731  0.6566103430317469  0.8962579663448267
  0.1995606216914189  0.0523844450083328  0.7501187120835603
  0.1984248924763030  0.5606170236313744  0.2536873049020058
  0.2007681248077848  0.5523969947893115  0.7500248810062949
  0.5354053557780647  0.0514469640930782  0.2498123463113150
  0.5348614980227970  0.0513170694492410  0.7495981105176429
  0.5327231028566778  0.5525093109667646  0.2498239355940995
  0.5342544378521784  0.5523494866465881  0.7498075558847572
  0.8689118829209189  0.0496995633530827  0.2504608388335872
  0.8679197810752700  0.0508511832698356  0.7486332547344069
  0.8693201437908820  0.5537668450116404  0.2505110162891636
  0.8678135174077602  0.5522950553933474  0.7496471767724188
  0.0612302938885535  0.4102613413641666  0.7502043739412730
  0.0597267263224160  0.8982344294172473  0.2489284169448246
  0.0608163520109393  0.9084328905244009  0.7497833721333188
  0.3935785002187290  0.4090128201135261  0.2492860589236383
  0.3946563637004757  0.4098618788800737  0.7501408965812635
  0.3961805235402811  0.9077919356490135  0.2494626548698881
  0.3948710014433001  0.9087863875868203  0.7499094067618831
  0.7303302642695034  0.4100079499454292  0.2498357527881971
  0.7279604990215121  0.4102386721847524  0.7497196275436743
  0.7285367056123727  0.9086002401967619  0.2502360293824210
  0.7281503409622286  0.9087083886406745  0.7494758476399213
  0.2309364579980217  0.0866269802121713 -0.0042133456417211
  0.2281478160519369  0.0939278402168922  0.4999940252667308
  0.2277252993810196  0.5892164190932706 -0.0006400295383145
  0.2279345061756326  0.5906791290305354  0.5014310326543981
  0.5627144474313946  0.0912988364184264  0.0002755181802423
  0.5617292401092131  0.0911512354428727  0.4999860309060676
  0.5611085578617061  0.5899195129113358 -0.0001591668460839
  0.5607871812137176  0.5903180488605635  0.5000737314192120
  0.8906872366002760  0.0858786169628461 -0.0052246391928490
  0.8941925443337886  0.0907402778189034  0.5002279112801393
  0.8940104167256908  0.5892348114759572 -0.0003322398471504
  0.8936440780727548  0.5893021581532116  0.5004931135249961
  0.2014042228964575  0.3544973978920813  0.1442729605937088
  0.2020851406083007  0.3438112121536700  0.6457997955100530
  0.2008392415395834  0.8379709458516511  0.1448982630262471
  0.2020910675481917  0.8440548943367138  0.6454201393710374
  0.5360826831569037  0.3434179558482561  0.1463960308989802
  0.5357044882154327  0.3433007999818838  0.6460716059046218
  0.5378359041810737  0.8421959993926138  0.1464512771497000
  0.5358563846993308  0.8428408060803815  0.6455143115949513
  0.8727073182046439  0.3452997808398128  0.1464180209501441
  0.8691231928092189  0.3434215942632769  0.6458130388884628
  0.8691706127094558  0.8403580646791230  0.1464283590208313
  0.8691216371432108  0.8422047727457055  0.6449293734100717
  0.0246700914195869  0.1545963957517991  0.1058376759261759
  0.0351278326043517  0.1572680310515575  0.6047684510461930
  0.0347771173586094  0.6548139101450680  0.1042875369550023
  0.0354226261572835  0.6560033718635755  0.6035095987005582
  0.3721923644388810  0.1568405512333046  0.1011891436658694
  0.3690892546981525  0.1567631527310183  0.6051654232428465
  0.3686513807271709  0.6565367904657436  0.1035469046373299
  0.3691991912714914  0.6571205411795593  0.6043087892298804
  0.7045318723097335  0.1572582629169318  0.1033448814974859
  0.7027685834381636  0.1574557987495763  0.6038631921288206
  0.7020622141330054  0.6560011434941977  0.1041372096663657
  0.7023061718456793  0.6566763680776067  0.6033153781076004
  0.0340013405820589  0.4465431660787880  0.0006984441937228
  0.0340008099752188  0.4475027410663267  0.4991808394654575
  0.0325029092657225  0.9472642024260466 -0.0009814933559685
  0.0342773430126619  0.9486402199059089  0.5003626575078710
  0.3675631623517898  0.4471386179083066 -0.0001020349548759
  0.3674009924693377  0.4480978915634238  0.5002822636789956
  0.3714557033367655  0.9470614856307352 -0.0002215096328675
  0.3668148497332370  0.9488790940199816  0.4996215476832718
  0.7009678719851757  0.4474332744137572  0.0001730947723897
  0.7003763039780264  0.4475439702463478  0.4996433148535687
  0.7015361470127549  0.9478473099521074 -0.0003022889632637
  0.7015187903709295  0.9486065258159566  0.4998986946068323
  0.1993973110817114  0.3484645452756509  0.3559151318482101
  0.2025226886659243  0.3427381987652885  0.8535381953092031
  0.2012265242110723  0.8377521837175268  0.3555999715819420
  0.2021356929222005  0.8425013365031980  0.8535702959907614
  0.5351684525772793  0.3437007263412739  0.3539844311062715
  0.5361483942576644  0.3434580709124259  0.8539307467753471
  0.5368509117678467  0.8429569192844741  0.3545919811190108
  0.5364486625086896  0.8423258324823174  0.8535045705105185
  0.8717549389857927  0.3442981557500735  0.3538447417026516
  0.8690968741243610  0.3432682910134611  0.8536669444035618
  0.8692102424916882  0.8407460230351999  0.3545044631522737
  0.8693400467999920  0.8412096774603287  0.8526582480790256
 
  0.00000000E+00  0.00000000E+00  0.00000000E+00
  0.00000000E+00  0.00000000E+00  0.00000000E+00
  0.00000000E+00  0.00000000E+00  0.00000000E+00
  0.00000000E+00  0.00000000E+00  0.00000000E+00
  0.00000000E+00  0.00000000E+00  0.00000000E+00
  0.00000000E+00  0.00000000E+00  0.00000000E+00
  0.00000000E+00  0.00000000E+00  0.00000000E+00
  0.00000000E+00  0.00000000E+00  0.00000000E+00
  0.00000000E+00  0.00000000E+00  0.00000000E+00
  0.00000000E+00  0.00000000E+00  0.00000000E+00
  0.00000000E+00  0.00000000E+00  0.00000000E+00
  0.00000000E+00  0.00000000E+00  0.00000000E+00
  0.00000000E+00  0.00000000E+00  0.00000000E+00
  0.00000000E+00  0.00000000E+00  0.00000000E+00
  0.00000000E+00  0.00000000E+00  0.00000000E+00
  0.00000000E+00  0.00000000E+00  0.00000000E+00
  0.00000000E+00  0.00000000E+00  0.00000000E+00
  0.00000000E+00  0.00000000E+00  0.00000000E+00
  0.00000000E+00  0.00000000E+00  0.00000000E+00
  0.00000000E+00  0.00000000E+00  0.00000000E+00
  0.00000000E+00  0.00000000E+00  0.00000000E+00
  0.00000000E+00  0.00000000E+00  0.00000000E+00
  0.00000000E+00  0.00000000E+00  0.00000000E+00
  0.00000000E+00  0.00000000E+00  0.00000000E+00
  0.00000000E+00  0.00000000E+00  0.00000000E+00
  0.00000000E+00  0.00000000E+00  0.00000000E+00
  0.00000000E+00  0.00000000E+00  0.00000000E+00
  0.00000000E+00  0.00000000E+00  0.00000000E+00
  0.00000000E+00  0.00000000E+00  0.00000000E+00
  0.00000000E+00  0.00000000E+00  0.00000000E+00
  0.00000000E+00  0.00000000E+00  0.00000000E+00
  0.00000000E+00  0.00000000E+00  0.00000000E+00
  0.00000000E+00  0.00000000E+00  0.00000000E+00
  0.00000000E+00  0.00000000E+00  0.00000000E+00
  0.00000000E+00  0.00000000E+00  0.00000000E+00
  0.00000000E+00  0.00000000E+00  0.00000000E+00
  0.00000000E+00  0.00000000E+00  0.00000000E+00
  0.00000000E+00  0.00000000E+00  0.00000000E+00
  0.00000000E+00  0.00000000E+00  0.00000000E+00
  0.00000000E+00  0.00000000E+00  0.00000000E+00
  0.00000000E+00  0.00000000E+00  0.00000000E+00
  0.00000000E+00  0.00000000E+00  0.00000000E+00
  0.00000000E+00  0.00000000E+00  0.00000000E+00
  0.00000000E+00  0.00000000E+00  0.00000000E+00
  0.00000000E+00  0.00000000E+00  0.00000000E+00
  0.00000000E+00  0.00000000E+00  0.00000000E+00
  0.00000000E+00  0.00000000E+00  0.00000000E+00
  0.00000000E+00  0.00000000E+00  0.00000000E+00
  0.00000000E+00  0.00000000E+00  0.00000000E+00
  0.00000000E+00  0.00000000E+00  0.00000000E+00
  0.00000000E+00  0.00000000E+00  0.00000000E+00
  0.00000000E+00  0.00000000E+00  0.00000000E+00
  0.00000000E+00  0.00000000E+00  0.00000000E+00
  0.00000000E+00  0.00000000E+00  0.00000000E+00
  0.00000000E+00  0.00000000E+00  0.00000000E+00
  0.00000000E+00  0.00000000E+00  0.00000000E+00
  0.00000000E+00  0.00000000E+00  0.00000000E+00
  0.00000000E+00  0.00000000E+00  0.00000000E+00
  0.00000000E+00  0.00000000E+00  0.00000000E+00
  0.00000000E+00  0.00000000E+00  0.00000000E+00
  0.00000000E+00  0.00000000E+00  0.00000000E+00
  0.00000000E+00  0.00000000E+00  0.00000000E+00
  0.00000000E+00  0.00000000E+00  0.00000000E+00
  0.00000000E+00  0.00000000E+00  0.00000000E+00
  0.00000000E+00  0.00000000E+00  0.00000000E+00
  0.00000000E+00  0.00000000E+00  0.00000000E+00
  0.00000000E+00  0.00000000E+00  0.00000000E+00
  0.00000000E+00  0.00000000E+00  0.00000000E+00
  0.00000000E+00  0.00000000E+00  0.00000000E+00
  0.00000000E+00  0.00000000E+00  0.00000000E+00
  0.00000000E+00  0.00000000E+00  0.00000000E+00
  0.00000000E+00  0.00000000E+00  0.00000000E+00
  0.00000000E+00  0.00000000E+00  0.00000000E+00
  0.00000000E+00  0.00000000E+00  0.00000000E+00
  0.00000000E+00  0.00000000E+00  0.00000000E+00
  0.00000000E+00  0.00000000E+00  0.00000000E+00
  0.00000000E+00  0.00000000E+00  0.00000000E+00
  0.00000000E+00  0.00000000E+00  0.00000000E+00
  0.00000000E+00  0.00000000E+00  0.00000000E+00
  0.00000000E+00  0.00000000E+00  0.00000000E+00
  0.00000000E+00  0.00000000E+00  0.00000000E+00
  0.00000000E+00  0.00000000E+00  0.00000000E+00
  0.00000000E+00  0.00000000E+00  0.00000000E+00
  0.00000000E+00  0.00000000E+00  0.00000000E+00
  0.00000000E+00  0.00000000E+00  0.00000000E+00
  0.00000000E+00  0.00000000E+00  0.00000000E+00
  0.00000000E+00  0.00000000E+00  0.00000000E+00
  0.00000000E+00  0.00000000E+00  0.00000000E+00
  0.00000000E+00  0.00000000E+00  0.00000000E+00
  0.00000000E+00  0.00000000E+00  0.00000000E+00
  0.00000000E+00  0.00000000E+00  0.00000000E+00
  0.00000000E+00  0.00000000E+00  0.00000000E+00
  0.00000000E+00  0.00000000E+00  0.00000000E+00
  0.00000000E+00  0.00000000E+00  0.00000000E+00
  0.00000000E+00  0.00000000E+00  0.00000000E+00
  0.00000000E+00  0.00000000E+00  0.00000000E+00
  0.00000000E+00  0.00000000E+00  0.00000000E+00
  0.00000000E+00  0.00000000E+00  0.00000000E+00
  0.00000000E+00  0.00000000E+00  0.00000000E+00
  0.00000000E+00  0.00000000E+00  0.00000000E+00
  0.00000000E+00  0.00000000E+00  0.00000000E+00
  0.00000000E+00  0.00000000E+00  0.00000000E+00
  0.00000000E+00  0.00000000E+00  0.00000000E+00
  0.00000000E+00  0.00000000E+00  0.00000000E+00
  0.00000000E+00  0.00000000E+00  0.00000000E+00
  0.00000000E+00  0.00000000E+00  0.00000000E+00
  0.00000000E+00  0.00000000E+00  0.00000000E+00
  0.00000000E+00  0.00000000E+00  0.00000000E+00
  0.00000000E+00  0.00000000E+00  0.00000000E+00
  0.00000000E+00  0.00000000E+00  0.00000000E+00
  0.00000000E+00  0.00000000E+00  0.00000000E+00
  0.00000000E+00  0.00000000E+00  0.00000000E+00
  0.00000000E+00  0.00000000E+00  0.00000000E+00
  0.00000000E+00  0.00000000E+00  0.00000000E+00
  0.00000000E+00  0.00000000E+00  0.00000000E+00
  0.00000000E+00  0.00000000E+00  0.00000000E+00
  0.00000000E+00  0.00000000E+00  0.00000000E+00
  0.00000000E+00  0.00000000E+00  0.00000000E+00
  0.00000000E+00  0.00000000E+00  0.00000000E+00
  0.00000000E+00  0.00000000E+00  0.00000000E+00
  0.00000000E+00  0.00000000E+00  0.00000000E+00
  0.00000000E+00  0.00000000E+00  0.00000000E+00
  0.00000000E+00  0.00000000E+00  0.00000000E+00
  0.00000000E+00  0.00000000E+00  0.00000000E+00
  0.00000000E+00  0.00000000E+00  0.00000000E+00
  0.00000000E+00  0.00000000E+00  0.00000000E+00
  0.00000000E+00  0.00000000E+00  0.00000000E+00
  0.00000000E+00  0.00000000E+00  0.00000000E+00
  0.00000000E+00  0.00000000E+00  0.00000000E+00
  0.00000000E+00  0.00000000E+00  0.00000000E+00
  0.00000000E+00  0.00000000E+00  0.00000000E+00
  0.00000000E+00  0.00000000E+00  0.00000000E+00
  0.00000000E+00  0.00000000E+00  0.00000000E+00
  0.00000000E+00  0.00000000E+00  0.00000000E+00
  0.00000000E+00  0.00000000E+00  0.00000000E+00
  0.00000000E+00  0.00000000E+00  0.00000000E+00
  0.00000000E+00  0.00000000E+00  0.00000000E+00
  0.00000000E+00  0.00000000E+00  0.00000000E+00
  0.00000000E+00  0.00000000E+00  0.00000000E+00
  0.00000000E+00  0.00000000E+00  0.00000000E+00
  0.00000000E+00  0.00000000E+00  0.00000000E+00
  0.00000000E+00  0.00000000E+00  0.00000000E+00
  0.00000000E+00  0.00000000E+00  0.00000000E+00
  0.00000000E+00  0.00000000E+00  0.00000000E+00
  0.00000000E+00  0.00000000E+00  0.00000000E+00
  0.00000000E+00  0.00000000E+00  0.00000000E+00
  0.00000000E+00  0.00000000E+00  0.00000000E+00
  0.00000000E+00  0.00000000E+00  0.00000000E+00
  0.00000000E+00  0.00000000E+00  0.00000000E+00
  0.00000000E+00  0.00000000E+00  0.00000000E+00
  0.00000000E+00  0.00000000E+00  0.00000000E+00
  0.00000000E+00  0.00000000E+00  0.00000000E+00
  0.00000000E+00  0.00000000E+00  0.00000000E+00
  0.00000000E+00  0.00000000E+00  0.00000000E+00
  0.00000000E+00  0.00000000E+00  0.00000000E+00
  0.00000000E+00  0.00000000E+00  0.00000000E+00
  0.00000000E+00  0.00000000E+00  0.00000000E+00
  0.00000000E+00  0.00000000E+00  0.00000000E+00
  0.00000000E+00  0.00000000E+00  0.00000000E+00
  0.00000000E+00  0.00000000E+00  0.00000000E+00
  0.00000000E+00  0.00000000E+00  0.00000000E+00
  0.00000000E+00  0.00000000E+00  0.00000000E+00
  0.00000000E+00  0.00000000E+00  0.00000000E+00
  0.00000000E+00  0.00000000E+00  0.00000000E+00
  0.00000000E+00  0.00000000E+00  0.00000000E+00
  0.00000000E+00  0.00000000E+00  0.00000000E+00
  0.00000000E+00  0.00000000E+00  0.00000000E+00
  0.00000000E+00  0.00000000E+00  0.00000000E+00
  0.00000000E+00  0.00000000E+00  0.00000000E+00
  0.00000000E+00  0.00000000E+00  0.00000000E+00
  0.00000000E+00  0.00000000E+00  0.00000000E+00
  0.00000000E+00  0.00000000E+00  0.00000000E+00
  0.00000000E+00  0.00000000E+00  0.00000000E+00
  0.00000000E+00  0.00000000E+00  0.00000000E+00
  0.00000000E+00  0.00000000E+00  0.00000000E+00
  0.00000000E+00  0.00000000E+00  0.00000000E+00
  0.00000000E+00  0.00000000E+00  0.00000000E+00
  0.00000000E+00  0.00000000E+00  0.00000000E+00
  0.00000000E+00  0.00000000E+00  0.00000000E+00
  0.00000000E+00  0.00000000E+00  0.00000000E+00
  0.00000000E+00  0.00000000E+00  0.00000000E+00
  0.00000000E+00  0.00000000E+00  0.00000000E+00
  0.00000000E+00  0.00000000E+00  0.00000000E+00
  0.00000000E+00  0.00000000E+00  0.00000000E+00
  0.00000000E+00  0.00000000E+00  0.00000000E+00
  0.00000000E+00  0.00000000E+00  0.00000000E+00
  0.00000000E+00  0.00000000E+00  0.00000000E+00
  0.00000000E+00  0.00000000E+00  0.00000000E+00
  0.00000000E+00  0.00000000E+00  0.00000000E+00
  0.00000000E+00  0.00000000E+00  0.00000000E+00
