Li73 P24 N1 O95                         
   1.00000000000000     
    14.7518464768469855   -0.0012984881908531    0.0000006137688276
    -0.0009190161175279   10.5612302933078439    0.0000006628502882
     0.0000005056089373    0.0000007800044587   12.2929465429965941
   Li   P    N    O 
    73    24     1    95
Direct
  0.1547013209538871  0.4500732986930838 -0.0000001022664084
  0.1704529579639983  0.4205907725830849  0.4999997357819961
  0.1722812089649224  0.9310446101095332  0.0000000856054582
  0.1701684245747339  0.9230433523176962  0.5000002747879760
  0.5036120231461150  0.4214699007097001  0.0000000484975265
  0.5045927370761859  0.4229846337126928  0.5000000371796796
  0.5019559677951787  0.9247093550730434 -0.0000000758248476
  0.5030311574266745  0.9231471989978901  0.4999999739270233
  0.8355109769679235  0.4234777356833754 -0.0000000999930689
  0.8371394235679716  0.4218308718428544  0.4999995634644843
  0.8364714723848800  0.9213009472111262 -0.0000002748992321
  0.8364200110794823  0.9227791312101076  0.5000002880291385
  0.0020498385052505  0.0754974941564875  0.2507555900518015
  0.0020499530435722  0.0754974881535529  0.7492451362420387
  0.0027141785282719  0.5768981816071947  0.2496771831375176
  0.0027144681489090  0.5768980911842007  0.7503224123887290
  0.3370768389852239  0.0768421197615120  0.2457006004571643
  0.3370769478288868  0.0768428393180757  0.7542999085357006
  0.3366221109399553  0.5787773626839193  0.2507415952929627
  0.3366221200622456  0.5787772909455426  0.7492582992612588
  0.6701648085963937  0.0768587663727232  0.2500878653714927
  0.6701647171718523  0.0768586762395226  0.7499117670321110
  0.6706032051500568  0.5787006056681332  0.2507375516462740
  0.6706030302401772  0.5787006072407405  0.7492623364702907
  0.1636529499336637  0.1512303817534826  0.1305595309927225
  0.1699773221711435  0.1624202388852379  0.6260714929527398
  0.1689269384125654  0.6679779614041228  0.1272262006242300
  0.1697929081518742  0.6619293741817188  0.6257584832612125
  0.5046598225996931  0.1614436965679800  0.1257091118450256
  0.5035667176522800  0.1629118599490844  0.6266153972017650
  0.5037229251210464  0.6634941679882549  0.1265031943978326
  0.5031667109721302  0.6643633212846157  0.6254841914310184
  0.8363156736024203  0.1628296533810203  0.1265819442908648
  0.8363615270350199  0.1633214056239775  0.6262208657901406
  0.8342391200664437  0.6648065345875359  0.1275242360994733
  0.8368946979104472  0.6632257368760647  0.6256904873693322
  0.0002544306367214  0.3348022917273257  0.1235521395124597
  0.0031990389561642  0.3360542401634720  0.6248244382134444
  0.0026263072685614  0.8375113720090472  0.1239801789645683
  0.0029690726851689  0.8357135976976717  0.6231640881459911
  0.3503307303055217  0.3339693872311713  0.1323212393504097
  0.3373654213592485  0.3360965203717461  0.6229727007774973
  0.3369082822308656  0.8380140337634641  0.1220136690149538
  0.3360256229567770  0.8373342685018498  0.6235715572728019
  0.6698030958056493  0.3367079736239990  0.1241137002726711
  0.6709398753837154  0.3366977605946145  0.6229520478222119
  0.6692081567791904  0.8372665944260048  0.1234882515471070
  0.6693307930444167  0.8368753543477007  0.6234018324934044
  0.0031988944219205  0.3360542996706787  0.3751753889109787
  0.0002545194993735  0.3348023136221063  0.8764477828979216
  0.0029691092820848  0.8357133646574355  0.3768361363335403
  0.0026261721706438  0.8375111715502592  0.8760197053167559
  0.3373654300363502  0.3360964831605152  0.3770272055321763
  0.3503306773982716  0.3339694989827219  0.8676786668837214
  0.3360256246823961  0.8373343510974055  0.3764284635072134
  0.3369083790112460  0.8380141397769297  0.8779862681645471
  0.6709401399589083  0.3366975053699184  0.3770478121313073
  0.6698030470027964  0.3367087516610162  0.8758859540603611
  0.6693306265807020  0.8368755651047863  0.3765980241097823
  0.6692081935698015  0.8372666926936572  0.8765114646390476
  0.1699773074247634  0.1624201897899210  0.3739282659051635
  0.1636531645387623  0.1512304300473914  0.8694403109467145
  0.1697929637583847  0.6619275537124594  0.3742412773017337
  0.1689270080448796  0.6679782140985339  0.8727737743758817
  0.5035666672149642  0.1629119137950582  0.3733843185321011
  0.5046598707459621  0.1614436293651144  0.8742906968983366
  0.5031667159828633  0.6643632280790945  0.3745154156557189
  0.5037228822937282  0.6634941269255942  0.8734965628114408
  0.8363617972055594  0.1633205230050917  0.3737788535089011
  0.8363155630273353  0.1628294264228743  0.8734174524086762
  0.8368942073805843  0.6632261032149543  0.3743093529025606
  0.8342390667382273  0.6648067933167624  0.8724755228552948
  0.2417957082723664  0.2826396476723873 -0.0000001313187257
  0.1678104886128589  0.4121230511218047  0.2460742673402367
  0.1678104983069848  0.4121230806334357  0.7539255488538606
  0.1672314135747855  0.9104893726046155  0.2520943805082712
  0.1672312766410252  0.9104896397601521  0.7479065501224416
  0.5027692603597813  0.4140679984477722  0.2521663625002431
  0.5027692284434708  0.4140680262097190  0.7478335637460082
  0.5009218849390240  0.9116840291749451  0.2502952773381346
  0.5009218197685273  0.9116840542347617  0.7497045792886965
  0.8336818485226181  0.4125731187505488  0.2499428914433980
  0.8336819160513754  0.4125732667989009  0.7500570770690683
  0.8337250022971575  0.9118558882328943  0.2507096375803782
  0.8337250059233705  0.9118560713903855  0.7492901422759585
 -0.0018160404867611  0.0865792296128226  0.0000000524682089
  0.0007015622055994  0.0879903905281094  0.5000002577647910
 -0.0035734507168162  0.5903900365872594 -0.0000000957845370
  0.0011568619597759  0.5860968255214575  0.5000000202166013
  0.3321851106144453  0.0873934902861387  0.0000000251725584
  0.3345786605757499  0.0886030607022621  0.4999999730208921
  0.3326432828594627  0.5855672283997589 -0.0000000822256871
  0.3341250818028844  0.5871671738223884  0.4999999476839549
  0.6685242481757956  0.0878724320588905 -0.0000001021261098
  0.6676222497198704  0.0879842658548785  0.4999999057733884
  0.6664830006545540  0.5874660226736050 -0.0000000670662464
  0.6682424827649092  0.5884353025715781  0.4999999763805505
  0.2260935374594549  0.1008013112512302 -0.0000000341405133
  0.0360520677543702  0.1571704881188767  0.3959201290120179
  0.0317619368565142  0.1560469267245874  0.8951673551924979
  0.0361901275628470  0.6550955735007279  0.3958010292002857
  0.0343057602300500  0.6567857811388217  0.8960709009250277
  0.3700533935280247  0.1574488472708502  0.3958546905057306
  0.3755427960356052  0.1573701051446881  0.8961754421991365
  0.3688664010270655  0.6570051746603663  0.3961153819695216
  0.3697299836809622  0.6523204989916388  0.8960792791106674
  0.7030556838452046  0.1570847501271819  0.3959664384205846
  0.7032714855082759  0.1573373318689566  0.8957176294180801
  0.7035265162754560  0.6576679669968243  0.3960431999280890
  0.7014289253232247  0.6568794887132633  0.8959582563125069
  0.2005995042430127  0.0503084691467798  0.2545296152009159
  0.2005992780873186  0.0503086924692023  0.7454705778963217
  0.2009489123415933  0.5521618089542699  0.2478337366115414
  0.2009488458834787  0.5521618507108794  0.7521661538474953
  0.5353249433598974  0.0513751512601932  0.2505990105371968
  0.5353248872055977  0.0513752064561326  0.7494008592460470
  0.5367208460098077  0.5536783989219697  0.2515132522466588
  0.5367207921495970  0.5536784417299419  0.7484865594989726
  0.8673042821208530  0.0519176998132117  0.2508605318195120
  0.8673042475390110  0.0519178621244390  0.7491391182671358
  0.8676953835826877  0.5525072736576271  0.2499477142351282
  0.8676954599968755  0.5525074219889954  0.7500527406137778
  0.0623296298492257  0.4081577116333099  0.2472237373736872
  0.0623296136333909  0.4081576085855373  0.7527761277890456
  0.0614858413416468  0.9079032611793879  0.2508014979865028
  0.0614856152341799  0.9079038354715563  0.7491983762860076
  0.3971027220846788  0.4130751477464419  0.2546973803028847
  0.3971027146973518  0.4130751130087271  0.7453025247374240
  0.3953670797526957  0.9085259143193868  0.2502716456953735
  0.3953670632405051  0.9085261029975790  0.7497282680573296
  0.7281672587552281  0.4101200737055620  0.2504525505358888
  0.7281672979325723  0.4101201650161458  0.7495474520205467
  0.7281676421539378  0.9088834679050268  0.2504064868849431
  0.7281676670981013  0.9088836243793178  0.7495932787850562
  0.2289062458968671  0.0921401532264043  0.5000000093893661
  0.2271217645751927  0.5956910625485654  0.0000000124193379
  0.2283971814193299  0.5875130500485600  0.5000000053576702
  0.5632678797756436  0.0901939834312710 -0.0000000512565734
  0.5620707974385478  0.0909117566862789  0.4999998618193560
  0.5608135030221026  0.5892926028916200 -0.0000000686335239
  0.5626159819026226  0.5910950110175328  0.5000000225110133
  0.8924989776400394  0.0890323351288024 -0.0000001452609019
  0.8951164706637462  0.0909659903097072  0.5000003604938548
  0.8913079122708569  0.5957613894184769 -0.0000000881155419
  0.8956125689392621  0.5888075779438606  0.5000001275928420
  0.2022087294616296  0.3463135044961483  0.1389271664182003
  0.2042745491273281  0.3409859495558240  0.6517317411747834
  0.2031302661574228  0.8421717241353379  0.1482739382646239
  0.2017781110921142  0.8405266076400052  0.6438176910390163
  0.5351306581018644  0.3448167004832316  0.1467522048596116
  0.5383789276840570  0.3435897369201565  0.6449144725899424
  0.5362559597602009  0.8424484063931276  0.1463175798780353
  0.5359892113791237  0.8426776820872711  0.6453246899869000
  0.8682340428726748  0.3436245734745302  0.1455554013169556
  0.8695263324289761  0.3431483606402569  0.6463836499941151
  0.8690696008426954  0.8427722275083902  0.1467668498057472
  0.8691961410704424  0.8428215147981271  0.6452059720336396
  0.0317616680707172  0.1560467431271615  0.1048328846574984
  0.0360524021514742  0.1571704283714983  0.6040802557265270
  0.0343057061886583  0.6567857471318045  0.1039288776434370
  0.0361905254004260  0.6550956793974255  0.6041988751382231
  0.3755427413600097  0.1573700013538673  0.1038245843168824
  0.3700533786064745  0.1574489191243801  0.6041452147288104
  0.3697299800845433  0.6523204815217919  0.1039205871479125
  0.3688664437205176  0.6570051281601147  0.6038844743823121
  0.7032715002512507  0.1573373265271293  0.1042821665887202
  0.7030554042545357  0.1570849667366563  0.6040334536513281
  0.7014289294547638  0.6568794221140823  0.1040415954857830
  0.7035266155699665  0.6576677791951873  0.6039568309506511
  0.0271198802568624  0.4487110444255850 -0.0000000782557922
  0.0353012972507166  0.4460325204794851  0.4999999166574963
  0.0321909054060167  0.9469279305412600  0.0000000304431270
  0.0342801244550946  0.9479486344954218  0.5000002707706731
  0.3614531360057042  0.4420792799763983 -0.0000000860612205
  0.3684904534884526  0.4474397561804922  0.4999999124398605
  0.3703380061242545  0.9469363260283796 -0.0000000315538225
  0.3676303779741107  0.9482887997317402  0.4999999791785931
  0.7004073079938519  0.4475346853247930 -0.0000000455250592
  0.7022246121150627  0.4485250725300242  0.4999998745342371
  0.7023628237592691  0.9478986532002046 -0.0000000892504100
  0.7012509615161860  0.9479687053082917  0.4999999718223662
  0.2042745365439382  0.3409859372510025  0.3482680901269060
  0.2022087242432624  0.3463134652634396  0.8610726707909210
  0.2017777505205791  0.8405269442074952  0.3561837250827176
  0.2031306411798983  0.8421716175487645  0.8517266001646189
  0.5383789692651773  0.3435896848398808  0.3550854087752337
  0.5351306533032376  0.3448167887890429  0.8532477229348001
  0.5359891793138732  0.8426776219148913  0.3546751606501765
  0.5362559462384194  0.8424483963673187  0.8536822282316328
  0.8695262656752512  0.3431477097352442  0.3536160842391884
  0.8682340383879580  0.3436242969622437  0.8544443917202391
  0.8691960661873076  0.8428214894591222  0.3547938951478045
  0.8690696208224562  0.8427725370165866  0.8532329838729483
 
  0.00000000E+00  0.00000000E+00  0.00000000E+00
  0.00000000E+00  0.00000000E+00  0.00000000E+00
  0.00000000E+00  0.00000000E+00  0.00000000E+00
  0.00000000E+00  0.00000000E+00  0.00000000E+00
  0.00000000E+00  0.00000000E+00  0.00000000E+00
  0.00000000E+00  0.00000000E+00  0.00000000E+00
  0.00000000E+00  0.00000000E+00  0.00000000E+00
  0.00000000E+00  0.00000000E+00  0.00000000E+00
  0.00000000E+00  0.00000000E+00  0.00000000E+00
  0.00000000E+00  0.00000000E+00  0.00000000E+00
  0.00000000E+00  0.00000000E+00  0.00000000E+00
  0.00000000E+00  0.00000000E+00  0.00000000E+00
  0.00000000E+00  0.00000000E+00  0.00000000E+00
  0.00000000E+00  0.00000000E+00  0.00000000E+00
  0.00000000E+00  0.00000000E+00  0.00000000E+00
  0.00000000E+00  0.00000000E+00  0.00000000E+00
  0.00000000E+00  0.00000000E+00  0.00000000E+00
  0.00000000E+00  0.00000000E+00  0.00000000E+00
  0.00000000E+00  0.00000000E+00  0.00000000E+00
  0.00000000E+00  0.00000000E+00  0.00000000E+00
  0.00000000E+00  0.00000000E+00  0.00000000E+00
  0.00000000E+00  0.00000000E+00  0.00000000E+00
  0.00000000E+00  0.00000000E+00  0.00000000E+00
  0.00000000E+00  0.00000000E+00  0.00000000E+00
  0.00000000E+00  0.00000000E+00  0.00000000E+00
  0.00000000E+00  0.00000000E+00  0.00000000E+00
  0.00000000E+00  0.00000000E+00  0.00000000E+00
  0.00000000E+00  0.00000000E+00  0.00000000E+00
  0.00000000E+00  0.00000000E+00  0.00000000E+00
  0.00000000E+00  0.00000000E+00  0.00000000E+00
  0.00000000E+00  0.00000000E+00  0.00000000E+00
  0.00000000E+00  0.00000000E+00  0.00000000E+00
  0.00000000E+00  0.00000000E+00  0.00000000E+00
  0.00000000E+00  0.00000000E+00  0.00000000E+00
  0.00000000E+00  0.00000000E+00  0.00000000E+00
  0.00000000E+00  0.00000000E+00  0.00000000E+00
  0.00000000E+00  0.00000000E+00  0.00000000E+00
  0.00000000E+00  0.00000000E+00  0.00000000E+00
  0.00000000E+00  0.00000000E+00  0.00000000E+00
  0.00000000E+00  0.00000000E+00  0.00000000E+00
  0.00000000E+00  0.00000000E+00  0.00000000E+00
  0.00000000E+00  0.00000000E+00  0.00000000E+00
  0.00000000E+00  0.00000000E+00  0.00000000E+00
  0.00000000E+00  0.00000000E+00  0.00000000E+00
  0.00000000E+00  0.00000000E+00  0.00000000E+00
  0.00000000E+00  0.00000000E+00  0.00000000E+00
  0.00000000E+00  0.00000000E+00  0.00000000E+00
  0.00000000E+00  0.00000000E+00  0.00000000E+00
  0.00000000E+00  0.00000000E+00  0.00000000E+00
  0.00000000E+00  0.00000000E+00  0.00000000E+00
  0.00000000E+00  0.00000000E+00  0.00000000E+00
  0.00000000E+00  0.00000000E+00  0.00000000E+00
  0.00000000E+00  0.00000000E+00  0.00000000E+00
  0.00000000E+00  0.00000000E+00  0.00000000E+00
  0.00000000E+00  0.00000000E+00  0.00000000E+00
  0.00000000E+00  0.00000000E+00  0.00000000E+00
  0.00000000E+00  0.00000000E+00  0.00000000E+00
  0.00000000E+00  0.00000000E+00  0.00000000E+00
  0.00000000E+00  0.00000000E+00  0.00000000E+00
  0.00000000E+00  0.00000000E+00  0.00000000E+00
  0.00000000E+00  0.00000000E+00  0.00000000E+00
  0.00000000E+00  0.00000000E+00  0.00000000E+00
  0.00000000E+00  0.00000000E+00  0.00000000E+00
  0.00000000E+00  0.00000000E+00  0.00000000E+00
  0.00000000E+00  0.00000000E+00  0.00000000E+00
  0.00000000E+00  0.00000000E+00  0.00000000E+00
  0.00000000E+00  0.00000000E+00  0.00000000E+00
  0.00000000E+00  0.00000000E+00  0.00000000E+00
  0.00000000E+00  0.00000000E+00  0.00000000E+00
  0.00000000E+00  0.00000000E+00  0.00000000E+00
  0.00000000E+00  0.00000000E+00  0.00000000E+00
  0.00000000E+00  0.00000000E+00  0.00000000E+00
  0.00000000E+00  0.00000000E+00  0.00000000E+00
  0.00000000E+00  0.00000000E+00  0.00000000E+00
  0.00000000E+00  0.00000000E+00  0.00000000E+00
  0.00000000E+00  0.00000000E+00  0.00000000E+00
  0.00000000E+00  0.00000000E+00  0.00000000E+00
  0.00000000E+00  0.00000000E+00  0.00000000E+00
  0.00000000E+00  0.00000000E+00  0.00000000E+00
  0.00000000E+00  0.00000000E+00  0.00000000E+00
  0.00000000E+00  0.00000000E+00  0.00000000E+00
  0.00000000E+00  0.00000000E+00  0.00000000E+00
  0.00000000E+00  0.00000000E+00  0.00000000E+00
  0.00000000E+00  0.00000000E+00  0.00000000E+00
  0.00000000E+00  0.00000000E+00  0.00000000E+00
  0.00000000E+00  0.00000000E+00  0.00000000E+00
  0.00000000E+00  0.00000000E+00  0.00000000E+00
  0.00000000E+00  0.00000000E+00  0.00000000E+00
  0.00000000E+00  0.00000000E+00  0.00000000E+00
  0.00000000E+00  0.00000000E+00  0.00000000E+00
  0.00000000E+00  0.00000000E+00  0.00000000E+00
  0.00000000E+00  0.00000000E+00  0.00000000E+00
  0.00000000E+00  0.00000000E+00  0.00000000E+00
  0.00000000E+00  0.00000000E+00  0.00000000E+00
  0.00000000E+00  0.00000000E+00  0.00000000E+00
  0.00000000E+00  0.00000000E+00  0.00000000E+00
  0.00000000E+00  0.00000000E+00  0.00000000E+00
  0.00000000E+00  0.00000000E+00  0.00000000E+00
  0.00000000E+00  0.00000000E+00  0.00000000E+00
  0.00000000E+00  0.00000000E+00  0.00000000E+00
  0.00000000E+00  0.00000000E+00  0.00000000E+00
  0.00000000E+00  0.00000000E+00  0.00000000E+00
  0.00000000E+00  0.00000000E+00  0.00000000E+00
  0.00000000E+00  0.00000000E+00  0.00000000E+00
  0.00000000E+00  0.00000000E+00  0.00000000E+00
  0.00000000E+00  0.00000000E+00  0.00000000E+00
  0.00000000E+00  0.00000000E+00  0.00000000E+00
  0.00000000E+00  0.00000000E+00  0.00000000E+00
  0.00000000E+00  0.00000000E+00  0.00000000E+00
  0.00000000E+00  0.00000000E+00  0.00000000E+00
  0.00000000E+00  0.00000000E+00  0.00000000E+00
  0.00000000E+00  0.00000000E+00  0.00000000E+00
  0.00000000E+00  0.00000000E+00  0.00000000E+00
  0.00000000E+00  0.00000000E+00  0.00000000E+00
  0.00000000E+00  0.00000000E+00  0.00000000E+00
  0.00000000E+00  0.00000000E+00  0.00000000E+00
  0.00000000E+00  0.00000000E+00  0.00000000E+00
  0.00000000E+00  0.00000000E+00  0.00000000E+00
  0.00000000E+00  0.00000000E+00  0.00000000E+00
  0.00000000E+00  0.00000000E+00  0.00000000E+00
  0.00000000E+00  0.00000000E+00  0.00000000E+00
  0.00000000E+00  0.00000000E+00  0.00000000E+00
  0.00000000E+00  0.00000000E+00  0.00000000E+00
  0.00000000E+00  0.00000000E+00  0.00000000E+00
  0.00000000E+00  0.00000000E+00  0.00000000E+00
  0.00000000E+00  0.00000000E+00  0.00000000E+00
  0.00000000E+00  0.00000000E+00  0.00000000E+00
  0.00000000E+00  0.00000000E+00  0.00000000E+00
  0.00000000E+00  0.00000000E+00  0.00000000E+00
  0.00000000E+00  0.00000000E+00  0.00000000E+00
  0.00000000E+00  0.00000000E+00  0.00000000E+00
  0.00000000E+00  0.00000000E+00  0.00000000E+00
  0.00000000E+00  0.00000000E+00  0.00000000E+00
  0.00000000E+00  0.00000000E+00  0.00000000E+00
  0.00000000E+00  0.00000000E+00  0.00000000E+00
  0.00000000E+00  0.00000000E+00  0.00000000E+00
  0.00000000E+00  0.00000000E+00  0.00000000E+00
  0.00000000E+00  0.00000000E+00  0.00000000E+00
  0.00000000E+00  0.00000000E+00  0.00000000E+00
  0.00000000E+00  0.00000000E+00  0.00000000E+00
  0.00000000E+00  0.00000000E+00  0.00000000E+00
  0.00000000E+00  0.00000000E+00  0.00000000E+00
  0.00000000E+00  0.00000000E+00  0.00000000E+00
  0.00000000E+00  0.00000000E+00  0.00000000E+00
  0.00000000E+00  0.00000000E+00  0.00000000E+00
  0.00000000E+00  0.00000000E+00  0.00000000E+00
  0.00000000E+00  0.00000000E+00  0.00000000E+00
  0.00000000E+00  0.00000000E+00  0.00000000E+00
  0.00000000E+00  0.00000000E+00  0.00000000E+00
  0.00000000E+00  0.00000000E+00  0.00000000E+00
  0.00000000E+00  0.00000000E+00  0.00000000E+00
  0.00000000E+00  0.00000000E+00  0.00000000E+00
  0.00000000E+00  0.00000000E+00  0.00000000E+00
  0.00000000E+00  0.00000000E+00  0.00000000E+00
  0.00000000E+00  0.00000000E+00  0.00000000E+00
  0.00000000E+00  0.00000000E+00  0.00000000E+00
  0.00000000E+00  0.00000000E+00  0.00000000E+00
  0.00000000E+00  0.00000000E+00  0.00000000E+00
  0.00000000E+00  0.00000000E+00  0.00000000E+00
  0.00000000E+00  0.00000000E+00  0.00000000E+00
  0.00000000E+00  0.00000000E+00  0.00000000E+00
  0.00000000E+00  0.00000000E+00  0.00000000E+00
  0.00000000E+00  0.00000000E+00  0.00000000E+00
  0.00000000E+00  0.00000000E+00  0.00000000E+00
  0.00000000E+00  0.00000000E+00  0.00000000E+00
  0.00000000E+00  0.00000000E+00  0.00000000E+00
  0.00000000E+00  0.00000000E+00  0.00000000E+00
  0.00000000E+00  0.00000000E+00  0.00000000E+00
  0.00000000E+00  0.00000000E+00  0.00000000E+00
  0.00000000E+00  0.00000000E+00  0.00000000E+00
  0.00000000E+00  0.00000000E+00  0.00000000E+00
  0.00000000E+00  0.00000000E+00  0.00000000E+00
  0.00000000E+00  0.00000000E+00  0.00000000E+00
  0.00000000E+00  0.00000000E+00  0.00000000E+00
  0.00000000E+00  0.00000000E+00  0.00000000E+00
  0.00000000E+00  0.00000000E+00  0.00000000E+00
  0.00000000E+00  0.00000000E+00  0.00000000E+00
  0.00000000E+00  0.00000000E+00  0.00000000E+00
  0.00000000E+00  0.00000000E+00  0.00000000E+00
  0.00000000E+00  0.00000000E+00  0.00000000E+00
  0.00000000E+00  0.00000000E+00  0.00000000E+00
  0.00000000E+00  0.00000000E+00  0.00000000E+00
  0.00000000E+00  0.00000000E+00  0.00000000E+00
  0.00000000E+00  0.00000000E+00  0.00000000E+00
  0.00000000E+00  0.00000000E+00  0.00000000E+00
  0.00000000E+00  0.00000000E+00  0.00000000E+00
  0.00000000E+00  0.00000000E+00  0.00000000E+00
  0.00000000E+00  0.00000000E+00  0.00000000E+00
  0.00000000E+00  0.00000000E+00  0.00000000E+00
  0.00000000E+00  0.00000000E+00  0.00000000E+00
  0.00000000E+00  0.00000000E+00  0.00000000E+00
  0.00000000E+00  0.00000000E+00  0.00000000E+00
  0.00000000E+00  0.00000000E+00  0.00000000E+00
