Li42 P14 O56
1.0
4.922448 0.000000 0.000000
0.000000 6.176136 0.000000
0.000000 0.000000 58.260422
Li P O
42 14 56
direct
0.490583 0.000000 0.002362 Li+
0.990583 0.500000 0.065002 Li+
0.491637 0.252873 0.049461 Li+
0.991637 0.247127 0.017904 Li+
0.991637 0.752873 0.017904 Li+
0.491637 0.747127 0.049461 Li+
0.490583 0.000000 0.093271 Li+
0.990583 0.500000 0.155911 Li+
0.491637 0.252873 0.140370 Li+
0.991637 0.247127 0.108813 Li+
0.991637 0.752873 0.108813 Li+
0.491637 0.747127 0.140370 Li+
0.490583 0.000000 0.184181 Li+
0.990583 0.500000 0.246821 Li+
0.491637 0.252873 0.231279 Li+
0.991637 0.247127 0.199722 Li+
0.991637 0.752873 0.199722 Li+
0.491637 0.747127 0.231279 Li+
0.490583 0.000000 0.275090 Li+
0.990583 0.500000 0.337730 Li+
0.491637 0.252873 0.322188 Li+
0.991637 0.247127 0.290631 Li+
0.991637 0.752873 0.290631 Li+
0.491637 0.747127 0.322188 Li+
0.490583 0.000000 0.365999 Li+
0.990583 0.500000 0.428639 Li+
0.491637 0.252873 0.413097 Li+
0.991637 0.247127 0.381540 Li+
0.991637 0.752873 0.381540 Li+
0.491637 0.747127 0.413097 Li+
0.490583 0.000000 0.456908 Li+
0.990583 0.500000 0.519548 Li+
0.491637 0.252873 0.504007 Li+
0.991637 0.247127 0.472449 Li+
0.991637 0.752873 0.472449 Li+
0.491637 0.747127 0.504007 Li+
0.490583 0.000000 0.547817 Li+
0.990583 0.500000 0.610457 Li+
0.491637 0.252873 0.594916 Li+
0.991637 0.247127 0.563358 Li+
0.991637 0.752873 0.563358 Li+
0.491637 0.747127 0.594916 Li+
0.498580 0.500000 0.004204 P5+
0.998580 0.000000 0.063161 P5+
0.498580 0.500000 0.095113 P5+
0.998580 0.000000 0.154070 P5+
0.498580 0.500000 0.186022 P5+
0.998580 0.000000 0.244979 P5+
0.498580 0.500000 0.276931 P5+
0.998580 0.000000 0.335888 P5+
0.498580 0.500000 0.367840 P5+
0.998580 0.000000 0.426797 P5+
0.498580 0.500000 0.458750 P5+
0.998580 0.000000 0.517706 P5+
0.498580 0.500000 0.549659 P5+
0.998580 0.000000 0.608615 P5+
0.892990 0.792862 0.050636 O2-
0.397874 0.500000 0.069727 O2-
0.814809 0.500000 0.004737 O2-
0.314809 0.000000 0.062627 O2-
0.392990 0.292862 0.016729 O2-
0.892990 0.207138 0.050636 O2-
0.897874 0.000000 0.088547 O2-
0.392990 0.707138 0.016729 O2-
0.892990 0.792862 0.141545 O2-
0.397874 0.500000 0.160636 O2-
0.814809 0.500000 0.095646 O2-
0.314809 0.000000 0.153537 O2-
0.392990 0.292862 0.107638 O2-
0.892990 0.207138 0.141545 O2-
0.897874 0.000000 0.179456 O2-
0.392990 0.707138 0.107638 O2-
0.892990 0.792862 0.232454 O2-
0.397874 0.500000 0.251545 O2-
0.814809 0.500000 0.186555 O2-
0.314809 0.000000 0.244446 O2-
0.392990 0.292862 0.198547 O2-
0.892990 0.207138 0.232454 O2-
0.897874 0.000000 0.270365 O2-
0.392990 0.707138 0.198547 O2-
0.892990 0.792862 0.323363 O2-
0.397874 0.500000 0.342454 O2-
0.814809 0.500000 0.277465 O2-
0.314809 0.000000 0.335355 O2-
0.392990 0.292862 0.289456 O2-
0.892990 0.207138 0.323363 O2-
0.897874 0.000000 0.361274 O2-
0.392990 0.707138 0.289456 O2-
0.892990 0.792862 0.414272 O2-
0.397874 0.500000 0.433363 O2-
0.814809 0.500000 0.368374 O2-
0.314809 0.000000 0.426264 O2-
0.392990 0.292862 0.380365 O2-
0.892990 0.207138 0.414272 O2-
0.897874 0.000000 0.452183 O2-
0.392990 0.707138 0.380365 O2-
0.892990 0.792862 0.505182 O2-
0.397874 0.500000 0.524273 O2-
0.814809 0.500000 0.459283 O2-
0.314809 0.000000 0.517173 O2-
0.392990 0.292862 0.471274 O2-
0.892990 0.207138 0.505182 O2-
0.897874 0.000000 0.543092 O2-
0.392990 0.707138 0.471274 O2-
0.892990 0.792862 0.596091 O2-
0.397874 0.500000 0.615182 O2-
0.814809 0.500000 0.550192 O2-
0.314809 0.000000 0.608082 O2-
0.392990 0.292862 0.562183 O2-
0.892990 0.207138 0.596091 O2-
0.897874 0.000000 0.634001 O2-
0.392990 0.707138 0.562183 O2-
