Li7 P2 N1 O7                            
   1.00000000000000     
     4.8725481318178572    0.0036361687842197    0.0147298030066028
     0.0035319971130466    5.4603205854723385    0.0775894076963443
     0.0182440940518132    0.0911738920943699    6.3148064330705127
   Li   P    N    O 
     7     2     1     7
Direct
  0.0286038295174909  0.6291389817563589  0.2388253023820018
  0.0086101017399841  0.6741895925817064  0.7574400596498956
  0.5099971051791851  0.3246573983081100  0.7506702944467815
  0.5020846034422793  0.8482496224783608 -0.0042617565253649
  0.0308174234762280  0.1895443429168276  0.5264312816080050
  0.5066568240967553  0.3288868803739885  0.2467565232858555
  0.8777569563255154  0.9815525990109132  0.2835665743191234
  0.4959044467300581  0.8245790762873750  0.5022288030956988
  0.0106918199869158  0.1862132894397492 -0.0006935440742395
  0.1044266397717397  0.2981596353366306  0.2144571833911565
  0.1100897745792627  0.3162155610387836  0.7868666106687369
  0.6111319498806441  0.0945217225791103  0.4983493596267160
  0.1746543979295175  0.8236733052639384  0.4950857764487970
  0.6825792091918685  0.1746913416212691 -0.0075289879767525
  0.6153761888948024  0.7010215012919527  0.2976586063048197
  0.0936786847143801  0.8976608784338738 -0.0022745927978104
  0.5969700445434046  0.6831242712810549  0.7055325061465808
 
  0.00000000E+00  0.00000000E+00  0.00000000E+00
  0.00000000E+00  0.00000000E+00  0.00000000E+00
  0.00000000E+00  0.00000000E+00  0.00000000E+00
  0.00000000E+00  0.00000000E+00  0.00000000E+00
  0.00000000E+00  0.00000000E+00  0.00000000E+00
  0.00000000E+00  0.00000000E+00  0.00000000E+00
  0.00000000E+00  0.00000000E+00  0.00000000E+00
  0.00000000E+00  0.00000000E+00  0.00000000E+00
  0.00000000E+00  0.00000000E+00  0.00000000E+00
  0.00000000E+00  0.00000000E+00  0.00000000E+00
  0.00000000E+00  0.00000000E+00  0.00000000E+00
  0.00000000E+00  0.00000000E+00  0.00000000E+00
  0.00000000E+00  0.00000000E+00  0.00000000E+00
  0.00000000E+00  0.00000000E+00  0.00000000E+00
  0.00000000E+00  0.00000000E+00  0.00000000E+00
  0.00000000E+00  0.00000000E+00  0.00000000E+00
  0.00000000E+00  0.00000000E+00  0.00000000E+00
