Li71 P24 N1 O94                         
   1.00000000000000     
    14.7344244042273242   -0.0178018952193135    0.0000700903897763
    -0.0127785809485946   10.5468968498792677   -0.0023122100285829
     0.0000471629304851   -0.0027096109060998   12.3397142791038998
   Li   P    N    O 
    71    24     1    94
Direct
  0.1689573346337541  0.4205748290950321 -0.0031235148066255
  0.1687862854170519  0.4226290240578932  0.5031638158904709
  0.1681993495002751  0.9192789680766635  0.0019108003335258
  0.1710380131128048  0.9222506253900605  0.4995923896722220
  0.5032146596607886  0.4205719646156117 -0.0009433479048774
  0.5030188615152428  0.4210575090930315  0.5010417289333128
  0.5076256710496662  0.9214801754494284 -0.0004357757323402
  0.5035853662481925  0.9228482234468975  0.5004462558665850
  0.8342868255321869  0.4231589257174898 -0.0014998337583168
  0.8347005474783511  0.4230256255996109  0.5012042959385702
  0.8363438355810484  0.9237061552144280  0.0002968367183074
  0.8370431980221024  0.9247868279738731  0.4994001478020474
  0.0007988824800945  0.0723400397177665  0.7499762930141436
 -0.0092350649601560  0.6265042648437157  0.2500321454296320
  0.0025206855133382  0.5799406500198312  0.7495874092623820
  0.3351436441657741  0.0744417872196007  0.2499402828488424
  0.3374261488434753  0.0763260586063560  0.7501265742374266
  0.3419927379441334  0.5813927002406591  0.2499394796033345
  0.3367924113908464  0.5773386773509149  0.7501378211142400
  0.6777395699500228  0.0733635682950272  0.2504012383862659
  0.6709455158553912  0.0760679707200670  0.7495144399407156
  0.6689203852409767  0.5796640871902630  0.2501512006017453
  0.6689739698495242  0.5781843773709607  0.7498872118510947
  0.1590674810309556  0.1581980253594076  0.1296358310884944
  0.1685919937711220  0.1614743004142685  0.6281070605003565
  0.1692702884573141  0.6663012010433184  0.1238265462890757
  0.1701721192538327  0.6643092387073394  0.6261210491018127
  0.5070574487982586  0.1609814608651069  0.1280850040199184
  0.5031595382726072  0.1628452211392878  0.6265804124922306
  0.5036159767022081  0.6627225628263179  0.1253396332627520
  0.5024726978316154  0.6629882858875451  0.6265143232690371
  0.8393016030683638  0.1611287441913821  0.1279864390670022
  0.8365603820181198  0.1634072817764516  0.6264676771577438
  0.8332151272032353  0.6654506778276020  0.1239532665196128
  0.8356650762330492  0.6636932456645718  0.6261650963975756
 -0.0047689881666322  0.3311906986232182  0.1096771272197267
  0.0026951620062993  0.3354776188892462  0.6262337186420194
  0.0003045896437690  0.8503561411871357  0.1238184493982160
  0.0032288109486271  0.8375423970501203  0.6234280544680243
  0.3392696061261937  0.3329648993255336  0.1211996829063776
  0.3357306519523738  0.3361205368633392  0.6244907606471307
  0.3397588130432028  0.8372292377203620  0.1222367406451024
  0.3370064416308239  0.8367224154499828  0.6239050274071491
  0.6700609414039470  0.3364797983303476  0.1243583971435529
  0.6689527718115146  0.3359086729965484  0.6245021205779873
  0.6684263128885374  0.8344478802484033  0.1223438164478043
  0.6692112097236735  0.8360634355714728  0.6227736740143027
 -0.0032055212361353  0.3295692023417804  0.3895946111355525
  0.0017042561669614  0.3365744418021731  0.8729272385564208
  0.0013339979912080  0.8509469692623666  0.3759925309413171
  0.0021890629577168  0.8370891771340785  0.8765742640031235
  0.3407444398650809  0.3348007417941973  0.3785823007193901
  0.3352699641265082  0.3336473150300613  0.8759805722688324
  0.3389816239905753  0.8372321717027659  0.3764925312110577
  0.3378868581677658  0.8363379274586691  0.8773555696289529
  0.6693991870081328  0.3363921727822999  0.3759038595632147
  0.6694998401308473  0.3361124396889263  0.8752035980182707
  0.6676592208297656  0.8346939272606388  0.3784822192901906
  0.6700190687067938  0.8358920287162585  0.8761535761806196
  0.1664297724608420  0.1550275096205783  0.3726832825046921
  0.1631244458753668  0.1672348262902235  0.8722223609090799
  0.1691225344199840  0.6682721518763841  0.3763687468577694
  0.1701529989863570  0.6626484945982347  0.8740458302419952
  0.5044371396457430  0.1613546520586778  0.3730694146172012
  0.5062718542768478  0.1623947969499374  0.8722809672961915
  0.5035885740449608  0.6628505004618500  0.3748874746699405
  0.5026121860836379  0.6628665933991782  0.8733134613691832
  0.8391875605741803  0.1613530714000527  0.3722518748984014
  0.8362054077208674  0.1634811201939743  0.8723373093987298
  0.8331945457491102  0.6660180565571910  0.3763048386120361
  0.8357055935920016  0.6633507589981608  0.8733460539038638
  0.1722341873656220  0.4135927543708817  0.2513604877389457
  0.1666025879709239  0.4139112446708662  0.7491671171005849
  0.1692489691346067  0.9064518057115610  0.2493321568203435
  0.1680939798860104  0.9106315506662555  0.7512800979228806
  0.4997781514448203  0.4118993385780781  0.2499479336809612
  0.5001124725111525  0.4120639939768078  0.7500150451190515
  0.5021690368751766  0.9114451309048788  0.2503924589088050
  0.5015117762679260  0.9113518209358811  0.7495603561503374
  0.8347034658148369  0.4157329943244037  0.2501013260340057
  0.8332506886552096  0.4136668590107455  0.7496612441024976
  0.8294114197614160  0.9107607650650593  0.2502867678124642
  0.8327938302034402  0.9109225150199378  0.7494020127043237
 -0.0008947651867869  0.0904426632552207 -0.0055574728354585
  0.0022856622931615  0.0907898630698861  0.5056545164387177
 -0.0002780919293669  0.5890048649433780  0.0002496873585888
 -0.0002421883624328  0.5892050725067628  0.4994014867094601
  0.3392117466385074  0.0853155851659484 -0.0011197176580910
  0.3343380785389536  0.0875708628102779  0.5005632718427033
  0.3339437373714557  0.5857328613696592 -0.0000055144779247
  0.3338599627310287  0.5871287653638891  0.5000767788915728
  0.6681019428343564  0.0883573079753864 -0.0005879621225788
  0.6674743038900889  0.0884479856240476  0.5006058790323167
  0.6663161408633408  0.5862774783625673 -0.0008455205734086
  0.6662642102569291  0.5862635059453960  0.5008626851787749
  0.2292099077657029  0.0904330185479025 -0.0004497350551822
  0.0415735195206830  0.1677212744656958  0.4104104389836731
  0.0306264064863561  0.1551411177381936  0.8864287980373811
  0.0348558751147506  0.6593017541973173  0.3959741423899661
  0.0357782973397492  0.6568727180358123  0.8965659640303394
  0.3696020961153872  0.1562865004718437  0.3963682541466126
  0.3738420256882916  0.1550162068603470  0.8946382866229190
  0.3699229482719045  0.6556037235950024  0.3964526190423474
  0.3689951729685325  0.6550160453443479  0.8963593515102388
  0.7030186488347632  0.1584431581319063  0.3976434401164086
  0.7026687601923337  0.1566153259737244  0.8948322134762433
  0.7011491138143288  0.6552537465432469  0.3970220575586388
  0.7021736718874197  0.6556159211614404  0.8958966682310562
  0.1999492683128481  0.0486869304460449  0.2483053637225982
  0.2017550330804690  0.0512408728075955  0.7527074792489870
  0.2008210977216961  0.5549831353146758  0.2506843718787722
  0.2014292668043577  0.5536113729864282  0.7492051215809744
  0.5377679640605529  0.0508015654258515  0.2505388483449818
  0.5356259286466296  0.0514927614129768  0.7493299390648055
  0.5329411273849681  0.5524692722818372  0.2501045067182877
  0.5335996596994166  0.5525102737574282  0.7498120584142742
  0.8511104119107245  0.0533191343818766  0.2501947592348437
  0.8652434254007849  0.0515144614844774  0.7494020561786039
  0.8681014495054747  0.5565553252902752  0.2502091705220964
  0.8672397607342585  0.5539112551367684  0.7496420852267396
  0.0609003456686023  0.4129204566586617  0.7493252903336269
  0.0655967955611127  0.8902330333698641  0.2493303927884446
  0.0624460469455296  0.9057395728482672  0.7506913708708438
  0.3936636818373260  0.4085843920750584  0.2495300444424966
  0.3943639571489516  0.4087040178982386  0.7504304012763033
  0.3964565789751875  0.9100303602135540  0.2498557707188787
  0.3957933964151186  0.9084534394529200  0.7501434229851076
  0.7291555543308742  0.4117364416477188  0.2504751142021052
  0.7275827388184188  0.4105703172898868  0.7495852341626239
  0.7239193810008491  0.8951440752538169  0.2505454327819754
  0.7271297148352623  0.9063512910129730  0.7492859365061738
  0.2287396191406040  0.0903588895914759  0.5008338061223078
  0.2281209239113062  0.5882491989332118  0.0005847817233806
  0.2280486963224807  0.5900097121005785  0.4994834472916773
  0.5623886684563498  0.0913185664377236 -0.0002446789376820
  0.5616662597340295  0.0911084002920556  0.5004634814523654
  0.5606569909049430  0.5892884681406946 -0.0010092524734686
  0.5606044957096096  0.5890405569344521  0.5010371816973571
  0.8932087605449182  0.0911719173849055 -0.0021998083981006
  0.8963514008305677  0.0924749867834511  0.5011922493723951
  0.8940843489392548  0.5909073879070644 -0.0000976882910575
  0.8941367928973405  0.5908937720178307  0.4998822083709900
  0.1995803764533710  0.3423536490757346  0.1464765048705605
  0.2013356498829720  0.3436657488849290  0.6457568157760449
  0.2083254623877527  0.8398817379043253  0.1457537130130713
  0.2037959545822959  0.8431910090002313  0.6468068215953156
  0.5353613183826300  0.3430261735968155  0.1464345426649470
  0.5353040992481395  0.3429487318952970  0.6462944938088511
  0.5365371620200857  0.8411472321302144  0.1468099395984204
  0.5359794356458323  0.8422952331744120  0.6453796185536574
  0.8701248256367482  0.3473495778127829  0.1462069731671239
  0.8687188485518010  0.3445590012183322  0.6460503539701344
  0.8678810052232865  0.8433011421588400  0.1467509422944915
  0.8689130266214267  0.8425838846898501  0.6456558914865238
  0.0362568373633810  0.1676747088979696  0.0907085517326444
  0.0337137570792085  0.1542149840003295  0.6142560392711458
  0.0348973814916339  0.6587335075703425  0.1038732266352715
  0.0359032314263659  0.6570312876292170  0.6031520129477818
  0.3718814847149390  0.1545997595475144  0.1044593299383529
  0.3695947615629134  0.1573163588424303  0.6041637146292561
  0.3700335263373103  0.6546294594489922  0.1034655438420661
  0.3689519135095540  0.6562877140233362  0.6037802757274309
  0.7034848883450624  0.1581809564264954  0.1025310879911157
  0.7025258427751973  0.1568701322614580  0.6049317222174014
  0.7013127957574332  0.6550462493327415  0.1030862989072271
  0.7019978277120128  0.6558095856168288  0.6041206043322379
  0.0338220162043147  0.4486496841874711  0.0014370775772011
  0.0339545325541081  0.4488906662238271  0.4978106404990110
  0.0329915416476708  0.9502277164567600 -0.0024607255154621
  0.0358609939372663  0.9503500343444655  0.5024642254566641
  0.3670661057134044  0.4451729773185537 -0.0002865441024358
  0.3671161561234549  0.4466644323247916  0.5004701431534077
  0.3764117198048244  0.9465362614875235 -0.0010337764670952
  0.3686109431523958  0.9477888325534707  0.5008449308894393
  0.6998699378794659  0.4460958755355880 -0.0005869744173832
  0.6999731649026908  0.4461545412247689  0.5005500164349336
  0.7008066303702074  0.9476411335512694 -0.0002619967829048
  0.7009065910216031  0.9481217715101176  0.5001267366265986
  0.2017344826154871  0.3426389309661569  0.3554854132542806
  0.2011935873538915  0.3443044820641454  0.8527290767579251
  0.2079321353036002  0.8428089127091730  0.3545959437898358
  0.2037186626424236  0.8408669690506473  0.8544731102801630
  0.5346177451173731  0.3430797935332658  0.3538306282060111
  0.5359867147932518  0.3432427959780360  0.8534441469637513
  0.5353860592478060  0.8418124396069367  0.3548760467224147
  0.5371747047920268  0.8417939019566145  0.8527681215665045
  0.8710038889723157  0.3467492761813613  0.3532758661626361
  0.8683063563957381  0.3450205047441340  0.8536126839231597
  0.8684091959966685  0.8437007627078076  0.3536864642549800
  0.8683989269123655  0.8422697023363805  0.8531779149683050
 
  0.00000000E+00  0.00000000E+00  0.00000000E+00
  0.00000000E+00  0.00000000E+00  0.00000000E+00
  0.00000000E+00  0.00000000E+00  0.00000000E+00
  0.00000000E+00  0.00000000E+00  0.00000000E+00
  0.00000000E+00  0.00000000E+00  0.00000000E+00
  0.00000000E+00  0.00000000E+00  0.00000000E+00
  0.00000000E+00  0.00000000E+00  0.00000000E+00
  0.00000000E+00  0.00000000E+00  0.00000000E+00
  0.00000000E+00  0.00000000E+00  0.00000000E+00
  0.00000000E+00  0.00000000E+00  0.00000000E+00
  0.00000000E+00  0.00000000E+00  0.00000000E+00
  0.00000000E+00  0.00000000E+00  0.00000000E+00
  0.00000000E+00  0.00000000E+00  0.00000000E+00
  0.00000000E+00  0.00000000E+00  0.00000000E+00
  0.00000000E+00  0.00000000E+00  0.00000000E+00
  0.00000000E+00  0.00000000E+00  0.00000000E+00
  0.00000000E+00  0.00000000E+00  0.00000000E+00
  0.00000000E+00  0.00000000E+00  0.00000000E+00
  0.00000000E+00  0.00000000E+00  0.00000000E+00
  0.00000000E+00  0.00000000E+00  0.00000000E+00
  0.00000000E+00  0.00000000E+00  0.00000000E+00
  0.00000000E+00  0.00000000E+00  0.00000000E+00
  0.00000000E+00  0.00000000E+00  0.00000000E+00
  0.00000000E+00  0.00000000E+00  0.00000000E+00
  0.00000000E+00  0.00000000E+00  0.00000000E+00
  0.00000000E+00  0.00000000E+00  0.00000000E+00
  0.00000000E+00  0.00000000E+00  0.00000000E+00
  0.00000000E+00  0.00000000E+00  0.00000000E+00
  0.00000000E+00  0.00000000E+00  0.00000000E+00
  0.00000000E+00  0.00000000E+00  0.00000000E+00
  0.00000000E+00  0.00000000E+00  0.00000000E+00
  0.00000000E+00  0.00000000E+00  0.00000000E+00
  0.00000000E+00  0.00000000E+00  0.00000000E+00
  0.00000000E+00  0.00000000E+00  0.00000000E+00
  0.00000000E+00  0.00000000E+00  0.00000000E+00
  0.00000000E+00  0.00000000E+00  0.00000000E+00
  0.00000000E+00  0.00000000E+00  0.00000000E+00
  0.00000000E+00  0.00000000E+00  0.00000000E+00
  0.00000000E+00  0.00000000E+00  0.00000000E+00
  0.00000000E+00  0.00000000E+00  0.00000000E+00
  0.00000000E+00  0.00000000E+00  0.00000000E+00
  0.00000000E+00  0.00000000E+00  0.00000000E+00
  0.00000000E+00  0.00000000E+00  0.00000000E+00
  0.00000000E+00  0.00000000E+00  0.00000000E+00
  0.00000000E+00  0.00000000E+00  0.00000000E+00
  0.00000000E+00  0.00000000E+00  0.00000000E+00
  0.00000000E+00  0.00000000E+00  0.00000000E+00
  0.00000000E+00  0.00000000E+00  0.00000000E+00
  0.00000000E+00  0.00000000E+00  0.00000000E+00
  0.00000000E+00  0.00000000E+00  0.00000000E+00
  0.00000000E+00  0.00000000E+00  0.00000000E+00
  0.00000000E+00  0.00000000E+00  0.00000000E+00
  0.00000000E+00  0.00000000E+00  0.00000000E+00
  0.00000000E+00  0.00000000E+00  0.00000000E+00
  0.00000000E+00  0.00000000E+00  0.00000000E+00
  0.00000000E+00  0.00000000E+00  0.00000000E+00
  0.00000000E+00  0.00000000E+00  0.00000000E+00
  0.00000000E+00  0.00000000E+00  0.00000000E+00
  0.00000000E+00  0.00000000E+00  0.00000000E+00
  0.00000000E+00  0.00000000E+00  0.00000000E+00
  0.00000000E+00  0.00000000E+00  0.00000000E+00
  0.00000000E+00  0.00000000E+00  0.00000000E+00
  0.00000000E+00  0.00000000E+00  0.00000000E+00
  0.00000000E+00  0.00000000E+00  0.00000000E+00
  0.00000000E+00  0.00000000E+00  0.00000000E+00
  0.00000000E+00  0.00000000E+00  0.00000000E+00
  0.00000000E+00  0.00000000E+00  0.00000000E+00
  0.00000000E+00  0.00000000E+00  0.00000000E+00
  0.00000000E+00  0.00000000E+00  0.00000000E+00
  0.00000000E+00  0.00000000E+00  0.00000000E+00
  0.00000000E+00  0.00000000E+00  0.00000000E+00
  0.00000000E+00  0.00000000E+00  0.00000000E+00
  0.00000000E+00  0.00000000E+00  0.00000000E+00
  0.00000000E+00  0.00000000E+00  0.00000000E+00
  0.00000000E+00  0.00000000E+00  0.00000000E+00
  0.00000000E+00  0.00000000E+00  0.00000000E+00
  0.00000000E+00  0.00000000E+00  0.00000000E+00
  0.00000000E+00  0.00000000E+00  0.00000000E+00
  0.00000000E+00  0.00000000E+00  0.00000000E+00
  0.00000000E+00  0.00000000E+00  0.00000000E+00
  0.00000000E+00  0.00000000E+00  0.00000000E+00
  0.00000000E+00  0.00000000E+00  0.00000000E+00
  0.00000000E+00  0.00000000E+00  0.00000000E+00
  0.00000000E+00  0.00000000E+00  0.00000000E+00
  0.00000000E+00  0.00000000E+00  0.00000000E+00
  0.00000000E+00  0.00000000E+00  0.00000000E+00
  0.00000000E+00  0.00000000E+00  0.00000000E+00
  0.00000000E+00  0.00000000E+00  0.00000000E+00
  0.00000000E+00  0.00000000E+00  0.00000000E+00
  0.00000000E+00  0.00000000E+00  0.00000000E+00
  0.00000000E+00  0.00000000E+00  0.00000000E+00
  0.00000000E+00  0.00000000E+00  0.00000000E+00
  0.00000000E+00  0.00000000E+00  0.00000000E+00
  0.00000000E+00  0.00000000E+00  0.00000000E+00
  0.00000000E+00  0.00000000E+00  0.00000000E+00
  0.00000000E+00  0.00000000E+00  0.00000000E+00
  0.00000000E+00  0.00000000E+00  0.00000000E+00
  0.00000000E+00  0.00000000E+00  0.00000000E+00
  0.00000000E+00  0.00000000E+00  0.00000000E+00
  0.00000000E+00  0.00000000E+00  0.00000000E+00
  0.00000000E+00  0.00000000E+00  0.00000000E+00
  0.00000000E+00  0.00000000E+00  0.00000000E+00
  0.00000000E+00  0.00000000E+00  0.00000000E+00
  0.00000000E+00  0.00000000E+00  0.00000000E+00
  0.00000000E+00  0.00000000E+00  0.00000000E+00
  0.00000000E+00  0.00000000E+00  0.00000000E+00
  0.00000000E+00  0.00000000E+00  0.00000000E+00
  0.00000000E+00  0.00000000E+00  0.00000000E+00
  0.00000000E+00  0.00000000E+00  0.00000000E+00
  0.00000000E+00  0.00000000E+00  0.00000000E+00
  0.00000000E+00  0.00000000E+00  0.00000000E+00
  0.00000000E+00  0.00000000E+00  0.00000000E+00
  0.00000000E+00  0.00000000E+00  0.00000000E+00
  0.00000000E+00  0.00000000E+00  0.00000000E+00
  0.00000000E+00  0.00000000E+00  0.00000000E+00
  0.00000000E+00  0.00000000E+00  0.00000000E+00
  0.00000000E+00  0.00000000E+00  0.00000000E+00
  0.00000000E+00  0.00000000E+00  0.00000000E+00
  0.00000000E+00  0.00000000E+00  0.00000000E+00
  0.00000000E+00  0.00000000E+00  0.00000000E+00
  0.00000000E+00  0.00000000E+00  0.00000000E+00
  0.00000000E+00  0.00000000E+00  0.00000000E+00
  0.00000000E+00  0.00000000E+00  0.00000000E+00
  0.00000000E+00  0.00000000E+00  0.00000000E+00
  0.00000000E+00  0.00000000E+00  0.00000000E+00
  0.00000000E+00  0.00000000E+00  0.00000000E+00
  0.00000000E+00  0.00000000E+00  0.00000000E+00
  0.00000000E+00  0.00000000E+00  0.00000000E+00
  0.00000000E+00  0.00000000E+00  0.00000000E+00
  0.00000000E+00  0.00000000E+00  0.00000000E+00
  0.00000000E+00  0.00000000E+00  0.00000000E+00
  0.00000000E+00  0.00000000E+00  0.00000000E+00
  0.00000000E+00  0.00000000E+00  0.00000000E+00
  0.00000000E+00  0.00000000E+00  0.00000000E+00
  0.00000000E+00  0.00000000E+00  0.00000000E+00
  0.00000000E+00  0.00000000E+00  0.00000000E+00
  0.00000000E+00  0.00000000E+00  0.00000000E+00
  0.00000000E+00  0.00000000E+00  0.00000000E+00
  0.00000000E+00  0.00000000E+00  0.00000000E+00
  0.00000000E+00  0.00000000E+00  0.00000000E+00
  0.00000000E+00  0.00000000E+00  0.00000000E+00
  0.00000000E+00  0.00000000E+00  0.00000000E+00
  0.00000000E+00  0.00000000E+00  0.00000000E+00
  0.00000000E+00  0.00000000E+00  0.00000000E+00
  0.00000000E+00  0.00000000E+00  0.00000000E+00
  0.00000000E+00  0.00000000E+00  0.00000000E+00
  0.00000000E+00  0.00000000E+00  0.00000000E+00
  0.00000000E+00  0.00000000E+00  0.00000000E+00
  0.00000000E+00  0.00000000E+00  0.00000000E+00
  0.00000000E+00  0.00000000E+00  0.00000000E+00
  0.00000000E+00  0.00000000E+00  0.00000000E+00
  0.00000000E+00  0.00000000E+00  0.00000000E+00
  0.00000000E+00  0.00000000E+00  0.00000000E+00
  0.00000000E+00  0.00000000E+00  0.00000000E+00
  0.00000000E+00  0.00000000E+00  0.00000000E+00
  0.00000000E+00  0.00000000E+00  0.00000000E+00
  0.00000000E+00  0.00000000E+00  0.00000000E+00
  0.00000000E+00  0.00000000E+00  0.00000000E+00
  0.00000000E+00  0.00000000E+00  0.00000000E+00
  0.00000000E+00  0.00000000E+00  0.00000000E+00
  0.00000000E+00  0.00000000E+00  0.00000000E+00
  0.00000000E+00  0.00000000E+00  0.00000000E+00
  0.00000000E+00  0.00000000E+00  0.00000000E+00
  0.00000000E+00  0.00000000E+00  0.00000000E+00
  0.00000000E+00  0.00000000E+00  0.00000000E+00
  0.00000000E+00  0.00000000E+00  0.00000000E+00
  0.00000000E+00  0.00000000E+00  0.00000000E+00
  0.00000000E+00  0.00000000E+00  0.00000000E+00
  0.00000000E+00  0.00000000E+00  0.00000000E+00
  0.00000000E+00  0.00000000E+00  0.00000000E+00
  0.00000000E+00  0.00000000E+00  0.00000000E+00
  0.00000000E+00  0.00000000E+00  0.00000000E+00
  0.00000000E+00  0.00000000E+00  0.00000000E+00
  0.00000000E+00  0.00000000E+00  0.00000000E+00
  0.00000000E+00  0.00000000E+00  0.00000000E+00
  0.00000000E+00  0.00000000E+00  0.00000000E+00
  0.00000000E+00  0.00000000E+00  0.00000000E+00
  0.00000000E+00  0.00000000E+00  0.00000000E+00
  0.00000000E+00  0.00000000E+00  0.00000000E+00
  0.00000000E+00  0.00000000E+00  0.00000000E+00
  0.00000000E+00  0.00000000E+00  0.00000000E+00
  0.00000000E+00  0.00000000E+00  0.00000000E+00
  0.00000000E+00  0.00000000E+00  0.00000000E+00
  0.00000000E+00  0.00000000E+00  0.00000000E+00
  0.00000000E+00  0.00000000E+00  0.00000000E+00
  0.00000000E+00  0.00000000E+00  0.00000000E+00
  0.00000000E+00  0.00000000E+00  0.00000000E+00
  0.00000000E+00  0.00000000E+00  0.00000000E+00
  0.00000000E+00  0.00000000E+00  0.00000000E+00
  0.00000000E+00  0.00000000E+00  0.00000000E+00
