Li42 P14 O56
1.0
5.296402 0.000000 0.000000
-0.000000 6.176136 -4.922448
0.000000 0.000000 63.991824
Li P O
42 14 56
direct
0.844520 0.000000 0.025431 Li+
0.155480 0.500000 0.025431 Li+
0.326434 0.747127 0.005899 Li+
0.673566 0.752873 0.044802 Li+
0.673566 0.247127 0.005899 Li+
0.326434 0.252873 0.044802 Li+
0.844520 0.000000 0.102355 Li+
0.155480 0.500000 0.102355 Li+
0.326434 0.747127 0.082822 Li+
0.673566 0.752873 0.121725 Li+
0.673566 0.247127 0.082822 Li+
0.326434 0.252873 0.121725 Li+
0.844520 0.000000 0.179278 Li+
0.155480 0.500000 0.179278 Li+
0.326434 0.747127 0.159745 Li+
0.673566 0.752873 0.198648 Li+
0.673566 0.247127 0.159745 Li+
0.326434 0.252873 0.198648 Li+
0.844520 0.000000 0.256201 Li+
0.155480 0.500000 0.256201 Li+
0.326434 0.747127 0.236668 Li+
0.673566 0.752873 0.275571 Li+
0.673566 0.247127 0.236668 Li+
0.326434 0.252873 0.275571 Li+
0.844520 0.000000 0.333124 Li+
0.155480 0.500000 0.333124 Li+
0.326434 0.747127 0.313591 Li+
0.673566 0.752873 0.352494 Li+
0.673566 0.247127 0.313591 Li+
0.326434 0.252873 0.352494 Li+
0.844520 0.000000 0.410047 Li+
0.155480 0.500000 0.410047 Li+
0.326434 0.747127 0.390514 Li+
0.673566 0.752873 0.429418 Li+
0.673566 0.247127 0.390514 Li+
0.326434 0.252873 0.429418 Li+
0.844520 0.000000 0.486970 Li+
0.155480 0.500000 0.486970 Li+
0.326434 0.747127 0.467437 Li+
0.673566 0.752873 0.506341 Li+
0.673566 0.247127 0.467437 Li+
0.326434 0.252873 0.506341 Li+
0.824261 0.500000 0.063278 P5+
0.175739 0.000000 0.063278 P5+
0.824261 0.500000 0.140201 P5+
0.175739 0.000000 0.140201 P5+
0.824261 0.500000 0.217124 P5+
0.175739 0.000000 0.217124 P5+
0.824261 0.500000 0.294047 P5+
0.175739 0.000000 0.294047 P5+
0.824261 0.500000 0.370970 P5+
0.175739 0.000000 0.370970 P5+
0.824261 0.500000 0.447893 P5+
0.175739 0.000000 0.447893 P5+
0.824261 0.500000 0.524816 P5+
0.175739 0.000000 0.524816 P5+
0.313509 0.207138 0.010411 O2-
0.103508 0.500000 0.071024 O2-
0.818396 0.500000 0.038953 O2-
0.181604 0.000000 0.038953 O2-
0.686491 0.707138 0.010411 O2-
0.313509 0.792862 0.055466 O2-
0.896492 0.000000 0.071024 O2-
0.686491 0.292862 0.055466 O2-
0.313509 0.207138 0.087334 O2-
0.103508 0.500000 0.147948 O2-
0.818396 0.500000 0.115876 O2-
0.181604 0.000000 0.115876 O2-
0.686491 0.707138 0.087334 O2-
0.313509 0.792862 0.132390 O2-
0.896492 0.000000 0.147948 O2-
0.686491 0.292862 0.132390 O2-
0.313509 0.207138 0.164257 O2-
0.103508 0.500000 0.224871 O2-
0.818396 0.500000 0.192799 O2-
0.181604 0.000000 0.192799 O2-
0.686491 0.707138 0.164257 O2-
0.313509 0.792862 0.209313 O2-
0.896492 0.000000 0.224871 O2-
0.686491 0.292862 0.209313 O2-
0.313509 0.207138 0.241180 O2-
0.103508 0.500000 0.301794 O2-
0.818396 0.500000 0.269722 O2-
0.181604 0.000000 0.269722 O2-
0.686491 0.707138 0.241180 O2-
0.313509 0.792862 0.286236 O2-
0.896492 0.000000 0.301794 O2-
0.686491 0.292862 0.286236 O2-
0.313509 0.207138 0.318103 O2-
0.103508 0.500000 0.378717 O2-
0.818396 0.500000 0.346645 O2-
0.181604 0.000000 0.346645 O2-
0.686491 0.707138 0.318103 O2-
0.313509 0.792862 0.363159 O2-
0.896492 0.000000 0.378717 O2-
0.686491 0.292862 0.363159 O2-
0.313509 0.207138 0.395026 O2-
0.103508 0.500000 0.455640 O2-
0.818396 0.500000 0.423568 O2-
0.181604 0.000000 0.423568 O2-
0.686491 0.707138 0.395026 O2-
0.313509 0.792862 0.440082 O2-
0.896492 0.000000 0.455640 O2-
0.686491 0.292862 0.440082 O2-
0.313509 0.207138 0.471949 O2-
0.103508 0.500000 0.532563 O2-
0.818396 0.500000 0.500491 O2-
0.181604 0.000000 0.500491 O2-
0.686491 0.707138 0.471949 O2-
0.313509 0.792862 0.517005 O2-
0.896492 0.000000 0.532563 O2-
0.686491 0.292862 0.517005 O2-
