Li61 P7 N32                             
   1.00000000000000     
     0.0176120982600029    9.5958351893057134   -0.0425377373372078
    -0.0088436796300075   -0.0430407007475724    9.6157078761777601
     9.6396024697511695    0.0168162966164497   -0.0086789419062931
   Li   P    N 
    61     7    32
Direct
  0.5095799814550402  0.9880375331380580  0.4984197943587082
  0.0070796046687875  0.4890691666514915  0.9897801989385905
  0.5042160173140291  0.9942638797644192  0.9994695377252500
  0.0103397368085790  0.9953131304077855  0.4948041133766310
  0.5055956804023616  0.4961332854912760  0.0004901089932921
  0.9710978846958206  0.4889492054396959  0.4901014886506412
  0.7745634673162271  0.0308781815689027  0.5367798946345319
  0.2590765787314017  0.0087576125715338  0.4888896072902833
  0.6891204770668632  0.5661194049245036  0.4464963017698423
  0.2074424500298978  0.5209513844052507  0.4754491808379629
  0.2633931574402411  0.9926308298303061  0.9836642141033087
  0.7454081701512357  0.9879663218966034  0.0309093740358296
  0.4322786111432564  0.5711434142333220  0.5762890860973067
  0.4923352641751009  0.2429871182174243  0.0111370375060788
  0.5172505146658521  0.7506386748049906  0.0096769059114700
  0.0322828909258023  0.4650474942228603  0.2328313081590667
  0.0158550826636006  0.4981811876359784  0.7450620241912903
  0.2738583562294936  0.2623880711800322  0.2653532362059393
  0.2213700637617909  0.7626271238467882  0.7779743899392882
  0.3018747368239854  0.2596199036968934  0.7650543722001955
  0.2674901215167617  0.7650294086777057  0.2900878638479899
  0.7685554602994049  0.2843359324118407  0.2551811485979054
  0.6691102329358942  0.8238230555858385  0.6597145957540373
  0.7938752853511845  0.2125846867711225  0.7629838213543571
  0.7629724368668434  0.7732074800904015  0.2129021113683726
  0.0199787073249227  0.2120302848070922  0.2540930960305791
  0.9782343403876853  0.7596821062375501  0.7590096147430586
  0.2545710407104405  0.2722529238479297  0.5292904485678352
  0.2562907329470588  0.7587514431622200  0.5238062830416497
  0.7664557239123437  0.2818827010216216  0.4843671067049033
  0.7577267731386492  0.8033971825683760  0.4413008524539216
  0.5421832178161958  0.4875682820078480  0.2263192008060554
  0.8215378720135615  0.6480759672128242  0.6264140922076449
  0.2868303510690340  0.5294216893765238  0.2359021110470370
  0.2633582949781483  0.4897406759082280  0.7393667739949537
  0.4979620521705950  0.7333428142836140  0.2584385290524377
  0.5352058588701943  0.2414676490886513  0.7622536987703146
  0.2503512067301195  0.0048324210279507  0.2283887110654591
  0.2392968078071998  0.0173842469010263  0.7375045501700328
  0.2348006923813920  0.2371085816561542  0.0083228576130314
  0.2749893718151648  0.7493700758594738  0.0339488619590683
  0.7536792066894156  0.9834289538245030  0.7936184093859295
  0.7570247153138185  0.0375081605182631  0.2845517885030390
  0.7904936383111250  0.7464171863963346  0.9866669235006681
  0.7423001810866882  0.2278972860503866  0.0162689133541268
  0.0471079518862040  0.2543491076156939  0.7634410970432497
  0.0219016334631975  0.7254391263454523  0.2358033904398758
  0.5333491513555145  0.2369333251837576  0.2711607797251669
  0.4623185264705086  0.7334266927960188  0.7627755734564807
  0.9889695972422404  0.2473243425034160  0.0052573577950368
  0.0273324064074589  0.7271425772938054 -0.0055562825985031
  0.5026364606718944  0.2170074177713855  0.5149219224813892
  0.5037222533545862  0.7531070634507415  0.4881147459819742
  0.4396444550976957  0.4333246774040723  0.4215500742967074
  0.5035634793691417  0.4816484103063971  0.7746587871335979
  0.0041688098431528  0.9703793689424826  0.2544449574617598
 -0.0018709724268353  0.0023350693373818  0.7338969608968339
  0.5974644047062170  0.4242149864798937  0.5758688098643613
  0.7770226846007933  0.4494212032516445  0.7412497535755156
  0.7864338920698640  0.5195550838426821  0.2479745955891249
  0.6705605140983507  0.6583608920163534  0.8234176089076453
  0.0028514267256095  0.9872808522593509  0.9962397984458388
  0.7621169273363813  0.4877505248925053  0.9940049145778228
  0.2535645405092513  0.4933232191099873  0.9947513902376111
 -0.0009370186129962  0.7519970913102367  0.4937475590191118
  0.0084621702290640  0.2397023192726537  0.5077820980113680
  0.5053653424291121  0.9911850025440717  0.2448470512566013
  0.4966168123837410  0.9878195883772428  0.7558317062180269
  0.6214517414162385  0.6245406306957932  0.6336414707058103
  0.6332290549184214  0.3806323253068295  0.3739487449143345
  0.9083970665106168  0.8766968015344285  0.0964991997325463
  0.8941919018187363  0.0889766827208896  0.9034415852836798
  0.1028236547307377  0.8932411850182812  0.8870993484803302
  0.1037470720237399  0.0895734424956963  0.0990825704520952
  0.3725624920898859  0.6251105068581734  0.3888442114518712
  0.4041095399212704  0.3715172371882303  0.6266925849971263
  0.1040349330957176  0.3423375613353069  0.3986577877211598
  0.0830505973998914  0.6489758813897046  0.6064732499526304
  0.1144295321801576  0.1377798794884841  0.6021711060054985
  0.1079057525720073  0.8476325514221685  0.3964651217090693
  0.8995713163231602  0.1438372463785058  0.4047289381187273
  0.8890402144685734  0.8542260175579491  0.5927525760459672
  0.8616191375678512  0.3919078173584620  0.0997684011147289
  0.8620939796901705  0.5845273249020314  0.8806479001771080
  0.1510057616362361  0.5923927747471656  0.0983555818149149
  0.1571915261060439  0.3896120337615401  0.8891444845476669
  0.4023401967159276  0.8862209844501192  0.1467012436105274
  0.4038445604764322  0.0977800105436460  0.8547051175405169
  0.4023668777066921  0.0918905518276078  0.3467516826417056
  0.3895799873556842  0.8945406434847148  0.6508010236802840
  0.3533269449241477  0.3896763270673922  0.0972302115160961
  0.3548407130982562  0.6029272266639555  0.8977395892446105
  0.6173262302659963  0.0756375620824432  0.6607357435143724
  0.6122670258125105  0.8915398041574848  0.3422744145066648
  0.6668678105208335  0.6053951581019251  0.0859940269244376
  0.6562962968629249  0.3814870033505440  0.9000568673938231
  0.9122355375028945  0.3344439758229847  0.6215571956393553
  0.8910801311223346  0.6554495295245290  0.3897490897901366
  0.6087961597290592  0.0963234877484123  0.1459378852561151
  0.5920467553134868  0.8742787734857747  0.8552648568795815
 
  0.00000000E+00  0.00000000E+00  0.00000000E+00
  0.00000000E+00  0.00000000E+00  0.00000000E+00
  0.00000000E+00  0.00000000E+00  0.00000000E+00
  0.00000000E+00  0.00000000E+00  0.00000000E+00
  0.00000000E+00  0.00000000E+00  0.00000000E+00
  0.00000000E+00  0.00000000E+00  0.00000000E+00
  0.00000000E+00  0.00000000E+00  0.00000000E+00
  0.00000000E+00  0.00000000E+00  0.00000000E+00
  0.00000000E+00  0.00000000E+00  0.00000000E+00
  0.00000000E+00  0.00000000E+00  0.00000000E+00
  0.00000000E+00  0.00000000E+00  0.00000000E+00
  0.00000000E+00  0.00000000E+00  0.00000000E+00
  0.00000000E+00  0.00000000E+00  0.00000000E+00
  0.00000000E+00  0.00000000E+00  0.00000000E+00
  0.00000000E+00  0.00000000E+00  0.00000000E+00
  0.00000000E+00  0.00000000E+00  0.00000000E+00
  0.00000000E+00  0.00000000E+00  0.00000000E+00
  0.00000000E+00  0.00000000E+00  0.00000000E+00
  0.00000000E+00  0.00000000E+00  0.00000000E+00
  0.00000000E+00  0.00000000E+00  0.00000000E+00
  0.00000000E+00  0.00000000E+00  0.00000000E+00
  0.00000000E+00  0.00000000E+00  0.00000000E+00
  0.00000000E+00  0.00000000E+00  0.00000000E+00
  0.00000000E+00  0.00000000E+00  0.00000000E+00
  0.00000000E+00  0.00000000E+00  0.00000000E+00
  0.00000000E+00  0.00000000E+00  0.00000000E+00
  0.00000000E+00  0.00000000E+00  0.00000000E+00
  0.00000000E+00  0.00000000E+00  0.00000000E+00
  0.00000000E+00  0.00000000E+00  0.00000000E+00
  0.00000000E+00  0.00000000E+00  0.00000000E+00
  0.00000000E+00  0.00000000E+00  0.00000000E+00
  0.00000000E+00  0.00000000E+00  0.00000000E+00
  0.00000000E+00  0.00000000E+00  0.00000000E+00
  0.00000000E+00  0.00000000E+00  0.00000000E+00
  0.00000000E+00  0.00000000E+00  0.00000000E+00
  0.00000000E+00  0.00000000E+00  0.00000000E+00
  0.00000000E+00  0.00000000E+00  0.00000000E+00
  0.00000000E+00  0.00000000E+00  0.00000000E+00
  0.00000000E+00  0.00000000E+00  0.00000000E+00
  0.00000000E+00  0.00000000E+00  0.00000000E+00
  0.00000000E+00  0.00000000E+00  0.00000000E+00
  0.00000000E+00  0.00000000E+00  0.00000000E+00
  0.00000000E+00  0.00000000E+00  0.00000000E+00
  0.00000000E+00  0.00000000E+00  0.00000000E+00
  0.00000000E+00  0.00000000E+00  0.00000000E+00
  0.00000000E+00  0.00000000E+00  0.00000000E+00
  0.00000000E+00  0.00000000E+00  0.00000000E+00
  0.00000000E+00  0.00000000E+00  0.00000000E+00
  0.00000000E+00  0.00000000E+00  0.00000000E+00
  0.00000000E+00  0.00000000E+00  0.00000000E+00
  0.00000000E+00  0.00000000E+00  0.00000000E+00
  0.00000000E+00  0.00000000E+00  0.00000000E+00
  0.00000000E+00  0.00000000E+00  0.00000000E+00
  0.00000000E+00  0.00000000E+00  0.00000000E+00
  0.00000000E+00  0.00000000E+00  0.00000000E+00
  0.00000000E+00  0.00000000E+00  0.00000000E+00
  0.00000000E+00  0.00000000E+00  0.00000000E+00
  0.00000000E+00  0.00000000E+00  0.00000000E+00
  0.00000000E+00  0.00000000E+00  0.00000000E+00
  0.00000000E+00  0.00000000E+00  0.00000000E+00
  0.00000000E+00  0.00000000E+00  0.00000000E+00
  0.00000000E+00  0.00000000E+00  0.00000000E+00
  0.00000000E+00  0.00000000E+00  0.00000000E+00
  0.00000000E+00  0.00000000E+00  0.00000000E+00
  0.00000000E+00  0.00000000E+00  0.00000000E+00
  0.00000000E+00  0.00000000E+00  0.00000000E+00
  0.00000000E+00  0.00000000E+00  0.00000000E+00
  0.00000000E+00  0.00000000E+00  0.00000000E+00
  0.00000000E+00  0.00000000E+00  0.00000000E+00
  0.00000000E+00  0.00000000E+00  0.00000000E+00
  0.00000000E+00  0.00000000E+00  0.00000000E+00
  0.00000000E+00  0.00000000E+00  0.00000000E+00
  0.00000000E+00  0.00000000E+00  0.00000000E+00
  0.00000000E+00  0.00000000E+00  0.00000000E+00
  0.00000000E+00  0.00000000E+00  0.00000000E+00
  0.00000000E+00  0.00000000E+00  0.00000000E+00
  0.00000000E+00  0.00000000E+00  0.00000000E+00
  0.00000000E+00  0.00000000E+00  0.00000000E+00
  0.00000000E+00  0.00000000E+00  0.00000000E+00
  0.00000000E+00  0.00000000E+00  0.00000000E+00
  0.00000000E+00  0.00000000E+00  0.00000000E+00
  0.00000000E+00  0.00000000E+00  0.00000000E+00
  0.00000000E+00  0.00000000E+00  0.00000000E+00
  0.00000000E+00  0.00000000E+00  0.00000000E+00
  0.00000000E+00  0.00000000E+00  0.00000000E+00
  0.00000000E+00  0.00000000E+00  0.00000000E+00
  0.00000000E+00  0.00000000E+00  0.00000000E+00
  0.00000000E+00  0.00000000E+00  0.00000000E+00
  0.00000000E+00  0.00000000E+00  0.00000000E+00
  0.00000000E+00  0.00000000E+00  0.00000000E+00
  0.00000000E+00  0.00000000E+00  0.00000000E+00
  0.00000000E+00  0.00000000E+00  0.00000000E+00
  0.00000000E+00  0.00000000E+00  0.00000000E+00
  0.00000000E+00  0.00000000E+00  0.00000000E+00
  0.00000000E+00  0.00000000E+00  0.00000000E+00
  0.00000000E+00  0.00000000E+00  0.00000000E+00
  0.00000000E+00  0.00000000E+00  0.00000000E+00
  0.00000000E+00  0.00000000E+00  0.00000000E+00
  0.00000000E+00  0.00000000E+00  0.00000000E+00
  0.00000000E+00  0.00000000E+00  0.00000000E+00
