Li61 P7 N32                             
   1.00000000000000     
     0.0628313997087842    9.6190687578595622   -0.0269253969642524
    -0.0110912866500166   -0.0272445521526796    9.6508499994456560
     9.6433292563089523    0.0622435952175618   -0.0106631762964984
   Li   P    N 
    61     7    32
Direct
  0.5093350674052245 -0.0090820045183793  0.4945904170572172
 -0.0004626195861101  0.4957788949868981 -0.0110528512808982
  0.5002000761202606 -0.0044918263658401 -0.0044151287378935
  0.0079428686274964 -0.0053597541858883  0.4965700452584345
  0.4949156610326684  0.5050249749850479  0.0136722497129020
 -0.0249159535056687  0.4854471770009460  0.4935353855816227
  0.7679036552792695  0.0174488515773248  0.5233919620150161
  0.2570628485710428  0.0100291754849799  0.4850862840681521
  0.7083620937485439  0.5473876645222691  0.4478174285666538
  0.2102993846024282  0.5204357498778415  0.4744126753809396
  0.2588234186281499 -0.0091016938921883 -0.0250046963248007
  0.7395580525162834 -0.0019158944768226  0.0113946674828303
  0.4291446153572743  0.5661465770952692  0.5739650765830125
  0.4838029406676185  0.2461458836133041  0.0086166652774130
  0.5139483616092472  0.7575399866578165  0.0060199003451068
  0.0477142872968723  0.4437927197221238  0.2271071284157921
  0.0098294348666622  0.4933131879855522  0.7461741166772650
  0.2869880325385132  0.2707196971738571  0.2666018197344821
  0.2091369179024028  0.7520967530993558  0.7862075310466583
  0.2902631377248425  0.2568738145767718  0.7636860414681360
  0.2885258928378807  0.7900889333468031  0.3068620265054860
  0.8081798899682412  0.3116901053386820  0.2912870567165586
  0.6611353400608370  0.8176595240113717  0.6532808405478675
  0.7858406683227896  0.2086070430451631  0.7699306967292210
  0.7431945771499505  0.8027251310749699  0.1944864437917345
  0.0367886445946407  0.1879377832486512  0.2673390288452455
  0.9722167380134915  0.7557494307609233  0.7666406034782456
  0.2487082848833960  0.2766510444185869  0.5310006221269925
  0.2573185293187490  0.7588104274262197  0.5332123301991749
  0.7505051855444247  0.2557577846514271  0.5080243385185198
  0.7617228310096570  0.7941742061268080  0.4331506628758193
  0.6232461333067171  0.4510734479648076  0.2090452398386975
  0.8201476706710379  0.6462178953922452  0.6315186351131447
  0.2959915935458372  0.5427687683389592  0.2298298826636092
  0.2550857664776656  0.4905144873077892  0.7381899146695532
  0.5089513536442524  0.7122783528557887  0.2517511980909054
  0.5240114483323330  0.2405838821355066  0.7553884371423902
  0.2561501647461125  0.0146501419133270  0.2156545667652754
  0.2421123077015200  0.0141897434343528  0.7313718275343308
  0.2258978546236410  0.2378104047659119  0.0092165960643910
  0.2720999587489009  0.7483660149189086  0.0416281128028289
  0.7639367130543239  0.9752000490997494  0.7750700584551953
  0.7635322582484895  0.0462716942205595  0.2710161850383095
  0.7831459483080667  0.7563200363417547  0.9746214369541912
  0.7314129654827085  0.2387533622305015  0.0366782961735456
  0.0353279863568404  0.2479982935849069  0.7701579122183767
  0.0609969501653464  0.6978630959882863  0.2608584703707167
  0.5494727966541547  0.2241232055501638  0.2774172342498365
  0.4547508726707010  0.7353081646258345  0.7613534350387042
 -0.0191592932294802  0.2509621919695624  0.0119012931216278
  0.0220770456519194  0.7360023862581486  0.0093058117775959
  0.4918320818599590  0.2256142276483507  0.5078623101631669
  0.5054654639097265  0.7498281541739125  0.4846019994891675
  0.4545928832250002  0.4514188731322831  0.3936474258149699
  0.4925553774170195  0.4797486965689882  0.7820109743601859
  0.0077117927242872 -0.0528681916542186  0.2496912143433535
  0.0018889841906126  0.0009884258709685  0.7332178889526105
  0.5872367144190407  0.4231023167535009  0.5764346445271324
  0.7679509513630892  0.4471161116379164  0.7409095954316827
  0.8316291481918088  0.5755522468537652  0.2253794304119101
  0.6620387151157111  0.6564361829456643  0.8194583320627292
 -0.0019027959578376 -0.0091593537305236 -0.0067015942281455
  0.7560658659320993  0.4966750486993349 -0.0071093093304913
  0.2449296751939889  0.4924471083733059 -0.0057529590378764
  0.0017386548136415  0.7511013854700583  0.5027670848996257
  0.0037845789062650  0.2379163107064348  0.5128249585297953
  0.5064645192913120 -0.0123861318796104  0.2410632571643817
  0.4992828045180152 -0.0103870165438825  0.7515301357904465
  0.6202270269966144  0.6193670492909517  0.6296949104712626
  0.6347103840170696  0.3656356601561556  0.3849359170950005
  0.8962525973981382  0.8863609850906872  0.0905276324693458
  0.8965216539327551  0.0949176485466996  0.8980667088243384
  0.0977835138762412  0.8918562524414320  0.8876783446116630
  0.1010988500696293  0.0873017368965597  0.0977735649491663
  0.3675011935746398  0.6311338901308744  0.3916152451391693
  0.3962641413017580  0.3715440018822385  0.6304642541500297
  0.0991808718382704  0.3386549805647742  0.4009056527330809
  0.0850933297926167  0.6495668787010631  0.6163531161020913
  0.1122300126081569  0.1375474159814550  0.6052879026446822
  0.1109118674206180  0.8470919125027968  0.4053526223076324
  0.8977644838785266  0.1417097266125745  0.4100024282474783
  0.8858540752275954  0.8518237725352982  0.5966433187281553
  0.8523695470419398  0.4049260722707292  0.1051721982153283
  0.8551866008903013  0.5872675793414324  0.8768248976569510
  0.1442284342434653  0.5915839930213079  0.1002298075525981
  0.1475256673673155  0.3907726157983317  0.8903505389185872
  0.4037267297710874  0.8830677574049738  0.1449488691161583
  0.4020706384497957  0.0966135297857465  0.8505951345165207
  0.4023870952349167  0.0892549205966028  0.3423825821726149
  0.3954060469921988  0.8961560769350769  0.6461165433927880
  0.3414288390897477  0.3882895101208677  0.0952433751571309
  0.3468323424369661  0.6034521046683027  0.8993549000713855
  0.6192801542372329  0.0800800176929680  0.6573205719935095
  0.6149330272786622  0.8922889434781808  0.3396097527013902
  0.6652014125910785  0.6182747725685490  0.0868681692846877
  0.6469999140724741  0.3888576703650418  0.9096933020344883
  0.9075173563060381  0.3332767925065183  0.6255371586489425
  0.9024974547946800  0.6514221547624405  0.3973336441116956
  0.6055178864342438  0.0917928584726176  0.1389295946197308
  0.5943830774533100  0.8760103565835854  0.8502190392716128
 
  0.00000000E+00  0.00000000E+00  0.00000000E+00
  0.00000000E+00  0.00000000E+00  0.00000000E+00
  0.00000000E+00  0.00000000E+00  0.00000000E+00
  0.00000000E+00  0.00000000E+00  0.00000000E+00
  0.00000000E+00  0.00000000E+00  0.00000000E+00
  0.00000000E+00  0.00000000E+00  0.00000000E+00
  0.00000000E+00  0.00000000E+00  0.00000000E+00
  0.00000000E+00  0.00000000E+00  0.00000000E+00
  0.00000000E+00  0.00000000E+00  0.00000000E+00
  0.00000000E+00  0.00000000E+00  0.00000000E+00
  0.00000000E+00  0.00000000E+00  0.00000000E+00
  0.00000000E+00  0.00000000E+00  0.00000000E+00
  0.00000000E+00  0.00000000E+00  0.00000000E+00
  0.00000000E+00  0.00000000E+00  0.00000000E+00
  0.00000000E+00  0.00000000E+00  0.00000000E+00
  0.00000000E+00  0.00000000E+00  0.00000000E+00
  0.00000000E+00  0.00000000E+00  0.00000000E+00
  0.00000000E+00  0.00000000E+00  0.00000000E+00
  0.00000000E+00  0.00000000E+00  0.00000000E+00
  0.00000000E+00  0.00000000E+00  0.00000000E+00
  0.00000000E+00  0.00000000E+00  0.00000000E+00
  0.00000000E+00  0.00000000E+00  0.00000000E+00
  0.00000000E+00  0.00000000E+00  0.00000000E+00
  0.00000000E+00  0.00000000E+00  0.00000000E+00
  0.00000000E+00  0.00000000E+00  0.00000000E+00
  0.00000000E+00  0.00000000E+00  0.00000000E+00
  0.00000000E+00  0.00000000E+00  0.00000000E+00
  0.00000000E+00  0.00000000E+00  0.00000000E+00
  0.00000000E+00  0.00000000E+00  0.00000000E+00
  0.00000000E+00  0.00000000E+00  0.00000000E+00
  0.00000000E+00  0.00000000E+00  0.00000000E+00
  0.00000000E+00  0.00000000E+00  0.00000000E+00
  0.00000000E+00  0.00000000E+00  0.00000000E+00
  0.00000000E+00  0.00000000E+00  0.00000000E+00
  0.00000000E+00  0.00000000E+00  0.00000000E+00
  0.00000000E+00  0.00000000E+00  0.00000000E+00
  0.00000000E+00  0.00000000E+00  0.00000000E+00
  0.00000000E+00  0.00000000E+00  0.00000000E+00
  0.00000000E+00  0.00000000E+00  0.00000000E+00
  0.00000000E+00  0.00000000E+00  0.00000000E+00
  0.00000000E+00  0.00000000E+00  0.00000000E+00
  0.00000000E+00  0.00000000E+00  0.00000000E+00
  0.00000000E+00  0.00000000E+00  0.00000000E+00
  0.00000000E+00  0.00000000E+00  0.00000000E+00
  0.00000000E+00  0.00000000E+00  0.00000000E+00
  0.00000000E+00  0.00000000E+00  0.00000000E+00
  0.00000000E+00  0.00000000E+00  0.00000000E+00
  0.00000000E+00  0.00000000E+00  0.00000000E+00
  0.00000000E+00  0.00000000E+00  0.00000000E+00
  0.00000000E+00  0.00000000E+00  0.00000000E+00
  0.00000000E+00  0.00000000E+00  0.00000000E+00
  0.00000000E+00  0.00000000E+00  0.00000000E+00
  0.00000000E+00  0.00000000E+00  0.00000000E+00
  0.00000000E+00  0.00000000E+00  0.00000000E+00
  0.00000000E+00  0.00000000E+00  0.00000000E+00
  0.00000000E+00  0.00000000E+00  0.00000000E+00
  0.00000000E+00  0.00000000E+00  0.00000000E+00
  0.00000000E+00  0.00000000E+00  0.00000000E+00
  0.00000000E+00  0.00000000E+00  0.00000000E+00
  0.00000000E+00  0.00000000E+00  0.00000000E+00
  0.00000000E+00  0.00000000E+00  0.00000000E+00
  0.00000000E+00  0.00000000E+00  0.00000000E+00
  0.00000000E+00  0.00000000E+00  0.00000000E+00
  0.00000000E+00  0.00000000E+00  0.00000000E+00
  0.00000000E+00  0.00000000E+00  0.00000000E+00
  0.00000000E+00  0.00000000E+00  0.00000000E+00
  0.00000000E+00  0.00000000E+00  0.00000000E+00
  0.00000000E+00  0.00000000E+00  0.00000000E+00
  0.00000000E+00  0.00000000E+00  0.00000000E+00
  0.00000000E+00  0.00000000E+00  0.00000000E+00
  0.00000000E+00  0.00000000E+00  0.00000000E+00
  0.00000000E+00  0.00000000E+00  0.00000000E+00
  0.00000000E+00  0.00000000E+00  0.00000000E+00
  0.00000000E+00  0.00000000E+00  0.00000000E+00
  0.00000000E+00  0.00000000E+00  0.00000000E+00
  0.00000000E+00  0.00000000E+00  0.00000000E+00
  0.00000000E+00  0.00000000E+00  0.00000000E+00
  0.00000000E+00  0.00000000E+00  0.00000000E+00
  0.00000000E+00  0.00000000E+00  0.00000000E+00
  0.00000000E+00  0.00000000E+00  0.00000000E+00
  0.00000000E+00  0.00000000E+00  0.00000000E+00
  0.00000000E+00  0.00000000E+00  0.00000000E+00
  0.00000000E+00  0.00000000E+00  0.00000000E+00
  0.00000000E+00  0.00000000E+00  0.00000000E+00
  0.00000000E+00  0.00000000E+00  0.00000000E+00
  0.00000000E+00  0.00000000E+00  0.00000000E+00
  0.00000000E+00  0.00000000E+00  0.00000000E+00
  0.00000000E+00  0.00000000E+00  0.00000000E+00
  0.00000000E+00  0.00000000E+00  0.00000000E+00
  0.00000000E+00  0.00000000E+00  0.00000000E+00
  0.00000000E+00  0.00000000E+00  0.00000000E+00
  0.00000000E+00  0.00000000E+00  0.00000000E+00
  0.00000000E+00  0.00000000E+00  0.00000000E+00
  0.00000000E+00  0.00000000E+00  0.00000000E+00
  0.00000000E+00  0.00000000E+00  0.00000000E+00
  0.00000000E+00  0.00000000E+00  0.00000000E+00
  0.00000000E+00  0.00000000E+00  0.00000000E+00
  0.00000000E+00  0.00000000E+00  0.00000000E+00
  0.00000000E+00  0.00000000E+00  0.00000000E+00
  0.00000000E+00  0.00000000E+00  0.00000000E+00
