(1, 0, 1)                               
   1.00000000000000     
     3.6087260651931041    0.0001118221207989   -2.0834785434514331
    -0.0320770625632714    7.5607265199465399   -4.2230871645269419
     0.3419180794038361   -0.0693191522957024   58.9313033959937869
   Li   P 
    42    14
Selective dynamics
Direct
 -0.0114843391262575  0.2889253981104380 -0.0167236743050044   T   T   T
 -0.0059413934313816  0.2411602506364248  0.0520719341178982   T   T   T
  0.2801012592281876  0.0994027023712059  0.0114000428418404   T   T   T
  0.6947123575689851  0.5748296568174207  0.0331830368446221   T   T   T
  0.6666669999999968  0.9158809999999988  0.0535149999999973   F   F   F
  0.3333330000000032  0.4158809999999988  0.0416110000000032   F   F   F
  0.0000000000000000  0.7500000000000000  0.0892860000000013   F   F   F
  0.0000000000000000  0.2500000000000000  0.1250000000000000   F   F   F
  0.3333330000000032  0.0841190000000012  0.0893420000000020   F   F   F
  0.6666669999999968  0.5841190000000012  0.1012470000000008   F   F   F
  0.6666669999999968  0.9158809999999988  0.1249439999999993   F   F   F
  0.3333330000000032  0.4158809999999988  0.1130390000000006   F   F   F
  0.0000000000000000  0.7500000000000000  0.1607139999999987   F   F   F
  0.0000000000000000  0.2500000000000000  0.1964290000000020   F   F   F
  0.3333330000000032  0.0841190000000012  0.1607699999999994   F   F   F
  0.6666669999999968  0.5841190000000012  0.1726749999999981   F   F   F
  0.6666669999999968  0.9158809999999988  0.1963719999999967   F   F   F
  0.3333330000000032  0.4158809999999988  0.1844680000000025   F   F   F
  0.0000000000000000  0.7500000000000000  0.2321430000000007   F   F   F
  0.0000000000000000  0.2500000000000000  0.2678569999999993   F   F   F
  0.3333330000000032  0.0841190000000012  0.2321990000000014   F   F   F
  0.6666669999999968  0.5841190000000012  0.2441040000000001   F   F   F
  0.6666669999999968  0.9158809999999988  0.2678009999999986   F   F   F
  0.3333330000000032  0.4158809999999988  0.2558959999999999   F   F   F
  0.0000000000000000  0.7500000000000000  0.3035709999999980   F   F   F
  0.0000000000000000  0.2500000000000000  0.3392860000000013   F   F   F
  0.3333330000000032  0.0841190000000012  0.3036280000000033   F   F   F
  0.6666669999999968  0.5841190000000012  0.3155319999999975   F   F   F
  0.6666669999999968  0.9158809999999988  0.3392300000000006   F   F   F
  0.3333330000000032  0.4158809999999988  0.3273250000000019   F   F   F
  0.0000000000000000  0.7500000000000000  0.3750000000000000   F   F   F
  0.0000000000000000  0.2500000000000000  0.4107139999999987   F   F   F
  0.3333330000000032  0.0841190000000012  0.3750560000000007   F   F   F
  0.6666669999999968  0.5841190000000012  0.3869609999999994   F   F   F
  0.6666669999999968  0.9158809999999988  0.4106579999999980   F   F   F
  0.3333330000000032  0.4158809999999988  0.3987529999999992   F   F   F
  0.0059488054883430  0.7588643117599507  0.4479294169626094   T   T   T
  0.0116181885465531  0.7109650885020339  0.5167175085780908   T   T   T
  0.3333330000000032  0.0841190000000012  0.4464850000000027   F   F   F
  0.6666669999999968  0.5841190000000012  0.4583889999999968   F   F   F
 -0.2799829136580269  0.9005940042078211  0.4886108811152972   T   T   T
  0.3052654219049334  0.4251949136924376  0.4668158257749641   T   T   T
  0.3333330000000032  0.7500000000000000  0.0654759999999968   F   F   F
  0.6605468072999187  0.2536466663138835  0.0053241764739049   T   T   T
  0.3333330000000032  0.7500000000000000  0.1369049999999987   F   F   F
  0.6666669999999968  0.2500000000000000  0.0773810000000026   F   F   F
  0.3333330000000032  0.7500000000000000  0.2083330000000032   F   F   F
  0.6666669999999968  0.2500000000000000  0.1488099999999974   F   F   F
  0.3333330000000032  0.7500000000000000  0.2797619999999981   F   F   F
  0.6666669999999968  0.2500000000000000  0.2202380000000019   F   F   F
  0.3333330000000032  0.7500000000000000  0.3511900000000026   F   F   F
  0.6666669999999968  0.2500000000000000  0.2916669999999968   F   F   F
  0.3333330000000032  0.7500000000000000  0.4226189999999974   F   F   F
  0.6666669999999968  0.2500000000000000  0.3630950000000013   F   F   F
  0.3393943831335868  0.7463058204790056  0.4946837880981874   T   T   T
  0.6666669999999968  0.2500000000000000  0.4345240000000032   F   F   F
 
  0.00000000E+00  0.00000000E+00  0.00000000E+00
  0.00000000E+00  0.00000000E+00  0.00000000E+00
  0.00000000E+00  0.00000000E+00  0.00000000E+00
  0.00000000E+00  0.00000000E+00  0.00000000E+00
  0.00000000E+00  0.00000000E+00  0.00000000E+00
  0.00000000E+00  0.00000000E+00  0.00000000E+00
  0.00000000E+00  0.00000000E+00  0.00000000E+00
  0.00000000E+00  0.00000000E+00  0.00000000E+00
  0.00000000E+00  0.00000000E+00  0.00000000E+00
  0.00000000E+00  0.00000000E+00  0.00000000E+00
  0.00000000E+00  0.00000000E+00  0.00000000E+00
  0.00000000E+00  0.00000000E+00  0.00000000E+00
  0.00000000E+00  0.00000000E+00  0.00000000E+00
  0.00000000E+00  0.00000000E+00  0.00000000E+00
  0.00000000E+00  0.00000000E+00  0.00000000E+00
  0.00000000E+00  0.00000000E+00  0.00000000E+00
  0.00000000E+00  0.00000000E+00  0.00000000E+00
  0.00000000E+00  0.00000000E+00  0.00000000E+00
  0.00000000E+00  0.00000000E+00  0.00000000E+00
  0.00000000E+00  0.00000000E+00  0.00000000E+00
  0.00000000E+00  0.00000000E+00  0.00000000E+00
  0.00000000E+00  0.00000000E+00  0.00000000E+00
  0.00000000E+00  0.00000000E+00  0.00000000E+00
  0.00000000E+00  0.00000000E+00  0.00000000E+00
  0.00000000E+00  0.00000000E+00  0.00000000E+00
  0.00000000E+00  0.00000000E+00  0.00000000E+00
  0.00000000E+00  0.00000000E+00  0.00000000E+00
  0.00000000E+00  0.00000000E+00  0.00000000E+00
  0.00000000E+00  0.00000000E+00  0.00000000E+00
  0.00000000E+00  0.00000000E+00  0.00000000E+00
  0.00000000E+00  0.00000000E+00  0.00000000E+00
  0.00000000E+00  0.00000000E+00  0.00000000E+00
  0.00000000E+00  0.00000000E+00  0.00000000E+00
  0.00000000E+00  0.00000000E+00  0.00000000E+00
  0.00000000E+00  0.00000000E+00  0.00000000E+00
  0.00000000E+00  0.00000000E+00  0.00000000E+00
  0.00000000E+00  0.00000000E+00  0.00000000E+00
  0.00000000E+00  0.00000000E+00  0.00000000E+00
  0.00000000E+00  0.00000000E+00  0.00000000E+00
  0.00000000E+00  0.00000000E+00  0.00000000E+00
  0.00000000E+00  0.00000000E+00  0.00000000E+00
  0.00000000E+00  0.00000000E+00  0.00000000E+00
  0.00000000E+00  0.00000000E+00  0.00000000E+00
  0.00000000E+00  0.00000000E+00  0.00000000E+00
  0.00000000E+00  0.00000000E+00  0.00000000E+00
  0.00000000E+00  0.00000000E+00  0.00000000E+00
  0.00000000E+00  0.00000000E+00  0.00000000E+00
  0.00000000E+00  0.00000000E+00  0.00000000E+00
  0.00000000E+00  0.00000000E+00  0.00000000E+00
  0.00000000E+00  0.00000000E+00  0.00000000E+00
  0.00000000E+00  0.00000000E+00  0.00000000E+00
  0.00000000E+00  0.00000000E+00  0.00000000E+00
  0.00000000E+00  0.00000000E+00  0.00000000E+00
  0.00000000E+00  0.00000000E+00  0.00000000E+00
  0.00000000E+00  0.00000000E+00  0.00000000E+00
  0.00000000E+00  0.00000000E+00  0.00000000E+00
