Li1 N3
1.0
1.687897 2.860371 0.000377
-1.687897 2.860371 0.000377
0.000000 1.490775 4.795055
Li N
1 3
direct
-0.000000 -0.000000 -0.000000 Li
0.605876 0.605876 0.256533 N
0.394124 0.394124 0.743467 N
0.500000 0.500000 0.500000 N
