Li5 P2 N1 O6                            
   1.00000000000000     
    -0.0264236201784208    0.0237190566457876    4.9384755000406750
     6.3515467901149023   -0.0612490949355982   -0.0327180112061159
    -0.0515098111515508    5.3854859695527875    0.0250263698201086
   Li   P    N    O 
     5     2     1     6
Direct
  0.5103121437304853 -0.0011373163582576  0.8430852671962966
 -0.0102080261725710  0.5292616669439102  0.1295659995763029
  0.5022704457046994  0.7454442915900275  0.3308323570523414
  0.0025708659083547  0.7434592170963187  0.6657007886580359
  0.0259613960125692  0.2462951145318054  0.7118469268083656
  0.5058322331089415  0.5069720506673197  0.8222128346016508
 -0.0103186084254839 -0.0180482538190990  0.1686268703666891
  0.6263821223650123  0.2849471093761297  0.7146904779051115
  0.6028690455904151  0.7058604513666157  0.6749204058044184
  0.1050993168646998  0.7912670970250885  0.3135798133820946
  0.6068158071634492  0.5232499308640767  0.0942733020563240
  0.1090348362625695 -0.0083999248975768  0.8992313236632152
  0.1859873401653683  0.5076563763545947  0.8187856995480238
  0.6798180817215149 -0.0168388107409549  0.1727049333811272
 
  0.00000000E+00  0.00000000E+00  0.00000000E+00
  0.00000000E+00  0.00000000E+00  0.00000000E+00
  0.00000000E+00  0.00000000E+00  0.00000000E+00
  0.00000000E+00  0.00000000E+00  0.00000000E+00
  0.00000000E+00  0.00000000E+00  0.00000000E+00
  0.00000000E+00  0.00000000E+00  0.00000000E+00
  0.00000000E+00  0.00000000E+00  0.00000000E+00
  0.00000000E+00  0.00000000E+00  0.00000000E+00
  0.00000000E+00  0.00000000E+00  0.00000000E+00
  0.00000000E+00  0.00000000E+00  0.00000000E+00
  0.00000000E+00  0.00000000E+00  0.00000000E+00
  0.00000000E+00  0.00000000E+00  0.00000000E+00
  0.00000000E+00  0.00000000E+00  0.00000000E+00
  0.00000000E+00  0.00000000E+00  0.00000000E+00
