Li71 P24 N1 O94                         
   1.00000000000000     
    14.7191967167461240   -0.0109677035705682    0.0011972583919137
    -0.0078664906630018   10.5645886288544197   -0.0024772252049208
     0.0009373374496266   -0.0029307872318253   12.3517220333981257
   Li   P    N    O 
    71    24     1    94
Direct
  0.1619620518734224  0.4320266639613975 -0.0205354978010929
  0.1672774450333586  0.4216167344037907  0.5041760584432267
  0.1694718687504958  0.9189246130986000 -0.0004589729388876
  0.1703032062512335  0.9226280608688074  0.4994644083695026
  0.5069899684567640  0.4244996007206719 -0.0047230786638439
  0.5039246348210126  0.4215230132463071  0.5011838239924556
  0.5047823609268893  0.9216885572256017 -0.0004109439992482
  0.5039203736183897  0.9228880305680338  0.5005099699816586
  0.8349331353521109  0.4235245778547451 -0.0000876867231563
  0.8359876929496098  0.4226619431986071  0.5001221173014596
  0.8360772479146449  0.9223327343238718  0.0009815441993449
  0.8370252011832530  0.9251374613750961  0.4988758125234856
  0.0007431609430723  0.0725062888526405  0.7484564503420734
 -0.0013484101038888  0.5895974511443998  0.2505848594000733
  0.0020283912719207  0.5790037061559693  0.7493883789086717
  0.3369280254479735  0.0746564709987625  0.2528728859175982
  0.3370040345691233  0.0768767516077056  0.7495904377440058
  0.3386591160343956  0.5808188187159886  0.2515086764645477
  0.3364772095238356  0.5770852816631853  0.7495216958956571
  0.6783250081691874  0.0740480625298052  0.2506595038819449
  0.6703151817854016  0.0759345645483070  0.7495640916809768
  0.6708001415945132  0.5804526445541822  0.2507477970070986
  0.6692163131611083  0.5777550216995747  0.7497911952093007
  0.1669030311150209  0.1331283600490709  0.1279976039408115
  0.1678404892866411  0.1609023799342271  0.6269040152696528
  0.1680764298958799  0.6668862417313294  0.1248474113422239
  0.1694501708785939  0.6630183428298004  0.6259002530308215
  0.5071693667905935  0.1579139886573570  0.1280022915661139
  0.5034841174751141  0.1628933985538995  0.6266041277769905
  0.5035668138771466  0.6632592290650364  0.1261307949177434
  0.5028482994306285  0.6631112066404622  0.6264709612322680
  0.8397124851733383  0.1634218221613253  0.1268088464209881
  0.8363925675535665  0.1629912681655042  0.6262966863252872
  0.8349614947329549  0.6662944407972314  0.1259275666011651
  0.8357560011303807  0.6635679262720854  0.6263644199970760
 -0.0022643729265899  0.3446585069462951  0.1249311309837903
  0.0017931909007766  0.3349777233883724  0.6244225468996167
  0.0004172490626143  0.8458308047589916  0.1264361443153550
  0.0029363539929623  0.8377237229238294  0.6223881364162228
  0.3711392588066387  0.3340264216428948  0.1179640687362681
  0.3362191620716906  0.3356047593146606  0.6237975528325805
  0.3391131743058056  0.8369161786492579  0.1241238690645217
  0.3368792373510428  0.8365221045140799  0.6235173981499250
  0.6691756385000551  0.3366842413622060  0.1239682393616243
  0.6697845037689633  0.3358028415791404  0.6241265991257675
  0.6682069082868561  0.8350471029200821  0.1223422244628743
  0.6694030585546051  0.8361200330189114  0.6231800370221120
 -0.0005651389453970  0.3340568913950084  0.3768669104206582
  0.0001475853643254  0.3354290641286163  0.8752965162487510
  0.0007699536451265  0.8473062295770892  0.3745643117137057
  0.0015055638034651  0.8374238283995994  0.8758742115421476
  0.3383266040013499  0.3354369718390210  0.3783539679690738
  0.3359251299959031  0.3354363557331601  0.8748236136950875
  0.3390207720332120  0.8365151336656288  0.3776593615995012
  0.3370510668592940  0.8367605812696383  0.8763332568979548
  0.6710931057484265  0.3361371567851354  0.3769822552235801
  0.6699312726440994  0.3357889271562685  0.8751683059970796
  0.6686675370963646  0.8349648050976781  0.3784283724593136
  0.6694426498939858  0.8363110129616322  0.8761283088497694
  0.1650787135362996  0.1562245563689939  0.3729493095137451
  0.1686262227570761  0.1602033863196259  0.8728308459101286
  0.1681116055828439  0.6686300616198491  0.3786658567913404
  0.1696432766077487  0.6650919923987819  0.8724202639318506
  0.5050860055641210  0.1617177909697280  0.3738320693332325
  0.5039176698008944  0.1628765933877776  0.8730034669125321
  0.5040680526992507  0.6631072330600876  0.3752217637203315
  0.5024261087942974  0.6638580935042957  0.8729716672530399
  0.8401689863550209  0.1621554394349052  0.3719652375419557
  0.8353110385739417  0.1626103397345912  0.8731290855437667
  0.8354170118230045  0.6665890663757582  0.3750155723143827
  0.8351181999866654  0.6636082715547710  0.8729878234657983
  0.1647772079302549  0.4190805226613440  0.2566432946171046
  0.1663034369385015  0.4118075929445166  0.7484170393591545
  0.1698472821186947  0.9059394323969554  0.2513557469229962
  0.1679612987324637  0.9104216077668191  0.7497838137665612
  0.5003145916123395  0.4135933118217839  0.2516012852552517
  0.5001676919556148  0.4122098698474213  0.7496754917422435
  0.5018081253977558  0.9114125630548150  0.2506519519692181
  0.5005443150115947  0.9118982563883007  0.7499214526290021
  0.8316875526765342  0.4150380365799356  0.2501042196925208
  0.8328495178700690  0.4128186751100193  0.7499706163001705
  0.8289560334354834  0.9121829404027689  0.2498269856854152
  0.8325047487262976  0.9110897203314338  0.7496571390856562
  0.0006309765714217  0.0892625580623680 -0.0057158499087757
  0.0017464109142373  0.0913732443702989  0.5048936783968814
 -0.0007311350048255  0.5912630631610134 -0.0006045006106705
 -0.0002034907717411  0.5889210817719159  0.5003191094982521
  0.3353633509038803  0.0867845511415999 -0.0001024773564457
  0.3346318954237372  0.0878088050220376  0.5007111922469197
  0.3336706260237087  0.5861951374058197  0.0002410735966469
  0.3342105354313766  0.5863666553842648  0.5005288019408627
  0.6667634797319159  0.0879356044032679 -0.0008553342240587
  0.6672529313825991  0.0879385833963098  0.5009038888060755
  0.6662099803685276  0.5875531020354473 -0.0008328895148627
  0.6667693713300339  0.5867284539597882  0.5011836773580673
  0.0452736695397812  0.1788815807562422  0.0868833854899572
  0.0405063011854007  0.1690640056661683  0.4103644398498467
  0.0337039584849737  0.1539297820430218  0.8866517452360521
  0.0350598997346706  0.6591321170339220  0.3972920549621321
  0.0355344118165248  0.6588109077274558  0.8955499371557694
  0.3704885589708801  0.1569303523782632  0.3971567491241130
  0.3702011805223867  0.1574636688538948  0.8970281761731752
  0.3702618786873583  0.6554915473729871  0.3974165097932573
  0.3679170445543558  0.6555422946113796  0.8965669673942326
  0.7026093947322141  0.1575939522957458  0.3980191165425924
  0.7015484949963141  0.1561337473147215  0.8948455878082769
  0.7018892221778110  0.6559433540965430  0.3978441414510260
  0.7016489730424910  0.6559669671216192  0.8954796271143557
  0.2036661974389478  0.0467321143987109  0.2527391912527014
  0.2020917335314673  0.0502660431614734  0.7500330525655585
  0.2030717722824165  0.5559159082716671  0.2506484760075565
  0.2010042252472981  0.5514458912029502  0.7499655120428923
  0.5369149465448187  0.0507541940688711  0.2507547233790342
  0.5343415548143354  0.0518494216276499  0.7500081218022270
  0.5347940722984870  0.5527701018223228  0.2500575185721214
  0.5333422330434183  0.5524733425185578  0.7501082340288727
  0.8505530048782720  0.0546723939093042  0.2490020243881730
  0.8651305542745739  0.0514411327489256  0.7500086222996957
  0.8651434285899648  0.5554896662414175  0.2503462699611912
  0.8669531636250978  0.5527109094921645  0.7501248199306894
  0.0598571572568659  0.4172902177999758  0.2521055740761466
  0.0607154979945453  0.4105839710746092  0.7499001126216945
  0.0660624461723287  0.8951901214775785  0.2502014581374218
  0.0622831219833829  0.9062518259335244  0.7500094867109161
  0.3940960280537436  0.4119815330002866  0.2531828707965898
  0.3942925329698545  0.4088314110787457  0.7499445514449322
  0.3959769513577297  0.9096875976414805  0.2507776584019710
  0.3947084693008614  0.9090726742563205  0.7501438894388806
  0.7258025318990260  0.4115530527460061  0.2501917342993411
  0.7270206431566116  0.4102435652166205  0.7498607490977754
  0.7231894174523500  0.8966361614988473  0.2500925321543661
  0.7266816351730554  0.9069045045000930  0.7496618367508229
  0.2296144750850326  0.0884919731044708 -0.0004609190919403
  0.2289707341526983  0.0905114801361053  0.5004593454558361
  0.2274916555122106  0.5868495809443338  0.0008222474032309
  0.2282190529699836  0.5881033219615081  0.4997016688827985
  0.5607332714641841  0.0903865805126499 -0.0008975082539362
  0.5612604237172288  0.0906516710218106  0.5008463756966722
  0.5602677258699432  0.5917670035763997 -0.0008764764007721
  0.5608690414458416  0.5894911004966297  0.5010305188167190
  0.8945539481905649  0.0883383307658511 -0.0020742170326298
  0.8956380531786935  0.0922053285650944  0.5012334115834076
  0.8935839984736385  0.5927197359264693 -0.0006913048969447
  0.8940200731787491  0.5913250299431333  0.5004488566849520
  0.2013963223749024  0.3425577296312537  0.6451455084560490
  0.2079692618065954  0.8411396077681189  0.1461822553215059
  0.2034288395796487  0.8414719676386799  0.6461839651037459
  0.5299790696848921  0.3434276880524944  0.1452326587093898
  0.5355571182608293  0.3432354185086841  0.6462750489116779
  0.5353542359962967  0.8419767065706609  0.1463274971326979
  0.5354810254076565  0.8427028292311676  0.6462469039167102
  0.8663961405566326  0.3473289538373865  0.1457874261043542
  0.8681114450690254  0.3437609144603453  0.6465062236090261
  0.8672451006252826  0.8448183233355909  0.1464339517880177
  0.8685075176269876  0.8429739310062712  0.6459579455053073
  0.0333426727080182  0.1538103513315298  0.6139885425171050
  0.0345293718581063  0.6600611251155244  0.1029422964933776
  0.0355313838013120  0.6572548831693301  0.6042407436620082
  0.3696458372610585  0.1557757590196749  0.1046552709841680
  0.3696824243299854  0.1570753964151934  0.6045211645475714
  0.3691570357575998  0.6546359792334692  0.1037252466483430
  0.3686888185753031  0.6557300070941033  0.6043750163179376
  0.7014157288863219  0.1582819336986193  0.1021145638106969
  0.7020076191781248  0.1563410055134206  0.6052119990459781
  0.7015749166805069  0.6560314297839480  0.1026442751893401
  0.7017448569076683  0.6559620683363739  0.6048518567739015
  0.0334125336827890  0.4511067589179238 -0.0010544445081274
  0.0336031655689711  0.4488352628054057  0.4998852641778835
  0.0339768399621315  0.9483485990579873 -0.0020658557808988
  0.0357580776058575  0.9510068748257412  0.5012918936203671
  0.3678532306681123  0.4461157939201429 -0.0008549578171497
  0.3680402724665834  0.4464462581770861  0.5008802539166469
  0.3699630558277522  0.9475859946568291 -0.0001655187237749
  0.3688731238852113  0.9480881858029594  0.5009078893779875
  0.6983465548067029  0.4468524261208310 -0.0006237215205294
  0.7002743043551065  0.4467670166514074  0.5010705724371367
  0.6999178847701369  0.9477669548657943 -0.0003455409361924
  0.7005117004880050  0.9477927001536794  0.5006479117084429
  0.2031071993450530  0.3422117180689442  0.3533734367265586
  0.2018077743384468  0.3416853467755576  0.8518172964661352
  0.2077735694455916  0.8397011657771685  0.3554072143881092
  0.2036733677014780  0.8417607068464994  0.8536399041345116
  0.5364182515417577  0.3430193864218528  0.3532668220806577
  0.5356683181855428  0.3432549324834718  0.8532296705492114
  0.5356981320505577  0.8417610521307755  0.3545236624651220
  0.5355465202463117  0.8426421512268086  0.8535660592210574
  0.8672102173186598  0.3459599450326274  0.3533220624348493
  0.8674392560253811  0.3437950009916640  0.8539537115962205
  0.8675451416090175  0.8460351016373171  0.3535685469493766
  0.8679062856739190  0.8422652366352031  0.8532728343521448
 
  0.00000000E+00  0.00000000E+00  0.00000000E+00
  0.00000000E+00  0.00000000E+00  0.00000000E+00
  0.00000000E+00  0.00000000E+00  0.00000000E+00
  0.00000000E+00  0.00000000E+00  0.00000000E+00
  0.00000000E+00  0.00000000E+00  0.00000000E+00
  0.00000000E+00  0.00000000E+00  0.00000000E+00
  0.00000000E+00  0.00000000E+00  0.00000000E+00
  0.00000000E+00  0.00000000E+00  0.00000000E+00
  0.00000000E+00  0.00000000E+00  0.00000000E+00
  0.00000000E+00  0.00000000E+00  0.00000000E+00
  0.00000000E+00  0.00000000E+00  0.00000000E+00
  0.00000000E+00  0.00000000E+00  0.00000000E+00
  0.00000000E+00  0.00000000E+00  0.00000000E+00
  0.00000000E+00  0.00000000E+00  0.00000000E+00
  0.00000000E+00  0.00000000E+00  0.00000000E+00
  0.00000000E+00  0.00000000E+00  0.00000000E+00
  0.00000000E+00  0.00000000E+00  0.00000000E+00
  0.00000000E+00  0.00000000E+00  0.00000000E+00
  0.00000000E+00  0.00000000E+00  0.00000000E+00
  0.00000000E+00  0.00000000E+00  0.00000000E+00
  0.00000000E+00  0.00000000E+00  0.00000000E+00
  0.00000000E+00  0.00000000E+00  0.00000000E+00
  0.00000000E+00  0.00000000E+00  0.00000000E+00
  0.00000000E+00  0.00000000E+00  0.00000000E+00
  0.00000000E+00  0.00000000E+00  0.00000000E+00
  0.00000000E+00  0.00000000E+00  0.00000000E+00
  0.00000000E+00  0.00000000E+00  0.00000000E+00
  0.00000000E+00  0.00000000E+00  0.00000000E+00
  0.00000000E+00  0.00000000E+00  0.00000000E+00
  0.00000000E+00  0.00000000E+00  0.00000000E+00
  0.00000000E+00  0.00000000E+00  0.00000000E+00
  0.00000000E+00  0.00000000E+00  0.00000000E+00
  0.00000000E+00  0.00000000E+00  0.00000000E+00
  0.00000000E+00  0.00000000E+00  0.00000000E+00
  0.00000000E+00  0.00000000E+00  0.00000000E+00
  0.00000000E+00  0.00000000E+00  0.00000000E+00
  0.00000000E+00  0.00000000E+00  0.00000000E+00
  0.00000000E+00  0.00000000E+00  0.00000000E+00
  0.00000000E+00  0.00000000E+00  0.00000000E+00
  0.00000000E+00  0.00000000E+00  0.00000000E+00
  0.00000000E+00  0.00000000E+00  0.00000000E+00
  0.00000000E+00  0.00000000E+00  0.00000000E+00
  0.00000000E+00  0.00000000E+00  0.00000000E+00
  0.00000000E+00  0.00000000E+00  0.00000000E+00
  0.00000000E+00  0.00000000E+00  0.00000000E+00
  0.00000000E+00  0.00000000E+00  0.00000000E+00
  0.00000000E+00  0.00000000E+00  0.00000000E+00
  0.00000000E+00  0.00000000E+00  0.00000000E+00
  0.00000000E+00  0.00000000E+00  0.00000000E+00
  0.00000000E+00  0.00000000E+00  0.00000000E+00
  0.00000000E+00  0.00000000E+00  0.00000000E+00
  0.00000000E+00  0.00000000E+00  0.00000000E+00
  0.00000000E+00  0.00000000E+00  0.00000000E+00
  0.00000000E+00  0.00000000E+00  0.00000000E+00
  0.00000000E+00  0.00000000E+00  0.00000000E+00
  0.00000000E+00  0.00000000E+00  0.00000000E+00
  0.00000000E+00  0.00000000E+00  0.00000000E+00
  0.00000000E+00  0.00000000E+00  0.00000000E+00
  0.00000000E+00  0.00000000E+00  0.00000000E+00
  0.00000000E+00  0.00000000E+00  0.00000000E+00
  0.00000000E+00  0.00000000E+00  0.00000000E+00
  0.00000000E+00  0.00000000E+00  0.00000000E+00
  0.00000000E+00  0.00000000E+00  0.00000000E+00
  0.00000000E+00  0.00000000E+00  0.00000000E+00
  0.00000000E+00  0.00000000E+00  0.00000000E+00
  0.00000000E+00  0.00000000E+00  0.00000000E+00
  0.00000000E+00  0.00000000E+00  0.00000000E+00
  0.00000000E+00  0.00000000E+00  0.00000000E+00
  0.00000000E+00  0.00000000E+00  0.00000000E+00
  0.00000000E+00  0.00000000E+00  0.00000000E+00
  0.00000000E+00  0.00000000E+00  0.00000000E+00
  0.00000000E+00  0.00000000E+00  0.00000000E+00
  0.00000000E+00  0.00000000E+00  0.00000000E+00
  0.00000000E+00  0.00000000E+00  0.00000000E+00
  0.00000000E+00  0.00000000E+00  0.00000000E+00
  0.00000000E+00  0.00000000E+00  0.00000000E+00
  0.00000000E+00  0.00000000E+00  0.00000000E+00
  0.00000000E+00  0.00000000E+00  0.00000000E+00
  0.00000000E+00  0.00000000E+00  0.00000000E+00
  0.00000000E+00  0.00000000E+00  0.00000000E+00
  0.00000000E+00  0.00000000E+00  0.00000000E+00
  0.00000000E+00  0.00000000E+00  0.00000000E+00
  0.00000000E+00  0.00000000E+00  0.00000000E+00
  0.00000000E+00  0.00000000E+00  0.00000000E+00
  0.00000000E+00  0.00000000E+00  0.00000000E+00
  0.00000000E+00  0.00000000E+00  0.00000000E+00
  0.00000000E+00  0.00000000E+00  0.00000000E+00
  0.00000000E+00  0.00000000E+00  0.00000000E+00
  0.00000000E+00  0.00000000E+00  0.00000000E+00
  0.00000000E+00  0.00000000E+00  0.00000000E+00
  0.00000000E+00  0.00000000E+00  0.00000000E+00
  0.00000000E+00  0.00000000E+00  0.00000000E+00
  0.00000000E+00  0.00000000E+00  0.00000000E+00
  0.00000000E+00  0.00000000E+00  0.00000000E+00
  0.00000000E+00  0.00000000E+00  0.00000000E+00
  0.00000000E+00  0.00000000E+00  0.00000000E+00
  0.00000000E+00  0.00000000E+00  0.00000000E+00
  0.00000000E+00  0.00000000E+00  0.00000000E+00
  0.00000000E+00  0.00000000E+00  0.00000000E+00
  0.00000000E+00  0.00000000E+00  0.00000000E+00
  0.00000000E+00  0.00000000E+00  0.00000000E+00
  0.00000000E+00  0.00000000E+00  0.00000000E+00
  0.00000000E+00  0.00000000E+00  0.00000000E+00
  0.00000000E+00  0.00000000E+00  0.00000000E+00
  0.00000000E+00  0.00000000E+00  0.00000000E+00
  0.00000000E+00  0.00000000E+00  0.00000000E+00
  0.00000000E+00  0.00000000E+00  0.00000000E+00
  0.00000000E+00  0.00000000E+00  0.00000000E+00
  0.00000000E+00  0.00000000E+00  0.00000000E+00
  0.00000000E+00  0.00000000E+00  0.00000000E+00
  0.00000000E+00  0.00000000E+00  0.00000000E+00
  0.00000000E+00  0.00000000E+00  0.00000000E+00
  0.00000000E+00  0.00000000E+00  0.00000000E+00
  0.00000000E+00  0.00000000E+00  0.00000000E+00
  0.00000000E+00  0.00000000E+00  0.00000000E+00
  0.00000000E+00  0.00000000E+00  0.00000000E+00
  0.00000000E+00  0.00000000E+00  0.00000000E+00
  0.00000000E+00  0.00000000E+00  0.00000000E+00
  0.00000000E+00  0.00000000E+00  0.00000000E+00
  0.00000000E+00  0.00000000E+00  0.00000000E+00
  0.00000000E+00  0.00000000E+00  0.00000000E+00
  0.00000000E+00  0.00000000E+00  0.00000000E+00
  0.00000000E+00  0.00000000E+00  0.00000000E+00
  0.00000000E+00  0.00000000E+00  0.00000000E+00
  0.00000000E+00  0.00000000E+00  0.00000000E+00
  0.00000000E+00  0.00000000E+00  0.00000000E+00
  0.00000000E+00  0.00000000E+00  0.00000000E+00
  0.00000000E+00  0.00000000E+00  0.00000000E+00
  0.00000000E+00  0.00000000E+00  0.00000000E+00
  0.00000000E+00  0.00000000E+00  0.00000000E+00
  0.00000000E+00  0.00000000E+00  0.00000000E+00
  0.00000000E+00  0.00000000E+00  0.00000000E+00
  0.00000000E+00  0.00000000E+00  0.00000000E+00
  0.00000000E+00  0.00000000E+00  0.00000000E+00
  0.00000000E+00  0.00000000E+00  0.00000000E+00
  0.00000000E+00  0.00000000E+00  0.00000000E+00
  0.00000000E+00  0.00000000E+00  0.00000000E+00
  0.00000000E+00  0.00000000E+00  0.00000000E+00
  0.00000000E+00  0.00000000E+00  0.00000000E+00
  0.00000000E+00  0.00000000E+00  0.00000000E+00
  0.00000000E+00  0.00000000E+00  0.00000000E+00
  0.00000000E+00  0.00000000E+00  0.00000000E+00
  0.00000000E+00  0.00000000E+00  0.00000000E+00
  0.00000000E+00  0.00000000E+00  0.00000000E+00
  0.00000000E+00  0.00000000E+00  0.00000000E+00
  0.00000000E+00  0.00000000E+00  0.00000000E+00
  0.00000000E+00  0.00000000E+00  0.00000000E+00
  0.00000000E+00  0.00000000E+00  0.00000000E+00
  0.00000000E+00  0.00000000E+00  0.00000000E+00
  0.00000000E+00  0.00000000E+00  0.00000000E+00
  0.00000000E+00  0.00000000E+00  0.00000000E+00
  0.00000000E+00  0.00000000E+00  0.00000000E+00
  0.00000000E+00  0.00000000E+00  0.00000000E+00
  0.00000000E+00  0.00000000E+00  0.00000000E+00
  0.00000000E+00  0.00000000E+00  0.00000000E+00
  0.00000000E+00  0.00000000E+00  0.00000000E+00
  0.00000000E+00  0.00000000E+00  0.00000000E+00
  0.00000000E+00  0.00000000E+00  0.00000000E+00
  0.00000000E+00  0.00000000E+00  0.00000000E+00
  0.00000000E+00  0.00000000E+00  0.00000000E+00
  0.00000000E+00  0.00000000E+00  0.00000000E+00
  0.00000000E+00  0.00000000E+00  0.00000000E+00
  0.00000000E+00  0.00000000E+00  0.00000000E+00
  0.00000000E+00  0.00000000E+00  0.00000000E+00
  0.00000000E+00  0.00000000E+00  0.00000000E+00
  0.00000000E+00  0.00000000E+00  0.00000000E+00
  0.00000000E+00  0.00000000E+00  0.00000000E+00
  0.00000000E+00  0.00000000E+00  0.00000000E+00
  0.00000000E+00  0.00000000E+00  0.00000000E+00
  0.00000000E+00  0.00000000E+00  0.00000000E+00
  0.00000000E+00  0.00000000E+00  0.00000000E+00
  0.00000000E+00  0.00000000E+00  0.00000000E+00
  0.00000000E+00  0.00000000E+00  0.00000000E+00
  0.00000000E+00  0.00000000E+00  0.00000000E+00
  0.00000000E+00  0.00000000E+00  0.00000000E+00
  0.00000000E+00  0.00000000E+00  0.00000000E+00
  0.00000000E+00  0.00000000E+00  0.00000000E+00
  0.00000000E+00  0.00000000E+00  0.00000000E+00
  0.00000000E+00  0.00000000E+00  0.00000000E+00
  0.00000000E+00  0.00000000E+00  0.00000000E+00
  0.00000000E+00  0.00000000E+00  0.00000000E+00
  0.00000000E+00  0.00000000E+00  0.00000000E+00
  0.00000000E+00  0.00000000E+00  0.00000000E+00
  0.00000000E+00  0.00000000E+00  0.00000000E+00
  0.00000000E+00  0.00000000E+00  0.00000000E+00
  0.00000000E+00  0.00000000E+00  0.00000000E+00
  0.00000000E+00  0.00000000E+00  0.00000000E+00
  0.00000000E+00  0.00000000E+00  0.00000000E+00
  0.00000000E+00  0.00000000E+00  0.00000000E+00
  0.00000000E+00  0.00000000E+00  0.00000000E+00
