Li5 P2 N1 O6                            
   1.00000000000000     
    -0.0344316244624178   -0.0478701218379592    4.9622794452430137
     6.1430783907288014   -0.0170379029010388   -0.0419956222179282
    -0.0037132021079406    5.6253837893665484   -0.0465789153629533
   Li   P    N    O 
     5     2     1     6
Direct
  0.4995706460931729  0.0144457342623756  0.7528762977333295
 -0.0135811316829922  0.4921158646743269  0.1208617215612803
  0.4963778560936488  0.6365791852716334  0.3709289836430898
  0.0037312548227848  0.7411386386302065  0.6892978698718520
 -0.0182702048646055  0.2790017416468361  0.6750640058853424
  0.5089874428026661  0.5214687247517775  0.8294735686025656
  0.0925153355001177  0.0036013665811258  0.1787092067503684
  0.6083675206961480  0.7275065934283463  0.6831210375035113
  0.0481188912118682  0.2071479752870153  0.3175809806772186
  0.1192285688982181  0.7921472772829186  0.3088525013494750
  0.6080001408508094  0.2977560116028066  0.7215749657014077
  0.6093786658242190  0.5229162174461645  0.0970936752228997
  0.1158175797410147  0.0106754349047815  0.9137640832154005
  0.1860034340129536  0.5006262342296846  0.8327631022822600
 
  0.00000000E+00  0.00000000E+00  0.00000000E+00
  0.00000000E+00  0.00000000E+00  0.00000000E+00
  0.00000000E+00  0.00000000E+00  0.00000000E+00
  0.00000000E+00  0.00000000E+00  0.00000000E+00
  0.00000000E+00  0.00000000E+00  0.00000000E+00
  0.00000000E+00  0.00000000E+00  0.00000000E+00
  0.00000000E+00  0.00000000E+00  0.00000000E+00
  0.00000000E+00  0.00000000E+00  0.00000000E+00
  0.00000000E+00  0.00000000E+00  0.00000000E+00
  0.00000000E+00  0.00000000E+00  0.00000000E+00
  0.00000000E+00  0.00000000E+00  0.00000000E+00
  0.00000000E+00  0.00000000E+00  0.00000000E+00
  0.00000000E+00  0.00000000E+00  0.00000000E+00
  0.00000000E+00  0.00000000E+00  0.00000000E+00
