Li42 P14 O56
1.0
5.296402 0.000000 -4.922448
0.000000 6.176136 -4.922448
0.000000 0.000000 68.914272
Li P O
42 14 56
direct
0.844520 0.000000 0.032572 Li+
0.155480 0.500000 0.054784 Li+
0.326434 0.747127 0.048857 Li+
0.673566 0.752873 0.038348 Li+
0.673566 0.247127 0.002224 Li+
0.326434 0.252873 0.013553 Li+
0.844520 0.000000 0.104001 Li+
0.155480 0.500000 0.126212 Li+
0.326434 0.747127 0.120286 Li+
0.673566 0.752873 0.109777 Li+
0.673566 0.247127 0.073652 Li+
0.326434 0.252873 0.084982 Li+
0.844520 0.000000 0.175429 Li+
0.155480 0.500000 0.197641 Li+
0.326434 0.747127 0.191714 Li+
0.673566 0.752873 0.181205 Li+
0.673566 0.247127 0.145081 Li+
0.326434 0.252873 0.156410 Li+
0.844520 0.000000 0.246858 Li+
0.155480 0.500000 0.269069 Li+
0.326434 0.747127 0.263143 Li+
0.673566 0.752873 0.252634 Li+
0.673566 0.247127 0.216509 Li+
0.326434 0.252873 0.227839 Li+
0.844520 0.000000 0.318287 Li+
0.155480 0.500000 0.340498 Li+
0.326434 0.747127 0.334571 Li+
0.673566 0.752873 0.324063 Li+
0.673566 0.247127 0.287938 Li+
0.326434 0.252873 0.299267 Li+
0.844520 0.000000 0.389715 Li+
0.155480 0.500000 0.411927 Li+
0.326434 0.747127 0.406000 Li+
0.673566 0.752873 0.395491 Li+
0.673566 0.247127 0.359366 Li+
0.326434 0.252873 0.370696 Li+
0.844520 0.000000 0.461144 Li+
0.155480 0.500000 0.483355 Li+
0.326434 0.747127 0.477428 Li+
0.673566 0.752873 0.466920 Li+
0.673566 0.247127 0.430795 Li+
0.326434 0.252873 0.442125 Li+
0.824261 0.500000 0.066268 P5+
0.175739 0.000000 0.019945 P5+
0.824261 0.500000 0.137697 P5+
0.175739 0.000000 0.091374 P5+
0.824261 0.500000 0.209125 P5+
0.175739 0.000000 0.162802 P5+
0.824261 0.500000 0.280554 P5+
0.175739 0.000000 0.234231 P5+
0.824261 0.500000 0.351983 P5+
0.175739 0.000000 0.305660 P5+
0.824261 0.500000 0.423411 P5+
0.175739 0.000000 0.377088 P5+
0.824261 0.500000 0.494840 P5+
0.175739 0.000000 0.448517 P5+
0.313509 0.207138 0.052124 O2-
0.103508 0.500000 0.021979 O2-
0.818396 0.500000 0.043262 O2-
0.181604 0.000000 0.069205 O2-
0.686491 0.707138 0.007337 O2-
0.313509 0.792862 0.022533 O2-
0.896492 0.000000 0.007192 O2-
0.686491 0.292862 0.049174 O2-
0.313509 0.207138 0.123552 O2-
0.103508 0.500000 0.093408 O2-
0.818396 0.500000 0.114690 O2-
0.181604 0.000000 0.140634 O2-
0.686491 0.707138 0.078765 O2-
0.313509 0.792862 0.093961 O2-
0.896492 0.000000 0.078621 O2-
0.686491 0.292862 0.120603 O2-
0.313509 0.207138 0.194981 O2-
0.103508 0.500000 0.164836 O2-
0.818396 0.500000 0.186119 O2-
0.181604 0.000000 0.212062 O2-
0.686491 0.707138 0.150194 O2-
0.313509 0.792862 0.165390 O2-
0.896492 0.000000 0.150049 O2-
0.686491 0.292862 0.192031 O2-
0.313509 0.207138 0.266409 O2-
0.103508 0.500000 0.236265 O2-
0.818396 0.500000 0.257547 O2-
0.181604 0.000000 0.283491 O2-
0.686491 0.707138 0.221622 O2-
0.313509 0.792862 0.236818 O2-
0.896492 0.000000 0.221478 O2-
0.686491 0.292862 0.263460 O2-
0.313509 0.207138 0.337838 O2-
0.103508 0.500000 0.307693 O2-
0.818396 0.500000 0.328976 O2-
0.181604 0.000000 0.354919 O2-
0.686491 0.707138 0.293051 O2-
0.313509 0.792862 0.308247 O2-
0.896492 0.000000 0.292907 O2-
0.686491 0.292862 0.334888 O2-
0.313509 0.207138 0.409267 O2-
0.103508 0.500000 0.379122 O2-
0.818396 0.500000 0.400404 O2-
0.181604 0.000000 0.426348 O2-
0.686491 0.707138 0.364480 O2-
0.313509 0.792862 0.379675 O2-
0.896492 0.000000 0.364335 O2-
0.686491 0.292862 0.406317 O2-
0.313509 0.207138 0.480695 O2-
0.103508 0.500000 0.450551 O2-
0.818396 0.500000 0.471833 O2-
0.181604 0.000000 0.497776 O2-
0.686491 0.707138 0.435908 O2-
0.313509 0.792862 0.451104 O2-
0.896492 0.000000 0.435764 O2-
0.686491 0.292862 0.477746 O2-
