Li7 N21
1.0
3.300349 0.000000 -0.010298
-0.321486 5.213677 -0.271752
0.000000 0.000000 39.592117
Li N
7 21
direct
0.266667 0.100000 0.966667 Li+
0.800000 0.300000 0.900000 Li+
0.333333 0.500000 0.833333 Li+
0.866667 0.700000 0.766667 Li+
0.400000 0.900000 0.700000 Li+
0.933333 0.100000 0.633333 Li+
0.466667 0.300000 0.566667 Li+
0.725014 0.815797 0.975832 N3-
0.808319 0.384203 0.957501 N3-
0.766667 0.600000 0.966667 N3-
0.258347 0.015797 0.909165 N3-
0.341653 0.584203 0.890835 N3-
0.300000 0.800000 0.900000 N3-
0.791681 0.215797 0.842499 N3-
0.874986 0.784203 0.824168 N3-
0.833333 0.000000 0.833333 N3-
0.325014 0.415797 0.775832 N3-
0.408319 0.984203 0.757501 N3-
0.366667 0.200000 0.766667 N3-
0.858347 0.615797 0.709165 N3-
0.941653 0.184203 0.690835 N3-
0.900000 0.400000 0.700000 N3-
0.391681 0.815797 0.642499 N3-
0.474986 0.384203 0.624168 N3-
0.433333 0.600000 0.633333 N3-
0.925014 0.015797 0.575832 N3-
0.008319 0.584203 0.557501 N3-
0.966667 0.800000 0.566667 N3-
