Li73 P24 N1 O95                         
   1.00000000000000     
    14.7077388775057862    0.0154595595338981    0.0048501707787234
     0.0109931424838706   10.5670483890206821    0.0045204505858528
     0.0041090796300927    0.0052575552853749   12.3013840788736424
   Li   P    N    O 
    73    24     1    95
Direct
  0.1839360026659869  0.4478568093492112  0.0000849308931916
  0.1693401806545225  0.4199983339008301  0.4997232511110086
  0.1668847943484731  0.9258908940434100  0.0018025766565377
  0.1701318926341792  0.9217002042464948  0.5006039016543981
  0.5024226274463970  0.4239596694770023  0.0004097894145223
  0.5025460555042254  0.4221163217536577  0.5002348327678465
  0.5032150931294421  0.9238038222357854  0.0009349128142193
  0.5036149764525569  0.9232545642332312  0.5005931209934356
  0.8343853436743505  0.4197681226827173  0.0004156947436845
  0.8353055116592686  0.4217520343156906  0.4998150545614452
  0.8386346731441006  0.9239704063455592 -0.0002370435428126
  0.8365119476005912  0.9228467802103384  0.5005347481966543
  0.0040727011055792  0.0794238465368719  0.2477756360877810
  0.0025924759584252  0.0764277511541398  0.7532131900999333
  0.0010745684333949  0.5808027818027411  0.2509137491653415
  0.0013180608352946  0.5779390472537093  0.7500279302010100
  0.3380931497593840  0.0771048515526699  0.2523074238863431
  0.3380141702689535  0.0771214802717709  0.7489049291835201
  0.3371213177124783  0.5793852715808757  0.2499782722629224
  0.3366656216051439  0.5786407627868725  0.7508460534806568
  0.6713352944352888  0.0775872015203250  0.2497893577815619
  0.6697618066114429  0.0767450178885918  0.7503976113090034
  0.6691002935275193  0.5793833612752329  0.2509672640200056
  0.6690130509181407  0.5781937244895524  0.7501169316917754
  0.1703624407666277  0.1537160662833572  0.1387996095728695
  0.1686086550816443  0.1619872139959176  0.6262775207920339
  0.1689919747168643  0.6691799374728225  0.1282906177936692
  0.1690473987191508  0.6601025413330428  0.6271800744147775
  0.5031434930411189  0.1641620554391371  0.1269556407083322
  0.5030898789938010  0.1636687839794591  0.6266345812777074
  0.5054951811437144  0.6652368298645811  0.1273412969733797
  0.5023210994287161  0.6634160382664263  0.6265174702939282
  0.8419658564335502  0.1619662878278356  0.1245365408284507
  0.8358460915914351  0.1624181688804385  0.6269348168623470
  0.8369554392409837  0.6626102629428878  0.1258604676539595
  0.8352829259936011  0.6627595814780456  0.6265008459567916
  0.9940774002795585  0.3347167287201298  0.1374361363417823
  0.0015997589138021  0.3360212613003075  0.6234819044599382
  0.0037262643313857  0.8404063949628253  0.1227731811871016
  0.0025644858670867  0.8359536791154407  0.6236131424103312
  0.3352989213925075  0.3389998564521042  0.1238719983018077
  0.3363294511260276  0.3360766020337786  0.6251351809023862
  0.3364000987052234  0.8397838765465159  0.1246609821058895
  0.3367405698459777  0.8358356097170397  0.6238665663556392
  0.6701401795103553  0.3365101921599843  0.1245757130144710
  0.6683944997189648  0.3364141458999828  0.6238218248075439
  0.6706226354853868  0.8371864530314148  0.1238935315838090
  0.6695282618839585  0.8365936794760626  0.6239391877478676
  0.0023807599841182  0.3368194389622213  0.3761764099555353
  0.9945558938406505  0.3352508994874234  0.8692191514758250
  0.0023578935812631  0.8374120745688205  0.3777561991549347
  0.0023739512946651  0.8378369059636396  0.8771653314047213
  0.3362691848522440  0.3364044798942880  0.3752716761028263
  0.3353906169202793  0.3379779991355122  0.8770780146207107
  0.3367009477673533  0.8360942075296394  0.3774026928993143
  0.3364081621808488  0.8396483731461701  0.8769595587131999
  0.6682291945988146  0.3365477917901366  0.3775753603795735
  0.6688474514865314  0.3362783314285944  0.8768161686525708
  0.6696927195957232  0.8371041739966818  0.3771405227864292
  0.6704201610791620  0.8371256780936841  0.8772574739509371
  0.1688119938393615  0.1630502527671306  0.3745256284320676
  0.1719989259304731  0.1532454380546094  0.8654180044469358
  0.1689958044087437  0.6611500730751733  0.3745018438005339
  0.1683364734414988  0.6687440318666700  0.8729478153934976
  0.5032371044836322  0.1636116004036080  0.3740312025665417
  0.5033236271987178  0.1637430443610529  0.8743889103769558
  0.5024634962472100  0.6635159870660102  0.3742464439142604
  0.5052622784692293  0.6652039288644399  0.8732983614395360
  0.8366557710435635  0.1630879302581433  0.3732766101606638
  0.8353929460637439  0.1607075686824318  0.8738025215694478
  0.8353924397661936  0.6638974107190239  0.3749653594694801
  0.8365828480635930  0.6617379447386330  0.8748448303706554
  0.1016264614650584  0.2747917853660460  0.0052500931867701
  0.1660901729901575  0.4143668073086667  0.2469457674813446
  0.1651223827163210  0.4109773723423075  0.7542828280997586
  0.1681163137488298  0.9103388688865133  0.2536047807120901
  0.1676450846279946  0.9100817638086721  0.7486353408941746
  0.5000292902069434  0.4130484652628219  0.2499170900702761
  0.4996140878150334  0.4128852850173618  0.7507312926793273
  0.5010877127734042  0.9127369267388707  0.2507732362793213
  0.5007000743087221  0.9126058091417648  0.7504199479496452
  0.8307994361624897  0.4139212998708659  0.2513319143473431
  0.8314417123501552  0.4120846644650384  0.7494907856010157
  0.8337821227287160  0.9114492974379563  0.2509511483418576
  0.8335705263473530  0.9106196285207850  0.7498340332592344
  0.0013733025662077  0.0897514143103327  0.0056250322940236
  0.0004269121371297  0.0881760286304801  0.5012605377475127
  0.0023256666264040  0.5845577724057305 -0.0001269743299201
  0.0001000083029485  0.5868369189435634  0.5006524775784532
  0.3329459167122218  0.0909703875668261  0.0005379952117286
  0.3340540598968167  0.0880806058773247  0.5006165405374440
  0.3364046180518757  0.5960248881537790  0.0001321468969774
  0.3330981617033237  0.5858618512244766  0.5005109442458308
  0.6672870739898490  0.0879363951845041  0.0005490602608673
  0.6671248906760454  0.0880509615382985  0.5004530439648037
  0.6669562946673685  0.5875104924232073  0.0002741239005547
  0.6662083130771790  0.5877183144343608  0.5006099098101382
  0.0381600888613374  0.1637024880889917  0.1076122250150119
  0.0360603181631980  0.1582632813586853  0.3980845400376615
  0.0381599553156527  0.1596435484375297  0.8959651473221554
  0.0352013415018868  0.6567677226692114  0.3970182897267156
  0.0360450791170921  0.6545417488357833  0.8955855296518742
  0.3695854586180866  0.1572288808735127  0.3967570168042245
  0.3683073012458117  0.1593328187149125  0.8960284881233949
  0.3683199299558600  0.6555860736130299  0.3968074569549727
  0.3730032251553085  0.6611801795563245  0.8954623105767301
  0.7024150545784997  0.1572374888917372  0.3965311165264583
  0.7013599756561656  0.1567668688101858  0.8957313049636054
  0.7015690215737339  0.6572328758677155  0.3969232452409396
  0.7022988347408086  0.6564260979717953  0.8961836869237322
  0.2043231061707785  0.0488055908423895  0.2569525886456031
  0.2027147074242583  0.0493923658882078  0.7459566720256540
  0.2021670839031542  0.5531276190697509  0.2478030543385125
  0.2003991162663056  0.5500033960883257  0.7543894754732564
  0.5343212727573822  0.0528332777736895  0.2507790611782928
  0.5338551215235157  0.0527262540355290  0.7500590784609050
  0.5338293185013524  0.5528459783800588  0.2505361029341865
  0.5335223418944661  0.5526304394355487  0.7501293737698295
  0.8666622071835638  0.0512909145335943  0.2511356407496368
  0.8673518856018885  0.0503779137796392  0.7495353380607194
  0.8654347839286421  0.5534202093455871  0.2511483139164001
  0.8660776535048057  0.5515025198458641  0.7502152186037625
  0.0606185170592468  0.4153892235195695  0.2515878804214471
  0.0594698885275299  0.4095447237755073  0.7504405701915045
  0.0625080896316407  0.9078376011266076  0.2528422095852665
  0.0619385150660843  0.9082743957659948  0.7491503337543706
  0.3940477091789713  0.4108531504183981  0.2494304742208764
  0.3936001886192273  0.4105282395614753  0.7511292675888809
  0.3951823012165629  0.9096389094941304  0.2507873399201400
  0.3947872311470735  0.9095312816171179  0.7503479809701349
  0.7250617561423239  0.4117587103020370  0.2526896754684642
  0.7257024977877415  0.4100915198588826  0.7493165484504630
  0.7277822780395018  0.9081211813267803  0.2506776806196852
  0.7276272935422243  0.9085430562759160  0.7499847644592289
  0.2268203494606168  0.0956748519286031  0.0004818809671353
  0.2281615299020202  0.0913717813873276  0.5007305726012041
  0.2307212340558172  0.6086154997826624  0.0002723889757480
  0.2271192075710126  0.5870482795569608  0.5007337523234400
  0.5611531590306787  0.0909664488492967  0.0010419615666482
  0.5611790045311492  0.0911698836056784  0.5003941821776342
  0.5610529459240908  0.5909635529348747  0.0003105078314537
  0.5602791333342576  0.5904277799826790  0.5004620842061847
  0.8942218897744306  0.0883212690899693  0.9953499601240244
  0.8945289314150763  0.0907820323657791  0.5006732361029411
  0.8965209489245957  0.5840850222263588  0.0002768093137422
  0.8942432895786480  0.5891246882569650  0.5007713442583126
  0.1990122957705268  0.3474724590740321  0.1394444203658685
  0.2026464248050475  0.3397769997893095  0.6526512685576825
  0.2035449509428423  0.8445778365171488  0.1480378488058908
  0.2027739017228226  0.8388416993927601  0.6456988323358330
  0.5351855360565666  0.3441771563090797  0.1457342691868496
  0.5345367379927756  0.3432731329310440  0.6468236926328572
  0.5367457799207561  0.8441951128725138  0.1467205363969514
  0.5357259743338373  0.8430272205474401  0.6464840676576474
  0.8640979135967485  0.3454514189408512  0.1465181180184021
  0.8675485707554180  0.3428458973612252  0.6459902286601430
  0.8695217161141612  0.8418041899679458  0.1473077751523455
  0.8687119890334269  0.8416027274046622  0.6455716930744214
  0.0351394967554156  0.1568140227478677  0.6058162580644868
  0.0365440966950727  0.6549512840429660  0.1034775936027773
  0.0353082490885145  0.6553922336634326  0.6048999301789324
  0.3682606025490115  0.1597344284247408  0.1045804110978312
  0.3694653240760574  0.1570122080573179  0.6045310160401709
  0.3732493223225946  0.6612195610197947  0.1044564852144100
  0.3680246928396915  0.6552163681254229  0.6044692922367622
  0.7029581649637252  0.1571237967146840  0.1040334345228974
  0.7020112136914135  0.1569953300950066  0.6046070685537474
  0.7024065934775926  0.6565829393537717  0.1040220581609006
  0.7014089488598317  0.6566363175494804  0.6045948810616418
  0.0392522321660176  0.4447807405353270 -0.0006700811776686
  0.0344523617749867  0.4468611045726938  0.5004057803729837
  0.0332006883815994  0.9463086099619448  0.9969144501661545
  0.0345393264517173  0.9481926533267938  0.5011328375152897
  0.3631987769243946  0.4527924783977573  0.0000367551744422
  0.3669928986837432  0.4458499851768224  0.5004026293722167
  0.3663878982808248  0.9508602910253758  0.0006997719973645
  0.3676942366722958  0.9479331750232506  0.5007094258514979
  0.7001468657181040  0.4472926284415735  0.0002651192331963
  0.6998929813218200  0.4476542896801043  0.5006555933702493
  0.7010393896815297  0.9478894380954282  0.0003355259218810
  0.7007846746959040  0.9479927398781385  0.5006462381729697
  0.2029810314940047  0.3415390675047246  0.3483629903679048
  0.1973866806042060  0.3427696930178175  0.8617610188519933
  0.2030736486751549  0.8386865006154398  0.3566030651418831
  0.2031643990305899  0.8442854772508810  0.8539243850124840
  0.5346709809636810  0.3432822110823883  0.3539521346594727
  0.5346302291088931  0.3439793295002628  0.8550078823322577
  0.5359418167984634  0.8432124260865422  0.3548796035514827
  0.5363671022616353  0.8443603562606651  0.8546316650252090
  0.8677223431751477  0.3438876601684639  0.3541680718878720
  0.8656294604650036  0.3421142120873741  0.8536508999017776
  0.8687582926462734  0.8425235588827745  0.3554716884337167
  0.8686552999734659  0.8404725190066681  0.8533895463222058
 
  0.00000000E+00  0.00000000E+00  0.00000000E+00
  0.00000000E+00  0.00000000E+00  0.00000000E+00
  0.00000000E+00  0.00000000E+00  0.00000000E+00
  0.00000000E+00  0.00000000E+00  0.00000000E+00
  0.00000000E+00  0.00000000E+00  0.00000000E+00
  0.00000000E+00  0.00000000E+00  0.00000000E+00
  0.00000000E+00  0.00000000E+00  0.00000000E+00
  0.00000000E+00  0.00000000E+00  0.00000000E+00
  0.00000000E+00  0.00000000E+00  0.00000000E+00
  0.00000000E+00  0.00000000E+00  0.00000000E+00
  0.00000000E+00  0.00000000E+00  0.00000000E+00
  0.00000000E+00  0.00000000E+00  0.00000000E+00
  0.00000000E+00  0.00000000E+00  0.00000000E+00
  0.00000000E+00  0.00000000E+00  0.00000000E+00
  0.00000000E+00  0.00000000E+00  0.00000000E+00
  0.00000000E+00  0.00000000E+00  0.00000000E+00
  0.00000000E+00  0.00000000E+00  0.00000000E+00
  0.00000000E+00  0.00000000E+00  0.00000000E+00
  0.00000000E+00  0.00000000E+00  0.00000000E+00
  0.00000000E+00  0.00000000E+00  0.00000000E+00
  0.00000000E+00  0.00000000E+00  0.00000000E+00
  0.00000000E+00  0.00000000E+00  0.00000000E+00
  0.00000000E+00  0.00000000E+00  0.00000000E+00
  0.00000000E+00  0.00000000E+00  0.00000000E+00
  0.00000000E+00  0.00000000E+00  0.00000000E+00
  0.00000000E+00  0.00000000E+00  0.00000000E+00
  0.00000000E+00  0.00000000E+00  0.00000000E+00
  0.00000000E+00  0.00000000E+00  0.00000000E+00
  0.00000000E+00  0.00000000E+00  0.00000000E+00
  0.00000000E+00  0.00000000E+00  0.00000000E+00
  0.00000000E+00  0.00000000E+00  0.00000000E+00
  0.00000000E+00  0.00000000E+00  0.00000000E+00
  0.00000000E+00  0.00000000E+00  0.00000000E+00
  0.00000000E+00  0.00000000E+00  0.00000000E+00
  0.00000000E+00  0.00000000E+00  0.00000000E+00
  0.00000000E+00  0.00000000E+00  0.00000000E+00
  0.00000000E+00  0.00000000E+00  0.00000000E+00
  0.00000000E+00  0.00000000E+00  0.00000000E+00
  0.00000000E+00  0.00000000E+00  0.00000000E+00
  0.00000000E+00  0.00000000E+00  0.00000000E+00
  0.00000000E+00  0.00000000E+00  0.00000000E+00
  0.00000000E+00  0.00000000E+00  0.00000000E+00
  0.00000000E+00  0.00000000E+00  0.00000000E+00
  0.00000000E+00  0.00000000E+00  0.00000000E+00
  0.00000000E+00  0.00000000E+00  0.00000000E+00
  0.00000000E+00  0.00000000E+00  0.00000000E+00
  0.00000000E+00  0.00000000E+00  0.00000000E+00
  0.00000000E+00  0.00000000E+00  0.00000000E+00
  0.00000000E+00  0.00000000E+00  0.00000000E+00
  0.00000000E+00  0.00000000E+00  0.00000000E+00
  0.00000000E+00  0.00000000E+00  0.00000000E+00
  0.00000000E+00  0.00000000E+00  0.00000000E+00
  0.00000000E+00  0.00000000E+00  0.00000000E+00
  0.00000000E+00  0.00000000E+00  0.00000000E+00
  0.00000000E+00  0.00000000E+00  0.00000000E+00
  0.00000000E+00  0.00000000E+00  0.00000000E+00
  0.00000000E+00  0.00000000E+00  0.00000000E+00
  0.00000000E+00  0.00000000E+00  0.00000000E+00
  0.00000000E+00  0.00000000E+00  0.00000000E+00
  0.00000000E+00  0.00000000E+00  0.00000000E+00
  0.00000000E+00  0.00000000E+00  0.00000000E+00
  0.00000000E+00  0.00000000E+00  0.00000000E+00
  0.00000000E+00  0.00000000E+00  0.00000000E+00
  0.00000000E+00  0.00000000E+00  0.00000000E+00
  0.00000000E+00  0.00000000E+00  0.00000000E+00
  0.00000000E+00  0.00000000E+00  0.00000000E+00
  0.00000000E+00  0.00000000E+00  0.00000000E+00
  0.00000000E+00  0.00000000E+00  0.00000000E+00
  0.00000000E+00  0.00000000E+00  0.00000000E+00
  0.00000000E+00  0.00000000E+00  0.00000000E+00
  0.00000000E+00  0.00000000E+00  0.00000000E+00
  0.00000000E+00  0.00000000E+00  0.00000000E+00
  0.00000000E+00  0.00000000E+00  0.00000000E+00
  0.00000000E+00  0.00000000E+00  0.00000000E+00
  0.00000000E+00  0.00000000E+00  0.00000000E+00
  0.00000000E+00  0.00000000E+00  0.00000000E+00
  0.00000000E+00  0.00000000E+00  0.00000000E+00
  0.00000000E+00  0.00000000E+00  0.00000000E+00
  0.00000000E+00  0.00000000E+00  0.00000000E+00
  0.00000000E+00  0.00000000E+00  0.00000000E+00
  0.00000000E+00  0.00000000E+00  0.00000000E+00
  0.00000000E+00  0.00000000E+00  0.00000000E+00
  0.00000000E+00  0.00000000E+00  0.00000000E+00
  0.00000000E+00  0.00000000E+00  0.00000000E+00
  0.00000000E+00  0.00000000E+00  0.00000000E+00
  0.00000000E+00  0.00000000E+00  0.00000000E+00
  0.00000000E+00  0.00000000E+00  0.00000000E+00
  0.00000000E+00  0.00000000E+00  0.00000000E+00
  0.00000000E+00  0.00000000E+00  0.00000000E+00
  0.00000000E+00  0.00000000E+00  0.00000000E+00
  0.00000000E+00  0.00000000E+00  0.00000000E+00
  0.00000000E+00  0.00000000E+00  0.00000000E+00
  0.00000000E+00  0.00000000E+00  0.00000000E+00
  0.00000000E+00  0.00000000E+00  0.00000000E+00
  0.00000000E+00  0.00000000E+00  0.00000000E+00
  0.00000000E+00  0.00000000E+00  0.00000000E+00
  0.00000000E+00  0.00000000E+00  0.00000000E+00
  0.00000000E+00  0.00000000E+00  0.00000000E+00
  0.00000000E+00  0.00000000E+00  0.00000000E+00
  0.00000000E+00  0.00000000E+00  0.00000000E+00
  0.00000000E+00  0.00000000E+00  0.00000000E+00
  0.00000000E+00  0.00000000E+00  0.00000000E+00
  0.00000000E+00  0.00000000E+00  0.00000000E+00
  0.00000000E+00  0.00000000E+00  0.00000000E+00
  0.00000000E+00  0.00000000E+00  0.00000000E+00
  0.00000000E+00  0.00000000E+00  0.00000000E+00
  0.00000000E+00  0.00000000E+00  0.00000000E+00
  0.00000000E+00  0.00000000E+00  0.00000000E+00
  0.00000000E+00  0.00000000E+00  0.00000000E+00
  0.00000000E+00  0.00000000E+00  0.00000000E+00
  0.00000000E+00  0.00000000E+00  0.00000000E+00
  0.00000000E+00  0.00000000E+00  0.00000000E+00
  0.00000000E+00  0.00000000E+00  0.00000000E+00
  0.00000000E+00  0.00000000E+00  0.00000000E+00
  0.00000000E+00  0.00000000E+00  0.00000000E+00
  0.00000000E+00  0.00000000E+00  0.00000000E+00
  0.00000000E+00  0.00000000E+00  0.00000000E+00
  0.00000000E+00  0.00000000E+00  0.00000000E+00
  0.00000000E+00  0.00000000E+00  0.00000000E+00
  0.00000000E+00  0.00000000E+00  0.00000000E+00
  0.00000000E+00  0.00000000E+00  0.00000000E+00
  0.00000000E+00  0.00000000E+00  0.00000000E+00
  0.00000000E+00  0.00000000E+00  0.00000000E+00
  0.00000000E+00  0.00000000E+00  0.00000000E+00
  0.00000000E+00  0.00000000E+00  0.00000000E+00
  0.00000000E+00  0.00000000E+00  0.00000000E+00
  0.00000000E+00  0.00000000E+00  0.00000000E+00
  0.00000000E+00  0.00000000E+00  0.00000000E+00
  0.00000000E+00  0.00000000E+00  0.00000000E+00
  0.00000000E+00  0.00000000E+00  0.00000000E+00
  0.00000000E+00  0.00000000E+00  0.00000000E+00
  0.00000000E+00  0.00000000E+00  0.00000000E+00
  0.00000000E+00  0.00000000E+00  0.00000000E+00
  0.00000000E+00  0.00000000E+00  0.00000000E+00
  0.00000000E+00  0.00000000E+00  0.00000000E+00
  0.00000000E+00  0.00000000E+00  0.00000000E+00
  0.00000000E+00  0.00000000E+00  0.00000000E+00
  0.00000000E+00  0.00000000E+00  0.00000000E+00
  0.00000000E+00  0.00000000E+00  0.00000000E+00
  0.00000000E+00  0.00000000E+00  0.00000000E+00
  0.00000000E+00  0.00000000E+00  0.00000000E+00
  0.00000000E+00  0.00000000E+00  0.00000000E+00
  0.00000000E+00  0.00000000E+00  0.00000000E+00
  0.00000000E+00  0.00000000E+00  0.00000000E+00
  0.00000000E+00  0.00000000E+00  0.00000000E+00
  0.00000000E+00  0.00000000E+00  0.00000000E+00
  0.00000000E+00  0.00000000E+00  0.00000000E+00
  0.00000000E+00  0.00000000E+00  0.00000000E+00
  0.00000000E+00  0.00000000E+00  0.00000000E+00
  0.00000000E+00  0.00000000E+00  0.00000000E+00
  0.00000000E+00  0.00000000E+00  0.00000000E+00
  0.00000000E+00  0.00000000E+00  0.00000000E+00
  0.00000000E+00  0.00000000E+00  0.00000000E+00
  0.00000000E+00  0.00000000E+00  0.00000000E+00
  0.00000000E+00  0.00000000E+00  0.00000000E+00
  0.00000000E+00  0.00000000E+00  0.00000000E+00
  0.00000000E+00  0.00000000E+00  0.00000000E+00
  0.00000000E+00  0.00000000E+00  0.00000000E+00
  0.00000000E+00  0.00000000E+00  0.00000000E+00
  0.00000000E+00  0.00000000E+00  0.00000000E+00
  0.00000000E+00  0.00000000E+00  0.00000000E+00
  0.00000000E+00  0.00000000E+00  0.00000000E+00
  0.00000000E+00  0.00000000E+00  0.00000000E+00
  0.00000000E+00  0.00000000E+00  0.00000000E+00
  0.00000000E+00  0.00000000E+00  0.00000000E+00
  0.00000000E+00  0.00000000E+00  0.00000000E+00
  0.00000000E+00  0.00000000E+00  0.00000000E+00
  0.00000000E+00  0.00000000E+00  0.00000000E+00
  0.00000000E+00  0.00000000E+00  0.00000000E+00
  0.00000000E+00  0.00000000E+00  0.00000000E+00
  0.00000000E+00  0.00000000E+00  0.00000000E+00
  0.00000000E+00  0.00000000E+00  0.00000000E+00
  0.00000000E+00  0.00000000E+00  0.00000000E+00
  0.00000000E+00  0.00000000E+00  0.00000000E+00
  0.00000000E+00  0.00000000E+00  0.00000000E+00
  0.00000000E+00  0.00000000E+00  0.00000000E+00
  0.00000000E+00  0.00000000E+00  0.00000000E+00
  0.00000000E+00  0.00000000E+00  0.00000000E+00
  0.00000000E+00  0.00000000E+00  0.00000000E+00
  0.00000000E+00  0.00000000E+00  0.00000000E+00
  0.00000000E+00  0.00000000E+00  0.00000000E+00
  0.00000000E+00  0.00000000E+00  0.00000000E+00
  0.00000000E+00  0.00000000E+00  0.00000000E+00
  0.00000000E+00  0.00000000E+00  0.00000000E+00
  0.00000000E+00  0.00000000E+00  0.00000000E+00
  0.00000000E+00  0.00000000E+00  0.00000000E+00
  0.00000000E+00  0.00000000E+00  0.00000000E+00
  0.00000000E+00  0.00000000E+00  0.00000000E+00
  0.00000000E+00  0.00000000E+00  0.00000000E+00
  0.00000000E+00  0.00000000E+00  0.00000000E+00
  0.00000000E+00  0.00000000E+00  0.00000000E+00
  0.00000000E+00  0.00000000E+00  0.00000000E+00
  0.00000000E+00  0.00000000E+00  0.00000000E+00
