Li5 P2 N1 O6                            
   1.00000000000000     
    -0.2988685919071854    1.1776851797279937    5.0950658771986861
     5.5531760730075961    0.3997086954508279   -0.4247768570755612
     0.3287483566189191    5.4167265703797165    1.2372280811415459
   Li   P    N    O 
     5     2     1     6
Direct
  0.5442587827943307  0.9351090651052206  0.6972222121555595
  0.8299524753978043  0.4357023569604594  0.3620198648466365
  0.4302929839002531  0.8055237001736187  0.2681930695820574
  0.9972171254722050  0.7071544283224908  0.7485303617076173
  0.0885803629754107  0.2362319333871583  0.6469242597254642
  0.4536759287657998  0.4245112882578790  0.8942579044572906
  0.9909966070644073  0.9864076598397622  0.1910417268684305
  0.0163443648453388  0.7805036315198052  0.3857235383252759
  0.1976662410240463  0.2651531715744721  0.1773154216679989
  0.6809403095785043  0.2686571257867851  0.7521213651677654
  0.5846853568828110  0.6398858542094462 -0.0215055385537842
  0.1207138649820789  0.9761426804728822  0.8819687532819923
  0.3147389953126020  0.5105209295948009  0.7111083856779011
  0.6923636010044383  0.0684851747952101  0.2921536750897999
 
  0.00000000E+00  0.00000000E+00  0.00000000E+00
  0.00000000E+00  0.00000000E+00  0.00000000E+00
  0.00000000E+00  0.00000000E+00  0.00000000E+00
  0.00000000E+00  0.00000000E+00  0.00000000E+00
  0.00000000E+00  0.00000000E+00  0.00000000E+00
  0.00000000E+00  0.00000000E+00  0.00000000E+00
  0.00000000E+00  0.00000000E+00  0.00000000E+00
  0.00000000E+00  0.00000000E+00  0.00000000E+00
  0.00000000E+00  0.00000000E+00  0.00000000E+00
  0.00000000E+00  0.00000000E+00  0.00000000E+00
  0.00000000E+00  0.00000000E+00  0.00000000E+00
  0.00000000E+00  0.00000000E+00  0.00000000E+00
  0.00000000E+00  0.00000000E+00  0.00000000E+00
  0.00000000E+00  0.00000000E+00  0.00000000E+00
