Li5 P2 N1 O6                            
   1.00000000000000     
    -0.2572626318297577    1.0035924444042414    4.8891634617720250
     5.6347308977174455    0.3715727288921641   -0.3668487518701972
     0.3228037615234866    5.2014265965567832    1.0543766267540504
   Li   P    N    O 
     5     2     1     6
Direct
  0.5662197271340051 -0.0611244272221607  0.6910859431235663
 -0.1985341260378052  0.4515216722372032  0.3573841302088248
  0.4159435712609920  0.7853242761952165  0.2945485357029482
 -0.0008241591632979  0.7028936465524324  0.7582966664606111
  0.1149577984065991  0.2342157941852836  0.6123378720972261
  0.4609078039724230  0.4178610765234885  0.9001928457023494
 -0.0185590810628551 -0.0051250796058483  0.1869621676996343
 -0.0033219673872308  0.7887621645970205  0.3967873455164098
  0.1923552719182533  0.2679629800338281  0.1791518461675734
  0.6918489650634038  0.2660329418721659  0.7491375077860117
  0.5947108501458288  0.6181728366111762  0.0092371194257599
  0.1273390233607767 -0.0197971859114772  0.8734594601533267
  0.3237356894610501  0.5151950737489439  0.7003968448783647
  0.6756476329278811  0.0780932301827257  0.2780967150773987
 
  0.00000000E+00  0.00000000E+00  0.00000000E+00
  0.00000000E+00  0.00000000E+00  0.00000000E+00
  0.00000000E+00  0.00000000E+00  0.00000000E+00
  0.00000000E+00  0.00000000E+00  0.00000000E+00
  0.00000000E+00  0.00000000E+00  0.00000000E+00
  0.00000000E+00  0.00000000E+00  0.00000000E+00
  0.00000000E+00  0.00000000E+00  0.00000000E+00
  0.00000000E+00  0.00000000E+00  0.00000000E+00
  0.00000000E+00  0.00000000E+00  0.00000000E+00
  0.00000000E+00  0.00000000E+00  0.00000000E+00
  0.00000000E+00  0.00000000E+00  0.00000000E+00
  0.00000000E+00  0.00000000E+00  0.00000000E+00
  0.00000000E+00  0.00000000E+00  0.00000000E+00
  0.00000000E+00  0.00000000E+00  0.00000000E+00
