Li21 N7
1.0
3.161590 0.000000 -1.825345
-0.000000 3.888635 -3.650690
0.000000 0.000000 58.411038
Li N
21 7
direct
0.000000 0.500000 0.005208 Li+
0.333333 0.000000 0.015625 Li+
0.666667 0.000000 0.057292 Li+
0.000000 0.500000 0.067708 Li+
0.333333 0.000000 0.078125 Li+
0.666667 0.000000 0.119792 Li+
0.000000 0.500000 0.130208 Li+
0.333333 0.000000 0.140625 Li+
0.666667 0.000000 0.182292 Li+
0.000000 0.500000 0.192708 Li+
0.333333 0.000000 0.203125 Li+
0.666667 0.000000 0.244792 Li+
0.000000 0.500000 0.255208 Li+
0.333333 0.000000 0.265625 Li+
0.666667 0.000000 0.307292 Li+
0.000000 0.500000 0.317708 Li+
0.333333 0.000000 0.328125 Li+
0.666667 0.000000 0.369792 Li+
0.000000 0.500000 0.380208 Li+
0.333333 0.000000 0.390625 Li+
0.666667 0.000000 0.432292 Li+
0.000000 0.000000 0.036458 N3-
0.000000 0.000000 0.098958 N3-
0.000000 0.000000 0.161458 N3-
0.000000 0.000000 0.223958 N3-
0.000000 0.000000 0.286458 N3-
0.000000 0.000000 0.348958 N3-
0.000000 0.000000 0.411458 N3-
