P6 N10
1.0
3.095049 4.297545 0.000000
-2.947666 4.092900 0.000000
0.000000 4.006714 8.326663
P N
6 10
direct
0.481977 0.518023 0.250000 P
0.662189 0.069700 0.555302 P
0.069700 0.662189 0.055302 P
0.337811 0.930300 0.444698 P
0.930300 0.337811 0.944698 P
0.518023 0.481977 0.750000 P
0.500756 0.789120 0.599743 N
0.228908 0.507855 0.191694 N
0.499244 0.210880 0.400257 N
0.210880 0.499244 0.900257 N
0.492145 0.771092 0.308306 N
0.771092 0.492145 0.808306 N
0.000000 0.000000 0.500000 N
0.789120 0.500756 0.099743 N
0.507855 0.228908 0.691694 N
0.000000 0.000000 0.000000 N
