Li56 P28 O98
1.0
6.730959 0.000000 -2.599490
-2.035903 8.419349 0.002996
0.000000 0.000000 63.126504
Li P O
56 28 98
direct
0.144977 0.012029 0.062961 Li+
0.855023 0.987971 0.020372 Li+
0.588727 0.248347 0.008694 Li+
0.411273 0.751653 0.074640 Li+
0.327738 0.208724 0.039353 Li+
0.672262 0.791276 0.043981 Li+
0.241886 0.549204 0.036921 Li+
0.758114 0.450796 0.046413 Li+
0.144977 0.012029 0.146295 Li+
0.855023 0.987971 0.103705 Li+
0.588727 0.248347 0.092027 Li+
0.411273 0.751653 0.157973 Li+
0.327738 0.208724 0.122686 Li+
0.672262 0.791276 0.127314 Li+
0.241886 0.549204 0.120254 Li+
0.758114 0.450796 0.129746 Li+
0.144977 0.012029 0.229628 Li+
0.855023 0.987971 0.187039 Li+
0.588727 0.248347 0.175360 Li+
0.411273 0.751653 0.241306 Li+
0.327738 0.208724 0.206019 Li+
0.672262 0.791276 0.210647 Li+
0.241886 0.549204 0.203587 Li+
0.758114 0.450796 0.213079 Li+
0.144977 0.012029 0.312961 Li+
0.855023 0.987971 0.270372 Li+
0.588727 0.248347 0.258694 Li+
0.411273 0.751653 0.324640 Li+
0.327738 0.208724 0.289353 Li+
0.672262 0.791276 0.293981 Li+
0.241886 0.549204 0.286921 Li+
0.758114 0.450796 0.296413 Li+
0.144977 0.012029 0.396295 Li+
0.855023 0.987971 0.353705 Li+
0.588727 0.248347 0.342027 Li+
0.411273 0.751653 0.407973 Li+
0.327738 0.208724 0.372686 Li+
0.672262 0.791276 0.377314 Li+
0.241886 0.549204 0.370254 Li+
0.758114 0.450796 0.379746 Li+
0.144977 0.012029 0.479628 Li+
0.855023 0.987971 0.437039 Li+
0.588727 0.248347 0.425360 Li+
0.411273 0.751653 0.491306 Li+
0.327738 0.208724 0.456019 Li+
0.672262 0.791276 0.460647 Li+
0.241886 0.549204 0.453587 Li+
0.758114 0.450796 0.463079 Li+
0.144977 0.012029 0.562961 Li+
0.855023 0.987971 0.520372 Li+
0.588727 0.248347 0.508694 Li+
0.411273 0.751653 0.574640 Li+
0.327738 0.208724 0.539353 Li+
0.672262 0.791276 0.543981 Li+
0.241886 0.549204 0.536921 Li+
0.758114 0.450796 0.546413 Li+
0.213298 0.368044 0.077167 P5+
0.786702 0.631956 0.006166 P5+
0.779241 0.154498 0.059644 P5+
0.220759 0.845502 0.023689 P5+
0.213298 0.368044 0.160501 P5+
0.786702 0.631956 0.089499 P5+
0.779241 0.154498 0.142977 P5+
0.220759 0.845502 0.107023 P5+
0.213298 0.368044 0.243834 P5+
0.786702 0.631956 0.172833 P5+
0.779241 0.154498 0.226311 P5+
0.220759 0.845502 0.190356 P5+
0.213298 0.368044 0.327167 P5+
0.786702 0.631956 0.256166 P5+
0.779241 0.154498 0.309644 P5+
0.220759 0.845502 0.273689 P5+
0.213298 0.368044 0.410501 P5+
0.786702 0.631956 0.339499 P5+
0.779241 0.154498 0.392977 P5+
0.220759 0.845502 0.357023 P5+
0.213298 0.368044 0.493834 P5+
0.786702 0.631956 0.422833 P5+
0.779241 0.154498 0.476311 P5+
0.220759 0.845502 0.440356 P5+
0.213298 0.368044 0.577168 P5+
0.786702 0.631956 0.506166 P5+
0.779241 0.154498 0.559644 P5+
0.220759 0.845502 0.523689 P5+
0.741759 0.125660 0.081674 O2-
0.605720 0.209316 0.041156 O2-
0.394280 0.790684 0.042177 O2-
0.848591 0.018024 0.051424 O2-
0.743350 0.623545 0.063953 O2-
0.256650 0.376455 0.019380 O2-
0.732189 0.473810 0.015430 O2-
0.267811 0.526190 0.067904 O2-
0.702403 0.763496 0.013481 O2-
0.297597 0.236504 0.069852 O2-
0.962384 0.316106 0.063911 O2-
0.037616 0.683894 0.019422 O2-
0.151409 0.981976 0.031909 O2-
0.258241 0.874340 0.001659 O2-
0.741759 0.125660 0.165007 O2-
0.605720 0.209316 0.124489 O2-
0.394280 0.790684 0.125511 O2-
0.848591 0.018024 0.134757 O2-
0.743350 0.623545 0.147287 O2-
0.256650 0.376455 0.102713 O2-
0.732189 0.473810 0.098763 O2-
0.267811 0.526190 0.151237 O2-
0.702403 0.763496 0.096815 O2-
0.297597 0.236504 0.153185 O2-
0.962384 0.316106 0.147244 O2-
0.037616 0.683894 0.102756 O2-
0.151409 0.981976 0.115243 O2-
0.258241 0.874340 0.084993 O2-
0.741759 0.125660 0.248341 O2-
0.605720 0.209316 0.207822 O2-
0.394280 0.790684 0.208844 O2-
0.848591 0.018024 0.218091 O2-
0.743350 0.623545 0.230620 O2-
0.256650 0.376455 0.186047 O2-
0.732189 0.473810 0.182096 O2-
0.267811 0.526190 0.234570 O2-
0.702403 0.763496 0.180148 O2-
0.297597 0.236504 0.236518 O2-
0.962384 0.316106 0.230578 O2-
0.037616 0.683894 0.186089 O2-
0.151409 0.981976 0.198576 O2-
0.258241 0.874340 0.168326 O2-
0.741759 0.125660 0.331674 O2-
0.605720 0.209316 0.291156 O2-
0.394280 0.790684 0.292177 O2-
0.848591 0.018024 0.301424 O2-
0.743350 0.623545 0.313953 O2-
0.256650 0.376455 0.269380 O2-
0.732189 0.473810 0.265430 O2-
0.267811 0.526190 0.317904 O2-
0.702403 0.763496 0.263481 O2-
0.297597 0.236504 0.319852 O2-
0.962384 0.316106 0.313911 O2-
0.037616 0.683894 0.269422 O2-
0.151409 0.981976 0.281909 O2-
0.258241 0.874340 0.251659 O2-
0.741759 0.125660 0.415007 O2-
0.605720 0.209316 0.374489 O2-
0.394280 0.790684 0.375511 O2-
0.848591 0.018024 0.384757 O2-
0.743350 0.623545 0.397287 O2-
0.256650 0.376455 0.352713 O2-
0.732189 0.473810 0.348763 O2-
0.267811 0.526190 0.401237 O2-
0.702403 0.763496 0.346815 O2-
0.297597 0.236504 0.403185 O2-
0.962384 0.316106 0.397244 O2-
0.037616 0.683894 0.352756 O2-
0.151409 0.981976 0.365243 O2-
0.258241 0.874340 0.334993 O2-
0.741759 0.125660 0.498341 O2-
0.605720 0.209316 0.457823 O2-
0.394280 0.790684 0.458844 O2-
0.848591 0.018024 0.468091 O2-
0.743350 0.623545 0.480620 O2-
0.256650 0.376455 0.436047 O2-
0.732189 0.473810 0.432096 O2-
0.267811 0.526190 0.484570 O2-
0.702403 0.763496 0.430148 O2-
0.297597 0.236504 0.486519 O2-
0.962384 0.316106 0.480578 O2-
0.037616 0.683894 0.436089 O2-
0.151409 0.981976 0.448576 O2-
0.258241 0.874340 0.418326 O2-
0.741759 0.125660 0.581674 O2-
0.605720 0.209316 0.541156 O2-
0.394280 0.790684 0.542177 O2-
0.848591 0.018024 0.551424 O2-
0.743350 0.623545 0.563953 O2-
0.256650 0.376455 0.519380 O2-
0.732189 0.473810 0.515430 O2-
0.267811 0.526190 0.567904 O2-
0.702403 0.763496 0.513482 O2-
0.297597 0.236504 0.569852 O2-
0.962384 0.316106 0.563911 O2-
0.037616 0.683894 0.519422 O2-
0.151409 0.981976 0.531909 O2-
0.258241 0.874340 0.501659 O2-
