Li5 P2 N1 O6                            
   1.00000000000000     
    -0.3684276811411178    0.5725419043606899    4.9356951515547305
     6.6090667584625677    0.5702432877461318   -0.4601878624316398
     0.4804932102488419    5.0284931596239399    0.5805990917051452
   Li   P    N    O 
     5     2     1     6
Direct
  0.5302330198700578  0.0484267686214824  0.8874652857368400
  0.7422021764289637  0.3124348755991831  0.2757903739431800
  0.4135223521842945  0.7289178755037609  0.3179669434650250
  0.0363000025264732  0.7444190694783188  0.7658630306878619
  0.0940787211390819  0.2547172941857796  0.6161851085235440
  0.5397391555751669  0.4736497268916058  0.8074898004915863
  0.9910439764733624  0.0012191172346707  0.1871384940517122
  0.6976786791989220  0.3205760917546217  0.6751538996733143
  0.1145263572841906  0.2146229367652172  0.2413919925099722
  0.0421628338222107  0.8141017015190657  0.3833206569719489
  0.6267195867240883  0.5770875657202198  0.0311825262917270
  0.1369511136444187  0.9941565715752417  0.8829306874261389
  0.3059617548467770  0.5597723009375059  0.6999194724763947
  0.6713072702820170  0.9958871042133317  0.2152767277507659
 
  0.00000000E+00  0.00000000E+00  0.00000000E+00
  0.00000000E+00  0.00000000E+00  0.00000000E+00
  0.00000000E+00  0.00000000E+00  0.00000000E+00
  0.00000000E+00  0.00000000E+00  0.00000000E+00
  0.00000000E+00  0.00000000E+00  0.00000000E+00
  0.00000000E+00  0.00000000E+00  0.00000000E+00
  0.00000000E+00  0.00000000E+00  0.00000000E+00
  0.00000000E+00  0.00000000E+00  0.00000000E+00
  0.00000000E+00  0.00000000E+00  0.00000000E+00
  0.00000000E+00  0.00000000E+00  0.00000000E+00
  0.00000000E+00  0.00000000E+00  0.00000000E+00
  0.00000000E+00  0.00000000E+00  0.00000000E+00
  0.00000000E+00  0.00000000E+00  0.00000000E+00
  0.00000000E+00  0.00000000E+00  0.00000000E+00
