Li1
1.0
-1.958936 1.713409 1.713409
1.958936 -1.713409 1.713409
1.467882 1.713409 -1.713409
Li
1
direct
0.000000 0.000000 0.000000 Li
