Li5 P2 N1 O6                            
   1.00000000000000     
     0.0754502455368601   -0.0181887531744009    4.9145794008724035
     6.3282217846596485    0.1159681735107956    0.0890138473808623
     0.1016930631761407    5.5159897770963937   -0.0209940637042513
   Li   P    N    O 
     5     2     1     6
Direct
  0.5045153781759436  0.0182048824025428  0.8487259167020614
  0.0170814004584758  0.4525563101286786  0.1175388202313255
  0.5422944411247831  0.7393152175691319  0.3401052063475518
 -0.0204655704272197  0.7528818524976740  0.7429706216120167
  0.0053302409263220  0.2609979249575921  0.6477567035353110
  0.5042609411289527  0.5044533056908463  0.8225107083385903
 -0.0049172844230804  0.0075752659783857  0.1649669636765981
  0.6154616104235667  0.5355056274910014  0.0979892733795625
  0.0831101328938706  0.1974712898351859  0.3085123296229212
  0.5980293928442527  0.7104820813866938  0.6785731979908433
  0.6203586163950833  0.2963377656023477  0.7215211418508640
  0.1055974347595862  0.0061632865976024  0.8989278066798988
  0.1841259985844434  0.5014385095057181  0.8015693200999680
  0.6876442671350436 -0.0291183196434012  0.1683889899324850
 
  0.00000000E+00  0.00000000E+00  0.00000000E+00
  0.00000000E+00  0.00000000E+00  0.00000000E+00
  0.00000000E+00  0.00000000E+00  0.00000000E+00
  0.00000000E+00  0.00000000E+00  0.00000000E+00
  0.00000000E+00  0.00000000E+00  0.00000000E+00
  0.00000000E+00  0.00000000E+00  0.00000000E+00
  0.00000000E+00  0.00000000E+00  0.00000000E+00
  0.00000000E+00  0.00000000E+00  0.00000000E+00
  0.00000000E+00  0.00000000E+00  0.00000000E+00
  0.00000000E+00  0.00000000E+00  0.00000000E+00
  0.00000000E+00  0.00000000E+00  0.00000000E+00
  0.00000000E+00  0.00000000E+00  0.00000000E+00
  0.00000000E+00  0.00000000E+00  0.00000000E+00
  0.00000000E+00  0.00000000E+00  0.00000000E+00
