P28 N28 O28
1.0
4.831544 0.000000 0.000000
0.000000 7.043614 0.000000
0.000000 0.000000 54.289560
P N O
28 28 28
Selective dynamics
direct
0.250000 0.639517 0.067051 T T T P5+
0.750000 0.860483 0.067051 T T T P5+
0.750000 0.139517 0.025385 T T T P5+
0.250000 0.360483 0.025385 T T T P5+
0.250000 0.639517 0.150385 F F F P5+
0.750000 0.860483 0.150385 F F F P5+
0.750000 0.139517 0.108718 F F F P5+
0.250000 0.360483 0.108718 F F F P5+
0.250000 0.639517 0.233718 F F F P5+
0.750000 0.860483 0.233718 F F F P5+
0.750000 0.139517 0.192051 F F F P5+
0.250000 0.360483 0.192051 F F F P5+
0.250000 0.639517 0.317051 F F F P5+
0.750000 0.860483 0.317051 F F F P5+
0.750000 0.139517 0.275385 F F F P5+
0.250000 0.360483 0.275385 F F F P5+
0.250000 0.639517 0.400385 F F F P5+
0.750000 0.860483 0.400385 F F F P5+
0.750000 0.139517 0.358718 F F F P5+
0.250000 0.360483 0.358718 F F F P5+
0.250000 0.639517 0.483718 F F F P5+
0.750000 0.860483 0.483718 F F F P5+
0.750000 0.139517 0.442051 F F F P5+
0.250000 0.360483 0.442051 F F F P5+
0.250000 0.639517 0.567051 T T T P5+
0.750000 0.860483 0.567051 T T T P5+
0.750000 0.139517 0.525385 T T T P5+
0.250000 0.360483 0.525385 T T T P5+
0.500000 0.750000 0.055321 T T T N3-
0.000000 0.750000 0.078782 T T T N3-
0.000000 0.250000 0.013654 T T T N3-
0.500000 0.250000 0.037115 T T T N3-
0.500000 0.750000 0.138654 F F F N3-
0.000000 0.750000 0.162115 F F F N3-
0.000000 0.250000 0.096987 F F F N3-
0.500000 0.250000 0.120449 F F F N3-
0.500000 0.750000 0.221987 F F F N3-
0.000000 0.750000 0.245449 F F F N3-
0.000000 0.250000 0.180321 F F F N3-
0.500000 0.250000 0.203782 F F F N3-
0.500000 0.750000 0.305321 F F F N3-
0.000000 0.750000 0.328782 F F F N3-
0.000000 0.250000 0.263654 F F F N3-
0.500000 0.250000 0.287115 F F F N3-
0.500000 0.750000 0.388654 F F F N3-
0.000000 0.750000 0.412115 F F F N3-
0.000000 0.250000 0.346987 F F F N3-
0.500000 0.250000 0.370449 F F F N3-
0.500000 0.750000 0.471987 F F F N3-
0.000000 0.750000 0.495449 F F F N3-
0.000000 0.250000 0.430321 F F F N3-
0.500000 0.250000 0.453782 F F F N3-
0.500000 0.750000 0.555321 T T T N3-
0.000000 0.750000 0.578782 T T T N3-
0.000000 0.250000 0.513654 T T T N3-
0.500000 0.250000 0.537115 T T T N3-
0.627000 0.000000 0.004551 T T T O2-
0.873000 0.000000 0.046218 T T T O2-
0.127000 0.500000 0.046218 T T T O2-
0.373000 0.500000 0.004551 T T T O2-
0.627000 0.000000 0.087885 F F F O2-
0.873000 0.000000 0.129551 F F F O2-
0.127000 0.500000 0.129551 F F F O2-
0.373000 0.500000 0.087885 F F F O2-
0.627000 0.000000 0.171218 F F F O2-
0.873000 0.000000 0.212885 F F F O2-
0.127000 0.500000 0.212885 F F F O2-
0.373000 0.500000 0.171218 F F F O2-
0.627000 0.000000 0.254551 F F F O2-
0.873000 0.000000 0.296218 F F F O2-
0.127000 0.500000 0.296218 F F F O2-
0.373000 0.500000 0.254551 F F F O2-
0.627000 0.000000 0.337885 F F F O2-
0.873000 0.000000 0.379551 F F F O2-
0.127000 0.500000 0.379551 F F F O2-
0.373000 0.500000 0.337885 F F F O2-
0.627000 0.000000 0.421218 F F F O2-
0.873000 0.000000 0.462885 F F F O2-
0.127000 0.500000 0.462885 F F F O2-
0.373000 0.500000 0.421218 F F F O2-
0.627000 0.000000 0.504551 T T T O2-
0.873000 0.000000 0.546218 T T T O2-
0.127000 0.500000 0.546218 T T T O2-
0.373000 0.500000 0.504551 T T T O2-
