Li61 P7 N32                             
   1.00000000000000     
     0.0000596739304984    9.5251994866973266   -0.0000277998184940
     0.0187312665050243   -0.0000276845769066    9.5275768384785433
     9.5373038516200399    0.0000596794642804    0.0190439676705432
   Li   P    N 
    61     7    32
Direct
  0.4865588720624901  0.0000013350227550  0.5000025587087209
 -0.0142481666375354  0.4999794118259394  0.0000007097877023
  0.4864566058874126 -0.0000069727162000  0.0000016337430062
 -0.0042562724230724 -0.0000055397258852  0.5000117169053597
  0.4958720128862208  0.4999965632007867  0.0000189502473938
 -0.0049051197429086  0.4999999964595100  0.4999980322514733
  0.7434812143853615 -0.0000143858919106  0.4999934393488480
  0.2420789840700688  0.0000027771851130  0.5000031280120947
  0.7611995615206641  0.5000065925883718  0.4999945214360745
  0.2291011442393055  0.5000064784698672  0.4999933557042695
  0.2533310690231230  0.0000030132279150  0.0000004189129556
  0.7263340467560175  0.0000189083509166  0.0000149196716827
  0.7368674037693255  0.4999620527393227  0.0000484586865557
  0.4919456579335864  0.2414493400080001 -0.0183400277705076
  0.4919407524104764  0.7585478531707196  0.0183399075274968
 -0.0078451086919794  0.4831612985231802  0.2573971187686387
 -0.0078123460707670  0.5168604206837208  0.7426047316353687
  0.2281040004861998  0.2120321369738787  0.2067376392785093
  0.2281322511420225  0.7879798944658926  0.7932820052167275
  0.2576302375782100  0.2803925110799913  0.7063086199462829
  0.2576575743559020  0.7196321568550659  0.2936813060716500
  0.7827457062569740  0.3230504332261432  0.3251180572832041
  0.7827410279351510  0.6769560109836301  0.6749189642300477
  0.7235654065902039  0.1742419232639651  0.7990020011218520
  0.7235245401988022  0.8257714609020582  0.2009823325220948
  0.9813237483104013  0.2397896395699945  0.2448987801752942
  0.9813262315423966  0.7602149599827254  0.7550997804195433
  0.2517965431961892  0.2419223437167064  0.4638172464281018
  0.2518028738286442  0.7580769890230069  0.5361741615736658
  0.7360074544159301  0.2285065529851390  0.5535385747731417
  0.7360009076335547  0.7714535894031413  0.4464812584204298
  0.8347697718949456  0.6113720533267352  0.1542427644732962
  0.8347373232066710  0.3887802142766875  0.8456307421217802
  0.2219945261467904  0.4595411003531262  0.2572036751415356
  0.2219860185627249  0.5404884967645747  0.7427857229184993
  0.5029425518903544  0.7474520892164823  0.2570083312906711
  0.5029457236288535  0.2525217070776907  0.7430041175503925
  0.2218041114053587  0.9720529869430009  0.2534837882933395
  0.2218161647030707  0.0279485144373815  0.7465187757951034
  0.2543494619682082  0.2429385217397729  0.9553719343366404
  0.2543455120606493  0.7570588178577513  0.0446284642768879
  0.7347584178238272  0.9235400936204544  0.7259597778332599
  0.7347522270876792  0.0764647994046789  0.2740403863171367
  0.7755012910788047  0.7689840592357206  0.9728195672696075
  0.7755271539821101  0.2310764458824388  0.0270772640761307
  0.0178640748955392  0.2514227705220262  0.7663304901515032
  0.0178999410520829  0.7485850272094378  0.2336866818390779
  0.6477018948450401  0.3549050461630411  0.1391514257296997
  0.6476921687723789  0.6449739865982360  0.8609335428565731
  0.0109993659330927  0.2656647312388246  0.0180119507279611
  0.0110096203155749  0.7343255983826580 -0.0180212851427315
  0.4939355243983928  0.2383157910829807  0.4905376644252388
  0.4939415542576242  0.7616999927268737  0.5094466846294592
  0.4634292582527456  0.5111426222296374  0.2357211307687768
  0.4633657299005378  0.4888172770577049  0.7643249625552184
 -0.0202137553250797 -0.0074843857014068  0.2610274979845303
 -0.0201962110799059  0.0074900431789616  0.7389949132802004
  0.4618738270801992  0.2593923744643255  0.2478469079743899
  0.4619270907718441  0.7405852007223116  0.7521370857833027
  0.6864559529683087  0.4429050159989313  0.7086230368480508
  0.6865812429720309  0.5570630651277939  0.2913044520778439
  0.4881678769025903  0.5000192342472691  0.4999907027113681
 -0.0053756184815453 -0.0000026603122814  0.0000076566979705
  0.2381771891225079  0.5000016737543234  0.0000029675765196
 -0.0060425236324315  0.7490639774737734  0.4922046186271615
 -0.0060445961942230  0.2509314783132125  0.5077977015017432
  0.4842650324070088  0.0048173854432529  0.2487104172354379
  0.4842734667098271 -0.0048286430805250  0.7512973107581455
  0.5928354803116131  0.5980546258520149  0.6063975534238889
  0.5928262186592447  0.4019701044721606  0.3935692536127947
  0.8920851010087029  0.8920310803554236  0.0966817506662257
  0.8920871076028545  0.1079499726206174  0.9033297327053760
  0.0960973807193675  0.9046158711296278  0.8925121620514888
  0.0960930388355582  0.0953795776799790  0.1074935591675202
  0.3868375314219113  0.6079401073965589  0.4053975792794614
  0.3868450210656521  0.3920687354278211  0.5946042359954725
  0.0902869930068098  0.3498152788463941  0.3959424791358879
  0.0902879186751004  0.6501808543361499  0.6040574436518410
  0.1046916771135508  0.1505964816236468  0.6030198966227661
  0.1046950308874421  0.8494101161255937  0.3969931275857892
  0.8802196618829189  0.1508801418917294  0.4141109440231288
  0.8802163431411860  0.8491071859159554  0.5858971391065313
  0.8590947152502428  0.3816277493320813  0.1357934804845530
  0.8591113746663593  0.6183563281912546  0.8642266277022699
  0.1387658315836125  0.5959812801013431  0.1140636958558973
  0.1387768814555911  0.4040167350002002  0.8859255339950274
  0.3863429907304891  0.8926948157537924  0.1534718445791901
  0.3863519267158799  0.1072968830650254  0.8465427781361147
  0.3739479362372055  0.1018051486038836  0.3498546708025571
  0.3739582900352916  0.8981911850242137  0.6501590560309163
  0.3375401078500215  0.3859837460409652  0.0970079326044580
  0.3375426552667301  0.6140213304565395  0.9029913529982826
  0.6002211436012659  0.0855002473639697  0.6484664814116099
  0.6002079357461494  0.9144958325079593  0.3515405090636062
  0.6262489114547988  0.6377024430929565  0.1186479706906391
  0.6262369650115130  0.3623157981469717  0.8813309766395846
  0.8945542775828595  0.3543361641011549  0.6158798069366882
  0.8945680256882529  0.6456625282107114  0.3841157351028682
  0.5790185991040371  0.1147926040721837  0.1449313804791402
  0.5790297505552252  0.8852027987298001  0.8550751791290281
 
  0.00000000E+00  0.00000000E+00  0.00000000E+00
  0.00000000E+00  0.00000000E+00  0.00000000E+00
  0.00000000E+00  0.00000000E+00  0.00000000E+00
  0.00000000E+00  0.00000000E+00  0.00000000E+00
  0.00000000E+00  0.00000000E+00  0.00000000E+00
  0.00000000E+00  0.00000000E+00  0.00000000E+00
  0.00000000E+00  0.00000000E+00  0.00000000E+00
  0.00000000E+00  0.00000000E+00  0.00000000E+00
  0.00000000E+00  0.00000000E+00  0.00000000E+00
  0.00000000E+00  0.00000000E+00  0.00000000E+00
  0.00000000E+00  0.00000000E+00  0.00000000E+00
  0.00000000E+00  0.00000000E+00  0.00000000E+00
  0.00000000E+00  0.00000000E+00  0.00000000E+00
  0.00000000E+00  0.00000000E+00  0.00000000E+00
  0.00000000E+00  0.00000000E+00  0.00000000E+00
  0.00000000E+00  0.00000000E+00  0.00000000E+00
  0.00000000E+00  0.00000000E+00  0.00000000E+00
  0.00000000E+00  0.00000000E+00  0.00000000E+00
  0.00000000E+00  0.00000000E+00  0.00000000E+00
  0.00000000E+00  0.00000000E+00  0.00000000E+00
  0.00000000E+00  0.00000000E+00  0.00000000E+00
  0.00000000E+00  0.00000000E+00  0.00000000E+00
  0.00000000E+00  0.00000000E+00  0.00000000E+00
  0.00000000E+00  0.00000000E+00  0.00000000E+00
  0.00000000E+00  0.00000000E+00  0.00000000E+00
  0.00000000E+00  0.00000000E+00  0.00000000E+00
  0.00000000E+00  0.00000000E+00  0.00000000E+00
  0.00000000E+00  0.00000000E+00  0.00000000E+00
  0.00000000E+00  0.00000000E+00  0.00000000E+00
  0.00000000E+00  0.00000000E+00  0.00000000E+00
  0.00000000E+00  0.00000000E+00  0.00000000E+00
  0.00000000E+00  0.00000000E+00  0.00000000E+00
  0.00000000E+00  0.00000000E+00  0.00000000E+00
  0.00000000E+00  0.00000000E+00  0.00000000E+00
  0.00000000E+00  0.00000000E+00  0.00000000E+00
  0.00000000E+00  0.00000000E+00  0.00000000E+00
  0.00000000E+00  0.00000000E+00  0.00000000E+00
  0.00000000E+00  0.00000000E+00  0.00000000E+00
  0.00000000E+00  0.00000000E+00  0.00000000E+00
  0.00000000E+00  0.00000000E+00  0.00000000E+00
  0.00000000E+00  0.00000000E+00  0.00000000E+00
  0.00000000E+00  0.00000000E+00  0.00000000E+00
  0.00000000E+00  0.00000000E+00  0.00000000E+00
  0.00000000E+00  0.00000000E+00  0.00000000E+00
  0.00000000E+00  0.00000000E+00  0.00000000E+00
  0.00000000E+00  0.00000000E+00  0.00000000E+00
  0.00000000E+00  0.00000000E+00  0.00000000E+00
  0.00000000E+00  0.00000000E+00  0.00000000E+00
  0.00000000E+00  0.00000000E+00  0.00000000E+00
  0.00000000E+00  0.00000000E+00  0.00000000E+00
  0.00000000E+00  0.00000000E+00  0.00000000E+00
  0.00000000E+00  0.00000000E+00  0.00000000E+00
  0.00000000E+00  0.00000000E+00  0.00000000E+00
  0.00000000E+00  0.00000000E+00  0.00000000E+00
  0.00000000E+00  0.00000000E+00  0.00000000E+00
  0.00000000E+00  0.00000000E+00  0.00000000E+00
  0.00000000E+00  0.00000000E+00  0.00000000E+00
  0.00000000E+00  0.00000000E+00  0.00000000E+00
  0.00000000E+00  0.00000000E+00  0.00000000E+00
  0.00000000E+00  0.00000000E+00  0.00000000E+00
  0.00000000E+00  0.00000000E+00  0.00000000E+00
  0.00000000E+00  0.00000000E+00  0.00000000E+00
  0.00000000E+00  0.00000000E+00  0.00000000E+00
  0.00000000E+00  0.00000000E+00  0.00000000E+00
  0.00000000E+00  0.00000000E+00  0.00000000E+00
  0.00000000E+00  0.00000000E+00  0.00000000E+00
  0.00000000E+00  0.00000000E+00  0.00000000E+00
  0.00000000E+00  0.00000000E+00  0.00000000E+00
  0.00000000E+00  0.00000000E+00  0.00000000E+00
  0.00000000E+00  0.00000000E+00  0.00000000E+00
  0.00000000E+00  0.00000000E+00  0.00000000E+00
  0.00000000E+00  0.00000000E+00  0.00000000E+00
  0.00000000E+00  0.00000000E+00  0.00000000E+00
  0.00000000E+00  0.00000000E+00  0.00000000E+00
  0.00000000E+00  0.00000000E+00  0.00000000E+00
  0.00000000E+00  0.00000000E+00  0.00000000E+00
  0.00000000E+00  0.00000000E+00  0.00000000E+00
  0.00000000E+00  0.00000000E+00  0.00000000E+00
  0.00000000E+00  0.00000000E+00  0.00000000E+00
  0.00000000E+00  0.00000000E+00  0.00000000E+00
  0.00000000E+00  0.00000000E+00  0.00000000E+00
  0.00000000E+00  0.00000000E+00  0.00000000E+00
  0.00000000E+00  0.00000000E+00  0.00000000E+00
  0.00000000E+00  0.00000000E+00  0.00000000E+00
  0.00000000E+00  0.00000000E+00  0.00000000E+00
  0.00000000E+00  0.00000000E+00  0.00000000E+00
  0.00000000E+00  0.00000000E+00  0.00000000E+00
  0.00000000E+00  0.00000000E+00  0.00000000E+00
  0.00000000E+00  0.00000000E+00  0.00000000E+00
  0.00000000E+00  0.00000000E+00  0.00000000E+00
  0.00000000E+00  0.00000000E+00  0.00000000E+00
  0.00000000E+00  0.00000000E+00  0.00000000E+00
  0.00000000E+00  0.00000000E+00  0.00000000E+00
  0.00000000E+00  0.00000000E+00  0.00000000E+00
  0.00000000E+00  0.00000000E+00  0.00000000E+00
  0.00000000E+00  0.00000000E+00  0.00000000E+00
  0.00000000E+00  0.00000000E+00  0.00000000E+00
  0.00000000E+00  0.00000000E+00  0.00000000E+00
  0.00000000E+00  0.00000000E+00  0.00000000E+00
  0.00000000E+00  0.00000000E+00  0.00000000E+00
