Li42 P14 O56
1.0
4.922448 0.000000 0.000000
0.000000 5.296402 0.000000
0.000000 0.000000 67.937496
Li P O
42 14 56
Selective dynamics
direct
0.509417 0.844520 0.070000 T T T Li+
0.009417 0.155480 0.024545 T T T Li+
0.508363 0.326434 0.047011 T T T Li+
0.008363 0.673566 0.047533 T T T Li+
0.008363 0.673566 0.001557 T T T Li+
0.508363 0.326434 0.002079 T T T Li+
0.509417 0.844520 0.160909 F F F Li+
0.009417 0.155480 0.115454 F F F Li+
0.508363 0.326434 0.137920 F F F Li+
0.008363 0.673566 0.138442 F F F Li+
0.008363 0.673566 0.092466 F F F Li+
0.508363 0.326434 0.092988 F F F Li+
0.509417 0.844520 0.251818 F F F Li+
0.009417 0.155480 0.206363 F F F Li+
0.508363 0.326434 0.228829 F F F Li+
0.008363 0.673566 0.229352 F F F Li+
0.008363 0.673566 0.183375 F F F Li+
0.508363 0.326434 0.183897 F F F Li+
0.509417 0.844520 0.342727 F F F Li+
0.009417 0.155480 0.297272 F F F Li+
0.508363 0.326434 0.319738 F F F Li+
0.008363 0.673566 0.320261 F F F Li+
0.008363 0.673566 0.274284 F F F Li+
0.508363 0.326434 0.274806 F F F Li+
0.509417 0.844520 0.433636 F F F Li+
0.009417 0.155480 0.388181 F F F Li+
0.508363 0.326434 0.410647 F F F Li+
0.008363 0.673566 0.411170 F F F Li+
0.008363 0.673566 0.365193 F F F Li+
0.508363 0.326434 0.365715 F F F Li+
0.509417 0.844520 0.524545 F F F Li+
0.009417 0.155480 0.479090 F F F Li+
0.508363 0.326434 0.501556 F F F Li+
0.008363 0.673566 0.502079 F F F Li+
0.008363 0.673566 0.456102 F F F Li+
0.508363 0.326434 0.456624 F F F Li+
0.509417 0.844520 0.615454 T T T Li+
0.009417 0.155480 0.569999 T T T Li+
0.508363 0.326434 0.592466 T T T Li+
0.008363 0.673566 0.592988 T T T Li+
0.008363 0.673566 0.547011 T T T Li+
0.508363 0.326434 0.547533 T T T Li+
0.501420 0.824261 0.024545 T T T P5+
0.001420 0.175739 0.070000 T T T P5+
0.501420 0.824261 0.115454 F F F P5+
0.001420 0.175739 0.160909 F F F P5+
0.501420 0.824261 0.206363 F F F P5+
0.001420 0.175739 0.251818 F F F P5+
0.501420 0.824261 0.297272 F F F P5+
0.001420 0.175739 0.342727 F F F P5+
0.501420 0.824261 0.388181 F F F P5+
0.001420 0.175739 0.433636 F F F P5+
0.501420 0.824261 0.479090 F F F P5+
0.001420 0.175739 0.524545 F F F P5+
0.501420 0.824261 0.569999 T T T P5+
0.001420 0.175739 0.615454 T T T P5+
0.107010 0.313509 0.088830 F F F O2-
0.602126 0.103508 0.024545 T T T O2-
0.185191 0.818396 0.024545 T T T O2-
0.685191 0.181604 0.070000 T T T O2-
0.607010 0.686491 0.043376 T T T O2-
0.107010 0.313509 0.051169 T T T O2-
0.102126 0.896492 0.070000 T T T O2-
0.607010 0.686491 0.005714 T T T O2-
0.107010 0.313509 0.179739 F F F O2-
0.602126 0.103508 0.115454 F F F O2-
0.185191 0.818396 0.115454 F F F O2-
0.685191 0.181604 0.160909 F F F O2-
0.607010 0.686491 0.134285 F F F O2-
0.107010 0.313509 0.142078 F F F O2-
0.102126 0.896492 0.160909 F F F O2-
0.607010 0.686491 0.096623 F F F O2-
0.107010 0.313509 0.270648 F F F O2-
0.602126 0.103508 0.206363 F F F O2-
0.185191 0.818396 0.206363 F F F O2-
0.685191 0.181604 0.251818 F F F O2-
0.607010 0.686491 0.225194 F F F O2-
0.107010 0.313509 0.232987 F F F O2-
0.102126 0.896492 0.251818 F F F O2-
0.607010 0.686491 0.187532 F F F O2-
0.107010 0.313509 0.361557 F F F O2-
0.602126 0.103508 0.297272 F F F O2-
0.185191 0.818396 0.297272 F F F O2-
0.685191 0.181604 0.342727 F F F O2-
0.607010 0.686491 0.316103 F F F O2-
0.107010 0.313509 0.323896 F F F O2-
0.102126 0.896492 0.342727 F F F O2-
0.607010 0.686491 0.278442 F F F O2-
0.107010 0.313509 0.452467 F F F O2-
0.602126 0.103508 0.388181 F F F O2-
0.185191 0.818396 0.388181 F F F O2-
0.685191 0.181604 0.433636 F F F O2-
0.607010 0.686491 0.407012 F F F O2-
0.107010 0.313509 0.414805 F F F O2-
0.102126 0.896492 0.433636 F F F O2-
0.607010 0.686491 0.369351 F F F O2-
0.107010 0.313509 0.543376 F F F O2-
0.602126 0.103508 0.479090 F F F O2-
0.185191 0.818396 0.479090 F F F O2-
0.685191 0.181604 0.524545 F F F O2-
0.607010 0.686491 0.497921 F F F O2-
0.107010 0.313509 0.505714 F F F O2-
0.102126 0.896492 0.524545 F F F O2-
0.607010 0.686491 0.460260 F F F O2-
0.107010 0.313509 0.634285 T T T O2-
0.602126 0.103508 0.569999 T T T O2-
0.185191 0.818396 0.569999 T T T O2-
0.685191 0.181604 0.615454 T T T O2-
0.607010 0.686491 0.588830 T T T O2-
0.107010 0.313509 0.596623 T T T O2-
0.102126 0.896492 0.615454 T T T O2-
0.607010 0.686491 0.551169 T T T O2-
