Li42 P14 O56
1.0
5.296402 0.000000 -4.922448
0.000000 6.176136 -4.922448
0.000000 0.000000 68.914272
Li P O
42 14 56
direct
0.844520 0.000000 0.050547 Li+
0.155480 0.500000 0.001330 Li+
0.326434 0.747127 0.066832 Li+
0.673566 0.752873 0.056323 Li+
0.673566 0.247127 0.020199 Li+
0.326434 0.252873 0.031528 Li+
0.844520 0.000000 0.121976 Li+
0.155480 0.500000 0.072759 Li+
0.326434 0.747127 0.138261 Li+
0.673566 0.752873 0.127752 Li+
0.673566 0.247127 0.091627 Li+
0.326434 0.252873 0.102957 Li+
0.844520 0.000000 0.193404 Li+
0.155480 0.500000 0.144187 Li+
0.326434 0.747127 0.209689 Li+
0.673566 0.752873 0.199180 Li+
0.673566 0.247127 0.163056 Li+
0.326434 0.252873 0.174385 Li+
0.844520 0.000000 0.264833 Li+
0.155480 0.500000 0.215616 Li+
0.326434 0.747127 0.281118 Li+
0.673566 0.752873 0.270609 Li+
0.673566 0.247127 0.234484 Li+
0.326434 0.252873 0.245814 Li+
0.844520 0.000000 0.336261 Li+
0.155480 0.500000 0.287044 Li+
0.326434 0.747127 0.352546 Li+
0.673566 0.752873 0.342037 Li+
0.673566 0.247127 0.305913 Li+
0.326434 0.252873 0.317242 Li+
0.844520 0.000000 0.407690 Li+
0.155480 0.500000 0.358473 Li+
0.326434 0.747127 0.423975 Li+
0.673566 0.752873 0.413466 Li+
0.673566 0.247127 0.377341 Li+
0.326434 0.252873 0.388671 Li+
0.844520 0.000000 0.479119 Li+
0.155480 0.500000 0.429901 Li+
0.326434 0.747127 0.495403 Li+
0.673566 0.752873 0.484895 Li+
0.673566 0.247127 0.448770 Li+
0.326434 0.252873 0.460099 Li+
0.824261 0.500000 0.012815 P5+
0.175739 0.000000 0.037920 P5+
0.824261 0.500000 0.084243 P5+
0.175739 0.000000 0.109349 P5+
0.824261 0.500000 0.155672 P5+
0.175739 0.000000 0.180777 P5+
0.824261 0.500000 0.227100 P5+
0.175739 0.000000 0.252206 P5+
0.824261 0.500000 0.298529 P5+
0.175739 0.000000 0.323634 P5+
0.824261 0.500000 0.369957 P5+
0.175739 0.000000 0.395063 P5+
0.824261 0.500000 0.441386 P5+
0.175739 0.000000 0.466492 P5+
0.313509 0.207138 0.070099 O2-
0.103508 0.500000 0.039954 O2-
0.818396 0.500000 0.061236 O2-
0.181604 0.000000 0.015751 O2-
0.686491 0.707138 0.025312 O2-
0.313509 0.792862 0.040507 O2-
0.896492 0.000000 0.025167 O2-
0.686491 0.292862 0.067149 O2-
0.313509 0.207138 0.141527 O2-
0.103508 0.500000 0.111383 O2-
0.818396 0.500000 0.132665 O2-
0.181604 0.000000 0.087180 O2-
0.686491 0.707138 0.096740 O2-
0.313509 0.792862 0.111936 O2-
0.896492 0.000000 0.096596 O2-
0.686491 0.292862 0.138578 O2-
0.313509 0.207138 0.212956 O2-
0.103508 0.500000 0.182811 O2-
0.818396 0.500000 0.204094 O2-
0.181604 0.000000 0.158608 O2-
0.686491 0.707138 0.168169 O2-
0.313509 0.792862 0.183365 O2-
0.896492 0.000000 0.168024 O2-
0.686491 0.292862 0.210006 O2-
0.313509 0.207138 0.284384 O2-
0.103508 0.500000 0.254240 O2-
0.818396 0.500000 0.275522 O2-
0.181604 0.000000 0.230037 O2-
0.686491 0.707138 0.239597 O2-
0.313509 0.792862 0.254793 O2-
0.896492 0.000000 0.239453 O2-
0.686491 0.292862 0.281435 O2-
0.313509 0.207138 0.355813 O2-
0.103508 0.500000 0.325668 O2-
0.818396 0.500000 0.346951 O2-
0.181604 0.000000 0.301466 O2-
0.686491 0.707138 0.311026 O2-
0.313509 0.792862 0.326222 O2-
0.896492 0.000000 0.310881 O2-
0.686491 0.292862 0.352863 O2-
0.313509 0.207138 0.427241 O2-
0.103508 0.500000 0.397097 O2-
0.818396 0.500000 0.418379 O2-
0.181604 0.000000 0.372894 O2-
0.686491 0.707138 0.382454 O2-
0.313509 0.792862 0.397650 O2-
0.896492 0.000000 0.382310 O2-
0.686491 0.292862 0.424292 O2-
0.313509 0.207138 0.498670 O2-
0.103508 0.500000 0.468525 O2-
0.818396 0.500000 0.489808 O2-
0.181604 0.000000 0.444323 O2-
0.686491 0.707138 0.453883 O2-
0.313509 0.792862 0.469079 O2-
0.896492 0.000000 0.453739 O2-
0.686491 0.292862 0.495720 O2-
