Li140 P140 O420
1.0
13.312980 0.000000 -5.521558
2.677750 16.540545 0.000000
0.000000 0.000000 60.737138
Li P O
140 140 420
direct
0.944698 0.181780 0.049468 Li+
0.444698 0.681780 0.003033 Li+
0.822834 0.065996 0.039316 Li+
0.322834 0.565996 0.081937 Li+
0.702414 0.950543 0.026426 Li+
0.202414 0.450543 0.072932 Li+
0.582845 0.835452 0.015425 Li+
0.082845 0.335452 0.062193 Li+
0.512460 0.758434 0.055794 Li+
0.012460 0.258434 0.009027 Li+
0.942549 0.681714 0.046856 Li+
0.442549 0.181714 0.005255 Li+
0.821455 0.566270 0.039927 Li+
0.321455 0.066270 0.081075 Li+
0.702271 0.449547 0.023916 Li+
0.202271 0.949547 0.075416 Li+
0.582496 0.332984 0.018074 Li+
0.082496 0.832984 0.059481 Li+
0.510463 0.256366 0.058512 Li+
0.010463 0.756366 0.005946 Li+
0.944698 0.181780 0.140377 Li+
0.444698 0.681780 0.093942 Li+
0.822834 0.065996 0.130225 Li+
0.322834 0.565996 0.172846 Li+
0.702414 0.950543 0.117335 Li+
0.202414 0.450543 0.163841 Li+
0.582845 0.835452 0.106334 Li+
0.082845 0.335452 0.153102 Li+
0.512460 0.758434 0.146703 Li+
0.012460 0.258434 0.099936 Li+
0.942549 0.681714 0.137765 Li+
0.442549 0.181714 0.096164 Li+
0.821455 0.566270 0.130836 Li+
0.321455 0.066270 0.171984 Li+
0.702271 0.449547 0.114825 Li+
0.202271 0.949547 0.166325 Li+
0.582496 0.332984 0.108983 Li+
0.082496 0.832984 0.150390 Li+
0.510463 0.256366 0.149421 Li+
0.010463 0.756366 0.096855 Li+
0.944698 0.181780 0.231286 Li+
0.444698 0.681780 0.184851 Li+
0.822834 0.065996 0.221134 Li+
0.322834 0.565996 0.263756 Li+
0.702414 0.950543 0.208244 Li+
0.202414 0.450543 0.254751 Li+
0.582845 0.835452 0.197244 Li+
0.082845 0.335452 0.244012 Li+
0.512460 0.758434 0.237612 Li+
0.012460 0.258434 0.190846 Li+
0.942549 0.681714 0.228674 Li+
0.442549 0.181714 0.187073 Li+
0.821455 0.566270 0.221745 Li+
0.321455 0.066270 0.262893 Li+
0.702271 0.449547 0.205734 Li+
0.202271 0.949547 0.257234 Li+
0.582496 0.332984 0.199892 Li+
0.082496 0.832984 0.241299 Li+
0.510463 0.256366 0.240330 Li+
0.010463 0.756366 0.187765 Li+
0.944698 0.181780 0.322195 Li+
0.444698 0.681780 0.275760 Li+
0.822834 0.065996 0.312043 Li+
0.322834 0.565996 0.354665 Li+
0.702414 0.950543 0.299153 Li+
0.202414 0.450543 0.345660 Li+
0.582845 0.835452 0.288153 Li+
0.082845 0.335452 0.334921 Li+
0.512460 0.758434 0.328521 Li+
0.012460 0.258434 0.281755 Li+
0.942549 0.681714 0.319583 Li+
0.442549 0.181714 0.277982 Li+
0.821455 0.566270 0.312655 Li+
0.321455 0.066270 0.353802 Li+
0.702271 0.449547 0.296644 Li+
0.202271 0.949547 0.348144 Li+
0.582496 0.332984 0.290802 Li+
0.082496 0.832984 0.332208 Li+
0.510463 0.256366 0.331239 Li+
0.010463 0.756366 0.278674 Li+
0.944698 0.181780 0.413104 Li+
0.444698 0.681780 0.366669 Li+
0.822834 0.065996 0.402952 Li+
0.322834 0.565996 0.445574 Li+
0.702414 0.950543 0.390063 Li+
0.202414 0.450543 0.436569 Li+
0.582845 0.835452 0.379062 Li+
0.082845 0.335452 0.425830 Li+
0.512460 0.758434 0.419430 Li+
0.012460 0.258434 0.372664 Li+
0.942549 0.681714 0.410492 Li+
0.442549 0.181714 0.368891 Li+
0.821455 0.566270 0.403564 Li+
0.321455 0.066270 0.444711 Li+
0.702271 0.449547 0.387553 Li+
0.202271 0.949547 0.439053 Li+
0.582496 0.332984 0.381711 Li+
0.082496 0.832984 0.423117 Li+
0.510463 0.256366 0.422148 Li+
0.010463 0.756366 0.369583 Li+
0.944698 0.181780 0.504014 Li+
0.444698 0.681780 0.457578 Li+
0.822834 0.065996 0.493861 Li+
0.322834 0.565996 0.536483 Li+
0.702414 0.950543 0.480972 Li+
0.202414 0.450543 0.527478 Li+
0.582845 0.835452 0.469971 Li+
0.082845 0.335452 0.516739 Li+
0.512460 0.758434 0.510340 Li+
0.012460 0.258434 0.463573 Li+
0.942549 0.681714 0.501401 Li+
0.442549 0.181714 0.459800 Li+
0.821455 0.566270 0.494473 Li+
0.321455 0.066270 0.535621 Li+
0.702271 0.449547 0.478462 Li+
0.202271 0.949547 0.529962 Li+
0.582496 0.332984 0.472620 Li+
0.082496 0.832984 0.514026 Li+
0.510463 0.256366 0.513057 Li+
0.010463 0.756366 0.460492 Li+
0.944698 0.181780 0.594923 Li+
0.444698 0.681780 0.548488 Li+
0.822834 0.065996 0.584770 Li+
0.322834 0.565996 0.627392 Li+
0.702414 0.950543 0.571881 Li+
0.202414 0.450543 0.618387 Li+
0.582845 0.835452 0.560880 Li+
0.082845 0.335452 0.607648 Li+
0.512460 0.758434 0.601249 Li+
0.012460 0.258434 0.554482 Li+
0.942549 0.681714 0.592310 Li+
0.442549 0.181714 0.550709 Li+
0.821455 0.566270 0.585382 Li+
0.321455 0.066270 0.626530 Li+
0.702271 0.449547 0.569371 Li+
0.202271 0.949547 0.620871 Li+
0.582496 0.332984 0.563529 Li+
0.082496 0.832984 0.604936 Li+
0.510463 0.256366 0.603967 Li+
0.010463 0.756366 0.551401 Li+
0.001192 0.999587 0.082716 P5+
0.501192 0.499587 0.070966 P5+
0.887667 0.906720 0.012583 P5+
0.387667 0.406720 0.029549 P5+
0.795924 0.802939 0.063776 P5+
0.295924 0.302939 0.052584 P5+
0.716706 0.691689 0.089253 P5+
0.216706 0.191689 0.012704 P5+
0.616650 0.591751 0.050088 P5+
0.116650 0.091751 0.033677 P5+
0.909487 0.425433 0.014510 P5+
0.409487 0.925433 0.031589 P5+
0.808986 0.325562 0.066247 P5+
0.308986 0.825562 0.052488 P5+
0.730132 0.213545 0.001083 P5+
0.230132 0.713545 0.012406 P5+
0.637722 0.110144 0.052716 P5+
0.137722 0.610144 0.034880 P5+
0.524425 0.017155 0.073511 P5+
0.024425 0.517155 0.084395 P5+
0.001192 0.999587 0.173625 P5+
0.501192 0.499587 0.161875 P5+
0.887667 0.906720 0.103492 P5+
0.387667 0.406720 0.120458 P5+
0.795924 0.802939 0.154685 P5+
0.295924 0.302939 0.143493 P5+
0.716706 0.691689 0.180162 P5+
0.216706 0.191689 0.103613 P5+
0.616650 0.591751 0.140997 P5+
0.116650 0.091751 0.124586 P5+
0.909487 0.425433 0.105420 P5+
0.409487 0.925433 0.122498 P5+
0.808986 0.325562 0.157157 P5+
0.308986 0.825562 0.143397 P5+
0.730132 0.213545 0.091992 P5+
0.230132 0.713545 0.103315 P5+
0.637722 0.110144 0.143625 P5+
0.137722 0.610144 0.125789 P5+
0.524425 0.017155 0.164420 P5+
0.024425 0.517155 0.175305 P5+
0.001192 0.999587 0.264534 P5+
0.501192 0.499587 0.252784 P5+
0.887667 0.906720 0.194401 P5+
0.387667 0.406720 0.211367 P5+
0.795924 0.802939 0.245594 P5+
0.295924 0.302939 0.234402 P5+
0.716706 0.691689 0.271072 P5+
0.216706 0.191689 0.194522 P5+
0.616650 0.591751 0.231906 P5+
0.116650 0.091751 0.215495 P5+
0.909487 0.425433 0.196329 P5+
0.409487 0.925433 0.213407 P5+
0.808986 0.325562 0.248066 P5+
0.308986 0.825562 0.234306 P5+
0.730132 0.213545 0.182901 P5+
0.230132 0.713545 0.194224 P5+
0.637722 0.110144 0.234534 P5+
0.137722 0.610144 0.216698 P5+
0.524425 0.017155 0.255329 P5+
0.024425 0.517155 0.266214 P5+
0.001192 0.999587 0.355443 P5+
0.501192 0.499587 0.343693 P5+
0.887667 0.906720 0.285310 P5+
0.387667 0.406720 0.302277 P5+
0.795924 0.802939 0.336503 P5+
0.295924 0.302939 0.325311 P5+
0.716706 0.691689 0.361981 P5+
0.216706 0.191689 0.285431 P5+
0.616650 0.591751 0.322815 P5+
0.116650 0.091751 0.306404 P5+
0.909487 0.425433 0.287238 P5+
0.409487 0.925433 0.304316 P5+
0.808986 0.325562 0.338975 P5+
0.308986 0.825562 0.325215 P5+
0.730132 0.213545 0.273810 P5+
0.230132 0.713545 0.285133 P5+
0.637722 0.110144 0.325444 P5+
0.137722 0.610144 0.307607 P5+
0.524425 0.017155 0.346238 P5+
0.024425 0.517155 0.357123 P5+
0.001192 0.999587 0.446352 P5+
0.501192 0.499587 0.434602 P5+
0.887667 0.906720 0.376219 P5+
0.387667 0.406720 0.393186 P5+
0.795924 0.802939 0.427413 P5+
0.295924 0.302939 0.416221 P5+
0.716706 0.691689 0.452890 P5+
0.216706 0.191689 0.376340 P5+
0.616650 0.591751 0.413724 P5+
0.116650 0.091751 0.397313 P5+
0.909487 0.425433 0.378147 P5+
0.409487 0.925433 0.395225 P5+
0.808986 0.325562 0.429884 P5+
0.308986 0.825562 0.416124 P5+
0.730132 0.213545 0.364719 P5+
0.230132 0.713545 0.376043 P5+
0.637722 0.110144 0.416353 P5+
0.137722 0.610144 0.398516 P5+
0.524425 0.017155 0.437147 P5+
0.024425 0.517155 0.448032 P5+
0.001192 0.999587 0.537261 P5+
0.501192 0.499587 0.525512 P5+
0.887667 0.906720 0.467128 P5+
0.387667 0.406720 0.484095 P5+
0.795924 0.802939 0.518322 P5+
0.295924 0.302939 0.507130 P5+
0.716706 0.691689 0.543799 P5+
0.216706 0.191689 0.467249 P5+
0.616650 0.591751 0.504634 P5+
0.116650 0.091751 0.488222 P5+
0.909487 0.425433 0.469056 P5+
0.409487 0.925433 0.486134 P5+
0.808986 0.325562 0.520793 P5+
0.308986 0.825562 0.507033 P5+
0.730132 0.213545 0.455628 P5+
0.230132 0.713545 0.466952 P5+
0.637722 0.110144 0.507262 P5+
0.137722 0.610144 0.489426 P5+
0.524425 0.017155 0.528056 P5+
0.024425 0.517155 0.538941 P5+
0.001192 0.999587 0.628170 P5+
0.501192 0.499587 0.616421 P5+
0.887667 0.906720 0.558037 P5+
0.387667 0.406720 0.575004 P5+
0.795924 0.802939 0.609231 P5+
0.295924 0.302939 0.598039 P5+
0.716706 0.691689 0.634708 P5+
0.216706 0.191689 0.558158 P5+
0.616650 0.591751 0.595543 P5+
0.116650 0.091751 0.579132 P5+
0.909487 0.425433 0.559965 P5+
0.409487 0.925433 0.577043 P5+
0.808986 0.325562 0.611702 P5+
0.308986 0.825562 0.597942 P5+
0.730132 0.213545 0.546537 P5+
0.230132 0.713545 0.557861 P5+
0.637722 0.110144 0.598171 P5+
0.137722 0.610144 0.580335 P5+
0.524425 0.017155 0.618965 P5+
0.024425 0.517155 0.629850 P5+
0.905428 0.964587 0.084590 O2-
0.405428 0.464587 0.051681 O2-
0.800449 0.859372 0.085765 O2-
0.300449 0.359372 0.031418 O2-
0.757206 0.724144 0.070113 O2-
0.257206 0.224144 0.039207 O2-
0.685355 0.607741 0.077521 O2-
0.185355 0.107741 0.018736 O2-
0.058300 0.021852 0.019121 O2-
0.558300 0.521852 0.054035 O2-
0.840686 0.409378 0.077997 O2-
0.340686 0.909378 0.046502 O2-
0.772630 0.290596 0.085895 O2-
0.272630 0.790596 0.026230 O2-
0.726756 0.156445 0.070141 O2-
0.226756 0.656445 0.033644 O2-
0.618048 0.056520 0.072120 O2-
0.118048 0.556520 0.011899 O2-
0.967956 0.495673 0.010666 O2-
0.467956 0.995673 0.046064 O2-
0.955284 0.073889 0.066050 O2-
0.455284 0.573889 0.079285 O2-
0.071165 0.933926 0.077391 O2-
0.571165 0.433926 0.089013 O2-
0.836724 0.958651 0.026110 O2-
0.336724 0.458651 0.006760 O2-
0.982201 0.846743 0.025541 O2-
0.482201 0.346743 0.033779 O2-
0.714989 0.845353 0.041552 O2-
0.214989 0.345353 0.060093 O2-
0.902007 0.775410 0.064935 O2-
0.402007 0.275410 0.070713 O2-
0.622035 0.747295 0.087686 O2-
0.122035 0.247295 0.087967 O2-
0.803128 0.669352 0.021900 O2-
0.303128 0.169352 0.004861 O2-
0.542257 0.667159 0.038290 O2-
0.042257 0.167159 0.031949 O2-
0.685603 0.553292 0.038535 O2-
0.185603 0.053292 0.057767 O2-
0.839056 0.463335 0.025748 O2-
0.339056 0.963335 0.007546 O2-
0.984307 0.350606 0.026579 O2-
0.484307 0.850606 0.033124 O2-
0.720379 0.348215 0.043059 O2-
0.220379 0.848215 0.059566 O2-
0.903854 0.271458 0.067261 O2-
0.403854 0.771458 0.068723 O2-
0.623095 0.241625 0.090129 O2-
0.123095 0.741625 0.085717 O2-
0.808921 0.171199 0.023639 O2-
0.308921 0.671199 0.004175 O2-
0.543593 0.170027 0.039307 O2-
0.043593 0.670027 0.031175 O2-
0.687356 0.055640 0.039465 O2-
0.187356 0.555640 0.057155 O2-
0.452378 0.080441 0.078997 O2-
0.952378 0.580441 0.065810 O2-
0.572944 0.942366 0.089826 O2-
0.072944 0.442366 0.076901 O2-
0.905428 0.964587 0.175499 O2-
0.405428 0.464587 0.142590 O2-
0.800449 0.859372 0.176675 O2-
0.300449 0.359372 0.122327 O2-
0.757206 0.724144 0.161022 O2-
0.257206 0.224144 0.130117 O2-
0.685355 0.607741 0.168430 O2-
0.185355 0.107741 0.109645 O2-
0.058300 0.021852 0.110031 O2-
0.558300 0.521852 0.144944 O2-
0.840686 0.409378 0.168906 O2-
0.340686 0.909378 0.137411 O2-
0.772630 0.290596 0.176804 O2-
0.272630 0.790596 0.117139 O2-
0.726756 0.156445 0.161050 O2-
0.226756 0.656445 0.124553 O2-
0.618048 0.056520 0.163029 O2-
0.118048 0.556520 0.102808 O2-
0.967956 0.495673 0.101575 O2-
0.467956 0.995673 0.136973 O2-
0.955284 0.073889 0.156959 O2-
0.455284 0.573889 0.170194 O2-
0.071165 0.933926 0.168300 O2-
0.571165 0.433926 0.179922 O2-
0.836724 0.958651 0.117019 O2-
0.336724 0.458651 0.097669 O2-
0.982201 0.846743 0.116450 O2-
0.482201 0.346743 0.124688 O2-
0.714989 0.845353 0.132461 O2-
0.214989 0.345353 0.151002 O2-
0.902007 0.775410 0.155844 O2-
0.402007 0.275410 0.161622 O2-
0.622035 0.747295 0.178595 O2-
0.122035 0.247295 0.178876 O2-
0.803128 0.669352 0.112809 O2-
0.303128 0.169352 0.095771 O2-
0.542257 0.667159 0.129199 O2-
0.042257 0.167159 0.122858 O2-
0.685603 0.553292 0.129444 O2-
0.185603 0.053292 0.148676 O2-
0.839056 0.463335 0.116657 O2-
0.339056 0.963335 0.098455 O2-
0.984307 0.350606 0.117488 O2-
0.484307 0.850606 0.124033 O2-
0.720379 0.348215 0.133968 O2-
0.220379 0.848215 0.150475 O2-
0.903854 0.271458 0.158170 O2-
0.403854 0.771458 0.159632 O2-
0.623095 0.241625 0.181038 O2-
0.123095 0.741625 0.176626 O2-
0.808921 0.171199 0.114548 O2-
0.308921 0.671199 0.095084 O2-
0.543593 0.170027 0.130216 O2-
0.043593 0.670027 0.122084 O2-
0.687356 0.055640 0.130374 O2-
0.187356 0.555640 0.148064 O2-
0.452378 0.080441 0.169906 O2-
0.952378 0.580441 0.156719 O2-
0.572944 0.942366 0.180735 O2-
0.072944 0.442366 0.167811 O2-
0.905428 0.964587 0.266408 O2-
0.405428 0.464587 0.233499 O2-
0.800449 0.859372 0.267584 O2-
0.300449 0.359372 0.213236 O2-
0.757206 0.724144 0.251931 O2-
0.257206 0.224144 0.221026 O2-
0.685355 0.607741 0.259339 O2-
0.185355 0.107741 0.200554 O2-
0.058300 0.021852 0.200940 O2-
0.558300 0.521852 0.235853 O2-
0.840686 0.409378 0.259815 O2-
0.340686 0.909378 0.228320 O2-
0.772630 0.290596 0.267713 O2-
0.272630 0.790596 0.208048 O2-
0.726756 0.156445 0.251959 O2-
0.226756 0.656445 0.215462 O2-
0.618048 0.056520 0.253938 O2-
0.118048 0.556520 0.193718 O2-
0.967956 0.495673 0.192484 O2-
0.467956 0.995673 0.227882 O2-
0.955284 0.073889 0.247868 O2-
0.455284 0.573889 0.261103 O2-
0.071165 0.933926 0.259210 O2-
0.571165 0.433926 0.270831 O2-
0.836724 0.958651 0.207928 O2-
0.336724 0.458651 0.188578 O2-
0.982201 0.846743 0.207359 O2-
0.482201 0.346743 0.215597 O2-
0.714989 0.845353 0.223370 O2-
0.214989 0.345353 0.241911 O2-
0.902007 0.775410 0.246753 O2-
0.402007 0.275410 0.252531 O2-
0.622035 0.747295 0.269504 O2-
0.122035 0.247295 0.269785 O2-
0.803128 0.669352 0.203718 O2-
0.303128 0.169352 0.186680 O2-
0.542257 0.667159 0.220109 O2-
0.042257 0.167159 0.213767 O2-
0.685603 0.553292 0.220353 O2-
0.185603 0.053292 0.239585 O2-
0.839056 0.463335 0.207566 O2-
0.339056 0.963335 0.189364 O2-
0.984307 0.350606 0.208397 O2-
0.484307 0.850606 0.214942 O2-
0.720379 0.348215 0.224877 O2-
0.220379 0.848215 0.241385 O2-
0.903854 0.271458 0.249079 O2-
0.403854 0.771458 0.250541 O2-
0.623095 0.241625 0.271947 O2-
0.123095 0.741625 0.267535 O2-
0.808921 0.171199 0.205457 O2-
0.308921 0.671199 0.185994 O2-
0.543593 0.170027 0.221125 O2-
0.043593 0.670027 0.212993 O2-
0.687356 0.055640 0.221284 O2-
0.187356 0.555640 0.238974 O2-
0.452378 0.080441 0.260815 O2-
0.952378 0.580441 0.247628 O2-
0.572944 0.942366 0.271644 O2-
0.072944 0.442366 0.258720 O2-
0.905428 0.964587 0.357317 O2-
0.405428 0.464587 0.324408 O2-
0.800449 0.859372 0.358493 O2-
0.300449 0.359372 0.304145 O2-
0.757206 0.724144 0.342841 O2-
0.257206 0.224144 0.311935 O2-
0.685355 0.607741 0.350248 O2-
0.185355 0.107741 0.291463 O2-
0.058300 0.021852 0.291849 O2-
0.558300 0.521852 0.326762 O2-
0.840686 0.409378 0.350724 O2-
0.340686 0.909378 0.319230 O2-
0.772630 0.290596 0.358622 O2-
0.272630 0.790596 0.298957 O2-
0.726756 0.156445 0.342868 O2-
0.226756 0.656445 0.306371 O2-
0.618048 0.056520 0.344847 O2-
0.118048 0.556520 0.284627 O2-
0.967956 0.495673 0.283393 O2-
0.467956 0.995673 0.318791 O2-
0.955284 0.073889 0.338777 O2-
0.455284 0.573889 0.352012 O2-
0.071165 0.933926 0.350119 O2-
0.571165 0.433926 0.361740 O2-
0.836724 0.958651 0.298837 O2-
0.336724 0.458651 0.279487 O2-
0.982201 0.846743 0.298269 O2-
0.482201 0.346743 0.306506 O2-
0.714989 0.845353 0.314279 O2-
0.214989 0.345353 0.332820 O2-
0.902007 0.775410 0.337662 O2-
0.402007 0.275410 0.343441 O2-
0.622035 0.747295 0.360413 O2-
0.122035 0.247295 0.360694 O2-
0.803128 0.669352 0.294627 O2-
0.303128 0.169352 0.277589 O2-
0.542257 0.667159 0.311018 O2-
0.042257 0.167159 0.304676 O2-
0.685603 0.553292 0.311262 O2-
0.185603 0.053292 0.330494 O2-
0.839056 0.463335 0.298475 O2-
0.339056 0.963335 0.280273 O2-
0.984307 0.350606 0.299306 O2-
0.484307 0.850606 0.305851 O2-
0.720379 0.348215 0.315786 O2-
0.220379 0.848215 0.332294 O2-
0.903854 0.271458 0.339988 O2-
0.403854 0.771458 0.341451 O2-
0.623095 0.241625 0.362856 O2-
0.123095 0.741625 0.358444 O2-
0.808921 0.171199 0.296366 O2-
0.308921 0.671199 0.276903 O2-
0.543593 0.170027 0.312034 O2-
0.043593 0.670027 0.303902 O2-
0.687356 0.055640 0.312193 O2-
0.187356 0.555640 0.329883 O2-
0.452378 0.080441 0.351724 O2-
0.952378 0.580441 0.338537 O2-
0.572944 0.942366 0.362553 O2-
0.072944 0.442366 0.349629 O2-
0.905428 0.964587 0.448226 O2-
0.405428 0.464587 0.415317 O2-
0.800449 0.859372 0.449402 O2-
0.300449 0.359372 0.395054 O2-
0.757206 0.724144 0.433750 O2-
0.257206 0.224144 0.402844 O2-
0.685355 0.607741 0.441157 O2-
0.185355 0.107741 0.382372 O2-
0.058300 0.021852 0.382758 O2-
0.558300 0.521852 0.417671 O2-
0.840686 0.409378 0.441633 O2-
0.340686 0.909378 0.410139 O2-
0.772630 0.290596 0.449532 O2-
0.272630 0.790596 0.389866 O2-
0.726756 0.156445 0.433777 O2-
0.226756 0.656445 0.397280 O2-
0.618048 0.056520 0.435756 O2-
0.118048 0.556520 0.375536 O2-
0.967956 0.495673 0.374302 O2-
0.467956 0.995673 0.409700 O2-
0.955284 0.073889 0.429686 O2-
0.455284 0.573889 0.442922 O2-
0.071165 0.933926 0.441028 O2-
0.571165 0.433926 0.452649 O2-
0.836724 0.958651 0.389746 O2-
0.336724 0.458651 0.370396 O2-
0.982201 0.846743 0.389178 O2-
0.482201 0.346743 0.397415 O2-
0.714989 0.845353 0.405188 O2-
0.214989 0.345353 0.423729 O2-
0.902007 0.775410 0.428571 O2-
0.402007 0.275410 0.434350 O2-
0.622035 0.747295 0.451322 O2-
0.122035 0.247295 0.451604 O2-
0.803128 0.669352 0.385536 O2-
0.303128 0.169352 0.368498 O2-
0.542257 0.667159 0.401927 O2-
0.042257 0.167159 0.395585 O2-
0.685603 0.553292 0.402171 O2-
0.185603 0.053292 0.421403 O2-
0.839056 0.463335 0.389384 O2-
0.339056 0.963335 0.371182 O2-
0.984307 0.350606 0.390215 O2-
0.484307 0.850606 0.396760 O2-
0.720379 0.348215 0.406695 O2-
0.220379 0.848215 0.423203 O2-
0.903854 0.271458 0.430897 O2-
0.403854 0.771458 0.432360 O2-
0.623095 0.241625 0.453765 O2-
0.123095 0.741625 0.449353 O2-
0.808921 0.171199 0.387275 O2-
0.308921 0.671199 0.367812 O2-
0.543593 0.170027 0.402944 O2-
0.043593 0.670027 0.394811 O2-
0.687356 0.055640 0.403102 O2-
0.187356 0.555640 0.420792 O2-
0.452378 0.080441 0.442633 O2-
0.952378 0.580441 0.429446 O2-
0.572944 0.942366 0.453463 O2-
0.072944 0.442366 0.440538 O2-
0.905428 0.964587 0.539135 O2-
0.405428 0.464587 0.506226 O2-
0.800449 0.859372 0.540311 O2-
0.300449 0.359372 0.485963 O2-
0.757206 0.724144 0.524659 O2-
0.257206 0.224144 0.493753 O2-
0.685355 0.607741 0.532067 O2-
0.185355 0.107741 0.473281 O2-
0.058300 0.021852 0.473667 O2-
0.558300 0.521852 0.508580 O2-
0.840686 0.409378 0.532542 O2-
0.340686 0.909378 0.501048 O2-
0.772630 0.290596 0.540441 O2-
0.272630 0.790596 0.480775 O2-
0.726756 0.156445 0.524686 O2-
0.226756 0.656445 0.488189 O2-
0.618048 0.056520 0.526665 O2-
0.118048 0.556520 0.466445 O2-
0.967956 0.495673 0.465211 O2-
0.467956 0.995673 0.500610 O2-
0.955284 0.073889 0.520595 O2-
0.455284 0.573889 0.533831 O2-
0.071165 0.933926 0.531937 O2-
0.571165 0.433926 0.543558 O2-
0.836724 0.958651 0.480655 O2-
0.336724 0.458651 0.461305 O2-
0.982201 0.846743 0.480087 O2-
0.482201 0.346743 0.488324 O2-
0.714989 0.845353 0.496098 O2-
0.214989 0.345353 0.514638 O2-
0.902007 0.775410 0.519480 O2-
0.402007 0.275410 0.525259 O2-
0.622035 0.747295 0.542232 O2-
0.122035 0.247295 0.542513 O2-
0.803128 0.669352 0.476445 O2-
0.303128 0.169352 0.459407 O2-
0.542257 0.667159 0.492836 O2-
0.042257 0.167159 0.486494 O2-
0.685603 0.553292 0.493080 O2-
0.185603 0.053292 0.512313 O2-
0.839056 0.463335 0.480293 O2-
0.339056 0.963335 0.462091 O2-
0.984307 0.350606 0.481124 O2-
0.484307 0.850606 0.487669 O2-
0.720379 0.348215 0.497604 O2-
0.220379 0.848215 0.514112 O2-
0.903854 0.271458 0.521806 O2-
0.403854 0.771458 0.523269 O2-
0.623095 0.241625 0.544674 O2-
0.123095 0.741625 0.540262 O2-
0.808921 0.171199 0.478184 O2-
0.308921 0.671199 0.458721 O2-
0.543593 0.170027 0.493853 O2-
0.043593 0.670027 0.485720 O2-
0.687356 0.055640 0.494011 O2-
0.187356 0.555640 0.511701 O2-
0.452378 0.080441 0.533542 O2-
0.952378 0.580441 0.520355 O2-
0.572944 0.942366 0.544372 O2-
0.072944 0.442366 0.531447 O2-
0.905428 0.964587 0.630044 O2-
0.405428 0.464587 0.597135 O2-
0.800449 0.859372 0.631220 O2-
0.300449 0.359372 0.576872 O2-
0.757206 0.724144 0.615568 O2-
0.257206 0.224144 0.584662 O2-
0.685355 0.607741 0.622976 O2-
0.185355 0.107741 0.564190 O2-
0.058300 0.021852 0.564576 O2-
0.558300 0.521852 0.599489 O2-
0.840686 0.409378 0.623451 O2-
0.340686 0.909378 0.591957 O2-
0.772630 0.290596 0.631350 O2-
0.272630 0.790596 0.571684 O2-
0.726756 0.156445 0.615595 O2-
0.226756 0.656445 0.579098 O2-
0.618048 0.056520 0.617574 O2-
0.118048 0.556520 0.557354 O2-
0.967956 0.495673 0.556120 O2-
0.467956 0.995673 0.591519 O2-
0.955284 0.073889 0.611504 O2-
0.455284 0.573889 0.624740 O2-
0.071165 0.933926 0.622846 O2-
0.571165 0.433926 0.634467 O2-
0.836724 0.958651 0.571564 O2-
0.336724 0.458651 0.552214 O2-
0.982201 0.846743 0.570996 O2-
0.482201 0.346743 0.579233 O2-
0.714989 0.845353 0.587007 O2-
0.214989 0.345353 0.605547 O2-
0.902007 0.775410 0.610389 O2-
0.402007 0.275410 0.616168 O2-
0.622035 0.747295 0.633141 O2-
0.122035 0.247295 0.633422 O2-
0.803128 0.669352 0.567354 O2-
0.303128 0.169352 0.550316 O2-
0.542257 0.667159 0.583745 O2-
0.042257 0.167159 0.577403 O2-
0.685603 0.553292 0.583989 O2-
0.185603 0.053292 0.603222 O2-
0.839056 0.463335 0.571202 O2-
0.339056 0.963335 0.553000 O2-
0.984307 0.350606 0.572034 O2-
0.484307 0.850606 0.578578 O2-
0.720379 0.348215 0.588513 O2-
0.220379 0.848215 0.605021 O2-
0.903854 0.271458 0.612715 O2-
0.403854 0.771458 0.614178 O2-
0.623095 0.241625 0.635584 O2-
0.123095 0.741625 0.631172 O2-
0.808921 0.171199 0.569094 O2-
0.308921 0.671199 0.549630 O2-
0.543593 0.170027 0.584762 O2-
0.043593 0.670027 0.576629 O2-
0.687356 0.055640 0.584920 O2-
0.187356 0.555640 0.602610 O2-
0.452378 0.080441 0.624451 O2-
0.952378 0.580441 0.611264 O2-
0.572944 0.942366 0.635281 O2-
0.072944 0.442366 0.622356 O2-
