Li5 P2 N1 O6                            
   1.00000000000000     
    -0.1179211400151787   -0.0397753517461728    5.0212828690441267
     5.9651722007513852   -0.2171116975716777   -0.1484435639600906
    -0.1880592378100352    5.4956794700431582   -0.0447639067296422
   Li   P    N    O 
     5     2     1     6
Direct
  0.4364918216590187 -0.0180647979011668  0.6972593094894131
 -0.0004353027129561  0.5260571920839607  0.1442314764014860
  0.4626454147322118  0.6287022867622751  0.3606598137361113
 -0.0033145835932252  0.7417966636269768  0.6886850502157527
 -0.0202230001709119  0.2527364755786862  0.6768867086782124
  0.5063758921167844  0.4974655410642042  0.8272833308668291
  0.1145529942984483  0.0228777864775312  0.2031435694351166
  0.1532067909646357  0.8248710270237095  0.3617808190945297
  0.0686675537698758  0.2577835559925561  0.3148956437259570
  0.6134935066910221  0.6964416078507086  0.6760888395969593
  0.5959930149682311  0.2732308976303379  0.7021307835411319
  0.6275204740461391  0.5338598546342461  0.0865106185613923
  0.1141512763394753  0.0068993079950443  0.9232857294101192
  0.1951201468912739  0.5024696011809269  0.8291203072469914
 
  0.00000000E+00  0.00000000E+00  0.00000000E+00
  0.00000000E+00  0.00000000E+00  0.00000000E+00
  0.00000000E+00  0.00000000E+00  0.00000000E+00
  0.00000000E+00  0.00000000E+00  0.00000000E+00
  0.00000000E+00  0.00000000E+00  0.00000000E+00
  0.00000000E+00  0.00000000E+00  0.00000000E+00
  0.00000000E+00  0.00000000E+00  0.00000000E+00
  0.00000000E+00  0.00000000E+00  0.00000000E+00
  0.00000000E+00  0.00000000E+00  0.00000000E+00
  0.00000000E+00  0.00000000E+00  0.00000000E+00
  0.00000000E+00  0.00000000E+00  0.00000000E+00
  0.00000000E+00  0.00000000E+00  0.00000000E+00
  0.00000000E+00  0.00000000E+00  0.00000000E+00
  0.00000000E+00  0.00000000E+00  0.00000000E+00
