Li20 P20 O60                            
   1.00000000000000     
     5.4921141067089803    0.0000000000000000    0.0000000000000000
     0.0000000000000000   13.2842172316469842   -0.0537975174352569
     0.0000000000000000   10.5454282431299298   16.4684103545144325
   Li   P    O 
    20    20    60
Direct
  0.5024216358469489  0.8776754172302452  0.1806000776115308
  0.4975783641530511  0.8776754172302452  0.6806000776115311
  0.5109810673386160  0.1124440031931790  0.0657332043604655
  0.4890189326613840  0.1124440031931790  0.5657332043604659
  0.4897208491892188  0.3463969142789176  0.9506611628719674
  0.5102791508107815  0.3463969142789176  0.4506611628719676
  0.4975755821433042  0.5806548234984584  0.8357453064839359
  0.5024244178566961  0.5806548234984584  0.3357453064839363
  0.0093815005618319  0.7287784399360201  0.7583855324373917
  0.9906184994381682  0.7287784399360201  0.2583855324373917
  0.4787059162925771  0.3769502219617570  0.6819575076130258
  0.5212940837074227  0.3769502219617570  0.1819575076130257
  0.5228161874986267  0.6123336079850561  0.5662298782183353
  0.4771838125013735  0.6123336079850561  0.0662298782183353
  0.4762958424500490  0.8456035724926765  0.4502849578594496
  0.5237041575499509  0.8456035724926765  0.9502849578594501
  0.5203363933224283  0.0804134952927628  0.3350632493344819
  0.4796636066775724  0.0804134952927628  0.8350632493344824
  0.0372234137615060  0.2286189956053983  0.2585152524375969
  0.9627765862384944  0.2286189956053983  0.7585152524375974
  0.8082849832021813  0.9977486014138917 -0.0000058679798134
  0.1917150167978188  0.9977486014138917  0.4999941320201864
  0.1524470142916544  0.2035604528598800  0.9072985228846687
  0.8475529857083457  0.2035604528598800  0.4072985228846686
  0.8110079323035317  0.4000919230773568  0.8030446281583576
  0.1889920676964685  0.4000919230773568  0.3030446281583575
  0.1734047978893299  0.5908311158448557  0.6925275395005669
  0.8265952021106701  0.5908311158448557  0.1925275395005669
  0.8426924509055684  0.7918452873080567  0.5921246047574448
  0.1573075490944316  0.7918452873080567  0.0921246047574448
  0.1559691928006762  0.6660248485859021  0.4246717506963325
  0.8440308071993240  0.6660248485859021  0.9246717506963325
  0.8251223495521538  0.8666880428134212  0.3239342365331428
  0.1748776504478465  0.8666880428134212  0.8239342365331424
  0.1882337879940890  0.0575528996024864  0.2133424720160363
  0.8117662120059109  0.0575528996024864  0.7133424720160363
  0.8482738105236854  0.2547229540012296  0.1092817880484082
  0.1517261894763145  0.2547229540012296  0.6092817880484080
  0.1928651071734821  0.4602490977879590  0.0168637551619407
  0.8071348928265178  0.4602490977879590  0.5168637551619407
  0.9189502373691276  0.1303599876314307  0.9620243542486445
  0.0810497626308724  0.1303599876314307  0.4620243542486450
  0.0494627377368408  0.3389793388521326  0.8597691935383824
  0.9505372622631589  0.3389793388521326  0.3597691935383824
  0.9201736954184717  0.5186344490124578  0.7252594866784580
  0.0798263045815286  0.5186344490124578  0.2252594866784576
  0.0770165549909434  0.7068682949192518  0.6087787404892832
  0.9229834450090569  0.7068682949192518  0.1087787404892831
  0.0553736490581166  0.9199719640363005  0.0218553115598712
  0.9446263509418836  0.9199719640363005  0.5218553115598713
  0.9215436515944373  0.7510413910114097  0.4078756284426443
  0.0784563484055624  0.7510413910114097  0.9078756284426449
  0.0786514233829356  0.9384157590795349  0.2905648376619701
  0.9213485766170645  0.9384157590795349  0.7905648376619703
  0.9502794430472864  0.1191222627927732  0.1564712535930282
  0.0497205569527133  0.1191222627927732  0.6564712535930280
  0.0820306018495828  0.3276923508876393  0.0546499501428819
  0.9179693981504177  0.3276923508876393  0.5546499501428821
  0.0541664660285324  0.5380335066228293  0.4951798863286906
  0.9458335339714676  0.5380335066228293  0.9951798863286907
  0.6732993639933096  0.9710998155480124  0.0746330741582977
  0.3267006360066909  0.9710998155480124  0.5746330741582977
  0.6770103403893637  0.9894560953101760  0.9358381119595318
  0.3229896596106367  0.9894560953101760  0.4358381119595316
  0.3494139831295594  0.2007514504816690  0.9612501652043723
  0.6505860168704409  0.2007514504816690  0.4612501652043728
  0.2051354299689151  0.1680225749432809  0.8475159199142321
  0.7948645700310847  0.1680225749432809  0.3475159199142320
  0.6436128082974720  0.4367541742336885  0.8462150392306445
  0.3563871917025282  0.4367541742336885  0.3462150392306443
  0.7203087880925801  0.3217621435959730  0.7744360177136671
  0.2796912119074198  0.3217621435959730  0.2744360177136672
  0.2535553299480609  0.6291279251778075  0.7487253842320970
  0.7464446700519394  0.6291279251778075  0.2487253842320973
  0.3451679871050492  0.5267201016706282  0.6692351825293298
  0.6548320128949506  0.5267201016706282  0.1692351825293300
  0.7846667880105512  0.7921462242604072  0.6672990588533313
  0.2153332119894484  0.7921462242604072  0.1672990588533311
  0.6470779444201740  0.7596603169782917  0.5537844226140576
  0.3529220555798258  0.7596603169782917  0.0537844226140577
  0.3515118697646900  0.6985527775358059  0.4628453404294002
  0.6484881302353100  0.6985527775358059  0.9628453404294006
  0.2139689928208980  0.6652860726809579  0.3496744372355032
  0.7860310071791019  0.6652860726809579  0.8496744372355033
  0.6542835968321720  0.9314540851656044  0.3469488070754649
  0.3457164031678281  0.9314540851656044  0.8469488070754647
  0.7439063473699908  0.8275089506300669  0.2682904367911096
  0.2560936526300089  0.8275089506300669  0.7682904367911098
  0.2784009147723446  0.1351123453381531  0.2426271227002745
  0.7215990852276550  0.1351123453381531  0.7426271227002743
  0.3564796177495627  0.0216303888029245  0.1699341049225511
  0.6435203822504370  0.0216303888029245  0.6699341049225509
  0.7962555561018896  0.2897815614214909  0.1693531831274736
  0.2037444438981105  0.2897815614214909  0.6693531831274734
  0.6506822976830532  0.2581243188145673  0.0553011562418478
  0.3493177023169465  0.2581243188145673  0.5553011562418477
  0.3241806770916036  0.4681199571298722  0.0811840707202240
  0.6758193229083965  0.4681199571298722  0.5811840707202240
  0.3276567802153992  0.4872577006653581  0.9421217626574871
  0.6723432197846005  0.4872577006653581  0.4421217626574874
 
  0.00000000E+00  0.00000000E+00  0.00000000E+00
  0.00000000E+00  0.00000000E+00  0.00000000E+00
  0.00000000E+00  0.00000000E+00  0.00000000E+00
  0.00000000E+00  0.00000000E+00  0.00000000E+00
  0.00000000E+00  0.00000000E+00  0.00000000E+00
  0.00000000E+00  0.00000000E+00  0.00000000E+00
  0.00000000E+00  0.00000000E+00  0.00000000E+00
  0.00000000E+00  0.00000000E+00  0.00000000E+00
  0.00000000E+00  0.00000000E+00  0.00000000E+00
  0.00000000E+00  0.00000000E+00  0.00000000E+00
  0.00000000E+00  0.00000000E+00  0.00000000E+00
  0.00000000E+00  0.00000000E+00  0.00000000E+00
  0.00000000E+00  0.00000000E+00  0.00000000E+00
  0.00000000E+00  0.00000000E+00  0.00000000E+00
  0.00000000E+00  0.00000000E+00  0.00000000E+00
  0.00000000E+00  0.00000000E+00  0.00000000E+00
  0.00000000E+00  0.00000000E+00  0.00000000E+00
  0.00000000E+00  0.00000000E+00  0.00000000E+00
  0.00000000E+00  0.00000000E+00  0.00000000E+00
  0.00000000E+00  0.00000000E+00  0.00000000E+00
  0.00000000E+00  0.00000000E+00  0.00000000E+00
  0.00000000E+00  0.00000000E+00  0.00000000E+00
  0.00000000E+00  0.00000000E+00  0.00000000E+00
  0.00000000E+00  0.00000000E+00  0.00000000E+00
  0.00000000E+00  0.00000000E+00  0.00000000E+00
  0.00000000E+00  0.00000000E+00  0.00000000E+00
  0.00000000E+00  0.00000000E+00  0.00000000E+00
  0.00000000E+00  0.00000000E+00  0.00000000E+00
  0.00000000E+00  0.00000000E+00  0.00000000E+00
  0.00000000E+00  0.00000000E+00  0.00000000E+00
  0.00000000E+00  0.00000000E+00  0.00000000E+00
  0.00000000E+00  0.00000000E+00  0.00000000E+00
  0.00000000E+00  0.00000000E+00  0.00000000E+00
  0.00000000E+00  0.00000000E+00  0.00000000E+00
  0.00000000E+00  0.00000000E+00  0.00000000E+00
  0.00000000E+00  0.00000000E+00  0.00000000E+00
  0.00000000E+00  0.00000000E+00  0.00000000E+00
  0.00000000E+00  0.00000000E+00  0.00000000E+00
  0.00000000E+00  0.00000000E+00  0.00000000E+00
  0.00000000E+00  0.00000000E+00  0.00000000E+00
  0.00000000E+00  0.00000000E+00  0.00000000E+00
  0.00000000E+00  0.00000000E+00  0.00000000E+00
  0.00000000E+00  0.00000000E+00  0.00000000E+00
  0.00000000E+00  0.00000000E+00  0.00000000E+00
  0.00000000E+00  0.00000000E+00  0.00000000E+00
  0.00000000E+00  0.00000000E+00  0.00000000E+00
  0.00000000E+00  0.00000000E+00  0.00000000E+00
  0.00000000E+00  0.00000000E+00  0.00000000E+00
  0.00000000E+00  0.00000000E+00  0.00000000E+00
  0.00000000E+00  0.00000000E+00  0.00000000E+00
  0.00000000E+00  0.00000000E+00  0.00000000E+00
  0.00000000E+00  0.00000000E+00  0.00000000E+00
  0.00000000E+00  0.00000000E+00  0.00000000E+00
  0.00000000E+00  0.00000000E+00  0.00000000E+00
  0.00000000E+00  0.00000000E+00  0.00000000E+00
  0.00000000E+00  0.00000000E+00  0.00000000E+00
  0.00000000E+00  0.00000000E+00  0.00000000E+00
  0.00000000E+00  0.00000000E+00  0.00000000E+00
  0.00000000E+00  0.00000000E+00  0.00000000E+00
  0.00000000E+00  0.00000000E+00  0.00000000E+00
  0.00000000E+00  0.00000000E+00  0.00000000E+00
  0.00000000E+00  0.00000000E+00  0.00000000E+00
  0.00000000E+00  0.00000000E+00  0.00000000E+00
  0.00000000E+00  0.00000000E+00  0.00000000E+00
  0.00000000E+00  0.00000000E+00  0.00000000E+00
  0.00000000E+00  0.00000000E+00  0.00000000E+00
  0.00000000E+00  0.00000000E+00  0.00000000E+00
  0.00000000E+00  0.00000000E+00  0.00000000E+00
  0.00000000E+00  0.00000000E+00  0.00000000E+00
  0.00000000E+00  0.00000000E+00  0.00000000E+00
  0.00000000E+00  0.00000000E+00  0.00000000E+00
  0.00000000E+00  0.00000000E+00  0.00000000E+00
  0.00000000E+00  0.00000000E+00  0.00000000E+00
  0.00000000E+00  0.00000000E+00  0.00000000E+00
  0.00000000E+00  0.00000000E+00  0.00000000E+00
  0.00000000E+00  0.00000000E+00  0.00000000E+00
  0.00000000E+00  0.00000000E+00  0.00000000E+00
  0.00000000E+00  0.00000000E+00  0.00000000E+00
  0.00000000E+00  0.00000000E+00  0.00000000E+00
  0.00000000E+00  0.00000000E+00  0.00000000E+00
  0.00000000E+00  0.00000000E+00  0.00000000E+00
  0.00000000E+00  0.00000000E+00  0.00000000E+00
  0.00000000E+00  0.00000000E+00  0.00000000E+00
  0.00000000E+00  0.00000000E+00  0.00000000E+00
  0.00000000E+00  0.00000000E+00  0.00000000E+00
  0.00000000E+00  0.00000000E+00  0.00000000E+00
  0.00000000E+00  0.00000000E+00  0.00000000E+00
  0.00000000E+00  0.00000000E+00  0.00000000E+00
  0.00000000E+00  0.00000000E+00  0.00000000E+00
  0.00000000E+00  0.00000000E+00  0.00000000E+00
  0.00000000E+00  0.00000000E+00  0.00000000E+00
  0.00000000E+00  0.00000000E+00  0.00000000E+00
  0.00000000E+00  0.00000000E+00  0.00000000E+00
  0.00000000E+00  0.00000000E+00  0.00000000E+00
  0.00000000E+00  0.00000000E+00  0.00000000E+00
  0.00000000E+00  0.00000000E+00  0.00000000E+00
  0.00000000E+00  0.00000000E+00  0.00000000E+00
  0.00000000E+00  0.00000000E+00  0.00000000E+00
  0.00000000E+00  0.00000000E+00  0.00000000E+00
  0.00000000E+00  0.00000000E+00  0.00000000E+00
