(2, 1, 2)                               
   1.00000000000000     
     7.3598690257023813   -0.0225313712360501   -8.3845971870551974
     0.0400718473547000    7.4223000617260855   -4.1387427328586082
    -0.1794239130248276    0.2687091400636002   50.1564596747764995
   Li   P 
    48    16
Selective dynamics
Direct
  0.0159483681612719  0.7598547638532956  0.0218099862156255   T   T   T
  0.4978685208829052  0.7302696301798860  0.0599687890148542   T   T   T
  0.0116975396886415  0.2160240558339914  0.0617980516938326   T   T   T
  0.5078256482833616  0.1538122038748421  0.0140691437904683   T   T   T
  0.1965934158037370  0.0797211593301620  0.0335619776463290   T   T   T
  0.6666669999999968  0.0841190000000012  0.0764539999999982   F   F   F
  0.1742095877090040  0.4272846501687857 -0.0126432572857064   T   T   T
  0.8899288906469909  0.5704430381933741  0.0351625984088312   T   T   T
  0.3364435184562808  0.8687065198891001  0.0027701798208565   T   T   T
  0.8477713261905674  0.9201702522318161  0.0545840413485891   T   T   T
  0.3260444931837043  0.5649013164467398  0.0640968034239890   T   T   T
  0.6361963249796727  0.4332190923536750  0.0244016923758803   T   T   T
  0.0000000000000000  0.7500000000000000  0.1041669999999968   F   F   F
  0.5000000000000000  0.7500000000000000  0.1458330000000032   F   F   F
  0.0000000000000000  0.2500000000000000  0.1458330000000032   F   F   F
  0.5000000000000000  0.2500000000000000  0.1041669999999968   F   F   F
  0.1666669999999968  0.0841190000000012  0.1181210000000021   F   F   F
  0.6666669999999968  0.0841190000000012  0.1597879999999989   F   F   F
  0.3333330000000032  0.5841190000000012  0.1458990000000000   F   F   F
  0.8333330000000032  0.5841190000000012  0.1042320000000032   F   F   F
  0.3333330000000032  0.9158809999999988  0.0902120000000011   F   F   F
  0.8333330000000032  0.9158809999999988  0.1318789999999979   F   F   F
  0.1666669999999968  0.4158809999999988  0.1457679999999968   F   F   F
  0.6666669999999968  0.4158809999999988  0.1041010000000000   F   F   F
  0.0000000000000000  0.7500000000000000  0.1875000000000000   F   F   F
  0.5000000000000000  0.7500000000000000  0.2291669999999968   F   F   F
  0.0000000000000000  0.2500000000000000  0.2291669999999968   F   F   F
  0.5000000000000000  0.2500000000000000  0.1875000000000000   F   F   F
  0.1666669999999968  0.0841190000000012  0.2014539999999982   F   F   F
  0.6666669999999968  0.0841190000000012  0.2431210000000021   F   F   F
  0.3333330000000032  0.5841190000000012  0.2292320000000032   F   F   F
  0.8333330000000032  0.5841190000000012  0.1875649999999993   F   F   F
  0.3333330000000032  0.9158809999999988  0.1735460000000018   F   F   F
  0.8333330000000032  0.9158809999999988  0.2152120000000011   F   F   F
  0.1666669999999968  0.4158809999999988  0.2291010000000000   F   F   F
  0.6666669999999968  0.4158809999999988  0.1874350000000007   F   F   F
 -0.0117099515667547  0.7839034974147363  0.2715264391250929   T   T   T
  0.4921848934222718  0.8461836144123995  0.3192696520792784   T   T   T
 -0.0159555082581015  0.2400729455996028  0.3115176726638665   T   T   T
  0.5021229814559662  0.2697597724153331  0.2733597683294243   T   T   T
  0.1522267844792818  0.0798269591091328  0.2787467956359835   T   T   T
  0.6635159336104347  0.1312438936813997  0.3305504243881921   T   T   T
  0.3638782284839058  0.5667661272433074  0.3089385862345476   T   T   T
  0.6740187688342542  0.4351467762586443  0.2692428162142635   T   T   T
  0.3333330000000032  0.9158809999999988  0.2568789999999979   F   F   F
  0.8034088497843472  0.9202718194133674  0.2997671383304068   T   T   T
  0.1101256115058404  0.4295526437121190  0.2981813883086345   T   T   T
  0.8257912514068830  0.5726821937693782  0.3459774165369538   T   T   T
  0.1753329666558720  0.7525160851235616  0.0087633117030366   T   T   T
  0.6764344916158573  0.7397480979548889  0.0455266690000273   T   T   T
  0.3457988498010546  0.2284965362765320  0.0316383197218222   T   T   T
  0.8251906804351788  0.2469737367193167  0.0720900804215409   T   T   T
  0.1666669999999968  0.7500000000000000  0.0902779999999979   F   F   F
  0.6666669999999968  0.7500000000000000  0.1319439999999972   F   F   F
  0.3333330000000032  0.2500000000000000  0.1180560000000028   F   F   F
  0.8333330000000032  0.2500000000000000  0.1597220000000021   F   F   F
  0.1666669999999968  0.7500000000000000  0.1736110000000011   F   F   F
  0.6666669999999968  0.7500000000000000  0.2152779999999979   F   F   F
  0.3333330000000032  0.2500000000000000  0.2013889999999989   F   F   F
  0.8333330000000032  0.2500000000000000  0.2430560000000028   F   F   F
  0.1748566122624214  0.7530258982629272  0.2612521759665183   T   T   T
  0.6542174630482768  0.7714710745509357  0.3016997968174717   T   T   T
  0.3235677678949319  0.2602502522251977  0.2878058830218305   T   T   T
  0.8246508555928277  0.2474763295352094  0.3245687259389305   T   T   T
 
  0.00000000E+00  0.00000000E+00  0.00000000E+00
  0.00000000E+00  0.00000000E+00  0.00000000E+00
  0.00000000E+00  0.00000000E+00  0.00000000E+00
  0.00000000E+00  0.00000000E+00  0.00000000E+00
  0.00000000E+00  0.00000000E+00  0.00000000E+00
  0.00000000E+00  0.00000000E+00  0.00000000E+00
  0.00000000E+00  0.00000000E+00  0.00000000E+00
  0.00000000E+00  0.00000000E+00  0.00000000E+00
  0.00000000E+00  0.00000000E+00  0.00000000E+00
  0.00000000E+00  0.00000000E+00  0.00000000E+00
  0.00000000E+00  0.00000000E+00  0.00000000E+00
  0.00000000E+00  0.00000000E+00  0.00000000E+00
  0.00000000E+00  0.00000000E+00  0.00000000E+00
  0.00000000E+00  0.00000000E+00  0.00000000E+00
  0.00000000E+00  0.00000000E+00  0.00000000E+00
  0.00000000E+00  0.00000000E+00  0.00000000E+00
  0.00000000E+00  0.00000000E+00  0.00000000E+00
  0.00000000E+00  0.00000000E+00  0.00000000E+00
  0.00000000E+00  0.00000000E+00  0.00000000E+00
  0.00000000E+00  0.00000000E+00  0.00000000E+00
  0.00000000E+00  0.00000000E+00  0.00000000E+00
  0.00000000E+00  0.00000000E+00  0.00000000E+00
  0.00000000E+00  0.00000000E+00  0.00000000E+00
  0.00000000E+00  0.00000000E+00  0.00000000E+00
  0.00000000E+00  0.00000000E+00  0.00000000E+00
  0.00000000E+00  0.00000000E+00  0.00000000E+00
  0.00000000E+00  0.00000000E+00  0.00000000E+00
  0.00000000E+00  0.00000000E+00  0.00000000E+00
  0.00000000E+00  0.00000000E+00  0.00000000E+00
  0.00000000E+00  0.00000000E+00  0.00000000E+00
  0.00000000E+00  0.00000000E+00  0.00000000E+00
  0.00000000E+00  0.00000000E+00  0.00000000E+00
  0.00000000E+00  0.00000000E+00  0.00000000E+00
  0.00000000E+00  0.00000000E+00  0.00000000E+00
  0.00000000E+00  0.00000000E+00  0.00000000E+00
  0.00000000E+00  0.00000000E+00  0.00000000E+00
  0.00000000E+00  0.00000000E+00  0.00000000E+00
  0.00000000E+00  0.00000000E+00  0.00000000E+00
  0.00000000E+00  0.00000000E+00  0.00000000E+00
  0.00000000E+00  0.00000000E+00  0.00000000E+00
  0.00000000E+00  0.00000000E+00  0.00000000E+00
  0.00000000E+00  0.00000000E+00  0.00000000E+00
  0.00000000E+00  0.00000000E+00  0.00000000E+00
  0.00000000E+00  0.00000000E+00  0.00000000E+00
  0.00000000E+00  0.00000000E+00  0.00000000E+00
  0.00000000E+00  0.00000000E+00  0.00000000E+00
  0.00000000E+00  0.00000000E+00  0.00000000E+00
  0.00000000E+00  0.00000000E+00  0.00000000E+00
  0.00000000E+00  0.00000000E+00  0.00000000E+00
  0.00000000E+00  0.00000000E+00  0.00000000E+00
  0.00000000E+00  0.00000000E+00  0.00000000E+00
  0.00000000E+00  0.00000000E+00  0.00000000E+00
  0.00000000E+00  0.00000000E+00  0.00000000E+00
  0.00000000E+00  0.00000000E+00  0.00000000E+00
  0.00000000E+00  0.00000000E+00  0.00000000E+00
  0.00000000E+00  0.00000000E+00  0.00000000E+00
  0.00000000E+00  0.00000000E+00  0.00000000E+00
  0.00000000E+00  0.00000000E+00  0.00000000E+00
  0.00000000E+00  0.00000000E+00  0.00000000E+00
  0.00000000E+00  0.00000000E+00  0.00000000E+00
  0.00000000E+00  0.00000000E+00  0.00000000E+00
  0.00000000E+00  0.00000000E+00  0.00000000E+00
  0.00000000E+00  0.00000000E+00  0.00000000E+00
  0.00000000E+00  0.00000000E+00  0.00000000E+00
