Li28 P14 N14 O28
1.0
4.748969 0.000000 -0.000000
0.000000 5.328285 -0.150216
0.000000 0.000000 56.303787
Li P N O
28 14 14 28
direct
0.498444 0.488626 0.973786 Li+
0.498444 0.991611 0.946174 Li+
0.998444 0.151076 0.919597 Li+
0.998444 0.648090 0.947209 Li+
0.498444 0.988626 0.890453 Li+
0.498444 0.491611 0.862841 Li+
0.998444 0.651076 0.836264 Li+
0.998444 0.148090 0.863875 Li+
0.498444 0.488626 0.807120 Li+
0.498444 0.991611 0.779508 Li+
0.998444 0.151076 0.752930 Li+
0.998444 0.648090 0.780542 Li+
0.498444 0.988626 0.723786 Li+
0.498444 0.491611 0.696174 Li+
0.998444 0.651076 0.669597 Li+
0.998444 0.148090 0.697209 Li+
0.498444 0.488626 0.640453 Li+
0.498444 0.991611 0.612841 Li+
0.998444 0.151076 0.586264 Li+
0.998444 0.648090 0.613875 Li+
0.498444 0.988626 0.557120 Li+
0.498444 0.491611 0.529508 Li+
0.998444 0.651076 0.502930 Li+
0.998444 0.148090 0.530542 Li+
0.498444 0.488626 0.473786 Li+
0.498444 0.991611 0.446174 Li+
0.998444 0.151076 0.419597 Li+
0.998444 0.648090 0.447209 Li+
0.501489 0.492976 0.917837 P5+
0.001489 0.146726 0.975546 P5+
0.501489 0.992976 0.834504 P5+
0.001489 0.646726 0.892212 P5+
0.501489 0.492976 0.751171 P5+
0.001489 0.146726 0.808879 P5+
0.501489 0.992976 0.667837 P5+
0.001489 0.646726 0.725546 P5+
0.501489 0.492976 0.584504 P5+
0.001489 0.146726 0.642212 P5+
0.501489 0.992976 0.501171 P5+
0.001489 0.646726 0.558879 P5+
0.501489 0.492976 0.417837 P5+
0.001489 0.146726 0.475546 P5+
0.658824 0.126351 0.978942 N3-
0.158824 0.013351 0.997775 N3-
0.658824 0.626351 0.895608 N3-
0.158824 0.513351 0.914442 N3-
0.658824 0.126351 0.812275 N3-
0.158824 0.013351 0.831108 N3-
0.658824 0.626351 0.728942 N3-
0.158824 0.513351 0.747775 N3-
0.658824 0.126351 0.645608 N3-
0.158824 0.013351 0.664442 N3-
0.658824 0.626351 0.562275 N3-
0.158824 0.513351 0.581108 N3-
0.658824 0.126351 0.478942 N3-
0.158824 0.013351 0.497775 N3-
0.580899 0.625696 0.942066 O2-
0.580899 0.208555 0.918892 O2-
0.080899 0.014005 0.951317 O2-
0.080899 0.431146 0.974491 O2-
0.580899 0.125696 0.858733 O2-
0.580899 0.708555 0.835558 O2-
0.080899 0.514005 0.867983 O2-
0.080899 0.931146 0.891158 O2-
0.580899 0.625696 0.775400 O2-
0.580899 0.208555 0.752225 O2-
0.080899 0.014005 0.784650 O2-
0.080899 0.431146 0.807825 O2-
0.580899 0.125696 0.692066 O2-
0.580899 0.708555 0.668892 O2-
0.080899 0.514005 0.701317 O2-
0.080899 0.931146 0.724491 O2-
0.580899 0.625696 0.608733 O2-
0.580899 0.208555 0.585558 O2-
0.080899 0.014005 0.617983 O2-
0.080899 0.431146 0.641158 O2-
0.580899 0.125696 0.525400 O2-
0.580899 0.708555 0.502225 O2-
0.080899 0.514005 0.534650 O2-
0.080899 0.931146 0.557825 O2-
0.580899 0.625696 0.442066 O2-
0.580899 0.208555 0.418892 O2-
0.080899 0.014005 0.451317 O2-
0.080899 0.431146 0.474491 O2-
