Li61 P7 N32                             
   1.00000000000000     
    -0.0045820997826941    9.5717617382229587   -0.0320321502048607
    -0.0053747326215611   -0.0320611071792199    9.5823484394673155
     9.5338222833401112   -0.0047428829483413   -0.0053167647553164
   Li   P    N 
    61     7    32
Direct
  0.4915411144485451  0.0025060596044825  0.4927500974735059
  0.0106441769210588  0.4977673513640594 -0.0021393771054884
  0.5028775379290283  0.0045215653093147 -0.0071673749636903
 -0.0029538326977487 -0.0046084087236016  0.4967775902688492
  0.5118803424966158  0.5009647788743443 -0.0141287107079902
  0.0049490413807747  0.4958489737772123  0.5057934303810371
  0.7482547286900502 -0.0210723433134580  0.4896773113462210
  0.2442865050374869  0.0046896733028025  0.4935279044152627
  0.7842116167888444  0.4613076368310045  0.4758758308419365
  0.2275900169569477  0.5031450840439980  0.4962510517478748
  0.2646954955945300 -0.0028457338075967 -0.0054057386974771
  0.7393065678908918 -0.0010791955834273 -0.0114028630486644
  0.4241566802942616  0.5810860758096210  0.5715136188065596
  0.5090783497875645  0.2489213615693692 -0.0197555603637887
  0.5211120360214928  0.7600025582277528  0.0081790889748226
  0.0153256266744428  0.5055306441830986  0.2496128147297867
  0.0103587399073014  0.4942338360657156  0.7513676102411909
  0.2145271017152275  0.2042070205922755  0.2433863070863811
  0.2247489385462088  0.7640617496257018  0.7735184266931522
  0.2643219925796166  0.2656891366051869  0.7365841673809806
  0.2132428290298518  0.6962127179346306  0.2821221653898046
  0.7231383742894021  0.2291750830387924  0.2965082042905332
  0.7210822876967652  0.7343616942480440  0.7493665556032904
  0.7684562992014380  0.2344121257871515  0.7781994154391420
  0.7132050510839300  0.7734728827122828  0.2267150015226604
  0.9643663005346591  0.2665904541356592  0.2384632931919377
  0.9768576661732955  0.7417309823799370  0.7620737451827839
  0.2553387203811812  0.2547991822184844  0.4994856957496501
  0.2673705202083769  0.7608010814353084  0.5121099656792443
  0.7461268675680908  0.2212712989392740  0.5310311198426317
  0.7675763140496571  0.7113059605251445  0.5187601473678503
  0.7937954788474886  0.5427505652474502  0.2514033768466751
  0.7617851071119833  0.4955869017154163  0.7325344509846645
  0.2398243459859613  0.4579827654183844  0.2502506428400013
  0.2577429617656171  0.5019466083032134  0.7407134082208265
  0.4477947154371785  0.7795716553785204  0.2957943490909006
  0.4964003793633087  0.2461108781166222  0.7281226063504112
  0.2405405279961806  0.9607832464665129  0.2463709356638813
  0.2433580888668971  0.0152525285648624  0.7445413961493617
  0.2581661421921563  0.2369205418977524  0.9854577596744928
  0.2737504267759892  0.7556920828551723  0.0320192993758706
  0.7630432089134577  0.9803873619520939  0.7404330078364331
  0.7629215700671254  0.0099583034381708  0.2379270600208128
  0.7772002557790209  0.7565717804106926  0.9898908517396514
  0.7601278598417728  0.2368444382750828  0.0238037645267834
  0.0167635259333727  0.2398851001533788  0.7551011448115698
 -0.0229943035156315  0.7773941629433689  0.2509295743843279
  0.4681302983635708  0.2571534399863980  0.2282383044013601
  0.4795219085849419  0.7396405237826353  0.7668131260026038
  0.0103045995724495  0.2607521095512684 -0.0035742982344217
  0.0223084348684112  0.7365306534384575  0.0062596697685202
  0.5029999847893147  0.2245745482168746  0.4816313757868961
  0.5335543953594728  0.7849594869600174  0.5298982633935739
  0.4442653394394976  0.5639773105698569  0.1935017045548431
  0.5082251459107148  0.4956178495339874  0.7667165494418567
  0.0021590515300698  0.0151936052419942  0.2583883569417973
  0.0029616231121085 -0.0079085923025778  0.7339409477628549
  0.4248663309552766  0.4224455727912184  0.4067674405891167
  0.5812222830666004  0.4217264292853387  0.5704448133369117
  0.5809060567815327  0.5794276401434729  0.4037068786640043
  0.6361518787362681  0.4078082409485576  0.1806905537402139
  0.0022107191167840 -0.0005015900693154 -0.0038843550436883
  0.7650623199413146  0.5007269975535706 -0.0087690436490061
  0.2571954163734275  0.4960034284086018 -0.0053862157228697
  0.0079184867028568  0.7487544454252122  0.5023029620268923
  0.0009229683490266  0.2425941158734149  0.4970828521587197
  0.4998676611928783  0.0074021551296529  0.2391350145238242
  0.5023343656265719 -0.0030434509470928  0.7474787133522314
  0.6194246396866850  0.6162421403090635  0.6193045945915028
  0.6210756224739569  0.3751677581282370  0.3777191043715720
  0.8966915781525764  0.8993914461999379  0.1005781156458898
  0.9007037232625913  0.1022857701748267  0.8934635816462672
  0.1034818296936653  0.8958647900126107  0.8952495057088594
  0.1057635574937790  0.1009077359719460  0.0985003602448242
  0.3710916402651764  0.6160897554801639  0.3775814582879981
  0.3832263988243982  0.3805027865878575  0.6121479549021112
  0.0981610279535109  0.3450371214931691  0.3864565767748855
  0.1054245325444608  0.6501818066659694  0.6117704487893972
  0.1083834543852471  0.1421446315858896  0.5956196377955413
  0.1080842473118941  0.8511316547759387  0.3972620185148943
  0.8915224944915647  0.1423223950654140  0.3971870598049799
  0.8967907560294572  0.8471454179773301  0.5995414273041025
  0.8599995713719405  0.4042751644704807  0.1057914801342036
  0.8650868547710941  0.6005796707754918  0.8876276283334830
  0.1582359168094868  0.5908533946018940  0.1059450755722496
  0.1555698782396689  0.3951174823102380  0.8895204579864155
  0.4048364652118699  0.8977696672088997  0.1363971360156614
  0.4026893126459926  0.1062222369976962  0.8464015564926251
  0.3848261912905649  0.0990818174291161  0.3392185919070809
  0.3918984415127191  0.8976354966871337  0.6483320149987993
  0.3632491916185673  0.3900167588518095  0.0911262505782774
  0.3568065200032559  0.6085447420599243  0.8990861077442771
  0.6112545080072914  0.0935843179800835  0.6436913870640910
  0.6041492362711774  0.9090617133198919  0.3434725015177282
  0.6617496876753448  0.6071178008950016  0.0935573852859747
  0.6633323808966166  0.3889977422568180  0.8990899368946464
  0.9044860789066063  0.3421948458617722  0.6088999495308599
  0.9112625733438445  0.6421503861534746  0.3922109481741689
  0.6035426680623627  0.1147857858023305  0.1418743201683909
  0.6030404538778795  0.8925756375387889  0.8496142501453572
 
  0.00000000E+00  0.00000000E+00  0.00000000E+00
  0.00000000E+00  0.00000000E+00  0.00000000E+00
  0.00000000E+00  0.00000000E+00  0.00000000E+00
  0.00000000E+00  0.00000000E+00  0.00000000E+00
  0.00000000E+00  0.00000000E+00  0.00000000E+00
  0.00000000E+00  0.00000000E+00  0.00000000E+00
  0.00000000E+00  0.00000000E+00  0.00000000E+00
  0.00000000E+00  0.00000000E+00  0.00000000E+00
  0.00000000E+00  0.00000000E+00  0.00000000E+00
  0.00000000E+00  0.00000000E+00  0.00000000E+00
  0.00000000E+00  0.00000000E+00  0.00000000E+00
  0.00000000E+00  0.00000000E+00  0.00000000E+00
  0.00000000E+00  0.00000000E+00  0.00000000E+00
  0.00000000E+00  0.00000000E+00  0.00000000E+00
  0.00000000E+00  0.00000000E+00  0.00000000E+00
  0.00000000E+00  0.00000000E+00  0.00000000E+00
  0.00000000E+00  0.00000000E+00  0.00000000E+00
  0.00000000E+00  0.00000000E+00  0.00000000E+00
  0.00000000E+00  0.00000000E+00  0.00000000E+00
  0.00000000E+00  0.00000000E+00  0.00000000E+00
  0.00000000E+00  0.00000000E+00  0.00000000E+00
  0.00000000E+00  0.00000000E+00  0.00000000E+00
  0.00000000E+00  0.00000000E+00  0.00000000E+00
  0.00000000E+00  0.00000000E+00  0.00000000E+00
  0.00000000E+00  0.00000000E+00  0.00000000E+00
  0.00000000E+00  0.00000000E+00  0.00000000E+00
  0.00000000E+00  0.00000000E+00  0.00000000E+00
  0.00000000E+00  0.00000000E+00  0.00000000E+00
  0.00000000E+00  0.00000000E+00  0.00000000E+00
  0.00000000E+00  0.00000000E+00  0.00000000E+00
  0.00000000E+00  0.00000000E+00  0.00000000E+00
  0.00000000E+00  0.00000000E+00  0.00000000E+00
  0.00000000E+00  0.00000000E+00  0.00000000E+00
  0.00000000E+00  0.00000000E+00  0.00000000E+00
  0.00000000E+00  0.00000000E+00  0.00000000E+00
  0.00000000E+00  0.00000000E+00  0.00000000E+00
  0.00000000E+00  0.00000000E+00  0.00000000E+00
  0.00000000E+00  0.00000000E+00  0.00000000E+00
  0.00000000E+00  0.00000000E+00  0.00000000E+00
  0.00000000E+00  0.00000000E+00  0.00000000E+00
  0.00000000E+00  0.00000000E+00  0.00000000E+00
  0.00000000E+00  0.00000000E+00  0.00000000E+00
  0.00000000E+00  0.00000000E+00  0.00000000E+00
  0.00000000E+00  0.00000000E+00  0.00000000E+00
  0.00000000E+00  0.00000000E+00  0.00000000E+00
  0.00000000E+00  0.00000000E+00  0.00000000E+00
  0.00000000E+00  0.00000000E+00  0.00000000E+00
  0.00000000E+00  0.00000000E+00  0.00000000E+00
  0.00000000E+00  0.00000000E+00  0.00000000E+00
  0.00000000E+00  0.00000000E+00  0.00000000E+00
  0.00000000E+00  0.00000000E+00  0.00000000E+00
  0.00000000E+00  0.00000000E+00  0.00000000E+00
  0.00000000E+00  0.00000000E+00  0.00000000E+00
  0.00000000E+00  0.00000000E+00  0.00000000E+00
  0.00000000E+00  0.00000000E+00  0.00000000E+00
  0.00000000E+00  0.00000000E+00  0.00000000E+00
  0.00000000E+00  0.00000000E+00  0.00000000E+00
  0.00000000E+00  0.00000000E+00  0.00000000E+00
  0.00000000E+00  0.00000000E+00  0.00000000E+00
  0.00000000E+00  0.00000000E+00  0.00000000E+00
  0.00000000E+00  0.00000000E+00  0.00000000E+00
  0.00000000E+00  0.00000000E+00  0.00000000E+00
  0.00000000E+00  0.00000000E+00  0.00000000E+00
  0.00000000E+00  0.00000000E+00  0.00000000E+00
  0.00000000E+00  0.00000000E+00  0.00000000E+00
  0.00000000E+00  0.00000000E+00  0.00000000E+00
  0.00000000E+00  0.00000000E+00  0.00000000E+00
  0.00000000E+00  0.00000000E+00  0.00000000E+00
  0.00000000E+00  0.00000000E+00  0.00000000E+00
  0.00000000E+00  0.00000000E+00  0.00000000E+00
  0.00000000E+00  0.00000000E+00  0.00000000E+00
  0.00000000E+00  0.00000000E+00  0.00000000E+00
  0.00000000E+00  0.00000000E+00  0.00000000E+00
  0.00000000E+00  0.00000000E+00  0.00000000E+00
  0.00000000E+00  0.00000000E+00  0.00000000E+00
  0.00000000E+00  0.00000000E+00  0.00000000E+00
  0.00000000E+00  0.00000000E+00  0.00000000E+00
  0.00000000E+00  0.00000000E+00  0.00000000E+00
  0.00000000E+00  0.00000000E+00  0.00000000E+00
  0.00000000E+00  0.00000000E+00  0.00000000E+00
  0.00000000E+00  0.00000000E+00  0.00000000E+00
  0.00000000E+00  0.00000000E+00  0.00000000E+00
  0.00000000E+00  0.00000000E+00  0.00000000E+00
  0.00000000E+00  0.00000000E+00  0.00000000E+00
  0.00000000E+00  0.00000000E+00  0.00000000E+00
  0.00000000E+00  0.00000000E+00  0.00000000E+00
  0.00000000E+00  0.00000000E+00  0.00000000E+00
  0.00000000E+00  0.00000000E+00  0.00000000E+00
  0.00000000E+00  0.00000000E+00  0.00000000E+00
  0.00000000E+00  0.00000000E+00  0.00000000E+00
  0.00000000E+00  0.00000000E+00  0.00000000E+00
  0.00000000E+00  0.00000000E+00  0.00000000E+00
  0.00000000E+00  0.00000000E+00  0.00000000E+00
  0.00000000E+00  0.00000000E+00  0.00000000E+00
  0.00000000E+00  0.00000000E+00  0.00000000E+00
  0.00000000E+00  0.00000000E+00  0.00000000E+00
  0.00000000E+00  0.00000000E+00  0.00000000E+00
  0.00000000E+00  0.00000000E+00  0.00000000E+00
  0.00000000E+00  0.00000000E+00  0.00000000E+00
  0.00000000E+00  0.00000000E+00  0.00000000E+00
