Li6 P2                                  
   1.00000000000000     
     2.1187130000000001   -3.6697190000000002    0.0000000000000000
     2.1187130000000001    3.6697190000000002    0.0000000000000000
     0.0000000000000000   -0.3567620000000000    7.5651140000000003
   Li   P 
     6     2
Direct
  0.0000000000000000  0.0000000000000000  0.2500000000000000
  0.0000000000000000  0.0000000000000000  0.7500000000000000
  0.3333330000000032  0.6666669999999968  0.5841190000000012
  0.6666669999999968  0.3333330000000032  0.0841190000000012
  0.6666669999999968  0.3333330000000032  0.4158809999999988
  0.3333330000000032  0.6666669999999968  0.9158809999999988
  0.3333330000000032  0.6666669999999968  0.2500000000000000
  0.6666669999999968  0.3333330000000032  0.7500000000000000
 
  0.00000000E+00  0.00000000E+00  0.00000000E+00
  0.00000000E+00  0.00000000E+00  0.00000000E+00
  0.00000000E+00  0.00000000E+00  0.00000000E+00
  0.00000000E+00  0.00000000E+00  0.00000000E+00
  0.00000000E+00  0.00000000E+00  0.00000000E+00
  0.00000000E+00  0.00000000E+00  0.00000000E+00
  0.00000000E+00  0.00000000E+00  0.00000000E+00
  0.00000000E+00  0.00000000E+00  0.00000000E+00
