Li42 P14 O56
1.0
6.176136 0.000000 0.000000
0.000000 5.296402 -4.922448
0.000000 0.000000 63.991824
Li P O
42 14 56
direct
0.000000 0.155480 0.056458 Li+
0.500000 0.844520 0.070999 Li+
0.252873 0.673566 0.019469 Li+
0.247127 0.326434 0.031228 Li+
0.752873 0.326434 0.031228 Li+
0.747127 0.673566 0.019469 Li+
0.000000 0.155480 0.133381 Li+
0.500000 0.844520 0.147922 Li+
0.252873 0.673566 0.096392 Li+
0.247127 0.326434 0.108151 Li+
0.752873 0.326434 0.108151 Li+
0.747127 0.673566 0.096392 Li+
0.000000 0.155480 0.210304 Li+
0.500000 0.844520 0.224846 Li+
0.252873 0.673566 0.173315 Li+
0.247127 0.326434 0.185074 Li+
0.752873 0.326434 0.185074 Li+
0.747127 0.673566 0.173315 Li+
0.000000 0.155480 0.287227 Li+
0.500000 0.844520 0.301769 Li+
0.252873 0.673566 0.250238 Li+
0.247127 0.326434 0.261997 Li+
0.752873 0.326434 0.261997 Li+
0.747127 0.673566 0.250238 Li+
0.000000 0.155480 0.364150 Li+
0.500000 0.844520 0.378692 Li+
0.252873 0.673566 0.327161 Li+
0.247127 0.326434 0.338920 Li+
0.752873 0.326434 0.338920 Li+
0.747127 0.673566 0.327161 Li+
0.000000 0.155480 0.441073 Li+
0.500000 0.844520 0.455615 Li+
0.252873 0.673566 0.404084 Li+
0.247127 0.326434 0.415843 Li+
0.752873 0.326434 0.415843 Li+
0.747127 0.673566 0.404084 Li+
0.000000 0.155480 0.517996 Li+
0.500000 0.844520 0.532538 Li+
0.252873 0.673566 0.481007 Li+
0.247127 0.326434 0.492766 Li+
0.752873 0.326434 0.492766 Li+
0.747127 0.673566 0.481007 Li+
0.500000 0.175739 0.058631 P5+
0.000000 0.824261 0.070056 P5+
0.500000 0.175739 0.135554 P5+
0.000000 0.824261 0.146979 P5+
0.500000 0.175739 0.212478 P5+
0.000000 0.824261 0.223902 P5+
0.500000 0.175739 0.289401 P5+
0.000000 0.824261 0.300825 P5+
0.500000 0.175739 0.366324 P5+
0.000000 0.824261 0.377748 P5+
0.500000 0.175739 0.443247 P5+
0.000000 0.824261 0.454672 P5+
0.500000 0.175739 0.520170 P5+
0.000000 0.824261 0.531595 P5+
0.792862 0.686491 0.051336 O2-
0.500000 0.896492 0.029404 O2-
0.500000 0.181604 0.006485 O2-
0.000000 0.818396 0.017007 O2-
0.292862 0.313509 0.061107 O2-
0.207138 0.686491 0.051336 O2-
0.000000 0.103508 0.006867 O2-
0.707138 0.313509 0.061107 O2-
0.792862 0.686491 0.128259 O2-
0.500000 0.896492 0.106327 O2-
0.500000 0.181604 0.083408 O2-
0.000000 0.818396 0.093930 O2-
0.292862 0.313509 0.138030 O2-
0.207138 0.686491 0.128259 O2-
0.000000 0.103508 0.083790 O2-
0.707138 0.313509 0.138030 O2-
0.792862 0.686491 0.205182 O2-
0.500000 0.896492 0.183250 O2-
0.500000 0.181604 0.160331 O2-
0.000000 0.818396 0.170853 O2-
0.292862 0.313509 0.214953 O2-
0.207138 0.686491 0.205182 O2-
0.000000 0.103508 0.160713 O2-
0.707138 0.313509 0.214953 O2-
0.792862 0.686491 0.282105 O2-
0.500000 0.896492 0.260173 O2-
0.500000 0.181604 0.237254 O2-
0.000000 0.818396 0.247776 O2-
0.292862 0.313509 0.291876 O2-
0.207138 0.686491 0.282105 O2-
0.000000 0.103508 0.237636 O2-
0.707138 0.313509 0.291876 O2-
0.792862 0.686491 0.359028 O2-
0.500000 0.896492 0.337097 O2-
0.500000 0.181604 0.314177 O2-
0.000000 0.818396 0.324700 O2-
0.292862 0.313509 0.368799 O2-
0.207138 0.686491 0.359028 O2-
0.000000 0.103508 0.314559 O2-
0.707138 0.313509 0.368799 O2-
0.792862 0.686491 0.435952 O2-
0.500000 0.896492 0.414020 O2-
0.500000 0.181604 0.391100 O2-
0.000000 0.818396 0.401623 O2-
0.292862 0.313509 0.445722 O2-
0.207138 0.686491 0.435952 O2-
0.000000 0.103508 0.391482 O2-
0.707138 0.313509 0.445722 O2-
0.792862 0.686491 0.512875 O2-
0.500000 0.896492 0.490943 O2-
0.500000 0.181604 0.468023 O2-
0.000000 0.818396 0.478546 O2-
0.292862 0.313509 0.522645 O2-
0.207138 0.686491 0.512875 O2-
0.000000 0.103508 0.468405 O2-
0.707138 0.313509 0.522645 O2-
