Li7 P2 N1 O7                            
   1.00000000000000     
     5.2146176150651780    0.0983865506000612    0.0509810412456187
     0.1237124230640116    6.1416042363820633   -0.1075161844356180
     0.0571666183139435   -0.0918881470112680    5.3896107247868255
   Li   P    N    O 
     7     2     1     7
Direct
  0.1800460182682647  0.4690085392794882  0.1864405070479342
  0.4927853637329935  0.7602851739889012  0.3409661647625180
  0.6378721990337818  0.2689878349237121  0.3348190725639842
 -0.0159520253201518  0.7502294993437660  0.6239295854860426
  0.1093588671819652  0.2300168449010969  0.6624579085052298
  0.4935907689059355 -0.0186340243368524  0.8374762286417439
  0.8191929500046928  0.6447653257009782  0.9840032435954031
  0.4555000628386600  0.4942577834346757  0.7976298730174787
 -0.0112722538127768 -0.0045868740739813  0.1601711131934707
  0.6010788193090374  0.6845531919678383  0.6756901275517128
  0.0326353547563892  0.2111475750613722  0.3103705003642340
  0.1109672086877240  0.7942905741495114  0.2924419877015904
  0.5355386795820950  0.4750854501765379  0.0862204813402885
  0.1471912314810818  0.5167865479577373  0.8203834965469100
  0.6926356840468009 -0.0355354631273510  0.1564728914468118
  0.5001092577828514  0.2608745752274449  0.6672154945110929
  0.0944618135206834 -0.0015325545748762  0.8905113237235525
 
  0.00000000E+00  0.00000000E+00  0.00000000E+00
  0.00000000E+00  0.00000000E+00  0.00000000E+00
  0.00000000E+00  0.00000000E+00  0.00000000E+00
  0.00000000E+00  0.00000000E+00  0.00000000E+00
  0.00000000E+00  0.00000000E+00  0.00000000E+00
  0.00000000E+00  0.00000000E+00  0.00000000E+00
  0.00000000E+00  0.00000000E+00  0.00000000E+00
  0.00000000E+00  0.00000000E+00  0.00000000E+00
  0.00000000E+00  0.00000000E+00  0.00000000E+00
  0.00000000E+00  0.00000000E+00  0.00000000E+00
  0.00000000E+00  0.00000000E+00  0.00000000E+00
  0.00000000E+00  0.00000000E+00  0.00000000E+00
  0.00000000E+00  0.00000000E+00  0.00000000E+00
  0.00000000E+00  0.00000000E+00  0.00000000E+00
  0.00000000E+00  0.00000000E+00  0.00000000E+00
  0.00000000E+00  0.00000000E+00  0.00000000E+00
  0.00000000E+00  0.00000000E+00  0.00000000E+00
