Li5 P2 N1 O6                            
   1.00000000000000     
    -0.6006656251110111    0.3691411814379925    5.0079199159624128
     4.9320430021151571    0.5137688690766300   -0.7995059540576672
     0.4456889619313702    6.1398407453181107    0.4017734828235977
   Li   P    N    O 
     5     2     1     6
Direct
  0.7057878825878174  0.9751021952553707  0.9432145068248761
  0.9052769555566569  0.4805040205226682  0.0639612996762549
  0.4104247084675448  0.5883410280201674  0.3066332818154842
  0.4314275385659547  0.9901176726115714  0.5391048917313248
 -0.0265955542005731  0.4064215779388965  0.5588211087318866
  0.4051637478659083  0.3953460815474161  0.8441690940415955
  0.0147943253374385  0.0005002751813399  0.2479305128747208
  0.1121320190157644  0.1809806155406583  0.9899039180711054
  0.1610508113774964  0.1592728226189921  0.4151906368134468
  0.3179204574796611  0.5896989149059407  0.6636283573589842
  0.0547687221710355  0.6999333203285394  0.2726039310962667
  0.5958710947652431  0.2353799009114580  0.7339755211172244
  0.5794079439036540  0.5718028649691868 -0.0077166350915263
  0.6968153471064272 -0.0262742903522073  0.2837495749383701
 
  0.00000000E+00  0.00000000E+00  0.00000000E+00
  0.00000000E+00  0.00000000E+00  0.00000000E+00
  0.00000000E+00  0.00000000E+00  0.00000000E+00
  0.00000000E+00  0.00000000E+00  0.00000000E+00
  0.00000000E+00  0.00000000E+00  0.00000000E+00
  0.00000000E+00  0.00000000E+00  0.00000000E+00
  0.00000000E+00  0.00000000E+00  0.00000000E+00
  0.00000000E+00  0.00000000E+00  0.00000000E+00
  0.00000000E+00  0.00000000E+00  0.00000000E+00
  0.00000000E+00  0.00000000E+00  0.00000000E+00
  0.00000000E+00  0.00000000E+00  0.00000000E+00
  0.00000000E+00  0.00000000E+00  0.00000000E+00
  0.00000000E+00  0.00000000E+00  0.00000000E+00
  0.00000000E+00  0.00000000E+00  0.00000000E+00
