Li5 P2 N1 O6                            
   1.00000000000000     
    -0.6077878471010681    0.2591141245944757    5.2150069765922318
     5.0911868525214841    0.3992840485946927   -0.8250434907142513
     0.3804325953437559    5.5675719783422899    0.3188836768841083
   Li   P    N    O 
     5     2     1     6
Direct
  0.6283476241820242 -0.0822944204821314  0.8868181397773094
 -0.2114536659409722  0.3957436933563850  0.2760575460155827
  0.3842369279059931  0.6165690558086747  0.3030138399527528
  0.2835735681609723  0.9670199034481565  0.5900516566979302
  0.0212392508688539  0.3678505723808062  0.6538737515782386
  0.4595580856869441  0.3962798697152138  0.8244255831442741
  0.0323937058172483  0.0267715260284889  0.1964562951736130
  0.1912360451885504  0.1423425030257661  0.9168971627758645
  0.1438924192422149  0.2222313007606884  0.3761154885621692
  0.3824675003189462  0.6281211639079034  0.6626388953698303
  0.0677187806964796  0.7451138405525782  0.2938444165421779
  0.6436697989054376  0.2746462862538278  0.6621774876189603
  0.6013214855488638  0.5302523795908636  0.0236544267195222
  0.7360444734184662  0.0164793256527758  0.1891453100717770
 
  0.00000000E+00  0.00000000E+00  0.00000000E+00
  0.00000000E+00  0.00000000E+00  0.00000000E+00
  0.00000000E+00  0.00000000E+00  0.00000000E+00
  0.00000000E+00  0.00000000E+00  0.00000000E+00
  0.00000000E+00  0.00000000E+00  0.00000000E+00
  0.00000000E+00  0.00000000E+00  0.00000000E+00
  0.00000000E+00  0.00000000E+00  0.00000000E+00
  0.00000000E+00  0.00000000E+00  0.00000000E+00
  0.00000000E+00  0.00000000E+00  0.00000000E+00
  0.00000000E+00  0.00000000E+00  0.00000000E+00
  0.00000000E+00  0.00000000E+00  0.00000000E+00
  0.00000000E+00  0.00000000E+00  0.00000000E+00
  0.00000000E+00  0.00000000E+00  0.00000000E+00
  0.00000000E+00  0.00000000E+00  0.00000000E+00
