Li5 P2 N1 O6                            
   1.00000000000000     
    -0.0000070526508663   -0.0127558835071261    5.1612896721152364
     6.3691321372259848    0.0000021409938751   -0.0000094869391579
     0.0000023588228285    5.2576655073727334   -0.0139601874591299
   Li   P    N    O 
     5     2     1     6
Direct
  0.4698752365759719 -0.0000004347646407  0.7655153535587742
  0.4800703776272431  0.7021561956181189  0.3405839455845479
 -0.0043169884788276  0.7441908244214522  0.6844157657126416
 -0.0043168240797662  0.2558094592596233  0.6844151737262802
  0.4800695118875227  0.2978430308395587  0.3405848055186539
  0.5049910362313510  0.4999999258509282  0.8200945155618581
  0.0448641147275581 -0.0000000374151160  0.1914775857398917
  0.1944765334536095  0.5000003493436281  0.7834347210417625
  0.1335273119997493  0.1982041489173287  0.3349905426528223
  0.6207848796164537  0.7035515019107688  0.6865345617061354
  0.1335289395120762  0.8017965949730355  0.3349908632008995
  0.6207844424800499  0.2964486272264231  0.6865344452705157
  0.5738496904225217  0.4999993637895359  0.1059757803734774
  0.1150037380245129  0.0000004500293557  0.9033679403517424
 
  0.00000000E+00  0.00000000E+00  0.00000000E+00
  0.00000000E+00  0.00000000E+00  0.00000000E+00
  0.00000000E+00  0.00000000E+00  0.00000000E+00
  0.00000000E+00  0.00000000E+00  0.00000000E+00
  0.00000000E+00  0.00000000E+00  0.00000000E+00
  0.00000000E+00  0.00000000E+00  0.00000000E+00
  0.00000000E+00  0.00000000E+00  0.00000000E+00
  0.00000000E+00  0.00000000E+00  0.00000000E+00
  0.00000000E+00  0.00000000E+00  0.00000000E+00
  0.00000000E+00  0.00000000E+00  0.00000000E+00
  0.00000000E+00  0.00000000E+00  0.00000000E+00
  0.00000000E+00  0.00000000E+00  0.00000000E+00
  0.00000000E+00  0.00000000E+00  0.00000000E+00
  0.00000000E+00  0.00000000E+00  0.00000000E+00
