Li56 P28 O98
1.0
6.730959 0.000000 -2.599490
-2.035903 8.419349 5.263538
0.000000 0.000000 63.126504
Li P O
56 28 98
direct
0.144977 0.012029 0.014005 Li+
0.855023 0.987971 0.056754 Li+
0.588727 0.248347 0.023377 Li+
0.411273 0.751653 0.047381 Li+
0.327738 0.208724 0.057338 Li+
0.672262 0.791276 0.013421 Li+
0.241886 0.549204 0.026533 Li+
0.758114 0.450796 0.044226 Li+
0.144977 0.012029 0.097338 Li+
0.855023 0.987971 0.140087 Li+
0.588727 0.248347 0.106711 Li+
0.411273 0.751653 0.130715 Li+
0.327738 0.208724 0.140672 Li+
0.672262 0.791276 0.096754 Li+
0.241886 0.549204 0.109866 Li+
0.758114 0.450796 0.127559 Li+
0.144977 0.012029 0.180672 Li+
0.855023 0.987971 0.223420 Li+
0.588727 0.248347 0.190044 Li+
0.411273 0.751653 0.214048 Li+
0.327738 0.208724 0.224005 Li+
0.672262 0.791276 0.180087 Li+
0.241886 0.549204 0.193200 Li+
0.758114 0.450796 0.210892 Li+
0.144977 0.012029 0.264005 Li+
0.855023 0.987971 0.306754 Li+
0.588727 0.248347 0.273377 Li+
0.411273 0.751653 0.297381 Li+
0.327738 0.208724 0.307338 Li+
0.672262 0.791276 0.263421 Li+
0.241886 0.549204 0.276533 Li+
0.758114 0.450796 0.294226 Li+
0.144977 0.012029 0.347338 Li+
0.855023 0.987971 0.390087 Li+
0.588727 0.248347 0.356711 Li+
0.411273 0.751653 0.380715 Li+
0.327738 0.208724 0.390672 Li+
0.672262 0.791276 0.346754 Li+
0.241886 0.549204 0.359866 Li+
0.758114 0.450796 0.377559 Li+
0.144977 0.012029 0.430672 Li+
0.855023 0.987971 0.473420 Li+
0.588727 0.248347 0.440044 Li+
0.411273 0.751653 0.464048 Li+
0.327738 0.208724 0.474005 Li+
0.672262 0.791276 0.430087 Li+
0.241886 0.549204 0.443200 Li+
0.758114 0.450796 0.460892 Li+
0.144977 0.012029 0.514005 Li+
0.855023 0.987971 0.556754 Li+
0.588727 0.248347 0.523377 Li+
0.411273 0.751653 0.547381 Li+
0.327738 0.208724 0.557338 Li+
0.672262 0.791276 0.513421 Li+
0.241886 0.549204 0.526533 Li+
0.758114 0.450796 0.544226 Li+
0.213298 0.368044 0.081877 P5+
0.786702 0.631956 0.072216 P5+
0.779241 0.154498 0.082149 P5+
0.220759 0.845502 0.071944 P5+
0.213298 0.368044 0.165210 P5+
0.786702 0.631956 0.155549 P5+
0.779241 0.154498 0.165482 P5+
0.220759 0.845502 0.155277 P5+
0.213298 0.368044 0.248543 P5+
0.786702 0.631956 0.238882 P5+
0.779241 0.154498 0.248815 P5+
0.220759 0.845502 0.238610 P5+
0.213298 0.368044 0.331877 P5+
0.786702 0.631956 0.322216 P5+
0.779241 0.154498 0.332149 P5+
0.220759 0.845502 0.321944 P5+
0.213298 0.368044 0.415210 P5+
0.786702 0.631956 0.405549 P5+
0.779241 0.154498 0.415482 P5+
0.220759 0.845502 0.405277 P5+
0.213298 0.368044 0.498543 P5+
0.786702 0.631956 0.488882 P5+
0.779241 0.154498 0.498815 P5+
0.220759 0.845502 0.488610 P5+
0.213298 0.368044 0.581877 P5+
0.786702 0.631956 0.572216 P5+
0.779241 0.154498 0.582149 P5+
0.220759 0.845502 0.571944 P5+
0.741759 0.125660 0.023248 O2-
0.605720 0.209316 0.059092 O2-
0.394280 0.790684 0.011667 O2-
0.848591 0.018024 0.001968 O2-
0.743350 0.623545 0.047371 O2-
0.256650 0.376455 0.023388 O2-
0.732189 0.473810 0.011325 O2-
0.267811 0.526190 0.059434 O2-
0.702403 0.763496 0.068570 O2-
0.297597 0.236504 0.002189 O2-
0.962384 0.316106 0.072948 O2-
0.037616 0.683894 0.081144 O2-
0.151409 0.981976 0.068791 O2-
0.258241 0.874340 0.047510 O2-
0.741759 0.125660 0.106582 O2-
0.605720 0.209316 0.142426 O2-
0.394280 0.790684 0.095000 O2-
0.848591 0.018024 0.085302 O2-
0.743350 0.623545 0.130704 O2-
0.256650 0.376455 0.106722 O2-
0.732189 0.473810 0.094658 O2-
0.267811 0.526190 0.142767 O2-
0.702403 0.763496 0.151903 O2-
0.297597 0.236504 0.085523 O2-
0.962384 0.316106 0.156282 O2-
0.037616 0.683894 0.164477 O2-
0.151409 0.981976 0.152124 O2-
0.258241 0.874340 0.130844 O2-
0.741759 0.125660 0.189915 O2-
0.605720 0.209316 0.225759 O2-
0.394280 0.790684 0.178333 O2-
0.848591 0.018024 0.168635 O2-
0.743350 0.623545 0.214037 O2-
0.256650 0.376455 0.190055 O2-
0.732189 0.473810 0.177992 O2-
0.267811 0.526190 0.226101 O2-
0.702403 0.763496 0.235236 O2-
0.297597 0.236504 0.168856 O2-
0.962384 0.316106 0.239615 O2-
0.037616 0.683894 0.247811 O2-
0.151409 0.981976 0.235457 O2-
0.258241 0.874340 0.214177 O2-
0.741759 0.125660 0.273248 O2-
0.605720 0.209316 0.309092 O2-
0.394280 0.790684 0.261667 O2-
0.848591 0.018024 0.251968 O2-
0.743350 0.623545 0.297371 O2-
0.256650 0.376455 0.273388 O2-
0.732189 0.473810 0.261325 O2-
0.267811 0.526190 0.309434 O2-
0.702403 0.763496 0.318570 O2-
0.297597 0.236504 0.252189 O2-
0.962384 0.316106 0.322948 O2-
0.037616 0.683894 0.331144 O2-
0.151409 0.981976 0.318791 O2-
0.258241 0.874340 0.297510 O2-
0.741759 0.125660 0.356582 O2-
0.605720 0.209316 0.392426 O2-
0.394280 0.790684 0.345000 O2-
0.848591 0.018024 0.335302 O2-
0.743350 0.623545 0.380704 O2-
0.256650 0.376455 0.356722 O2-
0.732189 0.473810 0.344658 O2-
0.267811 0.526190 0.392767 O2-
0.702403 0.763496 0.401903 O2-
0.297597 0.236504 0.335523 O2-
0.962384 0.316106 0.406282 O2-
0.037616 0.683894 0.414477 O2-
0.151409 0.981976 0.402124 O2-
0.258241 0.874340 0.380844 O2-
0.741759 0.125660 0.439915 O2-
0.605720 0.209316 0.475759 O2-
0.394280 0.790684 0.428333 O2-
0.848591 0.018024 0.418635 O2-
0.743350 0.623545 0.464037 O2-
0.256650 0.376455 0.440055 O2-
0.732189 0.473810 0.427992 O2-
0.267811 0.526190 0.476101 O2-
0.702403 0.763496 0.485236 O2-
0.297597 0.236504 0.418856 O2-
0.962384 0.316106 0.489615 O2-
0.037616 0.683894 0.497811 O2-
0.151409 0.981976 0.485457 O2-
0.258241 0.874340 0.464177 O2-
0.741759 0.125660 0.523248 O2-
0.605720 0.209316 0.559092 O2-
0.394280 0.790684 0.511667 O2-
0.848591 0.018024 0.501968 O2-
0.743350 0.623545 0.547371 O2-
0.256650 0.376455 0.523388 O2-
0.732189 0.473810 0.511325 O2-
0.267811 0.526190 0.559434 O2-
0.702403 0.763496 0.568570 O2-
0.297597 0.236504 0.502189 O2-
0.962384 0.316106 0.572948 O2-
0.037616 0.683894 0.581144 O2-
0.151409 0.981976 0.568791 O2-
0.258241 0.874340 0.547510 O2-
