Li56 P28 N28 O56
1.0
5.461026 0.000000 0.000000
0.000000 4.748969 0.000000
0.000000 0.000000 91.558680
Li P N O
56 28 28 56
direct
0.340535 0.498444 0.008433 Li+
0.340535 0.498444 0.041567 Li+
0.659465 0.998444 0.041567 Li+
0.659465 0.998444 0.008433 Li+
0.840536 0.498444 0.058433 Li+
0.840536 0.498444 0.091567 Li+
0.159465 0.998444 0.091567 Li+
0.159465 0.998444 0.058433 Li+
0.340535 0.498444 0.108433 Li+
0.340535 0.498444 0.141567 Li+
0.659465 0.998444 0.141567 Li+
0.659465 0.998444 0.108433 Li+
0.840536 0.498444 0.158433 Li+
0.840536 0.498444 0.191567 Li+
0.159465 0.998444 0.191567 Li+
0.159465 0.998444 0.158433 Li+
0.340535 0.498444 0.208433 Li+
0.340535 0.498444 0.241567 Li+
0.659465 0.998444 0.241567 Li+
0.659465 0.998444 0.208433 Li+
0.840536 0.498444 0.258433 Li+
0.840536 0.498444 0.291567 Li+
0.159465 0.998444 0.291567 Li+
0.159465 0.998444 0.258433 Li+
0.340535 0.498444 0.308433 Li+
0.340535 0.498444 0.341567 Li+
0.659465 0.998444 0.341567 Li+
0.659465 0.998444 0.308433 Li+
0.840536 0.498444 0.358433 Li+
0.840536 0.498444 0.391567 Li+
0.159465 0.998444 0.391567 Li+
0.159465 0.998444 0.358433 Li+
0.340535 0.498444 0.408433 Li+
0.340535 0.498444 0.441567 Li+
0.659465 0.998444 0.441567 Li+
0.659465 0.998444 0.408433 Li+
0.840536 0.498444 0.458433 Li+
0.840536 0.498444 0.491567 Li+
0.159465 0.998444 0.491567 Li+
0.159465 0.998444 0.458433 Li+
0.340535 0.498444 0.508433 Li+
0.340535 0.498444 0.541567 Li+
0.659465 0.998444 0.541567 Li+
0.659465 0.998444 0.508433 Li+
0.840536 0.498444 0.558433 Li+
0.840536 0.498444 0.591567 Li+
0.159465 0.998444 0.591567 Li+
0.159465 0.998444 0.558433 Li+
0.340535 0.498444 0.608433 Li+
0.340535 0.498444 0.641567 Li+
0.659465 0.998444 0.641567 Li+
0.659465 0.998444 0.608433 Li+
0.840536 0.498444 0.658433 Li+
0.840536 0.498444 0.691567 Li+
0.159465 0.998444 0.691567 Li+
0.159465 0.998444 0.658433 Li+
0.346250 0.501489 0.075000 P5+
0.653750 0.001489 0.075000 P5+
0.846250 0.501489 0.025000 P5+
0.153750 0.001489 0.025000 P5+
0.346250 0.501489 0.175000 P5+
0.653750 0.001489 0.175000 P5+
0.846250 0.501489 0.125000 P5+
0.153750 0.001489 0.125000 P5+
0.346250 0.501489 0.275000 P5+
0.653750 0.001489 0.275000 P5+
0.846250 0.501489 0.225000 P5+
0.153750 0.001489 0.225000 P5+
0.346250 0.501489 0.375000 P5+
0.653750 0.001489 0.375000 P5+
0.846250 0.501489 0.325000 P5+
0.153750 0.001489 0.325000 P5+
0.346250 0.501489 0.475000 P5+
0.653750 0.001489 0.475000 P5+
0.846250 0.501489 0.425000 P5+
0.153750 0.001489 0.425000 P5+
0.346250 0.501489 0.575000 P5+
0.653750 0.001489 0.575000 P5+
0.846250 0.501489 0.525000 P5+
0.153750 0.001489 0.525000 P5+
0.346250 0.501489 0.675000 P5+
0.653750 0.001489 0.675000 P5+
0.846250 0.501489 0.625000 P5+
0.153750 0.001489 0.625000 P5+
0.613000 0.658824 0.075000 N3-
0.387000 0.158824 0.075000 N3-
0.113000 0.658824 0.025000 N3-
0.887000 0.158824 0.025000 N3-
0.613000 0.658824 0.175000 N3-
0.387000 0.158824 0.175000 N3-
0.113000 0.658824 0.125000 N3-
0.887000 0.158824 0.125000 N3-
0.613000 0.658824 0.275000 N3-
0.387000 0.158824 0.275000 N3-
0.113000 0.658824 0.225000 N3-
0.887000 0.158824 0.225000 N3-
0.613000 0.658824 0.375000 N3-
0.387000 0.158824 0.375000 N3-
0.113000 0.658824 0.325000 N3-
0.887000 0.158824 0.325000 N3-
0.613000 0.658824 0.475000 N3-
0.387000 0.158824 0.475000 N3-
0.113000 0.658824 0.425000 N3-
0.887000 0.158824 0.425000 N3-
0.613000 0.658824 0.575000 N3-
0.387000 0.158824 0.575000 N3-
0.113000 0.658824 0.525000 N3-
0.887000 0.158824 0.525000 N3-
0.613000 0.658824 0.675000 N3-
0.387000 0.158824 0.675000 N3-
0.113000 0.658824 0.625000 N3-
0.887000 0.158824 0.625000 N3-
0.194550 0.580899 0.061095 O2-
0.194550 0.580899 0.088905 O2-
0.805450 0.080899 0.088905 O2-
0.805450 0.080899 0.061095 O2-
0.694550 0.580899 0.011095 O2-
0.694550 0.580899 0.038905 O2-
0.305450 0.080899 0.038905 O2-
0.305450 0.080899 0.011095 O2-
0.194550 0.580899 0.161095 O2-
0.194550 0.580899 0.188905 O2-
0.805450 0.080899 0.188905 O2-
0.805450 0.080899 0.161095 O2-
0.694550 0.580899 0.111095 O2-
0.694550 0.580899 0.138905 O2-
0.305450 0.080899 0.138905 O2-
0.305450 0.080899 0.111095 O2-
0.194550 0.580899 0.261095 O2-
0.194550 0.580899 0.288905 O2-
0.805450 0.080899 0.288905 O2-
0.805450 0.080899 0.261095 O2-
0.694550 0.580899 0.211095 O2-
0.694550 0.580899 0.238905 O2-
0.305450 0.080899 0.238905 O2-
0.305450 0.080899 0.211095 O2-
0.194550 0.580899 0.361095 O2-
0.194550 0.580899 0.388905 O2-
0.805450 0.080899 0.388905 O2-
0.805450 0.080899 0.361095 O2-
0.694550 0.580899 0.311095 O2-
0.694550 0.580899 0.338905 O2-
0.305450 0.080899 0.338905 O2-
0.305450 0.080899 0.311095 O2-
0.194550 0.580899 0.461095 O2-
0.194550 0.580899 0.488905 O2-
0.805450 0.080899 0.488905 O2-
0.805450 0.080899 0.461095 O2-
0.694550 0.580899 0.411095 O2-
0.694550 0.580899 0.438905 O2-
0.305450 0.080899 0.438905 O2-
0.305450 0.080899 0.411095 O2-
0.194550 0.580899 0.561095 O2-
0.194550 0.580899 0.588905 O2-
0.805450 0.080899 0.588905 O2-
0.805450 0.080899 0.561095 O2-
0.694550 0.580899 0.511095 O2-
0.694550 0.580899 0.538905 O2-
0.305450 0.080899 0.538905 O2-
0.305450 0.080899 0.511095 O2-
0.194550 0.580899 0.661095 O2-
0.194550 0.580899 0.688905 O2-
0.805450 0.080899 0.688905 O2-
0.805450 0.080899 0.661095 O2-
0.694550 0.580899 0.611095 O2-
0.694550 0.580899 0.638905 O2-
0.305450 0.080899 0.638905 O2-
0.305450 0.080899 0.611095 O2-
