Li140 P140 O420
1.0
13.312980 0.000000 -5.521558
2.677750 16.540545 0.000000
0.000000 0.000000 60.737138
Li P O
140 140 420
direct
0.944698 0.181780 0.006703 Li+
0.444698 0.681780 0.051177 Li+
0.822834 0.065996 0.087460 Li+
0.322834 0.565996 0.039173 Li+
0.702414 0.950543 0.074571 Li+
0.202414 0.450543 0.030168 Li+
0.582845 0.835452 0.063570 Li+
0.082845 0.335452 0.019429 Li+
0.512460 0.758434 0.013029 Li+
0.012460 0.258434 0.057172 Li+
0.942549 0.681714 0.004091 Li+
0.442549 0.181714 0.053399 Li+
0.821455 0.566270 0.088072 Li+
0.321455 0.066270 0.038310 Li+
0.702271 0.449547 0.072061 Li+
0.202271 0.949547 0.032652 Li+
0.582496 0.332984 0.066219 Li+
0.082496 0.832984 0.016716 Li+
0.510463 0.256366 0.015747 Li+
0.010463 0.756366 0.054091 Li+
0.944698 0.181780 0.097612 Li+
0.444698 0.681780 0.142086 Li+
0.822834 0.065996 0.178369 Li+
0.322834 0.565996 0.130082 Li+
0.702414 0.950543 0.165480 Li+
0.202414 0.450543 0.121077 Li+
0.582845 0.835452 0.154479 Li+
0.082845 0.335452 0.110338 Li+
0.512460 0.758434 0.103938 Li+
0.012460 0.258434 0.148081 Li+
0.942549 0.681714 0.095000 Li+
0.442549 0.181714 0.144308 Li+
0.821455 0.566270 0.178981 Li+
0.321455 0.066270 0.129219 Li+
0.702271 0.449547 0.162970 Li+
0.202271 0.949547 0.123561 Li+
0.582496 0.332984 0.157128 Li+
0.082496 0.832984 0.107625 Li+
0.510463 0.256366 0.106656 Li+
0.010463 0.756366 0.145000 Li+
0.944698 0.181780 0.188522 Li+
0.444698 0.681780 0.232996 Li+
0.822834 0.065996 0.269278 Li+
0.322834 0.565996 0.220991 Li+
0.702414 0.950543 0.256389 Li+
0.202414 0.450543 0.211986 Li+
0.582845 0.835452 0.245388 Li+
0.082845 0.335452 0.201247 Li+
0.512460 0.758434 0.194848 Li+
0.012460 0.258434 0.238990 Li+
0.942549 0.681714 0.185909 Li+
0.442549 0.181714 0.235217 Li+
0.821455 0.566270 0.269890 Li+
0.321455 0.066270 0.220129 Li+
0.702271 0.449547 0.253879 Li+
0.202271 0.949547 0.214470 Li+
0.582496 0.332984 0.248037 Li+
0.082496 0.832984 0.198534 Li+
0.510463 0.256366 0.197565 Li+
0.010463 0.756366 0.235909 Li+
0.944698 0.181780 0.279431 Li+
0.444698 0.681780 0.323905 Li+
0.822834 0.065996 0.360187 Li+
0.322834 0.565996 0.311900 Li+
0.702414 0.950543 0.347298 Li+
0.202414 0.450543 0.302895 Li+
0.582845 0.835452 0.336297 Li+
0.082845 0.335452 0.292156 Li+
0.512460 0.758434 0.285757 Li+
0.012460 0.258434 0.329899 Li+
0.942549 0.681714 0.276818 Li+
0.442549 0.181714 0.326126 Li+
0.821455 0.566270 0.360799 Li+
0.321455 0.066270 0.311038 Li+
0.702271 0.449547 0.344788 Li+
0.202271 0.949547 0.305379 Li+
0.582496 0.332984 0.338946 Li+
0.082496 0.832984 0.289444 Li+
0.510463 0.256366 0.288475 Li+
0.010463 0.756366 0.326818 Li+
0.944698 0.181780 0.370340 Li+
0.444698 0.681780 0.414814 Li+
0.822834 0.065996 0.451096 Li+
0.322834 0.565996 0.402809 Li+
0.702414 0.950543 0.438207 Li+
0.202414 0.450543 0.393804 Li+
0.582845 0.835452 0.427206 Li+
0.082845 0.335452 0.383065 Li+
0.512460 0.758434 0.376666 Li+
0.012460 0.258434 0.420808 Li+
0.942549 0.681714 0.367727 Li+
0.442549 0.181714 0.417035 Li+
0.821455 0.566270 0.451708 Li+
0.321455 0.066270 0.401947 Li+
0.702271 0.449547 0.435697 Li+
0.202271 0.949547 0.396288 Li+
0.582496 0.332984 0.429855 Li+
0.082496 0.832984 0.380353 Li+
0.510463 0.256366 0.379384 Li+
0.010463 0.756366 0.417727 Li+
0.944698 0.181780 0.461249 Li+
0.444698 0.681780 0.505723 Li+
0.822834 0.065996 0.542006 Li+
0.322834 0.565996 0.493718 Li+
0.702414 0.950543 0.529116 Li+
0.202414 0.450543 0.484713 Li+
0.582845 0.835452 0.518115 Li+
0.082845 0.335452 0.473974 Li+
0.512460 0.758434 0.467575 Li+
0.012460 0.258434 0.511717 Li+
0.942549 0.681714 0.458636 Li+
0.442549 0.181714 0.507944 Li+
0.821455 0.566270 0.542617 Li+
0.321455 0.066270 0.492856 Li+
0.702271 0.449547 0.526606 Li+
0.202271 0.949547 0.487197 Li+
0.582496 0.332984 0.520764 Li+
0.082496 0.832984 0.471262 Li+
0.510463 0.256366 0.470293 Li+
0.010463 0.756366 0.508636 Li+
0.944698 0.181780 0.552158 Li+
0.444698 0.681780 0.596632 Li+
0.822834 0.065996 0.632915 Li+
0.322834 0.565996 0.584627 Li+
0.702414 0.950543 0.620025 Li+
0.202414 0.450543 0.575622 Li+
0.582845 0.835452 0.609024 Li+
0.082845 0.335452 0.564883 Li+
0.512460 0.758434 0.558484 Li+
0.012460 0.258434 0.602626 Li+
0.942549 0.681714 0.549546 Li+
0.442549 0.181714 0.598854 Li+
0.821455 0.566270 0.633526 Li+
0.321455 0.066270 0.583765 Li+
0.702271 0.449547 0.617515 Li+
0.202271 0.949547 0.578106 Li+
0.582496 0.332984 0.611673 Li+
0.082496 0.832984 0.562171 Li+
0.510463 0.256366 0.561202 Li+
0.010463 0.756366 0.599545 Li+
0.001192 0.999587 0.039951 P5+
0.501192 0.499587 0.028201 P5+
0.887667 0.906720 0.060727 P5+
0.387667 0.406720 0.077694 P5+
0.795924 0.802939 0.021011 P5+
0.295924 0.302939 0.009819 P5+
0.716706 0.691689 0.046489 P5+
0.216706 0.191689 0.060848 P5+
0.616650 0.591751 0.007323 P5+
0.116650 0.091751 0.081821 P5+
0.909487 0.425433 0.062655 P5+
0.409487 0.925433 0.079733 P5+
0.808986 0.325562 0.023483 P5+
0.308986 0.825562 0.009723 P5+
0.730132 0.213545 0.049227 P5+
0.230132 0.713545 0.060551 P5+
0.637722 0.110144 0.009952 P5+
0.137722 0.610144 0.083024 P5+
0.524425 0.017155 0.030746 P5+
0.024425 0.517155 0.041631 P5+
0.001192 0.999587 0.130860 P5+
0.501192 0.499587 0.119110 P5+
0.887667 0.906720 0.151636 P5+
0.387667 0.406720 0.168603 P5+
0.795924 0.802939 0.111921 P5+
0.295924 0.302939 0.100729 P5+
0.716706 0.691689 0.137398 P5+
0.216706 0.191689 0.151757 P5+
0.616650 0.591751 0.098232 P5+
0.116650 0.091751 0.172730 P5+
0.909487 0.425433 0.153564 P5+
0.409487 0.925433 0.170642 P5+
0.808986 0.325562 0.114392 P5+
0.308986 0.825562 0.100632 P5+
0.730132 0.213545 0.140136 P5+
0.230132 0.713545 0.151460 P5+
0.637722 0.110144 0.100861 P5+
0.137722 0.610144 0.173934 P5+
0.524425 0.017155 0.121655 P5+
0.024425 0.517155 0.132540 P5+
0.001192 0.999587 0.221769 P5+
0.501192 0.499587 0.210020 P5+
0.887667 0.906720 0.242545 P5+
0.387667 0.406720 0.259512 P5+
0.795924 0.802939 0.202830 P5+
0.295924 0.302939 0.191638 P5+
0.716706 0.691689 0.228307 P5+
0.216706 0.191689 0.242666 P5+
0.616650 0.591751 0.189142 P5+
0.116650 0.091751 0.263640 P5+
0.909487 0.425433 0.244473 P5+
0.409487 0.925433 0.261551 P5+
0.808986 0.325562 0.205301 P5+
0.308986 0.825562 0.191541 P5+
0.730132 0.213545 0.231045 P5+
0.230132 0.713545 0.242369 P5+
0.637722 0.110144 0.191770 P5+
0.137722 0.610144 0.264843 P5+
0.524425 0.017155 0.212564 P5+
0.024425 0.517155 0.223449 P5+
0.001192 0.999587 0.312678 P5+
0.501192 0.499587 0.300929 P5+
0.887667 0.906720 0.333454 P5+
0.387667 0.406720 0.350421 P5+
0.795924 0.802939 0.293739 P5+
0.295924 0.302939 0.282547 P5+
0.716706 0.691689 0.319216 P5+
0.216706 0.191689 0.333575 P5+
0.616650 0.591751 0.280051 P5+
0.116650 0.091751 0.354549 P5+
0.909487 0.425433 0.335382 P5+
0.409487 0.925433 0.352460 P5+
0.808986 0.325562 0.296210 P5+
0.308986 0.825562 0.282450 P5+
0.730132 0.213545 0.321955 P5+
0.230132 0.713545 0.333278 P5+
0.637722 0.110144 0.282679 P5+
0.137722 0.610144 0.355752 P5+
0.524425 0.017155 0.303473 P5+
0.024425 0.517155 0.314358 P5+
0.001192 0.999587 0.403587 P5+
0.501192 0.499587 0.391838 P5+
0.887667 0.906720 0.424363 P5+
0.387667 0.406720 0.441330 P5+
0.795924 0.802939 0.384648 P5+
0.295924 0.302939 0.373456 P5+
0.716706 0.691689 0.410125 P5+
0.216706 0.191689 0.424484 P5+
0.616650 0.591751 0.370960 P5+
0.116650 0.091751 0.445458 P5+
0.909487 0.425433 0.426291 P5+
0.409487 0.925433 0.443369 P5+
0.808986 0.325562 0.387119 P5+
0.308986 0.825562 0.373359 P5+
0.730132 0.213545 0.412864 P5+
0.230132 0.713545 0.424187 P5+
0.637722 0.110144 0.373588 P5+
0.137722 0.610144 0.446661 P5+
0.524425 0.017155 0.394382 P5+
0.024425 0.517155 0.405267 P5+
0.001192 0.999587 0.494496 P5+
0.501192 0.499587 0.482747 P5+
0.887667 0.906720 0.515272 P5+
0.387667 0.406720 0.532239 P5+
0.795924 0.802939 0.475557 P5+
0.295924 0.302939 0.464365 P5+
0.716706 0.691689 0.501034 P5+
0.216706 0.191689 0.515394 P5+
0.616650 0.591751 0.461869 P5+
0.116650 0.091751 0.536367 P5+
0.909487 0.425433 0.517200 P5+
0.409487 0.925433 0.534278 P5+
0.808986 0.325562 0.478028 P5+
0.308986 0.825562 0.464269 P5+
0.730132 0.213545 0.503773 P5+
0.230132 0.713545 0.515096 P5+
0.637722 0.110144 0.464497 P5+
0.137722 0.610144 0.537570 P5+
0.524425 0.017155 0.485291 P5+
0.024425 0.517155 0.496176 P5+
0.001192 0.999587 0.585406 P5+
0.501192 0.499587 0.573656 P5+
0.887667 0.906720 0.606181 P5+
0.387667 0.406720 0.623148 P5+
0.795924 0.802939 0.566466 P5+
0.295924 0.302939 0.555274 P5+
0.716706 0.691689 0.591943 P5+
0.216706 0.191689 0.606303 P5+
0.616650 0.591751 0.552778 P5+
0.116650 0.091751 0.627276 P5+
0.909487 0.425433 0.608109 P5+
0.409487 0.925433 0.625188 P5+
0.808986 0.325562 0.568937 P5+
0.308986 0.825562 0.555178 P5+
0.730132 0.213545 0.594682 P5+
0.230132 0.713545 0.606005 P5+
0.637722 0.110144 0.555406 P5+
0.137722 0.610144 0.628479 P5+
0.524425 0.017155 0.576200 P5+
0.024425 0.517155 0.587085 P5+
0.905428 0.964587 0.041825 O2-
0.405428 0.464587 0.008916 O2-
0.800449 0.859372 0.043001 O2-
0.300449 0.359372 0.079562 O2-
0.757206 0.724144 0.027349 O2-
0.257206 0.224144 0.087352 O2-
0.685355 0.607741 0.034756 O2-
0.185355 0.107741 0.066880 O2-
0.058300 0.021852 0.067266 O2-
0.558300 0.521852 0.011270 O2-
0.840686 0.409378 0.035232 O2-
0.340686 0.909378 0.003738 O2-
0.772630 0.290596 0.043130 O2-
0.272630 0.790596 0.074374 O2-
0.726756 0.156445 0.027376 O2-
0.226756 0.656445 0.081788 O2-
0.618048 0.056520 0.029355 O2-
0.118048 0.556520 0.060044 O2-
0.967956 0.495673 0.058810 O2-
0.467956 0.995673 0.003299 O2-
0.955284 0.073889 0.023285 O2-
0.455284 0.573889 0.036520 O2-
0.071165 0.933926 0.034627 O2-
0.571165 0.433926 0.046248 O2-
0.836724 0.958651 0.074254 O2-
0.336724 0.458651 0.054904 O2-
0.982201 0.846743 0.073686 O2-
0.482201 0.346743 0.081923 O2-
0.714989 0.845353 0.089696 O2-
0.214989 0.345353 0.017328 O2-
0.902007 0.775410 0.022170 O2-
0.402007 0.275410 0.027949 O2-
0.622035 0.747295 0.044921 O2-
0.122035 0.247295 0.045202 O2-
0.803128 0.669352 0.070044 O2-
0.303128 0.169352 0.053006 O2-
0.542257 0.667159 0.086435 O2-
0.042257 0.167159 0.080093 O2-
0.685603 0.553292 0.086679 O2-
0.185603 0.053292 0.015002 O2-
0.839056 0.463335 0.073892 O2-
0.339056 0.963335 0.055690 O2-
0.984307 0.350606 0.074723 O2-
0.484307 0.850606 0.081268 O2-
0.720379 0.348215 0.000294 O2-
0.220379 0.848215 0.016802 O2-
0.903854 0.271458 0.024496 O2-
0.403854 0.771458 0.025959 O2-
0.623095 0.241625 0.047364 O2-
0.123095 0.741625 0.042952 O2-
0.808921 0.171199 0.071783 O2-
0.308921 0.671199 0.052320 O2-
0.543593 0.170027 0.087452 O2-
0.043593 0.670027 0.079319 O2-
0.687356 0.055640 0.087610 O2-
0.187356 0.555640 0.014391 O2-
0.452378 0.080441 0.036232 O2-
0.952378 0.580441 0.023045 O2-
0.572944 0.942366 0.047061 O2-
0.072944 0.442366 0.034137 O2-
0.905428 0.964587 0.132734 O2-
0.405428 0.464587 0.099825 O2-
0.800449 0.859372 0.133910 O2-
0.300449 0.359372 0.170471 O2-
0.757206 0.724144 0.118258 O2-
0.257206 0.224144 0.178261 O2-
0.685355 0.607741 0.125665 O2-
0.185355 0.107741 0.157789 O2-
0.058300 0.021852 0.158175 O2-
0.558300 0.521852 0.102179 O2-
0.840686 0.409378 0.126141 O2-
0.340686 0.909378 0.094647 O2-
0.772630 0.290596 0.134040 O2-
0.272630 0.790596 0.165283 O2-
0.726756 0.156445 0.118285 O2-
0.226756 0.656445 0.172697 O2-
0.618048 0.056520 0.120264 O2-
0.118048 0.556520 0.150953 O2-
0.967956 0.495673 0.149719 O2-
0.467956 0.995673 0.094208 O2-
0.955284 0.073889 0.114194 O2-
0.455284 0.573889 0.127430 O2-
0.071165 0.933926 0.125536 O2-
0.571165 0.433926 0.137157 O2-
0.836724 0.958651 0.165163 O2-
0.336724 0.458651 0.145813 O2-
0.982201 0.846743 0.164595 O2-
0.482201 0.346743 0.172832 O2-
0.714989 0.845353 0.180606 O2-
0.214989 0.345353 0.108237 O2-
0.902007 0.775410 0.113079 O2-
0.402007 0.275410 0.118858 O2-
0.622035 0.747295 0.135830 O2-
0.122035 0.247295 0.136112 O2-
0.803128 0.669352 0.160953 O2-
0.303128 0.169352 0.143915 O2-
0.542257 0.667159 0.177344 O2-
0.042257 0.167159 0.171002 O2-
0.685603 0.553292 0.177588 O2-
0.185603 0.053292 0.105911 O2-
0.839056 0.463335 0.164801 O2-
0.339056 0.963335 0.146599 O2-
0.984307 0.350606 0.165632 O2-
0.484307 0.850606 0.172177 O2-
0.720379 0.348215 0.091203 O2-
0.220379 0.848215 0.107711 O2-
0.903854 0.271458 0.115405 O2-
0.403854 0.771458 0.116868 O2-
0.623095 0.241625 0.138273 O2-
0.123095 0.741625 0.133861 O2-
0.808921 0.171199 0.162692 O2-
0.308921 0.671199 0.143229 O2-
0.543593 0.170027 0.178361 O2-
0.043593 0.670027 0.170228 O2-
0.687356 0.055640 0.178519 O2-
0.187356 0.555640 0.105300 O2-
0.452378 0.080441 0.127141 O2-
0.952378 0.580441 0.113954 O2-
0.572944 0.942366 0.137971 O2-
0.072944 0.442366 0.125046 O2-
0.905428 0.964587 0.223643 O2-
0.405428 0.464587 0.190734 O2-
0.800449 0.859372 0.224819 O2-
0.300449 0.359372 0.261380 O2-
0.757206 0.724144 0.209167 O2-
0.257206 0.224144 0.269170 O2-
0.685355 0.607741 0.216575 O2-
0.185355 0.107741 0.248698 O2-
0.058300 0.021852 0.249084 O2-
0.558300 0.521852 0.193088 O2-
0.840686 0.409378 0.217050 O2-
0.340686 0.909378 0.185556 O2-
0.772630 0.290596 0.224949 O2-
0.272630 0.790596 0.256192 O2-
0.726756 0.156445 0.209194 O2-
0.226756 0.656445 0.263606 O2-
0.618048 0.056520 0.211173 O2-
0.118048 0.556520 0.241862 O2-
0.967956 0.495673 0.240628 O2-
0.467956 0.995673 0.185118 O2-
0.955284 0.073889 0.205103 O2-
0.455284 0.573889 0.218339 O2-
0.071165 0.933926 0.216445 O2-
0.571165 0.433926 0.228066 O2-
0.836724 0.958651 0.256072 O2-
0.336724 0.458651 0.236722 O2-
0.982201 0.846743 0.255504 O2-
0.482201 0.346743 0.263741 O2-
0.714989 0.845353 0.271515 O2-
0.214989 0.345353 0.199146 O2-
0.902007 0.775410 0.203988 O2-
0.402007 0.275410 0.209767 O2-
0.622035 0.747295 0.226740 O2-
0.122035 0.247295 0.227021 O2-
0.803128 0.669352 0.251862 O2-
0.303128 0.169352 0.234824 O2-
0.542257 0.667159 0.268253 O2-
0.042257 0.167159 0.261911 O2-
0.685603 0.553292 0.268497 O2-
0.185603 0.053292 0.196821 O2-
0.839056 0.463335 0.255710 O2-
0.339056 0.963335 0.237508 O2-
0.984307 0.350606 0.256542 O2-
0.484307 0.850606 0.263086 O2-
0.720379 0.348215 0.182112 O2-
0.220379 0.848215 0.198620 O2-
0.903854 0.271458 0.206314 O2-
0.403854 0.771458 0.207777 O2-
0.623095 0.241625 0.229182 O2-
0.123095 0.741625 0.224770 O2-
0.808921 0.171199 0.253602 O2-
0.308921 0.671199 0.234138 O2-
0.543593 0.170027 0.269270 O2-
0.043593 0.670027 0.261137 O2-
0.687356 0.055640 0.269428 O2-
0.187356 0.555640 0.196209 O2-
0.452378 0.080441 0.218050 O2-
0.952378 0.580441 0.204863 O2-
0.572944 0.942366 0.228880 O2-
0.072944 0.442366 0.215955 O2-
0.905428 0.964587 0.314552 O2-
0.405428 0.464587 0.281643 O2-
0.800449 0.859372 0.315728 O2-
0.300449 0.359372 0.352289 O2-
0.757206 0.724144 0.300076 O2-
0.257206 0.224144 0.360079 O2-
0.685355 0.607741 0.307484 O2-
0.185355 0.107741 0.339607 O2-
0.058300 0.021852 0.339993 O2-
0.558300 0.521852 0.283997 O2-
0.840686 0.409378 0.307959 O2-
0.340686 0.909378 0.276465 O2-
0.772630 0.290596 0.315858 O2-
0.272630 0.790596 0.347102 O2-
0.726756 0.156445 0.300103 O2-
0.226756 0.656445 0.354515 O2-
0.618048 0.056520 0.302082 O2-
0.118048 0.556520 0.332771 O2-
0.967956 0.495673 0.331537 O2-
0.467956 0.995673 0.276027 O2-
0.955284 0.073889 0.296012 O2-
0.455284 0.573889 0.309248 O2-
0.071165 0.933926 0.307354 O2-
0.571165 0.433926 0.318975 O2-
0.836724 0.958651 0.346981 O2-
0.336724 0.458651 0.327631 O2-
0.982201 0.846743 0.346413 O2-
0.482201 0.346743 0.354650 O2-
0.714989 0.845353 0.362424 O2-
0.214989 0.345353 0.290055 O2-
0.902007 0.775410 0.294897 O2-
0.402007 0.275410 0.300676 O2-
0.622035 0.747295 0.317649 O2-
0.122035 0.247295 0.317930 O2-
0.803128 0.669352 0.342771 O2-
0.303128 0.169352 0.325733 O2-
0.542257 0.667159 0.359162 O2-
0.042257 0.167159 0.352820 O2-
0.685603 0.553292 0.359407 O2-
0.185603 0.053292 0.287730 O2-
0.839056 0.463335 0.346619 O2-
0.339056 0.963335 0.328417 O2-
0.984307 0.350606 0.347451 O2-
0.484307 0.850606 0.353995 O2-
0.720379 0.348215 0.273021 O2-
0.220379 0.848215 0.289529 O2-
0.903854 0.271458 0.297223 O2-
0.403854 0.771458 0.298686 O2-
0.623095 0.241625 0.320092 O2-
0.123095 0.741625 0.315680 O2-
0.808921 0.171199 0.344511 O2-
0.308921 0.671199 0.325047 O2-
0.543593 0.170027 0.360179 O2-
0.043593 0.670027 0.352046 O2-
0.687356 0.055640 0.360337 O2-
0.187356 0.555640 0.287118 O2-
0.452378 0.080441 0.308959 O2-
0.952378 0.580441 0.295772 O2-
0.572944 0.942366 0.319789 O2-
0.072944 0.442366 0.306864 O2-
0.905428 0.964587 0.405461 O2-
0.405428 0.464587 0.372552 O2-
0.800449 0.859372 0.406637 O2-
0.300449 0.359372 0.443198 O2-
0.757206 0.724144 0.390985 O2-
0.257206 0.224144 0.450988 O2-
0.685355 0.607741 0.398393 O2-
0.185355 0.107741 0.430517 O2-
0.058300 0.021852 0.430902 O2-
0.558300 0.521852 0.374906 O2-
0.840686 0.409378 0.398868 O2-
0.340686 0.909378 0.367374 O2-
0.772630 0.290596 0.406767 O2-
0.272630 0.790596 0.438011 O2-
0.726756 0.156445 0.391012 O2-
0.226756 0.656445 0.445424 O2-
0.618048 0.056520 0.392992 O2-
0.118048 0.556520 0.423680 O2-
0.967956 0.495673 0.422446 O2-
0.467956 0.995673 0.366936 O2-
0.955284 0.073889 0.386921 O2-
0.455284 0.573889 0.400157 O2-
0.071165 0.933926 0.398263 O2-
0.571165 0.433926 0.409884 O2-
0.836724 0.958651 0.437890 O2-
0.336724 0.458651 0.418541 O2-
0.982201 0.846743 0.437322 O2-
0.482201 0.346743 0.445559 O2-
0.714989 0.845353 0.453333 O2-
0.214989 0.345353 0.380964 O2-
0.902007 0.775410 0.385807 O2-
0.402007 0.275410 0.391585 O2-
0.622035 0.747295 0.408558 O2-
0.122035 0.247295 0.408839 O2-
0.803128 0.669352 0.433680 O2-
0.303128 0.169352 0.416642 O2-
0.542257 0.667159 0.450071 O2-
0.042257 0.167159 0.443729 O2-
0.685603 0.553292 0.450316 O2-
0.185603 0.053292 0.378639 O2-
0.839056 0.463335 0.437528 O2-
0.339056 0.963335 0.419327 O2-
0.984307 0.350606 0.438360 O2-
0.484307 0.850606 0.444904 O2-
0.720379 0.348215 0.363930 O2-
0.220379 0.848215 0.380438 O2-
0.903854 0.271458 0.388132 O2-
0.403854 0.771458 0.389595 O2-
0.623095 0.241625 0.411001 O2-
0.123095 0.741625 0.406589 O2-
0.808921 0.171199 0.435420 O2-
0.308921 0.671199 0.415956 O2-
0.543593 0.170027 0.451088 O2-
0.043593 0.670027 0.442956 O2-
0.687356 0.055640 0.451246 O2-
0.187356 0.555640 0.378027 O2-
0.452378 0.080441 0.399869 O2-
0.952378 0.580441 0.386681 O2-
0.572944 0.942366 0.410698 O2-
0.072944 0.442366 0.397773 O2-
0.905428 0.964587 0.496370 O2-
0.405428 0.464587 0.463461 O2-
0.800449 0.859372 0.497546 O2-
0.300449 0.359372 0.534107 O2-
0.757206 0.724144 0.481894 O2-
0.257206 0.224144 0.541897 O2-
0.685355 0.607741 0.489302 O2-
0.185355 0.107741 0.521426 O2-
0.058300 0.021852 0.521811 O2-
0.558300 0.521852 0.465815 O2-
0.840686 0.409378 0.489777 O2-
0.340686 0.909378 0.458283 O2-
0.772630 0.290596 0.497676 O2-
0.272630 0.790596 0.528920 O2-
0.726756 0.156445 0.481922 O2-
0.226756 0.656445 0.536333 O2-
0.618048 0.056520 0.483901 O2-
0.118048 0.556520 0.514589 O2-
0.967956 0.495673 0.513356 O2-
0.467956 0.995673 0.457845 O2-
0.955284 0.073889 0.477830 O2-
0.455284 0.573889 0.491066 O2-
0.071165 0.933926 0.489172 O2-
0.571165 0.433926 0.500794 O2-
0.836724 0.958651 0.528799 O2-
0.336724 0.458651 0.509450 O2-
0.982201 0.846743 0.528231 O2-
0.482201 0.346743 0.536468 O2-
0.714989 0.845353 0.544242 O2-
0.214989 0.345353 0.471874 O2-
0.902007 0.775410 0.476716 O2-
0.402007 0.275410 0.482494 O2-
0.622035 0.747295 0.499467 O2-
0.122035 0.247295 0.499748 O2-
0.803128 0.669352 0.524589 O2-
0.303128 0.169352 0.507551 O2-
0.542257 0.667159 0.540980 O2-
0.042257 0.167159 0.534639 O2-
0.685603 0.553292 0.541225 O2-
0.185603 0.053292 0.469548 O2-
0.839056 0.463335 0.528437 O2-
0.339056 0.963335 0.510236 O2-
0.984307 0.350606 0.529269 O2-
0.484307 0.850606 0.535814 O2-
0.720379 0.348215 0.454839 O2-
0.220379 0.848215 0.471347 O2-
0.903854 0.271458 0.479041 O2-
0.403854 0.771458 0.480504 O2-
0.623095 0.241625 0.501910 O2-
0.123095 0.741625 0.497498 O2-
0.808921 0.171199 0.526329 O2-
0.308921 0.671199 0.506865 O2-
0.543593 0.170027 0.541997 O2-
0.043593 0.670027 0.533865 O2-
0.687356 0.055640 0.542155 O2-
0.187356 0.555640 0.468936 O2-
0.452378 0.080441 0.490778 O2-
0.952378 0.580441 0.477590 O2-
0.572944 0.942366 0.501607 O2-
0.072944 0.442366 0.488682 O2-
0.905428 0.964587 0.587279 O2-
0.405428 0.464587 0.554370 O2-
0.800449 0.859372 0.588455 O2-
0.300449 0.359372 0.625017 O2-
0.757206 0.724144 0.572803 O2-
0.257206 0.224144 0.632806 O2-
0.685355 0.607741 0.580211 O2-
0.185355 0.107741 0.612335 O2-
0.058300 0.021852 0.612720 O2-
0.558300 0.521852 0.556724 O2-
0.840686 0.409378 0.580686 O2-
0.340686 0.909378 0.549192 O2-
0.772630 0.290596 0.588585 O2-
0.272630 0.790596 0.619829 O2-
0.726756 0.156445 0.572831 O2-
0.226756 0.656445 0.627242 O2-
0.618048 0.056520 0.574810 O2-
0.118048 0.556520 0.605498 O2-
0.967956 0.495673 0.604265 O2-
0.467956 0.995673 0.548754 O2-
0.955284 0.073889 0.568740 O2-
0.455284 0.573889 0.581975 O2-
0.071165 0.933926 0.580081 O2-
0.571165 0.433926 0.591703 O2-
0.836724 0.958651 0.619709 O2-
0.336724 0.458651 0.600359 O2-
0.982201 0.846743 0.619140 O2-
0.482201 0.346743 0.627377 O2-
0.714989 0.845353 0.635151 O2-
0.214989 0.345353 0.562783 O2-
0.902007 0.775410 0.567625 O2-
0.402007 0.275410 0.573403 O2-
0.622035 0.747295 0.590376 O2-
0.122035 0.247295 0.590657 O2-
0.803128 0.669352 0.615499 O2-
0.303128 0.169352 0.598460 O2-
0.542257 0.667159 0.631889 O2-
0.042257 0.167159 0.625548 O2-
0.685603 0.553292 0.632134 O2-
0.185603 0.053292 0.560457 O2-
0.839056 0.463335 0.619347 O2-
0.339056 0.963335 0.601145 O2-
0.984307 0.350606 0.620178 O2-
0.484307 0.850606 0.626723 O2-
0.720379 0.348215 0.545748 O2-
0.220379 0.848215 0.562256 O2-
0.903854 0.271458 0.569951 O2-
0.403854 0.771458 0.571413 O2-
0.623095 0.241625 0.592819 O2-
0.123095 0.741625 0.588407 O2-
0.808921 0.171199 0.617238 O2-
0.308921 0.671199 0.597774 O2-
0.543593 0.170027 0.632906 O2-
0.043593 0.670027 0.624774 O2-
0.687356 0.055640 0.633064 O2-
0.187356 0.555640 0.559845 O2-
0.452378 0.080441 0.581687 O2-
0.952378 0.580441 0.568499 O2-
0.572944 0.942366 0.592516 O2-
0.072944 0.442366 0.579591 O2-
