Li2 P2 N4                               
   1.00000000000000     
    -2.2797856737474840    2.2797856737474840    3.6448154318861254
     2.2797856737474840   -2.2797856737474840    3.6448154318861254
     2.2797856737474840    2.2797856737474840   -3.6448154318861254
   Li   P    N 
     2     2     4
Direct
  0.5000000000000000  0.5000000000000000  0.0000000000000000
  0.2500000000000000  0.7500000000000000  0.5000000000000000
 -0.0000000000000000  0.0000000000000000  0.0000000000000000
  0.7500000000000000  0.2500000000000000  0.5000000000000000
  0.3750000000000000  0.2936341234538714  0.4186341234538714
  0.8750000000000000  0.9563658765461285  0.5813658765461285
  0.7063658765461285  0.1250000000000000  0.0813658765461285
  0.0436341234538715  0.6250000000000000  0.9186341234538715
 
  0.00000000E+00  0.00000000E+00  0.00000000E+00
  0.00000000E+00  0.00000000E+00  0.00000000E+00
  0.00000000E+00  0.00000000E+00  0.00000000E+00
  0.00000000E+00  0.00000000E+00  0.00000000E+00
  0.00000000E+00  0.00000000E+00  0.00000000E+00
  0.00000000E+00  0.00000000E+00  0.00000000E+00
  0.00000000E+00  0.00000000E+00  0.00000000E+00
  0.00000000E+00  0.00000000E+00  0.00000000E+00
