Li1 N3
1.0
1.682363 2.850992 0.000376
-1.682363 2.850992 0.000376
0.000000 1.485888 4.779333
Li N
1 3
direct
-0.000000 -0.000000 -0.000000 Li
0.605876 0.605876 0.256533 N
0.394124 0.394124 0.743467 N
0.500000 0.500000 0.500000 N
