Li42 P14 O56
1.0
6.176136 0.000000 0.000000
0.000000 5.296402 -4.922448
0.000000 0.000000 63.991824
Li P O
42 14 56
direct
0.000000 0.155480 0.016088 Li+
0.500000 0.844520 0.030629 Li+
0.252873 0.673566 0.056021 Li+
0.247127 0.326434 0.067781 Li+
0.752873 0.326434 0.067781 Li+
0.747127 0.673566 0.056021 Li+
0.000000 0.155480 0.093011 Li+
0.500000 0.844520 0.107552 Li+
0.252873 0.673566 0.132945 Li+
0.247127 0.326434 0.144704 Li+
0.752873 0.326434 0.144704 Li+
0.747127 0.673566 0.132945 Li+
0.000000 0.155480 0.169934 Li+
0.500000 0.844520 0.184475 Li+
0.252873 0.673566 0.209868 Li+
0.247127 0.326434 0.221627 Li+
0.752873 0.326434 0.221627 Li+
0.747127 0.673566 0.209868 Li+
0.000000 0.155480 0.246857 Li+
0.500000 0.844520 0.261398 Li+
0.252873 0.673566 0.286791 Li+
0.247127 0.326434 0.298550 Li+
0.752873 0.326434 0.298550 Li+
0.747127 0.673566 0.286791 Li+
0.000000 0.155480 0.323780 Li+
0.500000 0.844520 0.338321 Li+
0.252873 0.673566 0.363714 Li+
0.247127 0.326434 0.375473 Li+
0.752873 0.326434 0.375473 Li+
0.747127 0.673566 0.363714 Li+
0.000000 0.155480 0.400703 Li+
0.500000 0.844520 0.415245 Li+
0.252873 0.673566 0.440637 Li+
0.247127 0.326434 0.452396 Li+
0.752873 0.326434 0.452396 Li+
0.747127 0.673566 0.440637 Li+
0.000000 0.155480 0.477626 Li+
0.500000 0.844520 0.492168 Li+
0.252873 0.673566 0.517560 Li+
0.247127 0.326434 0.529319 Li+
0.752873 0.326434 0.529319 Li+
0.747127 0.673566 0.517560 Li+
0.500000 0.175739 0.018261 P5+
0.000000 0.824261 0.029686 P5+
0.500000 0.175739 0.095184 P5+
0.000000 0.824261 0.106609 P5+
0.500000 0.175739 0.172107 P5+
0.000000 0.824261 0.183532 P5+
0.500000 0.175739 0.249030 P5+
0.000000 0.824261 0.260455 P5+
0.500000 0.175739 0.325954 P5+
0.000000 0.824261 0.337378 P5+
0.500000 0.175739 0.402877 P5+
0.000000 0.824261 0.414301 P5+
0.500000 0.175739 0.479800 P5+
0.000000 0.824261 0.491224 P5+
0.792862 0.686491 0.010966 O2-
0.500000 0.896492 0.065957 O2-
0.500000 0.181604 0.043038 O2-
0.000000 0.818396 0.053560 O2-
0.292862 0.313509 0.020737 O2-
0.207138 0.686491 0.010966 O2-
0.000000 0.103508 0.043420 O2-
0.707138 0.313509 0.020737 O2-
0.792862 0.686491 0.087889 O2-
0.500000 0.896492 0.142880 O2-
0.500000 0.181604 0.119961 O2-
0.000000 0.818396 0.130483 O2-
0.292862 0.313509 0.097660 O2-
0.207138 0.686491 0.087889 O2-
0.000000 0.103508 0.120343 O2-
0.707138 0.313509 0.097660 O2-
0.792862 0.686491 0.164812 O2-
0.500000 0.896492 0.219803 O2-
0.500000 0.181604 0.196884 O2-
0.000000 0.818396 0.207406 O2-
0.292862 0.313509 0.174583 O2-
0.207138 0.686491 0.164812 O2-
0.000000 0.103508 0.197266 O2-
0.707138 0.313509 0.174583 O2-
0.792862 0.686491 0.241735 O2-
0.500000 0.896492 0.296726 O2-
0.500000 0.181604 0.273807 O2-
0.000000 0.818396 0.284329 O2-
0.292862 0.313509 0.251506 O2-
0.207138 0.686491 0.241735 O2-
0.000000 0.103508 0.274189 O2-
0.707138 0.313509 0.251506 O2-
0.792862 0.686491 0.318658 O2-
0.500000 0.896492 0.373649 O2-
0.500000 0.181604 0.350730 O2-
0.000000 0.818396 0.361252 O2-
0.292862 0.313509 0.328429 O2-
0.207138 0.686491 0.318658 O2-
0.000000 0.103508 0.351112 O2-
0.707138 0.313509 0.328429 O2-
0.792862 0.686491 0.395581 O2-
0.500000 0.896492 0.450573 O2-
0.500000 0.181604 0.427653 O2-
0.000000 0.818396 0.438176 O2-
0.292862 0.313509 0.405352 O2-
0.207138 0.686491 0.395581 O2-
0.000000 0.103508 0.428035 O2-
0.707138 0.313509 0.405352 O2-
0.792862 0.686491 0.472504 O2-
0.500000 0.896492 0.527496 O2-
0.500000 0.181604 0.504576 O2-
0.000000 0.818396 0.515099 O2-
0.292862 0.313509 0.482275 O2-
0.207138 0.686491 0.472504 O2-
0.000000 0.103508 0.504958 O2-
0.707138 0.313509 0.482275 O2-
