Li56 P28 O98
1.0
6.730959 0.000000 -2.599490
-2.035903 8.419349 5.263538
0.000000 0.000000 63.126504
Li P O
56 28 98
direct
0.144977 0.012029 0.079982 Li+
0.855023 0.987971 0.039397 Li+
0.588727 0.248347 0.006021 Li+
0.411273 0.751653 0.030025 Li+
0.327738 0.208724 0.039982 Li+
0.672262 0.791276 0.079397 Li+
0.241886 0.549204 0.009177 Li+
0.758114 0.450796 0.026869 Li+
0.144977 0.012029 0.163315 Li+
0.855023 0.987971 0.122730 Li+
0.588727 0.248347 0.089354 Li+
0.411273 0.751653 0.113358 Li+
0.327738 0.208724 0.123315 Li+
0.672262 0.791276 0.162731 Li+
0.241886 0.549204 0.092510 Li+
0.758114 0.450796 0.110203 Li+
0.144977 0.012029 0.246648 Li+
0.855023 0.987971 0.206064 Li+
0.588727 0.248347 0.172687 Li+
0.411273 0.751653 0.196691 Li+
0.327738 0.208724 0.206648 Li+
0.672262 0.791276 0.246064 Li+
0.241886 0.549204 0.175843 Li+
0.758114 0.450796 0.193536 Li+
0.144977 0.012029 0.329982 Li+
0.855023 0.987971 0.289397 Li+
0.588727 0.248347 0.256021 Li+
0.411273 0.751653 0.280025 Li+
0.327738 0.208724 0.289982 Li+
0.672262 0.791276 0.329397 Li+
0.241886 0.549204 0.259177 Li+
0.758114 0.450796 0.276869 Li+
0.144977 0.012029 0.413315 Li+
0.855023 0.987971 0.372730 Li+
0.588727 0.248347 0.339354 Li+
0.411273 0.751653 0.363358 Li+
0.327738 0.208724 0.373315 Li+
0.672262 0.791276 0.412731 Li+
0.241886 0.549204 0.342510 Li+
0.758114 0.450796 0.360202 Li+
0.144977 0.012029 0.496649 Li+
0.855023 0.987971 0.456064 Li+
0.588727 0.248347 0.422688 Li+
0.411273 0.751653 0.446692 Li+
0.327738 0.208724 0.456648 Li+
0.672262 0.791276 0.496064 Li+
0.241886 0.549204 0.425843 Li+
0.758114 0.450796 0.443536 Li+
0.144977 0.012029 0.579982 Li+
0.855023 0.987971 0.539397 Li+
0.588727 0.248347 0.506021 Li+
0.411273 0.751653 0.530025 Li+
0.327738 0.208724 0.539982 Li+
0.672262 0.791276 0.579397 Li+
0.241886 0.549204 0.509177 Li+
0.758114 0.450796 0.526869 Li+
0.213298 0.368044 0.064520 P5+
0.786702 0.631956 0.054859 P5+
0.779241 0.154498 0.064792 P5+
0.220759 0.845502 0.054587 P5+
0.213298 0.368044 0.147853 P5+
0.786702 0.631956 0.138192 P5+
0.779241 0.154498 0.148125 P5+
0.220759 0.845502 0.137920 P5+
0.213298 0.368044 0.231187 P5+
0.786702 0.631956 0.221526 P5+
0.779241 0.154498 0.231459 P5+
0.220759 0.845502 0.221254 P5+
0.213298 0.368044 0.314520 P5+
0.786702 0.631956 0.304859 P5+
0.779241 0.154498 0.314792 P5+
0.220759 0.845502 0.304587 P5+
0.213298 0.368044 0.397853 P5+
0.786702 0.631956 0.388192 P5+
0.779241 0.154498 0.398125 P5+
0.220759 0.845502 0.387920 P5+
0.213298 0.368044 0.481187 P5+
0.786702 0.631956 0.471526 P5+
0.779241 0.154498 0.481459 P5+
0.220759 0.845502 0.471254 P5+
0.213298 0.368044 0.564520 P5+
0.786702 0.631956 0.554859 P5+
0.779241 0.154498 0.564792 P5+
0.220759 0.845502 0.554587 P5+
0.741759 0.125660 0.005892 O2-
0.605720 0.209316 0.041736 O2-
0.394280 0.790684 0.077643 O2-
0.848591 0.018024 0.067945 O2-
0.743350 0.623545 0.030014 O2-
0.256650 0.376455 0.006032 O2-
0.732189 0.473810 0.077302 O2-
0.267811 0.526190 0.042077 O2-
0.702403 0.763496 0.051213 O2-
0.297597 0.236504 0.068166 O2-
0.962384 0.316106 0.055592 O2-
0.037616 0.683894 0.063787 O2-
0.151409 0.981976 0.051434 O2-
0.258241 0.874340 0.030154 O2-
0.741759 0.125660 0.089225 O2-
0.605720 0.209316 0.125069 O2-
0.394280 0.790684 0.160977 O2-
0.848591 0.018024 0.151278 O2-
0.743350 0.623545 0.113347 O2-
0.256650 0.376455 0.089365 O2-
0.732189 0.473810 0.160635 O2-
0.267811 0.526190 0.125411 O2-
0.702403 0.763496 0.134546 O2-
0.297597 0.236504 0.151499 O2-
0.962384 0.316106 0.138925 O2-
0.037616 0.683894 0.147121 O2-
0.151409 0.981976 0.134767 O2-
0.258241 0.874340 0.113487 O2-
0.741759 0.125660 0.172559 O2-
0.605720 0.209316 0.208402 O2-
0.394280 0.790684 0.244310 O2-
0.848591 0.018024 0.234612 O2-
0.743350 0.623545 0.196681 O2-
0.256650 0.376455 0.172698 O2-
0.732189 0.473810 0.243968 O2-
0.267811 0.526190 0.208744 O2-
0.702403 0.763496 0.217880 O2-
0.297597 0.236504 0.234833 O2-
0.962384 0.316106 0.222258 O2-
0.037616 0.683894 0.230454 O2-
0.151409 0.981976 0.218101 O2-
0.258241 0.874340 0.196820 O2-
0.741759 0.125660 0.255892 O2-
0.605720 0.209316 0.291736 O2-
0.394280 0.790684 0.327643 O2-
0.848591 0.018024 0.317945 O2-
0.743350 0.623545 0.280014 O2-
0.256650 0.376455 0.256032 O2-
0.732189 0.473810 0.327302 O2-
0.267811 0.526190 0.292077 O2-
0.702403 0.763496 0.301213 O2-
0.297597 0.236504 0.318166 O2-
0.962384 0.316106 0.305592 O2-
0.037616 0.683894 0.313787 O2-
0.151409 0.981976 0.301434 O2-
0.258241 0.874340 0.280154 O2-
0.741759 0.125660 0.339225 O2-
0.605720 0.209316 0.375069 O2-
0.394280 0.790684 0.410977 O2-
0.848591 0.018024 0.401278 O2-
0.743350 0.623545 0.363347 O2-
0.256650 0.376455 0.339365 O2-
0.732189 0.473810 0.410635 O2-
0.267811 0.526190 0.375411 O2-
0.702403 0.763496 0.384546 O2-
0.297597 0.236504 0.401499 O2-
0.962384 0.316106 0.388925 O2-
0.037616 0.683894 0.397121 O2-
0.151409 0.981976 0.384767 O2-
0.258241 0.874340 0.363487 O2-
0.741759 0.125660 0.422559 O2-
0.605720 0.209316 0.458402 O2-
0.394280 0.790684 0.494310 O2-
0.848591 0.018024 0.484612 O2-
0.743350 0.623545 0.446681 O2-
0.256650 0.376455 0.422698 O2-
0.732189 0.473810 0.493968 O2-
0.267811 0.526190 0.458744 O2-
0.702403 0.763496 0.467880 O2-
0.297597 0.236504 0.484833 O2-
0.962384 0.316106 0.472258 O2-
0.037616 0.683894 0.480454 O2-
0.151409 0.981976 0.468101 O2-
0.258241 0.874340 0.446821 O2-
0.741759 0.125660 0.505892 O2-
0.605720 0.209316 0.541736 O2-
0.394280 0.790684 0.577643 O2-
0.848591 0.018024 0.567945 O2-
0.743350 0.623545 0.530014 O2-
0.256650 0.376455 0.506032 O2-
0.732189 0.473810 0.577302 O2-
0.267811 0.526190 0.542077 O2-
0.702403 0.763496 0.551213 O2-
0.297597 0.236504 0.568166 O2-
0.962384 0.316106 0.555592 O2-
0.037616 0.683894 0.563787 O2-
0.151409 0.981976 0.551434 O2-
0.258241 0.874340 0.530154 O2-
