Li1
1.0
-1.660383 1.660383 1.660383
1.660383 -1.660383 1.660383
1.660383 1.660383 -1.660383
Li
1
direct
0.000000 0.000000 0.000000 Li
