(0, 0, 1)
1.0
4.235858 0.000000 0.000000
-2.117929 3.668361 0.000000
0.000000 0.000000 75.707180
Li P
42 14
Selective dynamics
direct
0.000000 0.000000 0.075000 F F F Li+
0.000000 0.000000 0.025000 T T T Li+
0.666667 0.333333 0.008412 F F F Li+
0.333333 0.666667 0.058412 F F F Li+
0.333333 0.666667 0.091588 F F F Li+
0.666667 0.333333 0.041588 F F F Li+
0.000000 0.000000 0.175000 F F F Li+
0.000000 0.000000 0.125000 F F F Li+
0.666667 0.333333 0.108412 F F F Li+
0.333333 0.666667 0.158412 F F F Li+
0.333333 0.666667 0.191588 F F F Li+
0.666667 0.333333 0.141588 F F F Li+
0.000000 0.000000 0.275000 F F F Li+
0.000000 0.000000 0.225000 F F F Li+
0.666667 0.333333 0.208412 F F F Li+
0.333333 0.666667 0.258412 F F F Li+
0.333333 0.666667 0.291588 F F F Li+
0.666667 0.333333 0.241588 F F F Li+
0.000000 0.000000 0.375000 F F F Li+
0.000000 0.000000 0.325000 F F F Li+
0.666667 0.333333 0.308412 F F F Li+
0.333333 0.666667 0.358412 F F F Li+
0.333333 0.666667 0.391588 F F F Li+
0.666667 0.333333 0.341588 F F F Li+
0.000000 0.000000 0.475000 F F F Li+
0.000000 0.000000 0.425000 F F F Li+
0.666667 0.333333 0.408412 F F F Li+
0.333333 0.666667 0.458412 F F F Li+
0.333333 0.666667 0.491588 F F F Li+
0.666667 0.333333 0.441588 F F F Li+
0.000000 0.000000 0.575000 F F F Li+
0.000000 0.000000 0.525000 F F F Li+
0.666667 0.333333 0.508412 F F F Li+
0.333333 0.666667 0.558412 F F F Li+
0.333333 0.666667 0.591588 F F F Li+
0.666667 0.333333 0.541588 F F F Li+
0.000000 0.000000 0.675000 T T T Li+
0.000000 0.000000 0.625000 F F F Li+
0.666667 0.333333 0.608412 F F F Li+
0.333333 0.666667 0.658412 F F F Li+
0.333333 0.666667 0.691588 F F F Li+
0.666667 0.333333 0.641588 F F F Li+
0.666667 0.333333 0.075000 F F F P3+
0.333333 0.666667 0.025000 T T T P3+
0.666667 0.333333 0.175000 F F F P3+
0.333333 0.666667 0.125000 F F F P3+
0.666667 0.333333 0.275000 F F F P3+
0.333333 0.666667 0.225000 F F F P3+
0.666667 0.333333 0.375000 F F F P3+
0.333333 0.666667 0.325000 F F F P3+
0.666667 0.333333 0.475000 F F F P3+
0.333333 0.666667 0.425000 F F F P3+
0.666667 0.333333 0.575000 F F F P3+
0.333333 0.666667 0.525000 F F F P3+
0.666667 0.333333 0.675000 T T T P3+
0.333333 0.666667 0.625000 F F F P3+
