P14 N14 O14
1.0
4.827920 0.000000 -0.217257
-0.310161 4.817947 -0.217257
0.000000 0.000000 46.333216
P N O
14 14 14
Selective dynamics
direct
0.362209 0.083175 0.996099 T T T P5+
0.833175 0.112209 0.960385 T T T P5+
0.862209 0.583175 0.924670 T T T P5+
0.333175 0.612209 0.888956 T T T P5+
0.362209 0.083175 0.853242 F F F P5+
0.833175 0.112209 0.817527 F F F P5+
0.862209 0.583175 0.781813 F F F P5+
0.333175 0.612209 0.746099 F F F P5+
0.362209 0.083175 0.710385 F F F P5+
0.833175 0.112209 0.674670 F F F P5+
0.862209 0.583175 0.638956 F F F P5+
0.333175 0.612209 0.603242 F F F P5+
0.362209 0.083175 0.567527 T T T P5+
0.833175 0.112209 0.531813 T T T P5+
0.777308 0.277308 0.932473 T T T N3-
0.668077 0.168077 0.988297 T T T N3-
0.277308 0.777308 0.861044 F F F N3-
0.168077 0.668077 0.916868 F F F N3-
0.777308 0.277308 0.789615 F F F N3-
0.668077 0.168077 0.845440 F F F N3-
0.277308 0.777308 0.718187 F F F N3-
0.168077 0.668077 0.774011 F F F N3-
0.777308 0.277308 0.646758 F F F N3-
0.668077 0.168077 0.702582 F F F N3-
0.277308 0.777308 0.575330 F F F N3-
0.168077 0.668077 0.631154 F F F N3-
0.777308 0.277308 0.503901 T T T N3-
0.668077 0.168077 0.559725 T T T N3-
0.159192 0.159192 0.969456 T T T O2-
0.786192 0.786192 0.951313 F F F O2-
0.659192 0.659192 0.898027 F F F O2-
0.286192 0.286192 0.879885 F F F O2-
0.159192 0.159192 0.826599 F F F O2-
0.786192 0.786192 0.808456 F F F O2-
0.659192 0.659192 0.755170 F F F O2-
0.286192 0.286192 0.737027 F F F O2-
0.159192 0.159192 0.683742 F F F O2-
0.786192 0.786192 0.665599 T T T O2-
0.659192 0.659192 0.612313 T T T O2-
0.286192 0.286192 0.594170 T T T O2-
0.159192 0.159192 0.540885 T T T O2-
0.786192 0.786192 0.522742 T T T O2-
