Li73 P24 N1 O95                         
   1.00000000000000     
    14.6832748959767070   -0.0019420271287446   -0.0022361672920697
    -0.0013931731806912   10.5784710709588161   -0.0034877878982466
    -0.0019001209214648   -0.0040724020217336   12.3372748911799057
   Li   P    N    O 
    73    24     1    95
Direct
  0.1637435798241912  0.4178904954824475  0.9963387140730695
  0.1704342937522947  0.4212990968719730  0.4990101664250387
  0.1691114538735928  0.9230556237644134  0.0005170839581604
  0.1687183140487746  0.9198592593072336  0.4999549711563520
  0.5049137350226348  0.4227817225217878  0.9981846051314474
  0.5027389081288945  0.4231796889687673  0.5003067927695330
  0.5034006300636907  0.9213264450700093  0.9989727187828822
  0.5044326830540312  0.9226588426973998  0.5002958730818193
  0.8361131651473065  0.4224975691733265  0.9999346509997987
  0.8388216890099269  0.4220829138093492  0.4985408023848588
  0.8371244104949385  0.9231134232547289  0.0001224342434713
  0.8366273384597006  0.9216653356424290  0.5001578897318344
  0.0037200029663335  0.0771730355596563  0.2504522375524083
  0.0033346451287516  0.0781001618318581  0.7492456271377563
  0.0020789108712665  0.5775012074695888  0.2491639026740126
  0.0026307677213892  0.5769509436855850  0.7488111672248942
  0.3354786659498729  0.0736905501656436  0.2539603810811602
  0.3363615326538910  0.0784127196224361  0.7488924900010099
  0.3420708287199363  0.5903031265300839  0.2727648042991432
  0.3358363392415704  0.5751067308302935  0.7476535290260290
  0.6707556260649833  0.0772835221260657  0.2507941301085670
  0.6704561779848316  0.0782115303133826  0.7495528132822120
  0.6707040842157773  0.5775441855441827  0.2502271711157285
  0.6707326219400727  0.5768789213642399  0.7493053197180172
  0.1703500264167654  0.1666629031202786  0.1301213869595010
  0.1697784670021867  0.1631322636664644  0.6242512444432827
  0.1639209430455810  0.6680304368331503  0.1265119040621145
  0.1686462185614262  0.6633789300824020  0.6272534605168114
  0.5059814441800135  0.1598372055999720  0.1267731160687841
  0.5029331801199580  0.1632732270065232  0.6259049147304819
  0.5046869208939002  0.6650129050956283  0.1254967913927942
  0.5038901697948317  0.6635056381537721  0.6276325216391466
  0.8363118640255861  0.1639387940525525  0.1267497099146188
  0.8364018016657599  0.1630442293244061  0.6266169265891979
  0.8358986371574710  0.6635325022995109  0.1261228373508990
  0.8366796861250930  0.6633721850729902  0.6265290044856787
  0.0020672904072496  0.3384516882152576  0.1229335239786459
  0.0030705129850212  0.3358531135083533  0.6225690539022652
  0.0017759874913039  0.8378884451035340  0.1232387906847713
  0.0023722898232195  0.8365036269294960  0.6240853539151323
  0.3438864854295848  0.3130883630372538  0.1262533896082834
  0.3361234537875915  0.3366382288969040  0.6223576601472341
  0.3356666643798569  0.8372659643325043  0.1234224171994232
  0.3364003592878897  0.8373994301903460  0.6246510850037020
  0.6694305665261154  0.3370875886743510  0.1238789044711388
  0.6701139418214327  0.3366059903556188  0.6231007408015767
  0.6701970528391351  0.8372964739162825  0.1234633128047721
  0.6704661597833934  0.8370301476987583  0.6234140669019369
  0.0156386059923260  0.3370096960863678  0.3744654496175006
  0.0015031130134695  0.3362392805003046  0.8750778315981919
  0.0029338045056450  0.8357447396371080  0.3765092006399083
  0.0023314031911960  0.8377648816686706  0.8761507666953954
  0.3308698026322235  0.3360037474012583  0.3784505440199994
  0.3357155177293345  0.3345561726253267  0.8754737180615709
  0.3364368438023563  0.8395125223361901  0.3797146624445848
  0.3355001141732790  0.8386656172344509  0.8722281819706589
  0.6685425868875768  0.3370119377503457  0.3759405608216731
  0.6700795769102631  0.3364314411369594  0.8759719062525443
  0.6708466057948944  0.8371193250094524  0.3765592539136558
  0.6703761109506189  0.8375520762991766  0.8762292770433409
  0.1697350040311663  0.1629117531888212  0.3763123842001021
  0.1696061055066276  0.1624548318363129  0.8743593096039414
  0.1694380484059289  0.6588790757033660  0.3733112178086126
  0.1676474891701636  0.6636081034370489  0.8729042265581282
  0.5020863013859992  0.1630853011387284  0.3739484637842999
  0.5036875144304209  0.1626764195927867  0.8732829065545650
  0.5065209005265561  0.6656124126299251  0.3765671501421468
  0.5069332695979565  0.6646195059790311  0.8703398370476881
  0.8382074899851459  0.1644743053882460  0.3741308090673562
  0.8365950958019288  0.1633574424882648  0.8738211166341636
  0.8362890442654201  0.6632682696859949  0.3732961957858688
  0.8356372383190106  0.6639062247181824  0.8726596563077321
  0.2791095162994109  0.4931075340130654  0.1367269876600045
  0.1671099475492625  0.4084264156835373  0.2570312275044603
  0.1668527031072097  0.4114283029829184  0.7505310797531798
  0.1671791232892064  0.9103850260371316  0.2498607390181427
  0.1666702581292194  0.9122845070296292  0.7502766465322046
  0.4977419493048867  0.4152925122729323  0.2480371544497434
  0.5008630785126454  0.4114057251041005  0.7498786524155853
  0.5011822529747438  0.9115074206348499  0.2501830060747230
  0.5013416027676378  0.9132394814347572  0.7494734018464765
  0.8336381489079616  0.4122175268055239  0.2499396431983914
  0.8334238279040332  0.4119734460936558  0.7497170011017606
  0.8336284145497386  0.9123843324893772  0.2497992383920918
  0.8335976920772543  0.9126343151507771  0.7503024293635685
  0.0006136887541077  0.0886822839507247  0.0002636003464722
  0.9993222124118427  0.0857462206595934  0.4998899801301542
  0.9985884467272517  0.5887885941677052  0.9982543018287832
  0.9996992746424982  0.5882071610821216  0.5004775273545149
  0.3343059687479718  0.0832103148715985  0.9996877814787815
  0.3344675557294428  0.0861012533178288  0.5009158975379879
  0.3373124228056554  0.5921195758241832  0.9923483301592180
  0.3352898889016455  0.5903402730136850  0.5054538878146394
  0.6673158710931941  0.0876320656929874  0.9998364729131294
  0.6674246558155883  0.0883886089624542  0.4998551352128334
  0.6666370130006577  0.5880587182508097  0.9995626978039559
  0.6677112251853234  0.5873832108859103  0.5004158071410728
  0.1989713829165321  0.3392991885986237  0.3609232018413571
  0.0333693644956917  0.1523685552472769  0.3952174734888408
  0.0357846017493453  0.1573755447785678  0.8962761878171643
  0.0356249976568456  0.6562802877349085  0.3965653855456203
  0.0344138967769779  0.6576588021684300  0.8946982337822700
  0.3701538562682527  0.1542902049964337  0.3971390557620956
  0.3696869761154605  0.1554840718462108  0.8977097938655541
  0.3733257596791845  0.6634217627785128  0.4047211127454300
  0.3711175748181856  0.6588436693279598  0.8892422489804940
  0.7024801342304094  0.1577516897138620  0.3961582245518557
  0.7026489963217635  0.1570223847857539  0.8964294015055788
  0.7019957397730412  0.6567985422268012  0.3963956543495781
  0.7017874515763640  0.6569666092069467  0.8958029557070302
  0.2013132898574177  0.0495768074468090  0.2501309169783390
  0.2008814996894340  0.0519552927122239  0.7507703284138320
  0.2045512424245612  0.5541840451980050  0.2456695264612692
  0.2004264536812350  0.5515769091837228  0.7514785065093649
  0.5342764276946543  0.0516612660846945  0.2504516154545470
  0.5352671018861067  0.0529337273027555  0.7495826366488955
  0.5328272222670382  0.5544239820012764  0.2493669846054991
  0.5351482985928380  0.5510314771202369  0.7499724659605456
  0.8672616615207889  0.0521904978763260  0.2497271448438632
  0.8675428647764675  0.0523720949141394  0.7504670098675401
  0.8659852543605495  0.5528604738068675  0.2492148410372084
  0.8670404387588282  0.5519146407086003  0.7499197052026009
  0.0605826630334092  0.4164181752624062  0.2416005242168861
  0.0608409908223155  0.4085893235213631  0.7500671855135691
  0.0610966082300545  0.9074155105259577  0.2496989933572449
  0.0606596941505497  0.9099032151059355  0.7502916439839813
  0.3907362891521697  0.4170870114183645  0.2450513002577382
  0.3947234060482977  0.4084786371742842  0.7505402569258856
  0.3950458679292981  0.9062013144115717  0.2507954155123422
  0.3953054981584322  0.9113554098027211  0.7494061445437566
  0.7271614938158234  0.4088105612109117  0.2504696735514708
  0.7273185442155036  0.4091444911475720  0.7497216747175277
  0.7275072801368468  0.9094215457072210  0.2498854786996886
  0.7275044831052129  0.9101101203880726  0.7500763494205056
  0.2285345353223541  0.0900243637247986  0.0016566436445495
  0.2287105857900429  0.0845323003665304  0.5014083241031043
  0.2306369642569240  0.5904081784435319  0.9997050077415889
  0.2296670604950243  0.5946778093969253  0.5026047775483934
  0.5611879829425879  0.0893727208067021  0.9991797691763551
  0.5613350460003297  0.0913661964743570  0.4997511805250109
  0.5604081953431924  0.5912960228618520  0.9990459663936371
  0.5616237667678226  0.5900433298633901  0.5012711680591262
  0.8945079561076104  0.0915531834100680  0.0003458729504036
  0.8931729267910623  0.0887674331562499  0.5013266717253330
  0.8926439850879275  0.5915078728027056  0.9986776541765473
  0.8935460834385572  0.5925590199660402  0.4999287871000362
  0.2061681004170796  0.3492846450782824  0.1429793969401165
  0.2030891355434007  0.3425724964283938  0.6477240168450386
  0.2022295951613032  0.8419595542772514  0.1452840949000553
  0.2021385302859568  0.8427611167243008  0.6470037143239330
  0.5322725496667924  0.3443833809126048  0.1447423429508553
  0.5359092624553718  0.3425022652494953  0.6461041021360492
  0.5362051596575784  0.8435427836202648  0.1457065670795061
  0.5367373460372800  0.8434541949866439  0.6462163038849235
  0.8677686743022056  0.3438255200308692  0.1451904149526324
  0.8688593373322117  0.3427932739140614  0.6462828104213939
  0.8685132699572977  0.8433478050037537  0.1457828117931784
  0.8686609479017156  0.8430435662533305  0.6468426312091355
  0.0362649826030473  0.1577720026831514  0.1037646163409976
  0.0354106997275008  0.1557274779168232  0.6030384544856873
  0.0338405565316374  0.6586330619209367  0.1015430184211840
  0.0349626411403983  0.6578378065240469  0.6042698065577226
  0.3724086228306439  0.1461996062254078  0.1050655936910433
  0.3690365177570541  0.1571314941912702  0.6043246256504414
  0.3704182173714892  0.6577146068377421  0.0990914560486311
  0.3698218471328135  0.6574699799290046  0.6103336430052871
  0.7013803794776750  0.1571997027767103  0.1040175579412256
  0.7026265057972122  0.1571669966820526  0.6037821228138425
  0.7015164976294527  0.6570179563618578  0.1034914234159231
  0.7030958897842855  0.6566567400651766  0.6040024698306081
  0.0320954271093625  0.4489275151929110  0.9974787614915240
  0.0322724238402334  0.4485170710087492  0.5020852124136327
  0.0339480154285685  0.9485487373721321  0.0000104638851823
  0.0329814432021101  0.9456525170443190  0.5008937670711957
  0.3679810744418150  0.4503358833673128  0.9991817648180192
  0.3697617882196375  0.4512974711560174  0.5022808513701080
  0.3667012175651007  0.9430465523487367  0.9969410176693290
  0.3701347914440926  0.9469303272065918  0.5019725155393117
  0.6996792344894119  0.4479404045744288  0.9998554873011850
  0.7012166320153739  0.4474958179628594  0.4996267957971479
  0.7015810577146968  0.9481027500809791  0.0000671341762078
  0.7009345298928144  0.9483843570946785  0.4997726459158764
  0.2018989231983314  0.3426545872964003  0.8548512120440039
  0.2027520859142879  0.8402196704038918  0.3529548048430018
  0.2017267368884412  0.8427666510808386  0.8541746730770871
  0.5310896570936090  0.3450135151581533  0.3516640652725297
  0.5360040303394743  0.3424359042542505  0.8538052945007019
  0.5375750009503356  0.8431160239685168  0.3535014090299795
  0.5364635633378650  0.8440461978575970  0.8533016447059418
  0.8703322206542153  0.3437702705827871  0.3527967872743419
  0.8682712174582931  0.3430837141536247  0.8537432491164879
  0.8688012240935598  0.8430057768179510  0.3533129569034906
  0.8684901890907959  0.8436267320500032  0.8542397672362509
 
  0.00000000E+00  0.00000000E+00  0.00000000E+00
  0.00000000E+00  0.00000000E+00  0.00000000E+00
  0.00000000E+00  0.00000000E+00  0.00000000E+00
  0.00000000E+00  0.00000000E+00  0.00000000E+00
  0.00000000E+00  0.00000000E+00  0.00000000E+00
  0.00000000E+00  0.00000000E+00  0.00000000E+00
  0.00000000E+00  0.00000000E+00  0.00000000E+00
  0.00000000E+00  0.00000000E+00  0.00000000E+00
  0.00000000E+00  0.00000000E+00  0.00000000E+00
  0.00000000E+00  0.00000000E+00  0.00000000E+00
  0.00000000E+00  0.00000000E+00  0.00000000E+00
  0.00000000E+00  0.00000000E+00  0.00000000E+00
  0.00000000E+00  0.00000000E+00  0.00000000E+00
  0.00000000E+00  0.00000000E+00  0.00000000E+00
  0.00000000E+00  0.00000000E+00  0.00000000E+00
  0.00000000E+00  0.00000000E+00  0.00000000E+00
  0.00000000E+00  0.00000000E+00  0.00000000E+00
  0.00000000E+00  0.00000000E+00  0.00000000E+00
  0.00000000E+00  0.00000000E+00  0.00000000E+00
  0.00000000E+00  0.00000000E+00  0.00000000E+00
  0.00000000E+00  0.00000000E+00  0.00000000E+00
  0.00000000E+00  0.00000000E+00  0.00000000E+00
  0.00000000E+00  0.00000000E+00  0.00000000E+00
  0.00000000E+00  0.00000000E+00  0.00000000E+00
  0.00000000E+00  0.00000000E+00  0.00000000E+00
  0.00000000E+00  0.00000000E+00  0.00000000E+00
  0.00000000E+00  0.00000000E+00  0.00000000E+00
  0.00000000E+00  0.00000000E+00  0.00000000E+00
  0.00000000E+00  0.00000000E+00  0.00000000E+00
  0.00000000E+00  0.00000000E+00  0.00000000E+00
  0.00000000E+00  0.00000000E+00  0.00000000E+00
  0.00000000E+00  0.00000000E+00  0.00000000E+00
  0.00000000E+00  0.00000000E+00  0.00000000E+00
  0.00000000E+00  0.00000000E+00  0.00000000E+00
  0.00000000E+00  0.00000000E+00  0.00000000E+00
  0.00000000E+00  0.00000000E+00  0.00000000E+00
  0.00000000E+00  0.00000000E+00  0.00000000E+00
  0.00000000E+00  0.00000000E+00  0.00000000E+00
  0.00000000E+00  0.00000000E+00  0.00000000E+00
  0.00000000E+00  0.00000000E+00  0.00000000E+00
  0.00000000E+00  0.00000000E+00  0.00000000E+00
  0.00000000E+00  0.00000000E+00  0.00000000E+00
  0.00000000E+00  0.00000000E+00  0.00000000E+00
  0.00000000E+00  0.00000000E+00  0.00000000E+00
  0.00000000E+00  0.00000000E+00  0.00000000E+00
  0.00000000E+00  0.00000000E+00  0.00000000E+00
  0.00000000E+00  0.00000000E+00  0.00000000E+00
  0.00000000E+00  0.00000000E+00  0.00000000E+00
  0.00000000E+00  0.00000000E+00  0.00000000E+00
  0.00000000E+00  0.00000000E+00  0.00000000E+00
  0.00000000E+00  0.00000000E+00  0.00000000E+00
  0.00000000E+00  0.00000000E+00  0.00000000E+00
  0.00000000E+00  0.00000000E+00  0.00000000E+00
  0.00000000E+00  0.00000000E+00  0.00000000E+00
  0.00000000E+00  0.00000000E+00  0.00000000E+00
  0.00000000E+00  0.00000000E+00  0.00000000E+00
  0.00000000E+00  0.00000000E+00  0.00000000E+00
  0.00000000E+00  0.00000000E+00  0.00000000E+00
  0.00000000E+00  0.00000000E+00  0.00000000E+00
  0.00000000E+00  0.00000000E+00  0.00000000E+00
  0.00000000E+00  0.00000000E+00  0.00000000E+00
  0.00000000E+00  0.00000000E+00  0.00000000E+00
  0.00000000E+00  0.00000000E+00  0.00000000E+00
  0.00000000E+00  0.00000000E+00  0.00000000E+00
  0.00000000E+00  0.00000000E+00  0.00000000E+00
  0.00000000E+00  0.00000000E+00  0.00000000E+00
  0.00000000E+00  0.00000000E+00  0.00000000E+00
  0.00000000E+00  0.00000000E+00  0.00000000E+00
  0.00000000E+00  0.00000000E+00  0.00000000E+00
  0.00000000E+00  0.00000000E+00  0.00000000E+00
  0.00000000E+00  0.00000000E+00  0.00000000E+00
  0.00000000E+00  0.00000000E+00  0.00000000E+00
  0.00000000E+00  0.00000000E+00  0.00000000E+00
  0.00000000E+00  0.00000000E+00  0.00000000E+00
  0.00000000E+00  0.00000000E+00  0.00000000E+00
  0.00000000E+00  0.00000000E+00  0.00000000E+00
  0.00000000E+00  0.00000000E+00  0.00000000E+00
  0.00000000E+00  0.00000000E+00  0.00000000E+00
  0.00000000E+00  0.00000000E+00  0.00000000E+00
  0.00000000E+00  0.00000000E+00  0.00000000E+00
  0.00000000E+00  0.00000000E+00  0.00000000E+00
  0.00000000E+00  0.00000000E+00  0.00000000E+00
  0.00000000E+00  0.00000000E+00  0.00000000E+00
  0.00000000E+00  0.00000000E+00  0.00000000E+00
  0.00000000E+00  0.00000000E+00  0.00000000E+00
  0.00000000E+00  0.00000000E+00  0.00000000E+00
  0.00000000E+00  0.00000000E+00  0.00000000E+00
  0.00000000E+00  0.00000000E+00  0.00000000E+00
  0.00000000E+00  0.00000000E+00  0.00000000E+00
  0.00000000E+00  0.00000000E+00  0.00000000E+00
  0.00000000E+00  0.00000000E+00  0.00000000E+00
  0.00000000E+00  0.00000000E+00  0.00000000E+00
  0.00000000E+00  0.00000000E+00  0.00000000E+00
  0.00000000E+00  0.00000000E+00  0.00000000E+00
  0.00000000E+00  0.00000000E+00  0.00000000E+00
  0.00000000E+00  0.00000000E+00  0.00000000E+00
  0.00000000E+00  0.00000000E+00  0.00000000E+00
  0.00000000E+00  0.00000000E+00  0.00000000E+00
  0.00000000E+00  0.00000000E+00  0.00000000E+00
  0.00000000E+00  0.00000000E+00  0.00000000E+00
  0.00000000E+00  0.00000000E+00  0.00000000E+00
  0.00000000E+00  0.00000000E+00  0.00000000E+00
  0.00000000E+00  0.00000000E+00  0.00000000E+00
  0.00000000E+00  0.00000000E+00  0.00000000E+00
  0.00000000E+00  0.00000000E+00  0.00000000E+00
  0.00000000E+00  0.00000000E+00  0.00000000E+00
  0.00000000E+00  0.00000000E+00  0.00000000E+00
  0.00000000E+00  0.00000000E+00  0.00000000E+00
  0.00000000E+00  0.00000000E+00  0.00000000E+00
  0.00000000E+00  0.00000000E+00  0.00000000E+00
  0.00000000E+00  0.00000000E+00  0.00000000E+00
  0.00000000E+00  0.00000000E+00  0.00000000E+00
  0.00000000E+00  0.00000000E+00  0.00000000E+00
  0.00000000E+00  0.00000000E+00  0.00000000E+00
  0.00000000E+00  0.00000000E+00  0.00000000E+00
  0.00000000E+00  0.00000000E+00  0.00000000E+00
  0.00000000E+00  0.00000000E+00  0.00000000E+00
  0.00000000E+00  0.00000000E+00  0.00000000E+00
  0.00000000E+00  0.00000000E+00  0.00000000E+00
  0.00000000E+00  0.00000000E+00  0.00000000E+00
  0.00000000E+00  0.00000000E+00  0.00000000E+00
  0.00000000E+00  0.00000000E+00  0.00000000E+00
  0.00000000E+00  0.00000000E+00  0.00000000E+00
  0.00000000E+00  0.00000000E+00  0.00000000E+00
  0.00000000E+00  0.00000000E+00  0.00000000E+00
  0.00000000E+00  0.00000000E+00  0.00000000E+00
  0.00000000E+00  0.00000000E+00  0.00000000E+00
  0.00000000E+00  0.00000000E+00  0.00000000E+00
  0.00000000E+00  0.00000000E+00  0.00000000E+00
  0.00000000E+00  0.00000000E+00  0.00000000E+00
  0.00000000E+00  0.00000000E+00  0.00000000E+00
  0.00000000E+00  0.00000000E+00  0.00000000E+00
  0.00000000E+00  0.00000000E+00  0.00000000E+00
  0.00000000E+00  0.00000000E+00  0.00000000E+00
  0.00000000E+00  0.00000000E+00  0.00000000E+00
  0.00000000E+00  0.00000000E+00  0.00000000E+00
  0.00000000E+00  0.00000000E+00  0.00000000E+00
  0.00000000E+00  0.00000000E+00  0.00000000E+00
  0.00000000E+00  0.00000000E+00  0.00000000E+00
  0.00000000E+00  0.00000000E+00  0.00000000E+00
  0.00000000E+00  0.00000000E+00  0.00000000E+00
  0.00000000E+00  0.00000000E+00  0.00000000E+00
  0.00000000E+00  0.00000000E+00  0.00000000E+00
  0.00000000E+00  0.00000000E+00  0.00000000E+00
  0.00000000E+00  0.00000000E+00  0.00000000E+00
  0.00000000E+00  0.00000000E+00  0.00000000E+00
  0.00000000E+00  0.00000000E+00  0.00000000E+00
  0.00000000E+00  0.00000000E+00  0.00000000E+00
  0.00000000E+00  0.00000000E+00  0.00000000E+00
  0.00000000E+00  0.00000000E+00  0.00000000E+00
  0.00000000E+00  0.00000000E+00  0.00000000E+00
  0.00000000E+00  0.00000000E+00  0.00000000E+00
  0.00000000E+00  0.00000000E+00  0.00000000E+00
  0.00000000E+00  0.00000000E+00  0.00000000E+00
  0.00000000E+00  0.00000000E+00  0.00000000E+00
  0.00000000E+00  0.00000000E+00  0.00000000E+00
  0.00000000E+00  0.00000000E+00  0.00000000E+00
  0.00000000E+00  0.00000000E+00  0.00000000E+00
  0.00000000E+00  0.00000000E+00  0.00000000E+00
  0.00000000E+00  0.00000000E+00  0.00000000E+00
  0.00000000E+00  0.00000000E+00  0.00000000E+00
  0.00000000E+00  0.00000000E+00  0.00000000E+00
  0.00000000E+00  0.00000000E+00  0.00000000E+00
  0.00000000E+00  0.00000000E+00  0.00000000E+00
  0.00000000E+00  0.00000000E+00  0.00000000E+00
  0.00000000E+00  0.00000000E+00  0.00000000E+00
  0.00000000E+00  0.00000000E+00  0.00000000E+00
  0.00000000E+00  0.00000000E+00  0.00000000E+00
  0.00000000E+00  0.00000000E+00  0.00000000E+00
  0.00000000E+00  0.00000000E+00  0.00000000E+00
  0.00000000E+00  0.00000000E+00  0.00000000E+00
  0.00000000E+00  0.00000000E+00  0.00000000E+00
  0.00000000E+00  0.00000000E+00  0.00000000E+00
  0.00000000E+00  0.00000000E+00  0.00000000E+00
  0.00000000E+00  0.00000000E+00  0.00000000E+00
  0.00000000E+00  0.00000000E+00  0.00000000E+00
  0.00000000E+00  0.00000000E+00  0.00000000E+00
  0.00000000E+00  0.00000000E+00  0.00000000E+00
  0.00000000E+00  0.00000000E+00  0.00000000E+00
  0.00000000E+00  0.00000000E+00  0.00000000E+00
  0.00000000E+00  0.00000000E+00  0.00000000E+00
  0.00000000E+00  0.00000000E+00  0.00000000E+00
  0.00000000E+00  0.00000000E+00  0.00000000E+00
  0.00000000E+00  0.00000000E+00  0.00000000E+00
  0.00000000E+00  0.00000000E+00  0.00000000E+00
  0.00000000E+00  0.00000000E+00  0.00000000E+00
  0.00000000E+00  0.00000000E+00  0.00000000E+00
  0.00000000E+00  0.00000000E+00  0.00000000E+00
  0.00000000E+00  0.00000000E+00  0.00000000E+00
  0.00000000E+00  0.00000000E+00  0.00000000E+00
  0.00000000E+00  0.00000000E+00  0.00000000E+00
  0.00000000E+00  0.00000000E+00  0.00000000E+00
  0.00000000E+00  0.00000000E+00  0.00000000E+00
