Li14 N42
1.0
5.685068 0.000000 0.000000
-1.480851 4.763721 -3.354050
0.000000 0.000000 50.310750
Li N
14 42
direct
0.000000 0.000000 0.058557 Li+
0.500000 0.000000 0.025224 Li+
0.000000 0.000000 0.125224 Li+
0.500000 0.000000 0.091890 Li+
0.000000 0.000000 0.191890 Li+
0.500000 0.000000 0.158557 Li+
0.000000 0.000000 0.258557 Li+
0.500000 0.000000 0.225224 Li+
0.000000 0.000000 0.325224 Li+
0.500000 0.000000 0.291890 Li+
0.000000 0.000000 0.391890 Li+
0.500000 0.000000 0.358557 Li+
0.000000 0.000000 0.458557 Li+
0.500000 0.000000 0.425224 Li+
0.605811 0.743293 0.041443 N3-
0.394189 0.256707 0.009004 N3-
0.500000 0.500000 0.025224 N3-
0.105811 0.743293 0.008110 N3-
0.894189 0.256707 0.042337 N3-
0.000000 0.500000 0.058557 N3-
0.605811 0.743293 0.108110 N3-
0.394189 0.256707 0.075671 N3-
0.500000 0.500000 0.091890 N3-
0.105811 0.743293 0.074776 N3-
0.894189 0.256707 0.109004 N3-
0.000000 0.500000 0.125224 N3-
0.605811 0.743293 0.174776 N3-
0.394189 0.256707 0.142337 N3-
0.500000 0.500000 0.158557 N3-
0.105811 0.743293 0.141443 N3-
0.894189 0.256707 0.175671 N3-
0.000000 0.500000 0.191890 N3-
0.605811 0.743293 0.241443 N3-
0.394189 0.256707 0.209004 N3-
0.500000 0.500000 0.225224 N3-
0.105811 0.743293 0.208110 N3-
0.894189 0.256707 0.242337 N3-
0.000000 0.500000 0.258557 N3-
0.605811 0.743293 0.308110 N3-
0.394189 0.256707 0.275671 N3-
0.500000 0.500000 0.291890 N3-
0.105811 0.743293 0.274776 N3-
0.894189 0.256707 0.309004 N3-
0.000000 0.500000 0.325224 N3-
0.605811 0.743293 0.374776 N3-
0.394189 0.256707 0.342337 N3-
0.500000 0.500000 0.358557 N3-
0.105811 0.743293 0.341443 N3-
0.894189 0.256707 0.375671 N3-
0.000000 0.500000 0.391890 N3-
0.605811 0.743293 0.441443 N3-
0.394189 0.256707 0.409004 N3-
0.500000 0.500000 0.425224 N3-
0.105811 0.743293 0.408110 N3-
0.894189 0.256707 0.442337 N3-
0.000000 0.500000 0.458557 N3-
