Li56 P28 O98
1.0
4.907295 0.000000 -1.895193
-0.730671 8.419349 5.315209
0.000000 0.000000 79.370284
Li P O
56 28 98
direct
0.744463 0.987971 0.053109 Li+
0.255537 0.012029 0.077282 Li+
0.395677 0.751653 0.034252 Li+
0.604323 0.248347 0.005230 Li+
0.027769 0.791276 0.054376 Li+
0.972231 0.208724 0.076015 Li+
0.056952 0.450796 0.002225 Li+
0.943048 0.549204 0.037258 Li+
0.744463 0.987971 0.144018 Li+
0.255537 0.012029 0.168191 Li+
0.395677 0.751653 0.125161 Li+
0.604323 0.248347 0.096139 Li+
0.027769 0.791276 0.145285 Li+
0.972231 0.208724 0.166924 Li+
0.056952 0.450796 0.093134 Li+
0.943048 0.549204 0.128167 Li+
0.744463 0.987971 0.234928 Li+
0.255537 0.012029 0.259100 Li+
0.395677 0.751653 0.216070 Li+
0.604323 0.248347 0.187048 Li+
0.027769 0.791276 0.236194 Li+
0.972231 0.208724 0.257833 Li+
0.056952 0.450796 0.184043 Li+
0.943048 0.549204 0.219076 Li+
0.744463 0.987971 0.325837 Li+
0.255537 0.012029 0.350009 Li+
0.395677 0.751653 0.306979 Li+
0.604323 0.248347 0.277957 Li+
0.027769 0.791276 0.327103 Li+
0.972231 0.208724 0.348742 Li+
0.056952 0.450796 0.274952 Li+
0.943048 0.549204 0.309985 Li+
0.744463 0.987971 0.416746 Li+
0.255537 0.012029 0.440918 Li+
0.395677 0.751653 0.397888 Li+
0.604323 0.248347 0.368867 Li+
0.027769 0.791276 0.418013 Li+
0.972231 0.208724 0.439651 Li+
0.056952 0.450796 0.365861 Li+
0.943048 0.549204 0.400894 Li+
0.744463 0.987971 0.507655 Li+
0.255537 0.012029 0.531827 Li+
0.395677 0.751653 0.488797 Li+
0.604323 0.248347 0.459776 Li+
0.027769 0.791276 0.508922 Li+
0.972231 0.208724 0.530560 Li+
0.056952 0.450796 0.456770 Li+
0.943048 0.549204 0.491803 Li+
0.744463 0.987971 0.598564 Li+
0.255537 0.012029 0.622736 Li+
0.395677 0.751653 0.579707 Li+
0.604323 0.248347 0.550685 Li+
0.027769 0.791276 0.599831 Li+
0.972231 0.208724 0.621470 Li+
0.056952 0.450796 0.547679 Li+
0.943048 0.549204 0.582712 Li+
0.573990 0.631956 0.079263 P5+
0.426010 0.368044 0.051128 P5+
0.784272 0.845502 0.008401 P5+
0.215728 0.154498 0.031081 P5+
0.573990 0.631956 0.170173 P5+
0.426010 0.368044 0.142037 P5+
0.784272 0.845502 0.099310 P5+
0.215728 0.154498 0.121990 P5+
0.573990 0.631956 0.261082 P5+
0.426010 0.368044 0.232946 P5+
0.784272 0.845502 0.190219 P5+
0.215728 0.154498 0.212900 P5+
0.573990 0.631956 0.351991 P5+
0.426010 0.368044 0.323855 P5+
0.784272 0.845502 0.281128 P5+
0.215728 0.154498 0.303809 P5+
0.573990 0.631956 0.442900 P5+
0.426010 0.368044 0.414764 P5+
0.784272 0.845502 0.372037 P5+
0.215728 0.154498 0.394718 P5+
0.573990 0.631956 0.533809 P5+
0.426010 0.368044 0.505673 P5+
0.784272 0.845502 0.462946 P5+
0.215728 0.154498 0.485627 P5+
0.573990 0.631956 0.624718 P5+
0.426010 0.368044 0.596582 P5+
0.784272 0.845502 0.553855 P5+
0.215728 0.154498 0.576536 P5+
0.519912 0.874340 0.009187 O2-
0.006130 0.790684 0.029159 O2-
0.993870 0.209316 0.010323 O2-
0.882911 0.981976 0.080599 O2-
0.732561 0.376455 0.054304 O2-
0.267439 0.623545 0.076087 O2-
0.314844 0.526190 0.041707 O2-
0.685156 0.473810 0.088685 O2-
0.338222 0.236504 0.070750 O2-
0.661778 0.763496 0.059642 O2-
0.733069 0.683894 0.006443 O2-
0.266931 0.316106 0.033039 O2-
0.117089 0.018024 0.049793 O2-
0.480088 0.125660 0.030295 O2-
0.519912 0.874340 0.100096 O2-
0.006130 0.790684 0.120068 O2-
0.993870 0.209316 0.101232 O2-
0.882911 0.981976 0.171508 O2-
0.732561 0.376455 0.145213 O2-
0.267439 0.623545 0.166996 O2-
0.314844 0.526190 0.132616 O2-
0.685156 0.473810 0.179594 O2-
0.338222 0.236504 0.161659 O2-
0.661778 0.763496 0.150551 O2-
0.733069 0.683894 0.097352 O2-
0.266931 0.316106 0.123948 O2-
0.117089 0.018024 0.140702 O2-
0.480088 0.125660 0.121205 O2-
0.519912 0.874340 0.191005 O2-
0.006130 0.790684 0.210977 O2-
0.993870 0.209316 0.192141 O2-
0.882911 0.981976 0.262417 O2-
0.732561 0.376455 0.236122 O2-
0.267439 0.623545 0.257905 O2-
0.314844 0.526190 0.223525 O2-
0.685156 0.473810 0.270503 O2-
0.338222 0.236504 0.252568 O2-
0.661778 0.763496 0.241460 O2-
0.733069 0.683894 0.188261 O2-
0.266931 0.316106 0.214857 O2-
0.117089 0.018024 0.231611 O2-
0.480088 0.125660 0.212114 O2-
0.519912 0.874340 0.281914 O2-
0.006130 0.790684 0.301886 O2-
0.993870 0.209316 0.283050 O2-
0.882911 0.981976 0.353326 O2-
0.732561 0.376455 0.327031 O2-
0.267439 0.623545 0.348814 O2-
0.314844 0.526190 0.314434 O2-
0.685156 0.473810 0.361412 O2-
0.338222 0.236504 0.343477 O2-
0.661778 0.763496 0.332369 O2-
0.733069 0.683894 0.279170 O2-
0.266931 0.316106 0.305766 O2-
0.117089 0.018024 0.322520 O2-
0.480088 0.125660 0.303023 O2-
0.519912 0.874340 0.372823 O2-
0.006130 0.790684 0.392795 O2-
0.993870 0.209316 0.373960 O2-
0.882911 0.981976 0.444235 O2-
0.732561 0.376455 0.417941 O2-
0.267439 0.623545 0.439723 O2-
0.314844 0.526190 0.405343 O2-
0.685156 0.473810 0.452321 O2-
0.338222 0.236504 0.434386 O2-
0.661778 0.763496 0.423278 O2-
0.733069 0.683894 0.370079 O2-
0.266931 0.316106 0.396675 O2-
0.117089 0.018024 0.413429 O2-
0.480088 0.125660 0.393932 O2-
0.519912 0.874340 0.463732 O2-
0.006130 0.790684 0.483704 O2-
0.993870 0.209316 0.464869 O2-
0.882911 0.981976 0.535144 O2-
0.732561 0.376455 0.508850 O2-
0.267439 0.623545 0.530632 O2-
0.314844 0.526190 0.496252 O2-
0.685156 0.473810 0.543230 O2-
0.338222 0.236504 0.525295 O2-
0.661778 0.763496 0.514187 O2-
0.733069 0.683894 0.460988 O2-
0.266931 0.316106 0.487584 O2-
0.117089 0.018024 0.504338 O2-
0.480088 0.125660 0.484841 O2-
0.519912 0.874340 0.554641 O2-
0.006130 0.790684 0.574613 O2-
0.993870 0.209316 0.555778 O2-
0.882911 0.981976 0.626053 O2-
0.732561 0.376455 0.599759 O2-
0.267439 0.623545 0.621541 O2-
0.314844 0.526190 0.587161 O2-
0.685156 0.473810 0.634139 O2-
0.338222 0.236504 0.616204 O2-
0.661778 0.763496 0.605096 O2-
0.733069 0.683894 0.551898 O2-
0.266931 0.316106 0.578494 O2-
0.117089 0.018024 0.595247 O2-
0.480088 0.125660 0.575750 O2-
