Li71 P24 N1 O94                         
   1.00000000000000     
    14.7247534629905736   -0.0033572647607147   -0.0075482850164333
    -0.0024132070112080   10.5635276084174983    0.0060188102957530
    -0.0063050990550359    0.0070201947406302   12.3176358827402588
   Li   P    N    O 
    71    24     1    94
Direct
  0.1684401595248867  0.4212971628204352 -0.0052256195805029
  0.1631453433327292  0.4341909554943890  0.5211653213926809
  0.1684912458117148  0.9319643260084673  0.0073169811875102
  0.1705588185880247  0.9216818996147481  0.5005348921592665
  0.5045958334255828  0.4224048409423561 -0.0012186803885897
  0.5058127283497855  0.4240462934145788  0.5027216110934957
  0.5043184789635476  0.9223514840158259 -0.0006327031841065
  0.5023361028948291  0.9225902283830671  0.4996635124199738
  0.8361951540694863  0.4225863350774387 -0.0001652246457131
  0.8342117714659579  0.4221294979026241  0.5005402030597218
  0.8363201371196720  0.9204679817989011 -0.0011238654086024
  0.8363802015599874  0.9229066971029400  0.4995637967024210
  0.0066579826328587  0.0778827247637496  0.2449959210313117
  0.0032191388430750  0.0773241968302831  0.7519949007386256
 -0.0010200536251662  0.5823906383934808  0.2502378033075324
  0.0028686252580099  0.5782677283529709  0.7513332195281688
  0.3327075204590609  0.0778699419666799  0.2421532960107741
  0.3362980476882511  0.0775466084241777  0.7517943674036164
  0.3371667036544085  0.5788894820656784  0.2479369600584939
  0.3366743816494820  0.5773658872741738  0.7511593147325479
  0.6710594685695953  0.0768973780258692  0.2488677508904182
  0.6699180096145532  0.0766052773130517  0.7497702399571700
  0.6704029021674168  0.5790274405665098  0.2494208210562038
  0.6691778690031704  0.5781540496555795  0.7502877759483620
  0.1689170330552080  0.1628290121591353  0.6280998072930207
  0.1690488699203916  0.6661009117199332  0.1229177202633928
  0.1699379530134770  0.6667108397205583  0.6284222225140164
  0.5043650374920744  0.1612806835049057  0.1251718220340813
  0.5027622820329817  0.1630944692157730  0.6265401988560216
  0.5032706123310841  0.6639847850498076  0.1253713781728430
  0.5026227613884193  0.6641020723911318  0.6264107404395255
  0.8397617516588799  0.1619566456429612  0.1244991271772364
  0.8359243846470904  0.1629563796219673  0.6258161385987969
  0.8357788118098727  0.6637366921505670  0.1259703428678449
  0.8352531067376271  0.6636813788779794  0.6268599921311168
  0.0018756987600096  0.3341837254455010  0.1223851633896023
  0.0007075805378785  0.3358638300141115  0.6261037371245388
  0.0033093294723279  0.8380841476729675  0.1239332435883058
  0.0026542454933822  0.8377327181676646  0.6238744680456361
  0.3420385294298491  0.3290997117993322  0.1192886421420960
  0.3361904522501237  0.3359285673424965  0.6251930524209353
  0.3368448745729802  0.8377372425769659  0.1216810660704057
  0.3360132021674583  0.8376948132345839  0.6236222550902629
  0.6712039638136518  0.3358451701343084  0.1228339791310211
  0.6693064067267285  0.3365971494366029  0.6243876709575589
  0.6699802877714698  0.8371010149434138  0.1235894981826202
  0.6691376481271016  0.8369751027658645  0.6233127610503453
 -0.0020299758127867  0.3356241394138890  0.3790353016672894
  0.0019448291524285  0.3353826420856829  0.8773575838600093
  0.0028843750071336  0.8380579597092733  0.3762549015332204
  0.0037049666870850  0.8383236204895412  0.8776335257770775
  0.3621629015049652  0.3360024211420525  0.3786816039203426
  0.3373193295351736  0.3337569304502532  0.8771101038519191
  0.3350926072380249  0.8373539197729184  0.3746577709100427
  0.3359975741070771  0.8377398386886400  0.8769201691185210
  0.6685181049780829  0.3366799076838025  0.3762947817361540
  0.6700081178318154  0.3365538579773313  0.8761303974838676
  0.6691609281602305  0.8373830623183185  0.3762575200346564
  0.6698203445391807  0.8368437465799904  0.8756435703280447
  0.1655053286063560  0.1451066053995388  0.3703218258673852
  0.1684242703827066  0.1624406044688468  0.8799387329123016
  0.1669471350462196  0.6649214003422707  0.3774933672802965
  0.1699833846514462  0.6648423685906866  0.8748376010568129
  0.5041860761345300  0.1599444273159330  0.3721739996436561
  0.5043340352956758  0.1624807431744470  0.8734544602278048
  0.5029773459392940  0.6640120173887835  0.3732706465637080
  0.5026276185979199  0.6637797090011461  0.8734626160727129
  0.8357096228198314  0.1626419518997807  0.3724328171075224
  0.8356141178521235  0.1623976900462102  0.8714664820100754
  0.8351394651329068  0.6642263627100975  0.3745180143666403
  0.8363183466440315  0.6633494444186955  0.8733256529951224
  0.1631916076486223  0.4170999023789239  0.2497559773461613
  0.1668495476385228  0.4121972658281366  0.7518325780370705
  0.1682862963007413  0.9092925021106458  0.2520043473272791
  0.1670441740679524  0.9128126918528489  0.7506552894473199
  0.5014702978433443  0.4135083752532637  0.2484420320244502
  0.5004981784399860  0.4124340107769064  0.7500640577116442
  0.5008124172270807  0.9118644701301581  0.2498216248358779
  0.5006523219842429  0.9119978803310436  0.7492235585052883
  0.8321684757906233  0.4129889743165026  0.2502356998651834
  0.8332600578909282  0.4127024152517341  0.7500508771304596
  0.8341408110325471  0.9118102088482007  0.2504172654277084
  0.8339797167364147  0.9115941448341625  0.7488108419837363
 -0.0030153646535285  0.0884461107479607  0.0005608910620560
  0.0006462825501586  0.0890106154647861  0.5004412496151880
  0.0000636771093047  0.5876454031011816  0.0003139537315557
 -0.0010068816989377  0.5879417472348923  0.5006464914002133
  0.3361526816354150  0.0854908526415846 -0.0026033822037438
  0.3330098033892748  0.0893751145169193  0.4991312691475445
  0.3347203440688956  0.5867661440863828 -0.0006315111632189
  0.3334276468696763  0.5871491066660216  0.4996996898679509
  0.6684386814120632  0.0872619856086919 -0.0006810334677736
  0.6668122320813767  0.0880626952943064  0.4998092225525000
  0.6673713531633073  0.5881603491922883 -0.0004509882969948
  0.6664031693326903  0.5883288029990816  0.5001309618058086
  0.2088651377344557  0.3522553594505718  0.1436288979170328
  0.0368476047583959  0.1594414371378437  0.3971095044453599
  0.0338823460393319  0.1572307307942346  0.8967355445769222
  0.0338294263249811  0.6562360227079268  0.3963479900464001
  0.0359397966969353  0.6570072120064184  0.8968541350083186
  0.3683993578635628  0.1585754092771218  0.3950696090367343
  0.3731520988383311  0.1558553281959379  0.8939426226404238
  0.3682631071340867  0.6556785641838426  0.3957001320314535
  0.3689545257603231  0.6570344120221052  0.8954693787056671
  0.7017036548447984  0.1573752655023929  0.3957622751825368
  0.7026914917655748  0.1565205676985788  0.8948953435834558
  0.7018909014356214  0.6573414498616307  0.3964211892040825
  0.7026856892078562  0.6571157034028028  0.8956069590801418
  0.2044901798411409  0.0456734090585159  0.2566752892512340
  0.2002414868482429  0.0529266725202480  0.7501021248551791
  0.1993043161790864  0.5564786626955971  0.2532417370861020
  0.2003978791262379  0.5523692763056811  0.7502929820635073
  0.5355592243841796  0.0514947993416329  0.2498754056051551
  0.5348873721777865  0.0517739683678648  0.7489630800119100
  0.5358054777829034  0.5529058304158871  0.2497488626009440
  0.5338214722350069  0.5526756092894177  0.7495528225018067
  0.8677748371604210  0.0516385758969644  0.2504177676215401
  0.8675475173280296  0.0516215879081092  0.7480960016447494
  0.8657867122445480  0.5532218446634616  0.2509828283474884
  0.8676502849546077  0.5524218990264863  0.7497629297547349
  0.0575690133771164  0.4092905754974860  0.2542559367777896
  0.0610763633767486  0.4095289873872211  0.7508529300422067
  0.0621582764099443  0.9077585051562518  0.2506912556927095
  0.0611677618142170  0.9092116783147204  0.7498390800886457
  0.3955497105248306  0.4119999521601611  0.2466828606329152
  0.3947132922098902  0.4092898989539288  0.7500871711312638
  0.3951809642243414  0.9092770346432261  0.2492704986912563
  0.3948971666375609  0.9092027781361345  0.7492183105079482
  0.7264040698342193  0.4101234374009669  0.2504318454132355
  0.7275120053913280  0.4105673500106075  0.7498158467037068
  0.7282784010135783  0.9087011947303161  0.2502877469747230
  0.7281606488030210  0.9087363053529217  0.7491007471750623
  0.2322019216195992  0.0861867656715237 -0.0053288329158808
  0.2270698142699180  0.0944330798160694  0.4992881312504127
  0.2287730658221692  0.5885147897873827 -0.0001252530580782
  0.2272863484600693  0.5881790449245450  0.5005458718049990
  0.5627795131150358  0.0901111170759205 -0.0002901827801549
  0.5609549851518632  0.0906671925207818  0.4999921073774629
  0.5615968492589714  0.5910606085015750 -0.0004547615681337
  0.5605684249445707  0.5916700789186489  0.5000146106872283
  0.8908221122397897  0.0862431428459963 -0.0053921466193664
  0.8949583972919837  0.0917372413684082  0.4991211192085591
  0.8943125305025430  0.5910609247037694  0.0000030457199452
  0.8934571270123624  0.5897818768745506  0.5011235819159077
  0.2020821691030820  0.3432314297282997  0.6475732488488469
  0.2032625187841904  0.8402668987276789  0.1478318470095966
  0.2024353096146326  0.8442820867349435  0.6460519410326947
  0.5375070312410952  0.3430668250752412  0.1462235058392942
  0.5355244273008176  0.3434180895284329  0.6459480273918565
  0.5367913602113299  0.8423229110567672  0.1466448805685773
  0.5352943486990431  0.8431016474526875  0.6448459699726152
  0.8674265679181035  0.3449804646807801  0.1463187852761020
  0.8680358849816178  0.3432452358056731  0.6460694662119475
  0.8693785561670445  0.8421460389949517  0.1469550213377286
  0.8689148459297603  0.8427410681998664  0.6445984217601115
  0.0240272435417808  0.1591460505160482  0.1050839638618618
  0.0352583803518712  0.1579023771430639  0.6046703420786009
  0.0353675867736234  0.6559006638201649  0.1047433529642094
  0.0357078565978965  0.6567215877734052  0.6038647525354244
  0.3738832897216054  0.1537833704704259  0.1008641563414521
  0.3688294344850963  0.1576264671642546  0.6030218615366473
  0.3695904264297835  0.6561837344744484  0.1033626679265746
  0.3682662241739157  0.6562523651886207  0.6034175997716335
  0.7041278411524066  0.1563106309644434  0.1030266892513451
  0.7021931393450693  0.1572957127243829  0.6035558196432494
  0.7027118841562873  0.6572160828292531  0.1033874359810836
  0.7018283442650624  0.6568579108192270  0.6040697711820007
  0.0332785166512611  0.4474764408929016  0.0002372919923963
  0.0333305720420393  0.4475327515609094  0.5010663776961659
  0.0328488816619989  0.9489646544344267  0.0012650156517993
  0.0347613406113770  0.9492699808808811  0.4999732539085026
  0.3699918251692362  0.4476970970573115 -0.0015155083793618
  0.3669854191300714  0.4467091275774827  0.4998424028223107
  0.3718853343850678  0.9455454559557189 -0.0016881703164598
  0.3657077967625418  0.9490415422356405  0.4987860727229248
  0.7009009716915590  0.4480612749062189 -0.0003243157036445
  0.6991460297257424  0.4477999699389828  0.5000588900625393
  0.7015040784328972  0.9469028496184750 -0.0007048161329508
  0.7007579410520585  0.9482408239805977  0.4998548348209838
  0.2026949905944070  0.3428556560566511  0.8545850547065466
  0.2011462823624994  0.8365810492054480  0.3563463743651528
  0.2022654614167902  0.8428254621411301  0.8538154738859893
  0.5324300743571362  0.3433915435951096  0.3545517580582183
  0.5366204282615081  0.3434786198386899  0.8534876832403546
  0.5354440386718228  0.8430004527773168  0.3544882287926034
  0.5365707229868395  0.8424208591532144  0.8525450863892059
  0.8671784737445480  0.3435837418581918  0.3543737809403605
  0.8684013985245626  0.3433522833470943  0.8538065101512589
  0.8691575188938572  0.8427714367311464  0.3547651354026055
  0.8695657978299175  0.8418988575677742  0.8522230899113207
 
  0.00000000E+00  0.00000000E+00  0.00000000E+00
  0.00000000E+00  0.00000000E+00  0.00000000E+00
  0.00000000E+00  0.00000000E+00  0.00000000E+00
  0.00000000E+00  0.00000000E+00  0.00000000E+00
  0.00000000E+00  0.00000000E+00  0.00000000E+00
  0.00000000E+00  0.00000000E+00  0.00000000E+00
  0.00000000E+00  0.00000000E+00  0.00000000E+00
  0.00000000E+00  0.00000000E+00  0.00000000E+00
  0.00000000E+00  0.00000000E+00  0.00000000E+00
  0.00000000E+00  0.00000000E+00  0.00000000E+00
  0.00000000E+00  0.00000000E+00  0.00000000E+00
  0.00000000E+00  0.00000000E+00  0.00000000E+00
  0.00000000E+00  0.00000000E+00  0.00000000E+00
  0.00000000E+00  0.00000000E+00  0.00000000E+00
  0.00000000E+00  0.00000000E+00  0.00000000E+00
  0.00000000E+00  0.00000000E+00  0.00000000E+00
  0.00000000E+00  0.00000000E+00  0.00000000E+00
  0.00000000E+00  0.00000000E+00  0.00000000E+00
  0.00000000E+00  0.00000000E+00  0.00000000E+00
  0.00000000E+00  0.00000000E+00  0.00000000E+00
  0.00000000E+00  0.00000000E+00  0.00000000E+00
  0.00000000E+00  0.00000000E+00  0.00000000E+00
  0.00000000E+00  0.00000000E+00  0.00000000E+00
  0.00000000E+00  0.00000000E+00  0.00000000E+00
  0.00000000E+00  0.00000000E+00  0.00000000E+00
  0.00000000E+00  0.00000000E+00  0.00000000E+00
  0.00000000E+00  0.00000000E+00  0.00000000E+00
  0.00000000E+00  0.00000000E+00  0.00000000E+00
  0.00000000E+00  0.00000000E+00  0.00000000E+00
  0.00000000E+00  0.00000000E+00  0.00000000E+00
  0.00000000E+00  0.00000000E+00  0.00000000E+00
  0.00000000E+00  0.00000000E+00  0.00000000E+00
  0.00000000E+00  0.00000000E+00  0.00000000E+00
  0.00000000E+00  0.00000000E+00  0.00000000E+00
  0.00000000E+00  0.00000000E+00  0.00000000E+00
  0.00000000E+00  0.00000000E+00  0.00000000E+00
  0.00000000E+00  0.00000000E+00  0.00000000E+00
  0.00000000E+00  0.00000000E+00  0.00000000E+00
  0.00000000E+00  0.00000000E+00  0.00000000E+00
  0.00000000E+00  0.00000000E+00  0.00000000E+00
  0.00000000E+00  0.00000000E+00  0.00000000E+00
  0.00000000E+00  0.00000000E+00  0.00000000E+00
  0.00000000E+00  0.00000000E+00  0.00000000E+00
  0.00000000E+00  0.00000000E+00  0.00000000E+00
  0.00000000E+00  0.00000000E+00  0.00000000E+00
  0.00000000E+00  0.00000000E+00  0.00000000E+00
  0.00000000E+00  0.00000000E+00  0.00000000E+00
  0.00000000E+00  0.00000000E+00  0.00000000E+00
  0.00000000E+00  0.00000000E+00  0.00000000E+00
  0.00000000E+00  0.00000000E+00  0.00000000E+00
  0.00000000E+00  0.00000000E+00  0.00000000E+00
  0.00000000E+00  0.00000000E+00  0.00000000E+00
  0.00000000E+00  0.00000000E+00  0.00000000E+00
  0.00000000E+00  0.00000000E+00  0.00000000E+00
  0.00000000E+00  0.00000000E+00  0.00000000E+00
  0.00000000E+00  0.00000000E+00  0.00000000E+00
  0.00000000E+00  0.00000000E+00  0.00000000E+00
  0.00000000E+00  0.00000000E+00  0.00000000E+00
  0.00000000E+00  0.00000000E+00  0.00000000E+00
  0.00000000E+00  0.00000000E+00  0.00000000E+00
  0.00000000E+00  0.00000000E+00  0.00000000E+00
  0.00000000E+00  0.00000000E+00  0.00000000E+00
  0.00000000E+00  0.00000000E+00  0.00000000E+00
  0.00000000E+00  0.00000000E+00  0.00000000E+00
  0.00000000E+00  0.00000000E+00  0.00000000E+00
  0.00000000E+00  0.00000000E+00  0.00000000E+00
  0.00000000E+00  0.00000000E+00  0.00000000E+00
  0.00000000E+00  0.00000000E+00  0.00000000E+00
  0.00000000E+00  0.00000000E+00  0.00000000E+00
  0.00000000E+00  0.00000000E+00  0.00000000E+00
  0.00000000E+00  0.00000000E+00  0.00000000E+00
  0.00000000E+00  0.00000000E+00  0.00000000E+00
  0.00000000E+00  0.00000000E+00  0.00000000E+00
  0.00000000E+00  0.00000000E+00  0.00000000E+00
  0.00000000E+00  0.00000000E+00  0.00000000E+00
  0.00000000E+00  0.00000000E+00  0.00000000E+00
  0.00000000E+00  0.00000000E+00  0.00000000E+00
  0.00000000E+00  0.00000000E+00  0.00000000E+00
  0.00000000E+00  0.00000000E+00  0.00000000E+00
  0.00000000E+00  0.00000000E+00  0.00000000E+00
  0.00000000E+00  0.00000000E+00  0.00000000E+00
  0.00000000E+00  0.00000000E+00  0.00000000E+00
  0.00000000E+00  0.00000000E+00  0.00000000E+00
  0.00000000E+00  0.00000000E+00  0.00000000E+00
  0.00000000E+00  0.00000000E+00  0.00000000E+00
  0.00000000E+00  0.00000000E+00  0.00000000E+00
  0.00000000E+00  0.00000000E+00  0.00000000E+00
  0.00000000E+00  0.00000000E+00  0.00000000E+00
  0.00000000E+00  0.00000000E+00  0.00000000E+00
  0.00000000E+00  0.00000000E+00  0.00000000E+00
  0.00000000E+00  0.00000000E+00  0.00000000E+00
  0.00000000E+00  0.00000000E+00  0.00000000E+00
  0.00000000E+00  0.00000000E+00  0.00000000E+00
  0.00000000E+00  0.00000000E+00  0.00000000E+00
  0.00000000E+00  0.00000000E+00  0.00000000E+00
  0.00000000E+00  0.00000000E+00  0.00000000E+00
  0.00000000E+00  0.00000000E+00  0.00000000E+00
  0.00000000E+00  0.00000000E+00  0.00000000E+00
  0.00000000E+00  0.00000000E+00  0.00000000E+00
  0.00000000E+00  0.00000000E+00  0.00000000E+00
  0.00000000E+00  0.00000000E+00  0.00000000E+00
  0.00000000E+00  0.00000000E+00  0.00000000E+00
  0.00000000E+00  0.00000000E+00  0.00000000E+00
  0.00000000E+00  0.00000000E+00  0.00000000E+00
  0.00000000E+00  0.00000000E+00  0.00000000E+00
  0.00000000E+00  0.00000000E+00  0.00000000E+00
  0.00000000E+00  0.00000000E+00  0.00000000E+00
  0.00000000E+00  0.00000000E+00  0.00000000E+00
  0.00000000E+00  0.00000000E+00  0.00000000E+00
  0.00000000E+00  0.00000000E+00  0.00000000E+00
  0.00000000E+00  0.00000000E+00  0.00000000E+00
  0.00000000E+00  0.00000000E+00  0.00000000E+00
  0.00000000E+00  0.00000000E+00  0.00000000E+00
  0.00000000E+00  0.00000000E+00  0.00000000E+00
  0.00000000E+00  0.00000000E+00  0.00000000E+00
  0.00000000E+00  0.00000000E+00  0.00000000E+00
  0.00000000E+00  0.00000000E+00  0.00000000E+00
  0.00000000E+00  0.00000000E+00  0.00000000E+00
  0.00000000E+00  0.00000000E+00  0.00000000E+00
  0.00000000E+00  0.00000000E+00  0.00000000E+00
  0.00000000E+00  0.00000000E+00  0.00000000E+00
  0.00000000E+00  0.00000000E+00  0.00000000E+00
  0.00000000E+00  0.00000000E+00  0.00000000E+00
  0.00000000E+00  0.00000000E+00  0.00000000E+00
  0.00000000E+00  0.00000000E+00  0.00000000E+00
  0.00000000E+00  0.00000000E+00  0.00000000E+00
  0.00000000E+00  0.00000000E+00  0.00000000E+00
  0.00000000E+00  0.00000000E+00  0.00000000E+00
  0.00000000E+00  0.00000000E+00  0.00000000E+00
  0.00000000E+00  0.00000000E+00  0.00000000E+00
  0.00000000E+00  0.00000000E+00  0.00000000E+00
  0.00000000E+00  0.00000000E+00  0.00000000E+00
  0.00000000E+00  0.00000000E+00  0.00000000E+00
  0.00000000E+00  0.00000000E+00  0.00000000E+00
  0.00000000E+00  0.00000000E+00  0.00000000E+00
  0.00000000E+00  0.00000000E+00  0.00000000E+00
  0.00000000E+00  0.00000000E+00  0.00000000E+00
  0.00000000E+00  0.00000000E+00  0.00000000E+00
  0.00000000E+00  0.00000000E+00  0.00000000E+00
  0.00000000E+00  0.00000000E+00  0.00000000E+00
  0.00000000E+00  0.00000000E+00  0.00000000E+00
  0.00000000E+00  0.00000000E+00  0.00000000E+00
  0.00000000E+00  0.00000000E+00  0.00000000E+00
  0.00000000E+00  0.00000000E+00  0.00000000E+00
  0.00000000E+00  0.00000000E+00  0.00000000E+00
  0.00000000E+00  0.00000000E+00  0.00000000E+00
  0.00000000E+00  0.00000000E+00  0.00000000E+00
  0.00000000E+00  0.00000000E+00  0.00000000E+00
  0.00000000E+00  0.00000000E+00  0.00000000E+00
  0.00000000E+00  0.00000000E+00  0.00000000E+00
  0.00000000E+00  0.00000000E+00  0.00000000E+00
  0.00000000E+00  0.00000000E+00  0.00000000E+00
  0.00000000E+00  0.00000000E+00  0.00000000E+00
  0.00000000E+00  0.00000000E+00  0.00000000E+00
  0.00000000E+00  0.00000000E+00  0.00000000E+00
  0.00000000E+00  0.00000000E+00  0.00000000E+00
  0.00000000E+00  0.00000000E+00  0.00000000E+00
  0.00000000E+00  0.00000000E+00  0.00000000E+00
  0.00000000E+00  0.00000000E+00  0.00000000E+00
  0.00000000E+00  0.00000000E+00  0.00000000E+00
  0.00000000E+00  0.00000000E+00  0.00000000E+00
  0.00000000E+00  0.00000000E+00  0.00000000E+00
  0.00000000E+00  0.00000000E+00  0.00000000E+00
  0.00000000E+00  0.00000000E+00  0.00000000E+00
  0.00000000E+00  0.00000000E+00  0.00000000E+00
  0.00000000E+00  0.00000000E+00  0.00000000E+00
  0.00000000E+00  0.00000000E+00  0.00000000E+00
  0.00000000E+00  0.00000000E+00  0.00000000E+00
  0.00000000E+00  0.00000000E+00  0.00000000E+00
  0.00000000E+00  0.00000000E+00  0.00000000E+00
  0.00000000E+00  0.00000000E+00  0.00000000E+00
  0.00000000E+00  0.00000000E+00  0.00000000E+00
  0.00000000E+00  0.00000000E+00  0.00000000E+00
  0.00000000E+00  0.00000000E+00  0.00000000E+00
  0.00000000E+00  0.00000000E+00  0.00000000E+00
  0.00000000E+00  0.00000000E+00  0.00000000E+00
  0.00000000E+00  0.00000000E+00  0.00000000E+00
  0.00000000E+00  0.00000000E+00  0.00000000E+00
  0.00000000E+00  0.00000000E+00  0.00000000E+00
  0.00000000E+00  0.00000000E+00  0.00000000E+00
  0.00000000E+00  0.00000000E+00  0.00000000E+00
  0.00000000E+00  0.00000000E+00  0.00000000E+00
  0.00000000E+00  0.00000000E+00  0.00000000E+00
  0.00000000E+00  0.00000000E+00  0.00000000E+00
  0.00000000E+00  0.00000000E+00  0.00000000E+00
  0.00000000E+00  0.00000000E+00  0.00000000E+00
  0.00000000E+00  0.00000000E+00  0.00000000E+00
  0.00000000E+00  0.00000000E+00  0.00000000E+00
  0.00000000E+00  0.00000000E+00  0.00000000E+00
  0.00000000E+00  0.00000000E+00  0.00000000E+00
