Li84 P196
1.0
9.847875 0.000000 -7.628682
-0.000000 10.597250 -7.628682
0.000000 0.000000 76.286820
Li P
84 196
Selective dynamics
direct
0.307848 0.816050 0.096258 F F F Li
0.192152 0.183950 0.071479 F F F Li
0.807848 0.683950 0.062942 F F F Li
0.692152 0.316050 0.064582 F F F Li
0.025950 0.014795 0.059785 F F F Li
0.474050 0.985205 0.051636 T T T Li
0.525950 0.485205 0.043036 F F F Li
0.974050 0.514795 0.040805 F F F Li
0.301371 0.692124 0.038388 T T T Li
0.198629 0.307876 0.039689 T T T Li
0.801371 0.807876 0.019516 T T T Li
0.698629 0.192124 0.097667 F F F Li
0.307848 0.816050 0.196258 F F F Li
0.192152 0.183950 0.171479 F F F Li
0.807848 0.683950 0.162942 F F F Li
0.692152 0.316050 0.164582 F F F Li
0.025950 0.014795 0.159785 F F F Li
0.474050 0.985205 0.151636 F F F Li
0.525950 0.485205 0.143036 F F F Li
0.974050 0.514795 0.140805 F F F Li
0.301371 0.692124 0.138388 F F F Li
0.198629 0.307876 0.139689 F F F Li
0.801371 0.807876 0.119516 F F F Li
0.698629 0.192124 0.197667 F F F Li
0.307848 0.816050 0.296258 F F F Li
0.192152 0.183950 0.271479 F F F Li
0.807848 0.683950 0.262942 F F F Li
0.692152 0.316050 0.264582 F F F Li
0.025950 0.014795 0.259785 F F F Li
0.474050 0.985205 0.251636 F F F Li
0.525950 0.485205 0.243036 F F F Li
0.974050 0.514795 0.240805 F F F Li
0.301371 0.692124 0.238388 F F F Li
0.198629 0.307876 0.239689 F F F Li
0.801371 0.807876 0.219516 F F F Li
0.698629 0.192124 0.297667 F F F Li
0.307848 0.816050 0.396258 F F F Li
0.192152 0.183950 0.371479 F F F Li
0.807848 0.683950 0.362942 F F F Li
0.692152 0.316050 0.364582 F F F Li
0.025950 0.014795 0.359785 F F F Li
0.474050 0.985205 0.351636 F F F Li
0.525950 0.485205 0.343036 F F F Li
0.974050 0.514795 0.340805 F F F Li
0.301371 0.692124 0.338388 F F F Li
0.198629 0.307876 0.339689 F F F Li
0.801371 0.807876 0.319516 F F F Li
0.698629 0.192124 0.397667 F F F Li
0.307848 0.816050 0.496258 F F F Li
0.192152 0.183950 0.471479 F F F Li
0.807848 0.683950 0.462942 F F F Li
0.692152 0.316050 0.464582 F F F Li
0.025950 0.014795 0.459785 F F F Li
0.474050 0.985205 0.451636 F F F Li
0.525950 0.485205 0.443036 F F F Li
0.974050 0.514795 0.440805 F F F Li
0.301371 0.692124 0.438388 F F F Li
0.198629 0.307876 0.439689 F F F Li
0.801371 0.807876 0.419516 F F F Li
0.698629 0.192124 0.497667 F F F Li
0.307848 0.816050 0.596258 F F F Li
0.192152 0.183950 0.571479 F F F Li
0.807848 0.683950 0.562942 F F F Li
0.692152 0.316050 0.564582 F F F Li
0.025950 0.014795 0.559785 F F F Li
0.474050 0.985205 0.551636 F F F Li
0.525950 0.485205 0.543036 F F F Li
0.974050 0.514795 0.540805 F F F Li
0.301371 0.692124 0.538388 F F F Li
0.198629 0.307876 0.539689 F F F Li
0.801371 0.807876 0.519516 F F F Li
0.698629 0.192124 0.597667 F F F Li
0.307848 0.816050 0.696258 T T T Li
0.192152 0.183950 0.671479 T T T Li
0.807848 0.683950 0.662942 T T T Li
0.692152 0.316050 0.664582 T T T Li
0.025950 0.014795 0.659785 T T T Li
0.474050 0.985205 0.651636 F F F Li
0.525950 0.485205 0.643036 T T T Li
0.974050 0.514795 0.640805 F F F Li
0.301371 0.692124 0.638388 F F F Li
0.198629 0.307876 0.639689 T T T Li
0.801371 0.807876 0.619516 F F F Li
0.698629 0.192124 0.697667 T T T Li
0.875491 0.318848 0.046326 F F F P
0.624509 0.681152 0.007458 T T T P
0.375491 0.181152 0.026403 T T T P
0.124509 0.818848 0.015074 T T T P
0.048522 0.387402 0.006172 F F F P
0.451478 0.612598 0.018987 T T T P
0.548522 0.112598 0.001163 T T T P
0.951478 0.887402 0.068939 F F F P
0.943528 0.565132 0.003061 T T T P
0.556472 0.434868 0.001329 T T T P
0.443528 0.934868 0.083275 F F F P
0.056472 0.065132 0.007596 T T T P
0.134841 0.494288 0.002333 T T T P
0.365159 0.505712 0.076508 F F F P
0.634841 0.005712 0.022265 T T T P
0.865159 0.994288 0.094155 F F F P
0.927027 0.881290 0.011273 T T T P
0.572973 0.118710 0.049610 T T T P
0.427027 0.618710 0.071762 F F F P
0.072973 0.381290 0.062615 F F F P
0.218031 0.994617 0.032952 T T T P
0.281969 0.005383 0.090423 F F F P
0.718031 0.505383 0.008284 T T T P
0.781969 0.494617 0.063601 F F F P
0.070503 0.734192 0.075934 F F F P
0.429497 0.265808 0.014995 T T T P
0.570503 0.765808 0.035797 T T T P
0.929497 0.234192 0.068535 F F F P
0.875491 0.318848 0.146326 F F F P
0.624509 0.681152 0.107458 F F F P
0.375491 0.181152 0.126403 F F F P
0.124509 0.818848 0.115074 F F F P
0.048522 0.387402 0.106172 F F F P
0.451478 0.612598 0.118987 F F F P
0.548522 0.112598 0.101163 F F F P
0.951478 0.887402 0.168939 F F F P
0.943528 0.565132 0.103061 F F F P
0.556472 0.434868 0.101329 F F F P
0.443528 0.934868 0.183275 F F F P
0.056472 0.065132 0.107596 F F F P
0.134841 0.494288 0.102333 F F F P
0.365159 0.505712 0.176508 F F F P
0.634841 0.005712 0.122265 F F F P
0.865159 0.994288 0.194155 F F F P
0.927027 0.881290 0.111273 F F F P
0.572973 0.118710 0.149610 F F F P
0.427027 0.618710 0.171762 F F F P
0.072973 0.381290 0.162615 F F F P
0.218031 0.994617 0.132952 F F F P
0.281969 0.005383 0.190423 F F F P
0.718031 0.505383 0.108284 F F F P
0.781969 0.494617 0.163601 F F F P
0.070503 0.734192 0.175934 F F F P
0.429497 0.265808 0.114995 F F F P
0.570503 0.765808 0.135797 F F F P
0.929497 0.234192 0.168535 F F F P
0.875491 0.318848 0.246326 F F F P
0.624509 0.681152 0.207458 F F F P
0.375491 0.181152 0.226403 F F F P
0.124509 0.818848 0.215074 F F F P
0.048522 0.387402 0.206172 F F F P
0.451478 0.612598 0.218987 F F F P
0.548522 0.112598 0.201163 F F F P
0.951478 0.887402 0.268939 F F F P
0.943528 0.565132 0.203061 F F F P
0.556472 0.434868 0.201329 F F F P
0.443528 0.934868 0.283275 F F F P
0.056472 0.065132 0.207596 F F F P
0.134841 0.494288 0.202333 F F F P
0.365159 0.505712 0.276508 F F F P
0.634841 0.005712 0.222265 F F F P
0.865159 0.994288 0.294155 F F F P
0.927027 0.881290 0.211273 F F F P
0.572973 0.118710 0.249610 F F F P
0.427027 0.618710 0.271762 F F F P
0.072973 0.381290 0.262615 F F F P
0.218031 0.994617 0.232952 F F F P
0.281969 0.005383 0.290423 F F F P
0.718031 0.505383 0.208284 F F F P
0.781969 0.494617 0.263601 F F F P
0.070503 0.734192 0.275934 F F F P
0.429497 0.265808 0.214995 F F F P
0.570503 0.765808 0.235797 F F F P
0.929497 0.234192 0.268535 F F F P
0.875491 0.318848 0.346326 F F F P
0.624509 0.681152 0.307458 F F F P
0.375491 0.181152 0.326403 F F F P
0.124509 0.818848 0.315074 F F F P
0.048522 0.387402 0.306172 F F F P
0.451478 0.612598 0.318987 F F F P
0.548522 0.112598 0.301163 F F F P
0.951478 0.887402 0.368939 F F F P
0.943528 0.565132 0.303061 F F F P
0.556472 0.434868 0.301329 F F F P
0.443528 0.934868 0.383275 F F F P
0.056472 0.065132 0.307596 F F F P
0.134841 0.494288 0.302333 F F F P
0.365159 0.505712 0.376508 F F F P
0.634841 0.005712 0.322265 F F F P
0.865159 0.994288 0.394155 F F F P
0.927027 0.881290 0.311273 F F F P
0.572973 0.118710 0.349610 F F F P
0.427027 0.618710 0.371762 F F F P
0.072973 0.381290 0.362615 F F F P
0.218031 0.994617 0.332952 F F F P
0.281969 0.005383 0.390423 F F F P
0.718031 0.505383 0.308284 F F F P
0.781969 0.494617 0.363601 F F F P
0.070503 0.734192 0.375934 F F F P
0.429497 0.265808 0.314995 F F F P
0.570503 0.765808 0.335797 F F F P
0.929497 0.234192 0.368535 F F F P
0.875491 0.318848 0.446326 F F F P
0.624509 0.681152 0.407458 F F F P
0.375491 0.181152 0.426403 F F F P
0.124509 0.818848 0.415074 F F F P
0.048522 0.387402 0.406172 F F F P
0.451478 0.612598 0.418987 F F F P
0.548522 0.112598 0.401163 F F F P
0.951478 0.887402 0.468939 F F F P
0.943528 0.565132 0.403061 F F F P
0.556472 0.434868 0.401329 F F F P
0.443528 0.934868 0.483275 F F F P
0.056472 0.065132 0.407596 F F F P
0.134841 0.494288 0.402333 F F F P
0.365159 0.505712 0.476508 F F F P
0.634841 0.005712 0.422265 F F F P
0.865159 0.994288 0.494155 F F F P
0.927027 0.881290 0.411273 F F F P
0.572973 0.118710 0.449610 F F F P
0.427027 0.618710 0.471762 F F F P
0.072973 0.381290 0.462615 F F F P
0.218031 0.994617 0.432952 F F F P
0.281969 0.005383 0.490423 F F F P
0.718031 0.505383 0.408284 F F F P
0.781969 0.494617 0.463601 F F F P
0.070503 0.734192 0.475934 F F F P
0.429497 0.265808 0.414995 F F F P
0.570503 0.765808 0.435797 F F F P
0.929497 0.234192 0.468535 F F F P
0.875491 0.318848 0.546326 F F F P
0.624509 0.681152 0.507458 F F F P
0.375491 0.181152 0.526403 F F F P
0.124509 0.818848 0.515074 F F F P
0.048522 0.387402 0.506172 F F F P
0.451478 0.612598 0.518987 F F F P
0.548522 0.112598 0.501163 F F F P
0.951478 0.887402 0.568939 F F F P
0.943528 0.565132 0.503061 F F F P
0.556472 0.434868 0.501329 F F F P
0.443528 0.934868 0.583275 F F F P
0.056472 0.065132 0.507596 F F F P
0.134841 0.494288 0.502333 F F F P
0.365159 0.505712 0.576508 F F F P
0.634841 0.005712 0.522265 F F F P
0.865159 0.994288 0.594155 F F F P
0.927027 0.881290 0.511273 F F F P
0.572973 0.118710 0.549610 F F F P
0.427027 0.618710 0.571762 F F F P
0.072973 0.381290 0.562615 F F F P
0.218031 0.994617 0.532952 F F F P
0.281969 0.005383 0.590423 F F F P
0.718031 0.505383 0.508284 F F F P
0.781969 0.494617 0.563601 F F F P
0.070503 0.734192 0.575934 F F F P
0.429497 0.265808 0.514995 F F F P
0.570503 0.765808 0.535797 F F F P
0.929497 0.234192 0.568535 F F F P
0.875491 0.318848 0.646326 F F F P
0.624509 0.681152 0.607458 F F F P
0.375491 0.181152 0.626403 F F F P
0.124509 0.818848 0.615074 F F F P
0.048522 0.387402 0.606172 F F F P
0.451478 0.612598 0.618987 F F F P
0.548522 0.112598 0.601163 F F F P
0.951478 0.887402 0.668939 T T T P
0.943528 0.565132 0.603061 F F F P
0.556472 0.434868 0.601329 F F F P
0.443528 0.934868 0.683275 T T T P
0.056472 0.065132 0.607596 F F F P
0.134841 0.494288 0.602333 F F F P
0.365159 0.505712 0.676508 T T T P
0.634841 0.005712 0.622265 F F F P
0.865159 0.994288 0.694155 T T T P
0.927027 0.881290 0.611273 F F F P
0.572973 0.118710 0.649610 F F F P
0.427027 0.618710 0.671762 T T T P
0.072973 0.381290 0.662615 F F F P
0.218031 0.994617 0.632952 F F F P
0.281969 0.005383 0.690423 T T T P
0.718031 0.505383 0.608284 F F F P
0.781969 0.494617 0.663601 T T T P
0.070503 0.734192 0.675934 T T T P
0.429497 0.265808 0.614995 F F F P
0.570503 0.765808 0.635797 F F F P
0.929497 0.234192 0.668535 F F F P
