Li61 P7 N32                             
   1.00000000000000     
     0.0079079575120885    9.5030906013361669    0.0113883669808705
     0.0240706764596026    0.0121323588161198    9.6128832708171768
     9.5498175447889757    0.0084388165757515    0.0248485770076125
   Li   P    N 
    61     7    32
Direct
  0.5045396146075677 -0.0024524134695565  0.4915117673110276
  0.0108927831302417  0.4816712243750901  0.0115680417897235
  0.5056838126120017 -0.0023117897278614 -0.0090960324660350
  0.0085163261751331 -0.0039987668059775  0.4947866692931691
  0.5190503746468003  0.4792961935383579  0.0041023206538764
  0.0112849509236316  0.4978773600217542  0.5078618148895273
  0.7550737513019181 -0.0051606259451794  0.4906041269059463
  0.2566705684566069 -0.0073067927885970  0.4953880430468102
  0.7639714448478349  0.5047148258808791  0.4730050780879791
  0.2360892120952550  0.5068449729230829  0.4971433474006344
  0.2701291403870290  0.0009119310280760 -0.0074183652980766
  0.7451834241167915  0.0115802980142943 -0.0027450265163417
  0.8253324098624986  0.5872052108936806  0.0756037388146439
  0.4937324864593222  0.2398233230422004 -0.0310621128917615
  0.5047273853080912  0.7531619938664541  0.0021145131805406
 -0.0441580860072297  0.4813421900299193  0.2842851444172131
 -0.0141455407177535  0.4941593325205864  0.7356032041097030
  0.2458148136778525  0.1906889170232047  0.2155806125203558
  0.2471837743585819  0.7932052233046097  0.7637586093484529
  0.2710688727144875  0.2793693389967356  0.7227089609043190
  0.2582658212184835  0.6917909428165878  0.2747837456022661
  0.7608385524770312  0.2769785296435405  0.2990712516855701
  0.7676783117568550  0.6919419207395173  0.6892767203215299
  0.7434735957539238  0.1933164800033766  0.8016579248917991
  0.7405361646366446  0.7934951752085658  0.1929753743077607
 -0.0076739977830202  0.2396740324425259  0.2428291259958209
  0.9796094852346829  0.7660178838610394  0.7553693129838497
  0.2652850138757661  0.2326030165095058  0.4823184727695599
  0.2737556423740907  0.7515758017852656  0.5199204892375332
  0.7552590109354326  0.2219779023511618  0.5478451685203871
  0.7552514483569784  0.7610449344811608  0.4432854885946829
  0.7048499149571699  0.4856902600788334  0.2178772284127379
  0.6766581731034202  0.5777277956292312  0.9024172334258680
  0.1602834717815235  0.4345533770657810  0.2085486380206861
  0.1039684124282125  0.6223336811152187  0.8575895731040324
  0.5163102594039614  0.7523873338094358  0.2448919840778741
  0.5189867549257311  0.2486909230357451  0.7326298640585281
  0.2453142482838777  0.9532658623396542  0.2554126802178256
  0.2427753775377092  0.0303514692072859  0.7363208004560517
  0.2385680714204076  0.2440425300269480  0.9746818848634478
  0.2654842191953907  0.7655615584216467  0.0245593321019852
  0.7618176273740881  0.9539693164447764  0.7298792134460854
  0.7657967817325050  0.0316579741487127  0.2467515331084737
  0.7562181902702825  0.7812443826777737  0.9479071685309466
  0.7170624382618956  0.2593746285771766  0.0518625794861507
  0.0130961408847842  0.2444341256892005  0.7606043372546334
  0.0129454003830408  0.7440290096180120  0.2431667386120180
  0.5025510902977851  0.2604383209600660  0.2278817878935036
  0.4943380451732389  0.7329625043723248  0.7468099528070616
 -0.0210234964594334  0.2410349962541776  0.0168362976285446
  0.0014991992110935  0.7467081761742338  0.0014117143466602
  0.5109674681507533  0.2342756606825910  0.4846669865126765
  0.5120300620049751  0.7591464980696463  0.4971731433111135
  0.4859251348673810  0.5348905472767291  0.2226698123850070
  0.4986426541973739  0.4785421003128321  0.7561025317925563
  0.0063812026030091 -0.0072743631529887  0.2560058536748371
  0.0050520598635553  0.0024380829787481  0.7310598658634185
  0.3466128750455469  0.3954084028871485  0.3322500657153775
  0.2646985081312735  0.5230765020316763  0.7248472094897949
  0.7379045435201768  0.4358932124713349  0.7039001028330377
  0.8136783012421568  0.4165681438339341  0.9324842507714836
  0.5026465356750859  0.4988246584166572  0.4939577601873772
  0.0076962494846595 -0.0049226797013728 -0.0066703246110849
  0.2638480554984386  0.5021961417172777 -0.0066585927484923
  0.0121198341216565  0.7474058864914674  0.5014268604387684
  0.0090208843396234  0.2454702969978151  0.4991583817985096
  0.5034428557628275  0.0032271853148282  0.2408909885978447
  0.5029696197484564 -0.0060781021822555  0.7415803885413929
  0.6093433614581604  0.5915198718829481  0.5961469263899161
  0.5938945778999430  0.3988241237275231  0.3793237410816665
  0.9011473297151440  0.8980625172641837  0.0984428193498023
  0.9066355649530178  0.0950564382843237  0.8891191506747221
  0.1112626350725067  0.8928988426093776  0.8918355286297780
  0.1095285232312138  0.0956730308565132  0.0967814018955728
  0.3966439051427461  0.6047524199069148  0.4000758017195876
  0.3959779818874712  0.3913075612472667  0.5868173032990729
  0.1117527681016556  0.3446181999362275  0.3897122531115478
  0.1121504270659988  0.6530487615508251  0.6176591964302113
  0.1170867199474554  0.1456464463501768  0.5997370449306668
  0.1208574028599347  0.8445624074361818  0.3977436011182164
  0.8985233037392434  0.1446860157186547  0.4037740224133068
  0.8961893468634273  0.8500628758802653  0.5890936980033364
  0.8717608791826946  0.3778001352578858  0.1344662527578943
  0.8803017575983907  0.6164383236474360  0.8708881669589891
  0.1562456892686910  0.6044157040126514  0.0927263541830494
  0.1619896195849612  0.4097789732422603  0.8783015138851126
  0.4037923389274446  0.8971082075452124  0.1420131526540614
  0.4017982748050878  0.1035928258710711  0.8380453553763135
  0.3938189826029532  0.1026288365291727  0.3429027429473931
  0.3941221278593499  0.8954110887173469  0.6409641433468352
  0.3465246257972394  0.3881427358554532  0.1039189894747774
  0.3622985414919818  0.6090253603598039  0.8934061416541199
  0.6163463113789025  0.0882692386108606  0.6398526950345440
  0.6160246771026925  0.9068482109411258  0.3422189448690590
  0.6330058201287384  0.6380489129130072  0.1069473131655007
  0.6330979142020777  0.3609158952636117  0.8680112704727362
  0.9095197395570843  0.3476515292540716  0.6025018755409902
  0.9182014164298540  0.6426243915390822  0.3990812513676875
  0.6025312741840788  0.1087769352876695  0.1393441297688846
  0.6007434297426921  0.8884972158445950  0.8442428606754407
 
  0.00000000E+00  0.00000000E+00  0.00000000E+00
  0.00000000E+00  0.00000000E+00  0.00000000E+00
  0.00000000E+00  0.00000000E+00  0.00000000E+00
  0.00000000E+00  0.00000000E+00  0.00000000E+00
  0.00000000E+00  0.00000000E+00  0.00000000E+00
  0.00000000E+00  0.00000000E+00  0.00000000E+00
  0.00000000E+00  0.00000000E+00  0.00000000E+00
  0.00000000E+00  0.00000000E+00  0.00000000E+00
  0.00000000E+00  0.00000000E+00  0.00000000E+00
  0.00000000E+00  0.00000000E+00  0.00000000E+00
  0.00000000E+00  0.00000000E+00  0.00000000E+00
  0.00000000E+00  0.00000000E+00  0.00000000E+00
  0.00000000E+00  0.00000000E+00  0.00000000E+00
  0.00000000E+00  0.00000000E+00  0.00000000E+00
  0.00000000E+00  0.00000000E+00  0.00000000E+00
  0.00000000E+00  0.00000000E+00  0.00000000E+00
  0.00000000E+00  0.00000000E+00  0.00000000E+00
  0.00000000E+00  0.00000000E+00  0.00000000E+00
  0.00000000E+00  0.00000000E+00  0.00000000E+00
  0.00000000E+00  0.00000000E+00  0.00000000E+00
  0.00000000E+00  0.00000000E+00  0.00000000E+00
  0.00000000E+00  0.00000000E+00  0.00000000E+00
  0.00000000E+00  0.00000000E+00  0.00000000E+00
  0.00000000E+00  0.00000000E+00  0.00000000E+00
  0.00000000E+00  0.00000000E+00  0.00000000E+00
  0.00000000E+00  0.00000000E+00  0.00000000E+00
  0.00000000E+00  0.00000000E+00  0.00000000E+00
  0.00000000E+00  0.00000000E+00  0.00000000E+00
  0.00000000E+00  0.00000000E+00  0.00000000E+00
  0.00000000E+00  0.00000000E+00  0.00000000E+00
  0.00000000E+00  0.00000000E+00  0.00000000E+00
  0.00000000E+00  0.00000000E+00  0.00000000E+00
  0.00000000E+00  0.00000000E+00  0.00000000E+00
  0.00000000E+00  0.00000000E+00  0.00000000E+00
  0.00000000E+00  0.00000000E+00  0.00000000E+00
  0.00000000E+00  0.00000000E+00  0.00000000E+00
  0.00000000E+00  0.00000000E+00  0.00000000E+00
  0.00000000E+00  0.00000000E+00  0.00000000E+00
  0.00000000E+00  0.00000000E+00  0.00000000E+00
  0.00000000E+00  0.00000000E+00  0.00000000E+00
  0.00000000E+00  0.00000000E+00  0.00000000E+00
  0.00000000E+00  0.00000000E+00  0.00000000E+00
  0.00000000E+00  0.00000000E+00  0.00000000E+00
  0.00000000E+00  0.00000000E+00  0.00000000E+00
  0.00000000E+00  0.00000000E+00  0.00000000E+00
  0.00000000E+00  0.00000000E+00  0.00000000E+00
  0.00000000E+00  0.00000000E+00  0.00000000E+00
  0.00000000E+00  0.00000000E+00  0.00000000E+00
  0.00000000E+00  0.00000000E+00  0.00000000E+00
  0.00000000E+00  0.00000000E+00  0.00000000E+00
  0.00000000E+00  0.00000000E+00  0.00000000E+00
  0.00000000E+00  0.00000000E+00  0.00000000E+00
  0.00000000E+00  0.00000000E+00  0.00000000E+00
  0.00000000E+00  0.00000000E+00  0.00000000E+00
  0.00000000E+00  0.00000000E+00  0.00000000E+00
  0.00000000E+00  0.00000000E+00  0.00000000E+00
  0.00000000E+00  0.00000000E+00  0.00000000E+00
  0.00000000E+00  0.00000000E+00  0.00000000E+00
  0.00000000E+00  0.00000000E+00  0.00000000E+00
  0.00000000E+00  0.00000000E+00  0.00000000E+00
  0.00000000E+00  0.00000000E+00  0.00000000E+00
  0.00000000E+00  0.00000000E+00  0.00000000E+00
  0.00000000E+00  0.00000000E+00  0.00000000E+00
  0.00000000E+00  0.00000000E+00  0.00000000E+00
  0.00000000E+00  0.00000000E+00  0.00000000E+00
  0.00000000E+00  0.00000000E+00  0.00000000E+00
  0.00000000E+00  0.00000000E+00  0.00000000E+00
  0.00000000E+00  0.00000000E+00  0.00000000E+00
  0.00000000E+00  0.00000000E+00  0.00000000E+00
  0.00000000E+00  0.00000000E+00  0.00000000E+00
  0.00000000E+00  0.00000000E+00  0.00000000E+00
  0.00000000E+00  0.00000000E+00  0.00000000E+00
  0.00000000E+00  0.00000000E+00  0.00000000E+00
  0.00000000E+00  0.00000000E+00  0.00000000E+00
  0.00000000E+00  0.00000000E+00  0.00000000E+00
  0.00000000E+00  0.00000000E+00  0.00000000E+00
  0.00000000E+00  0.00000000E+00  0.00000000E+00
  0.00000000E+00  0.00000000E+00  0.00000000E+00
  0.00000000E+00  0.00000000E+00  0.00000000E+00
  0.00000000E+00  0.00000000E+00  0.00000000E+00
  0.00000000E+00  0.00000000E+00  0.00000000E+00
  0.00000000E+00  0.00000000E+00  0.00000000E+00
  0.00000000E+00  0.00000000E+00  0.00000000E+00
  0.00000000E+00  0.00000000E+00  0.00000000E+00
  0.00000000E+00  0.00000000E+00  0.00000000E+00
  0.00000000E+00  0.00000000E+00  0.00000000E+00
  0.00000000E+00  0.00000000E+00  0.00000000E+00
  0.00000000E+00  0.00000000E+00  0.00000000E+00
  0.00000000E+00  0.00000000E+00  0.00000000E+00
  0.00000000E+00  0.00000000E+00  0.00000000E+00
  0.00000000E+00  0.00000000E+00  0.00000000E+00
  0.00000000E+00  0.00000000E+00  0.00000000E+00
  0.00000000E+00  0.00000000E+00  0.00000000E+00
  0.00000000E+00  0.00000000E+00  0.00000000E+00
  0.00000000E+00  0.00000000E+00  0.00000000E+00
  0.00000000E+00  0.00000000E+00  0.00000000E+00
  0.00000000E+00  0.00000000E+00  0.00000000E+00
  0.00000000E+00  0.00000000E+00  0.00000000E+00
  0.00000000E+00  0.00000000E+00  0.00000000E+00
  0.00000000E+00  0.00000000E+00  0.00000000E+00
