P6 N10                                  
   1.00000000000000     
     2.8592360000000001    3.9701130000000000    0.0000000000000000
    -2.9476659999999999    4.0929000000000002    0.0000000000000000
     0.0000000000000000    4.0067139999999997    8.3266629999999999
   P    N 
     6    10
Direct
  0.4819770000000005  0.5180229999999995  0.2500000000000000
  0.6621889999999979  0.0696999999999974  0.5553019999999975
  0.0696999999999974  0.6621889999999979  0.0553019999999975
  0.3378110000000021  0.9303000000000026  0.4446980000000025
  0.9303000000000026  0.3378110000000021  0.9446980000000025
  0.5180229999999995  0.4819770000000005  0.7500000000000000
  0.5007560000000026  0.7891199999999969  0.5997429999999966
  0.2289079999999970  0.5078549999999993  0.1916939999999983
  0.4992439999999974  0.2108800000000031  0.4002570000000034
  0.2108800000000031  0.4992439999999974  0.9002570000000034
  0.4921450000000007  0.7710920000000030  0.3083060000000017
  0.7710920000000030  0.4921450000000007  0.8083060000000017
  0.0000000000000000  0.0000000000000000  0.5000000000000000
  0.7891199999999969  0.5007560000000026  0.0997429999999966
  0.5078549999999993  0.2289079999999970  0.6916939999999983
  0.0000000000000000  0.0000000000000000  0.0000000000000000
 
  0.00000000E+00  0.00000000E+00  0.00000000E+00
  0.00000000E+00  0.00000000E+00  0.00000000E+00
  0.00000000E+00  0.00000000E+00  0.00000000E+00
  0.00000000E+00  0.00000000E+00  0.00000000E+00
  0.00000000E+00  0.00000000E+00  0.00000000E+00
  0.00000000E+00  0.00000000E+00  0.00000000E+00
  0.00000000E+00  0.00000000E+00  0.00000000E+00
  0.00000000E+00  0.00000000E+00  0.00000000E+00
  0.00000000E+00  0.00000000E+00  0.00000000E+00
  0.00000000E+00  0.00000000E+00  0.00000000E+00
  0.00000000E+00  0.00000000E+00  0.00000000E+00
  0.00000000E+00  0.00000000E+00  0.00000000E+00
  0.00000000E+00  0.00000000E+00  0.00000000E+00
  0.00000000E+00  0.00000000E+00  0.00000000E+00
  0.00000000E+00  0.00000000E+00  0.00000000E+00
  0.00000000E+00  0.00000000E+00  0.00000000E+00
