Li73 P24 N1 O95                         
   1.00000000000000     
    14.7313504900836385    0.0064449286596443   -0.0064582145657326
     0.0045940899934329   10.5564709971963335    0.0044822581647663
    -0.0053737488791977    0.0051981905609085   12.3336648791356538
   Li   P    N    O 
    73    24     1    95
Direct
  0.1673152722740315  0.4120297855237059 -0.0033545165666854
  0.1683116531343441  0.4239839127381849  0.5029221303194743
  0.1707416049007340  0.9312469823003929  0.0001843816861766
  0.1688948622288083  0.9228463887983532  0.5015286314600685
  0.5039674072269281  0.4198526101079471 -0.0026196332270950
  0.5016580969479182  0.4216097075948466  0.5019479527989766
  0.5010899552283016  0.9256426273032924 -0.0019241803070619
  0.5028558803026900  0.9242772423230909  0.5013524389604606
  0.8356077514261527  0.4206498551547186 -0.0003459531179228
  0.8358504871586366  0.4210733636704814  0.5008919375113980
  0.8383498301500453  0.9216828480751332  0.0000225176406823
  0.8364152115633103  0.9222883861599549  0.5009938556032202
  0.0031064718520395  0.0764832451783613  0.2502217158946916
  0.0037296641609952  0.0761811122651666  0.7511158882404508
  0.0006699168419422  0.5772871594234735  0.2507599211011118
  0.0027022923207508  0.5775429403838570  0.7501594192969955
  0.3365885875044948  0.0735259003543434  0.2450837375532742
  0.3363919159773659  0.0777672018773706  0.7565463139531020
  0.3872925169897220  0.6075916064001569  0.2604451729574054
  0.3351147817816074  0.5759057572593763  0.7494464013067489
  0.6700602310728969  0.0762839688982246  0.2504824037136161
  0.6707101268429837  0.0767954997840989  0.7501559923199402
  0.6686999107972165  0.5788685875293911  0.2502730566827263
  0.6701630906746885  0.5772379454542481  0.7501679319961981
  0.1677208279701363  0.1593699000658964  0.1259092949298403
  0.1692912192823784  0.1629815699254916  0.6274234485907850
  0.1638620870248032  0.6691579261403756  0.1267914611394552
  0.1690055987426064  0.6642271244088958  0.6261797994549557
  0.5060607723212976  0.1581442165865355  0.1248639553491012
  0.5019444427924463  0.1628004207211930  0.6275492869764980
  0.5081025415969963  0.6682902698836871  0.1194904059478310
  0.5024119723855017  0.6632349380775904  0.6284938964542793
  0.8364926114310588  0.1617937727578394  0.1271824775598893
  0.8363224192628517  0.1627055821772543  0.6270488189233751
  0.8355688833880787  0.6625167420535067  0.1262860516933041
  0.8368151382385400  0.6629409568691509  0.6268523324846486
 -0.0011873323211421  0.3342157877508141  0.1231956469602851
  0.0024467315010176  0.3359505572046719  0.6245766695249542
  0.0024517345972382  0.8373587303596846  0.1242466532890970
  0.0025729220134311  0.8363572423278931  0.6242145025218379
  0.3391511653857791  0.3067210989397416  0.1147549363019254
  0.3358586600044969  0.3368334940971192  0.6248281199948078
  0.3346975492343259  0.8423725140412248  0.1205470825570863
  0.3354987093607590  0.8380675226787178  0.6247161914473437
  0.6700930001677572  0.3357052864045429  0.1234770036995601
  0.6690844429779866  0.3358502291143271  0.6246623639326073
  0.6708645901034611  0.8378510969350147  0.1232744897259033
  0.6697539143319784  0.8366962930641724  0.6238677626277893
 -0.0003906077450571  0.3340310771091310  0.3787214781741444
  0.0024040855962315  0.3353992825108665  0.8757832500853313
  0.0022840682256799  0.8362146725731825  0.3773903899969385
  0.0038144688681441  0.8367084952544570  0.8771064230116237
  0.3334242348700943  0.3374568367692844  0.3765521212699030
  0.3355775932541209  0.3263572052868668  0.8759170949960520
  0.3345579683103925  0.8405235888182324  0.3791398758835824
  0.3355201406062260  0.8413483066563495  0.8758952942836437
  0.6676033094327680  0.3362200518682587  0.3763735899514413
  0.6704565736988044  0.3351364852237625  0.8757329699688995
  0.6706255509641765  0.8378637159590631  0.3772817468711597
  0.6704203815136868  0.8371721367136283  0.8766221494779294
  0.1680943549449148  0.1608838576441801  0.3758510452073344
  0.1691163414272226  0.1605622906050935  0.8765644412454331
  0.1687939385964768  0.6647875407736419  0.3749578280153388
  0.1687623337449566  0.6630210446006383  0.8745480011724481
  0.5006681330525441  0.1622416831758875  0.3737165394392244
  0.5040422823066889  0.1609406652381869  0.8744428520350683
  0.5096910768038990  0.6694468904898015  0.3838495051607511
  0.5047445287533314  0.6642165691973755  0.8711212576766624
  0.8352862921707952  0.1622955707332179  0.3740805618691929
  0.8378660349711458  0.1622894226551138  0.8737732624158664
  0.8350034285943856  0.6629031751048594  0.3745152412759974
  0.8368160995521103  0.6627313135166429  0.8736022409887434
  0.2887627749310544  0.4964087703883506  0.1589723125081240
  0.1616523610656134  0.4105791706608914  0.2553929561878396
  0.1664792724868091  0.4130944361906395  0.7495618387666398
  0.1664917475595106  0.9114788643027599  0.2525307713772046
  0.1668155785147673  0.9109044177824067  0.7493102761733580
  0.4961428980961212  0.4136689141216966  0.2476609682792754
  0.5006009609558681  0.4116820103365972  0.7505618043206757
  0.5016149193156229  0.9110293872769136  0.2510038768460612
  0.5015427788093314  0.9117607803859750  0.7491448043723944
  0.8312517725566952  0.4121601111773203  0.2506668210223971
  0.8336600405174083  0.4120293996561122  0.7501879011074505
  0.8336815777875909  0.9111150922931660  0.2509708897205309
  0.8341104924552776  0.9112536437567770  0.7500444224994792
 -0.0009483966823456  0.0874755015239258  0.0006102442224017
 -0.0005461783572442  0.0872444578298962  0.5007669143601876
 -0.0005194604131665  0.5860498488729198  0.0006283937271781
 -0.0007600539955011  0.5869107217603732  0.5001925826707818
  0.3318268646959944  0.0839803318436401 -0.0003528573504928
  0.3331646928532717  0.0892708147332556  0.5007078782527623
  0.3354772005432264  0.5876552812079644 -0.0036352110302848
  0.3345144675053447  0.5891736598979248  0.5026573663135753
  0.6695407166331755  0.0868416524401811 -0.0000488551008251
  0.6666226165612759  0.0884755185661628  0.5002506198887863
  0.6671094396566633  0.5866295589297327 -0.0007160058612689
  0.6672442147987349  0.5861937859212536  0.5015032644126768
  0.2266524201168727  0.0960731020440979  0.0022900799277510
  0.0343853186107664  0.1560820261309550  0.3967620571988438
  0.0325414674846953  0.1566873927838285  0.8962185490868406
  0.0344344060939015  0.6554911087960379  0.3961470671280852
  0.0353733289875877  0.6551997720662659  0.8973838033101110
  0.3675701383827501  0.1580714355923733  0.3960674353733820
  0.3767150928962180  0.1538922402731236  0.8971004044196986
  0.3737966533365304  0.6627576422724777  0.4029527790418200
  0.3696139453693436  0.6562278063702202  0.8941553717405111
  0.7012840115643439  0.1574694466572940  0.3959916180343606
  0.7048425869641139  0.1565003983258314  0.8965048922953918
  0.6999979773428661  0.6556702245453198  0.3965383753520970
  0.7030705506984498  0.6562054658087244  0.8964206919097820
  0.1997026935287285  0.0513244600329348  0.2541959957998277
  0.2001251997138274  0.0507082534228331  0.7482074392709276
  0.1940129790158691  0.5520232707839265  0.2519491817326502
  0.1998518589355193  0.5535389751773083  0.7500128170632725
  0.5345997467803250  0.0512192894632296  0.2517133778708986
  0.5363470175536728  0.0511726189577778  0.7488150089991319
  0.5242973966555814  0.5575248483134153  0.2505711140737822
  0.5344949014368948  0.5518357476755866  0.7501251681715263
  0.8674021922350790  0.0510795869857583  0.2511468269573293
  0.8677363815520542  0.0512605001537177  0.7499083728619650
  0.8652145973726810  0.5521113656590069  0.2506933264950469
  0.8674141421069458  0.5520951113149225  0.7501094298801265
  0.0569964624260775  0.4037752600945033  0.2504977461700043
  0.0606838505769133  0.4100593841483240  0.7498295536222614
  0.0605966509003205  0.9078237606052624  0.2514521956577516
  0.0608789765566931  0.9077676320814456  0.7499171037059216
  0.3891593279975539  0.4132501637242539  0.2435408567496296
  0.3948429870506553  0.4091018512213772  0.7516374886810048
  0.3959417098868991  0.9036732719254523  0.2513895472126704
  0.3959606026913152  0.9092356167198249  0.7489102863066576
  0.7252770732940751  0.4102710605426922  0.2507377122969551
  0.7279002744117056  0.4094172776597868  0.7499462839092377
  0.7279088096853915  0.9085800598219723  0.2505803579443698
  0.7283468153769893  0.9084591958192505  0.7500412596493852
  0.2274863644192048  0.0910097795312463  0.5012728730869345
  0.2295574003226165  0.5879160590875656  0.0042796871072545
  0.2290425041162263  0.5925380864442584  0.4993621316180963
  0.5642540319659898  0.0889158536554832 -0.0008180424332836
  0.5608720328314286  0.0921050134030137  0.5003538175972519
  0.5611919618556848  0.5891701887995843 -0.0023068929533992
  0.5614944337474638  0.5881682785721831  0.5037816521943584
  0.8929817766503098  0.0901088685541768  0.0009266518706668
  0.8936657825430091  0.0904790832867057  0.5005997326111415
  0.8937887694851387  0.5886853769540378  0.0002518188788559
  0.8934960792618206  0.5897009437514018  0.5002035034467039
  0.2055126808541545  0.3479327713228214  0.1521497600344291
  0.2017035209327927  0.3449068784065905  0.6453619630170291
  0.2022216002843550  0.8410259605328448  0.1499307793865612
  0.2014487705655262  0.8422006857047035  0.6446925288857063
  0.5344820995624938  0.3469938425523982  0.1455062718492285
  0.5351948426253362  0.3428007108851498  0.6463773196477682
  0.5377502428309802  0.8429058980492270  0.1472695054054122
  0.5363494413422726  0.8421633262066932  0.6450763272972964
  0.8659923430892689  0.3431790840746963  0.1467941522593152
  0.8688497318616145  0.3427437139519748  0.6465717203298870
  0.8688120957195978  0.8414906621884386  0.1475293374493533
  0.8689317359275543  0.8422823235942077  0.6459971071961961
  0.0326012432301435  0.1570397917513117  0.1050250462473704
  0.0348836304786671  0.1565259278304980  0.6042542109596430
  0.0337838886012168  0.6554328836116503  0.1047748470986053
  0.0348665755900890  0.6560792681089405  0.6035938272744473
  0.3797947355678689  0.1445254306675849  0.1051071458417641
  0.3687166251887127  0.1586714294358893  0.6040215281118589
  0.3701656659026615  0.6528933620290460  0.1036976325994300
  0.3683746517371809  0.6554322671649981  0.6080579448167116
  0.7031389053083671  0.1563225551395477  0.1045919729478414
  0.7025289244829760  0.1572656002314713  0.6037310344064557
  0.7004742873559061  0.6555957794539390  0.1041269029544386
  0.7035711393843096  0.6558441149594588  0.6040795438327854
  0.0335492147693363  0.4459307015673383  0.0011546163720123
  0.0328557322053581  0.4467094029541537  0.5003209915686037
  0.0317421598630937  0.9469334471305582  0.0008929787872604
  0.0330891984680973  0.9471435916053560  0.5007586231544017
  0.3664976732017169  0.4460649950089972  0.0018380977149645
  0.3676454414067144  0.4488579245906745  0.4994937516550653
  0.3705784737265119  0.9419575316729947 -0.0027358853952081
  0.3678111923593574  0.9494201927821094  0.5007767182722953
  0.7005727070367840  0.4465502332000620 -0.0000196430890118
  0.7005742090044653  0.4460757037536086  0.5002112112130443
  0.7038758192703051  0.9469745580819000  0.0003011961659101
  0.7004861564060397  0.9483753248844005  0.5002435937653258
  0.1977262611668784  0.3435927484582010  0.3589411122639074
  0.2022298830654315  0.3439575351251546  0.8525080194750170
  0.2013267027098225  0.8425148730075107  0.3570458230697706
  0.2022387414842394  0.8397140093010259  0.8518446786991304
  0.5297616603953991  0.3458779734045281  0.3520635200091566
  0.5371532593864384  0.3428579177010306  0.8537682654119377
  0.5378310567700690  0.8433010603163336  0.3553070162833052
  0.5373657980216513  0.8420200988046473  0.8524980651033298
  0.8664825198772680  0.3426505558232038  0.3542680722155195
  0.8687783372693002  0.3431362910802760  0.8540919665091078
  0.8682716279642905  0.8419433778180377  0.3551769778857943
  0.8695640804411741  0.8417056105850094  0.8535540060894743
 
  0.00000000E+00  0.00000000E+00  0.00000000E+00
  0.00000000E+00  0.00000000E+00  0.00000000E+00
  0.00000000E+00  0.00000000E+00  0.00000000E+00
  0.00000000E+00  0.00000000E+00  0.00000000E+00
  0.00000000E+00  0.00000000E+00  0.00000000E+00
  0.00000000E+00  0.00000000E+00  0.00000000E+00
  0.00000000E+00  0.00000000E+00  0.00000000E+00
  0.00000000E+00  0.00000000E+00  0.00000000E+00
  0.00000000E+00  0.00000000E+00  0.00000000E+00
  0.00000000E+00  0.00000000E+00  0.00000000E+00
  0.00000000E+00  0.00000000E+00  0.00000000E+00
  0.00000000E+00  0.00000000E+00  0.00000000E+00
  0.00000000E+00  0.00000000E+00  0.00000000E+00
  0.00000000E+00  0.00000000E+00  0.00000000E+00
  0.00000000E+00  0.00000000E+00  0.00000000E+00
  0.00000000E+00  0.00000000E+00  0.00000000E+00
  0.00000000E+00  0.00000000E+00  0.00000000E+00
  0.00000000E+00  0.00000000E+00  0.00000000E+00
  0.00000000E+00  0.00000000E+00  0.00000000E+00
  0.00000000E+00  0.00000000E+00  0.00000000E+00
  0.00000000E+00  0.00000000E+00  0.00000000E+00
  0.00000000E+00  0.00000000E+00  0.00000000E+00
  0.00000000E+00  0.00000000E+00  0.00000000E+00
  0.00000000E+00  0.00000000E+00  0.00000000E+00
  0.00000000E+00  0.00000000E+00  0.00000000E+00
  0.00000000E+00  0.00000000E+00  0.00000000E+00
  0.00000000E+00  0.00000000E+00  0.00000000E+00
  0.00000000E+00  0.00000000E+00  0.00000000E+00
  0.00000000E+00  0.00000000E+00  0.00000000E+00
  0.00000000E+00  0.00000000E+00  0.00000000E+00
  0.00000000E+00  0.00000000E+00  0.00000000E+00
  0.00000000E+00  0.00000000E+00  0.00000000E+00
  0.00000000E+00  0.00000000E+00  0.00000000E+00
  0.00000000E+00  0.00000000E+00  0.00000000E+00
  0.00000000E+00  0.00000000E+00  0.00000000E+00
  0.00000000E+00  0.00000000E+00  0.00000000E+00
  0.00000000E+00  0.00000000E+00  0.00000000E+00
  0.00000000E+00  0.00000000E+00  0.00000000E+00
  0.00000000E+00  0.00000000E+00  0.00000000E+00
  0.00000000E+00  0.00000000E+00  0.00000000E+00
  0.00000000E+00  0.00000000E+00  0.00000000E+00
  0.00000000E+00  0.00000000E+00  0.00000000E+00
  0.00000000E+00  0.00000000E+00  0.00000000E+00
  0.00000000E+00  0.00000000E+00  0.00000000E+00
  0.00000000E+00  0.00000000E+00  0.00000000E+00
  0.00000000E+00  0.00000000E+00  0.00000000E+00
  0.00000000E+00  0.00000000E+00  0.00000000E+00
  0.00000000E+00  0.00000000E+00  0.00000000E+00
  0.00000000E+00  0.00000000E+00  0.00000000E+00
  0.00000000E+00  0.00000000E+00  0.00000000E+00
  0.00000000E+00  0.00000000E+00  0.00000000E+00
  0.00000000E+00  0.00000000E+00  0.00000000E+00
  0.00000000E+00  0.00000000E+00  0.00000000E+00
  0.00000000E+00  0.00000000E+00  0.00000000E+00
  0.00000000E+00  0.00000000E+00  0.00000000E+00
  0.00000000E+00  0.00000000E+00  0.00000000E+00
  0.00000000E+00  0.00000000E+00  0.00000000E+00
  0.00000000E+00  0.00000000E+00  0.00000000E+00
  0.00000000E+00  0.00000000E+00  0.00000000E+00
  0.00000000E+00  0.00000000E+00  0.00000000E+00
  0.00000000E+00  0.00000000E+00  0.00000000E+00
  0.00000000E+00  0.00000000E+00  0.00000000E+00
  0.00000000E+00  0.00000000E+00  0.00000000E+00
  0.00000000E+00  0.00000000E+00  0.00000000E+00
  0.00000000E+00  0.00000000E+00  0.00000000E+00
  0.00000000E+00  0.00000000E+00  0.00000000E+00
  0.00000000E+00  0.00000000E+00  0.00000000E+00
  0.00000000E+00  0.00000000E+00  0.00000000E+00
  0.00000000E+00  0.00000000E+00  0.00000000E+00
  0.00000000E+00  0.00000000E+00  0.00000000E+00
  0.00000000E+00  0.00000000E+00  0.00000000E+00
  0.00000000E+00  0.00000000E+00  0.00000000E+00
  0.00000000E+00  0.00000000E+00  0.00000000E+00
  0.00000000E+00  0.00000000E+00  0.00000000E+00
  0.00000000E+00  0.00000000E+00  0.00000000E+00
  0.00000000E+00  0.00000000E+00  0.00000000E+00
  0.00000000E+00  0.00000000E+00  0.00000000E+00
  0.00000000E+00  0.00000000E+00  0.00000000E+00
  0.00000000E+00  0.00000000E+00  0.00000000E+00
  0.00000000E+00  0.00000000E+00  0.00000000E+00
  0.00000000E+00  0.00000000E+00  0.00000000E+00
  0.00000000E+00  0.00000000E+00  0.00000000E+00
  0.00000000E+00  0.00000000E+00  0.00000000E+00
  0.00000000E+00  0.00000000E+00  0.00000000E+00
  0.00000000E+00  0.00000000E+00  0.00000000E+00
  0.00000000E+00  0.00000000E+00  0.00000000E+00
  0.00000000E+00  0.00000000E+00  0.00000000E+00
  0.00000000E+00  0.00000000E+00  0.00000000E+00
  0.00000000E+00  0.00000000E+00  0.00000000E+00
  0.00000000E+00  0.00000000E+00  0.00000000E+00
  0.00000000E+00  0.00000000E+00  0.00000000E+00
  0.00000000E+00  0.00000000E+00  0.00000000E+00
  0.00000000E+00  0.00000000E+00  0.00000000E+00
  0.00000000E+00  0.00000000E+00  0.00000000E+00
  0.00000000E+00  0.00000000E+00  0.00000000E+00
  0.00000000E+00  0.00000000E+00  0.00000000E+00
  0.00000000E+00  0.00000000E+00  0.00000000E+00
  0.00000000E+00  0.00000000E+00  0.00000000E+00
  0.00000000E+00  0.00000000E+00  0.00000000E+00
  0.00000000E+00  0.00000000E+00  0.00000000E+00
  0.00000000E+00  0.00000000E+00  0.00000000E+00
  0.00000000E+00  0.00000000E+00  0.00000000E+00
  0.00000000E+00  0.00000000E+00  0.00000000E+00
  0.00000000E+00  0.00000000E+00  0.00000000E+00
  0.00000000E+00  0.00000000E+00  0.00000000E+00
  0.00000000E+00  0.00000000E+00  0.00000000E+00
  0.00000000E+00  0.00000000E+00  0.00000000E+00
  0.00000000E+00  0.00000000E+00  0.00000000E+00
  0.00000000E+00  0.00000000E+00  0.00000000E+00
  0.00000000E+00  0.00000000E+00  0.00000000E+00
  0.00000000E+00  0.00000000E+00  0.00000000E+00
  0.00000000E+00  0.00000000E+00  0.00000000E+00
  0.00000000E+00  0.00000000E+00  0.00000000E+00
  0.00000000E+00  0.00000000E+00  0.00000000E+00
  0.00000000E+00  0.00000000E+00  0.00000000E+00
  0.00000000E+00  0.00000000E+00  0.00000000E+00
  0.00000000E+00  0.00000000E+00  0.00000000E+00
  0.00000000E+00  0.00000000E+00  0.00000000E+00
  0.00000000E+00  0.00000000E+00  0.00000000E+00
  0.00000000E+00  0.00000000E+00  0.00000000E+00
  0.00000000E+00  0.00000000E+00  0.00000000E+00
  0.00000000E+00  0.00000000E+00  0.00000000E+00
  0.00000000E+00  0.00000000E+00  0.00000000E+00
  0.00000000E+00  0.00000000E+00  0.00000000E+00
  0.00000000E+00  0.00000000E+00  0.00000000E+00
  0.00000000E+00  0.00000000E+00  0.00000000E+00
  0.00000000E+00  0.00000000E+00  0.00000000E+00
  0.00000000E+00  0.00000000E+00  0.00000000E+00
  0.00000000E+00  0.00000000E+00  0.00000000E+00
  0.00000000E+00  0.00000000E+00  0.00000000E+00
  0.00000000E+00  0.00000000E+00  0.00000000E+00
  0.00000000E+00  0.00000000E+00  0.00000000E+00
  0.00000000E+00  0.00000000E+00  0.00000000E+00
  0.00000000E+00  0.00000000E+00  0.00000000E+00
  0.00000000E+00  0.00000000E+00  0.00000000E+00
  0.00000000E+00  0.00000000E+00  0.00000000E+00
  0.00000000E+00  0.00000000E+00  0.00000000E+00
  0.00000000E+00  0.00000000E+00  0.00000000E+00
  0.00000000E+00  0.00000000E+00  0.00000000E+00
  0.00000000E+00  0.00000000E+00  0.00000000E+00
  0.00000000E+00  0.00000000E+00  0.00000000E+00
  0.00000000E+00  0.00000000E+00  0.00000000E+00
  0.00000000E+00  0.00000000E+00  0.00000000E+00
  0.00000000E+00  0.00000000E+00  0.00000000E+00
  0.00000000E+00  0.00000000E+00  0.00000000E+00
  0.00000000E+00  0.00000000E+00  0.00000000E+00
  0.00000000E+00  0.00000000E+00  0.00000000E+00
  0.00000000E+00  0.00000000E+00  0.00000000E+00
  0.00000000E+00  0.00000000E+00  0.00000000E+00
  0.00000000E+00  0.00000000E+00  0.00000000E+00
  0.00000000E+00  0.00000000E+00  0.00000000E+00
  0.00000000E+00  0.00000000E+00  0.00000000E+00
  0.00000000E+00  0.00000000E+00  0.00000000E+00
  0.00000000E+00  0.00000000E+00  0.00000000E+00
  0.00000000E+00  0.00000000E+00  0.00000000E+00
  0.00000000E+00  0.00000000E+00  0.00000000E+00
  0.00000000E+00  0.00000000E+00  0.00000000E+00
  0.00000000E+00  0.00000000E+00  0.00000000E+00
  0.00000000E+00  0.00000000E+00  0.00000000E+00
  0.00000000E+00  0.00000000E+00  0.00000000E+00
  0.00000000E+00  0.00000000E+00  0.00000000E+00
  0.00000000E+00  0.00000000E+00  0.00000000E+00
  0.00000000E+00  0.00000000E+00  0.00000000E+00
  0.00000000E+00  0.00000000E+00  0.00000000E+00
  0.00000000E+00  0.00000000E+00  0.00000000E+00
  0.00000000E+00  0.00000000E+00  0.00000000E+00
  0.00000000E+00  0.00000000E+00  0.00000000E+00
  0.00000000E+00  0.00000000E+00  0.00000000E+00
  0.00000000E+00  0.00000000E+00  0.00000000E+00
  0.00000000E+00  0.00000000E+00  0.00000000E+00
  0.00000000E+00  0.00000000E+00  0.00000000E+00
  0.00000000E+00  0.00000000E+00  0.00000000E+00
  0.00000000E+00  0.00000000E+00  0.00000000E+00
  0.00000000E+00  0.00000000E+00  0.00000000E+00
  0.00000000E+00  0.00000000E+00  0.00000000E+00
  0.00000000E+00  0.00000000E+00  0.00000000E+00
  0.00000000E+00  0.00000000E+00  0.00000000E+00
  0.00000000E+00  0.00000000E+00  0.00000000E+00
  0.00000000E+00  0.00000000E+00  0.00000000E+00
  0.00000000E+00  0.00000000E+00  0.00000000E+00
  0.00000000E+00  0.00000000E+00  0.00000000E+00
  0.00000000E+00  0.00000000E+00  0.00000000E+00
  0.00000000E+00  0.00000000E+00  0.00000000E+00
  0.00000000E+00  0.00000000E+00  0.00000000E+00
  0.00000000E+00  0.00000000E+00  0.00000000E+00
  0.00000000E+00  0.00000000E+00  0.00000000E+00
  0.00000000E+00  0.00000000E+00  0.00000000E+00
  0.00000000E+00  0.00000000E+00  0.00000000E+00
  0.00000000E+00  0.00000000E+00  0.00000000E+00
  0.00000000E+00  0.00000000E+00  0.00000000E+00
  0.00000000E+00  0.00000000E+00  0.00000000E+00
  0.00000000E+00  0.00000000E+00  0.00000000E+00
  0.00000000E+00  0.00000000E+00  0.00000000E+00
