Li2 P2 N4                               
   1.00000000000000     
    -2.5344690000000001    2.2857240000000001    3.6449240000000001
     2.5344690000000001   -2.2857240000000001    3.6449240000000001
     2.0369790000000001    2.2857240000000001   -3.6449240000000001
   Li   P    N 
     2     2     4
Direct
  0.5000000000000000  0.5000000000000000  0.0000000000000000
  0.2500000000000000  0.7500000000000000  0.5000000000000000
  0.0000000000000000  0.0000000000000000  0.0000000000000000
  0.7500000000000000  0.2500000000000000  0.5000000000000000
  0.3750000000000000  0.2920030000000011  0.4170030000000011
  0.8750000000000000  0.9579969999999989  0.5829969999999989
  0.7079969999999989  0.1250000000000000  0.0829969999999989
  0.0420030000000011  0.6250000000000000  0.9170030000000011
 
  0.00000000E+00  0.00000000E+00  0.00000000E+00
  0.00000000E+00  0.00000000E+00  0.00000000E+00
  0.00000000E+00  0.00000000E+00  0.00000000E+00
  0.00000000E+00  0.00000000E+00  0.00000000E+00
  0.00000000E+00  0.00000000E+00  0.00000000E+00
  0.00000000E+00  0.00000000E+00  0.00000000E+00
  0.00000000E+00  0.00000000E+00  0.00000000E+00
  0.00000000E+00  0.00000000E+00  0.00000000E+00
