Li5 P2 N1 O6                            
   1.00000000000000     
     0.0043045509205577    0.0949950050747473    5.1324082606534214
     5.8041788262313601   -0.0013902923914286   -0.0066447146318809
     0.0102859290956338    5.4130894727877932    0.1008585417222867
   Li   P    N    O 
     5     2     1     6
Direct
  0.5153676238209903 -0.0154400171824494  0.8492915553330231
  0.4789077377911756  0.7399376894729615  0.3460445948592248
  0.0073388782648645  0.7517902539011834  0.6691697291630680
  0.0076015714679412  0.2185891267910441  0.6698891594755011
  0.4803843699809975  0.2302518631673844  0.3463824541119839
  0.4930253168424428  0.4852694501963783  0.8021881899527115
 -0.0000874238765459 -0.0146257564076551  0.1773958928401173
  0.1635418819243845  0.9860523366223771  0.4072201094411473
  0.6343346849015240  0.7041079685980552  0.6907860552765048
  0.6339231370295653  0.2662237072597471  0.6918115409376965
  0.4893972421045734  0.4853941948712856  0.0891020365618854
  0.1209669493647319 -0.0153227702816330  0.9161824392662468
  0.2140225856219138  0.4855097801841342  0.6984610500355500
  0.7026484447614689 -0.0148758271928137  0.1770861927453410
 
  0.00000000E+00  0.00000000E+00  0.00000000E+00
  0.00000000E+00  0.00000000E+00  0.00000000E+00
  0.00000000E+00  0.00000000E+00  0.00000000E+00
  0.00000000E+00  0.00000000E+00  0.00000000E+00
  0.00000000E+00  0.00000000E+00  0.00000000E+00
  0.00000000E+00  0.00000000E+00  0.00000000E+00
  0.00000000E+00  0.00000000E+00  0.00000000E+00
  0.00000000E+00  0.00000000E+00  0.00000000E+00
  0.00000000E+00  0.00000000E+00  0.00000000E+00
  0.00000000E+00  0.00000000E+00  0.00000000E+00
  0.00000000E+00  0.00000000E+00  0.00000000E+00
  0.00000000E+00  0.00000000E+00  0.00000000E+00
  0.00000000E+00  0.00000000E+00  0.00000000E+00
  0.00000000E+00  0.00000000E+00  0.00000000E+00
