P4 O10                                  
   1.00000000000000     
     0.0000000000000000    4.4509679999999996    9.0402260000000005
     2.7748420000000000    0.0000000000000000    8.2937849999999997
     2.7748420000000000    4.0834570000000001    0.0000000000000000
   P    O 
     4    10
Direct
  0.6014839999999992  0.5506519999999995  0.2448210000000017
  0.6030439999999970  0.2448210000000017  0.5506519999999995
  0.0051789999999983  0.6469560000000030  0.6485160000000008
  0.6993480000000005  0.6485160000000008  0.6469560000000030
  0.2731459999999970  0.8436000000000021  0.3936909999999969
  0.4895629999999969  0.3936909999999969  0.8436000000000021
  0.8563090000000031  0.7604370000000031  0.9768540000000030
  0.4063999999999979  0.9768540000000030  0.7604370000000031
  0.9907449999999969  0.5092550000000031  0.5092550000000031
  0.7407449999999969  0.2592550000000031  0.2592550000000031
  0.7877300000000034  0.4812950000000029  0.3706869999999967
  0.3602879999999971  0.3706869999999967  0.4812950000000029
  0.8793130000000033  0.8897120000000029  0.4622699999999966
  0.7687049999999971  0.4622699999999966  0.8897120000000029
 
  0.00000000E+00  0.00000000E+00  0.00000000E+00
  0.00000000E+00  0.00000000E+00  0.00000000E+00
  0.00000000E+00  0.00000000E+00  0.00000000E+00
  0.00000000E+00  0.00000000E+00  0.00000000E+00
  0.00000000E+00  0.00000000E+00  0.00000000E+00
  0.00000000E+00  0.00000000E+00  0.00000000E+00
  0.00000000E+00  0.00000000E+00  0.00000000E+00
  0.00000000E+00  0.00000000E+00  0.00000000E+00
  0.00000000E+00  0.00000000E+00  0.00000000E+00
  0.00000000E+00  0.00000000E+00  0.00000000E+00
  0.00000000E+00  0.00000000E+00  0.00000000E+00
  0.00000000E+00  0.00000000E+00  0.00000000E+00
  0.00000000E+00  0.00000000E+00  0.00000000E+00
  0.00000000E+00  0.00000000E+00  0.00000000E+00
