Li61 P7 N32                             
   1.00000000000000     
    -0.0427875180674994    9.5892668796620324   -0.0354793617752651
     0.0114853671563850   -0.0354772345971937    9.6006731713378919
     9.5855824278380339   -0.0427893605895328    0.0111398964784982
   Li   P    N 
    61     7    32
Direct
  0.4863551245399824 -0.0119237552444997  0.5011780526848045
  0.0020418281759932  0.5052577320694682  0.0047200177435219
  0.4980242392285479 -0.0010442419370366  0.0013882506852425
 -0.0064561951673726  0.0098797790025554  0.4989047240688237
  0.4999427680508445  0.4988987053416787  0.0070931448900565
 -0.0355327623047623  0.5054410725236816  0.5035997946748709
  0.7314802848661578  0.0463462644860117  0.4845259272502116
  0.2427530555458729  0.0099057062856744  0.4985061977332675
  0.6774028102581260  0.5719628568660556  0.4491024768219589
  0.2008263155654016  0.5205475299128957  0.4985653597071797
  0.2617991900053103  0.0008787057866851  0.0046675186022550
  0.7420672688783819 -0.0047579862563833 -0.0397144170620701
  0.5811557569543275  0.4243975243874513  0.5735571759644943
  0.5017922383541676  0.2491783609046652  0.0031627576656806
  0.5145941526417223  0.7552246193697513  0.0237382914700085
  0.0071792059699440  0.5155974788948905  0.2549501309656401
  0.0134268877834323  0.5122535982776192  0.7538204666653925
  0.2316801919459167  0.2286556374269801  0.2205624441227334
  0.2126244341651670  0.7485713554330270  0.7726182593157760
  0.2954277098772496  0.2195858979576694  0.7046161947867072
  0.2341385995532062  0.7305878704646339  0.2741989320120387
  0.7158439107804162  0.2317980516740243  0.2814360367843333
  0.8112150150512273  0.6651765104697389  0.6249871468024899
  0.7839326189694253  0.1631018414757612  0.7181081946341275
  0.7372780535900759  0.7403671586809993  0.2404458271573779
 -0.0349737917531441  0.2757404813074851  0.2517698456660609
 -0.0282293493734351  0.7717722249086416  0.7671532654968015
  0.2530760420974768  0.2672131398476174  0.4857144979949660
  0.2541318035367593  0.7648336582332590  0.5147455906368189
  0.7685402007818237  0.3126260506936240  0.4858807557935149
  0.7420731607244895  0.8149898628387285  0.4620098180573462
  0.7513178412742058  0.4761356994902131  0.2513949594385100
  0.7488291626169449  0.4758104460016023  0.7376535387647308
  0.2564071571843241  0.4989297551280854  0.2568520564071765
  0.2696883012109911  0.4643008590312984  0.7566186788489079
  0.4675620600682381  0.7580184262449482  0.2847775028428764
  0.5245232199128969  0.2473199111995598  0.7572931182549564
  0.2337376049422014  0.9802602907455802  0.2511444148405541
  0.2330099557655360 -0.0028411006507496  0.7601080201593872
  0.2635059190281542  0.2420636760826539  0.9657182142465287
  0.2709890513724260  0.7596397771286971  0.0280357514210488
  0.7219190332491282  0.9116367193994260  0.7017754834701518
  0.7457322647093249 -0.0112877209837165  0.2152299582299379
  0.7811494932602652  0.7543724994821586  0.0073287219312209
  0.7419127532547324  0.2296938223726271  0.0364122642505789
  0.0580955728282105  0.2585434883385396  0.7623521871462620
 -0.0128055010962292  0.7756844533744945  0.2452695934818961
  0.4846366969911400  0.2657903894013391  0.2468980496576104
  0.4574610412919391  0.7390294068473439  0.7727583839226418
  0.0202342026088824  0.2614254304859281  0.0169380362575499
  0.0209659515385797  0.7431183541114882  0.0061571491855211
  0.5037584362847788  0.2201436654867115  0.4983988786096102
  0.5065905901756025  0.7562669361651501  0.5197644072340138
  0.5116830727562423  0.5167561911535753  0.2400855503159371
  0.5040847199246183  0.4915302676285959  0.7803633247571722
 -0.0085167210398858  0.0208062473696553  0.2626943827794815
 -0.0070667174844245  0.0108839905367806  0.7369762435373229
  0.4270368367789124  0.4372700098856984  0.4259632031388633
  0.4190542483377782  0.5732288307213552  0.5840350858567082
  0.8624455112474299  0.3216521429718438  0.8598792925916955
  0.6736808067083947  0.6965408300974693  0.8147574898387230
  0.0022346190167840  0.0053288335685586 -0.0007696747318334
  0.7545843705953624  0.4974216366919070  0.0022219572959906
  0.2471774665225600  0.5002303737880136  0.0043899671667948
 -0.0065165686216942  0.7661836523009903  0.4988757379428114
  0.0025881158409247  0.2548122078040631  0.5098613822862029
  0.4930094500774427  0.0051475399858396  0.2473928779059316
  0.4901446005774516 -0.0091242280296799  0.7553500909163602
  0.6161015648885269  0.6194665107215318  0.6400281267740389
  0.6156292220899993  0.3817785888067849  0.3754186227815358
  0.8952942457882052  0.9023710953445369  0.0971214355007692
  0.9060554031301949  0.1164622249294155  0.8992226199823860
  0.0998017751141144  0.9012571624720951  0.8950330713437777
  0.1067753336174347  0.1000270488712026  0.1064065951753943
  0.3613984859325776  0.6260188133233725  0.3932330593450014
  0.3929235643200654  0.3719777797532038  0.6214082953342944
  0.0867656700244810  0.3654239052243324  0.4013170352588505
  0.0778014482595021  0.6613863780205673  0.6114645066818436
  0.1147814833933403  0.1494397384950051  0.5962559659333836
  0.0985760838362404  0.8614755022873033  0.3971366430272610
  0.8888038211976171  0.1629253187099420  0.4088223729478070
  0.8880367754286659  0.8663002111011083  0.5982646867422783
  0.8600673184950840  0.3956317421102220  0.1017545318338958
  0.8532042605778090  0.5961032969058381  0.8903744310617973
  0.1499194478931696  0.6035711931166032  0.1095105638229635
  0.1433211176569719  0.4007423608270737  0.9008000489219644
  0.3950508640189545  0.8948588309794769  0.1482503792671342
  0.3958666096888048  0.1026797988320440  0.8535673172665491
  0.3856648726547716  0.0992069141189237  0.3482005881108083
  0.3778359553352075  0.8941533116958414  0.6559484694512969
  0.3483764170685705  0.3902101844215897  0.1012854257534182
  0.3484103889571448  0.6040696916025818  0.9022862324571125
  0.6021017789667572  0.0783652111747560  0.6519215964057017
  0.6043411160293530  0.9057357560552186  0.3461628644354125
  0.6589208974087456  0.6068489624684545  0.0992612475243430
  0.6547522162124033  0.3859127955787691  0.9069615952307200
  0.9081128636968908  0.3432234397430901  0.6345832542246356
  0.8812724509385276  0.6694995929114609  0.3954371260110361
  0.5945947848081491  0.1100171139656922  0.1471683562253655
  0.5868323735688196  0.8828861219905605  0.8593219751749629
 
  0.00000000E+00  0.00000000E+00  0.00000000E+00
  0.00000000E+00  0.00000000E+00  0.00000000E+00
  0.00000000E+00  0.00000000E+00  0.00000000E+00
  0.00000000E+00  0.00000000E+00  0.00000000E+00
  0.00000000E+00  0.00000000E+00  0.00000000E+00
  0.00000000E+00  0.00000000E+00  0.00000000E+00
  0.00000000E+00  0.00000000E+00  0.00000000E+00
  0.00000000E+00  0.00000000E+00  0.00000000E+00
  0.00000000E+00  0.00000000E+00  0.00000000E+00
  0.00000000E+00  0.00000000E+00  0.00000000E+00
  0.00000000E+00  0.00000000E+00  0.00000000E+00
  0.00000000E+00  0.00000000E+00  0.00000000E+00
  0.00000000E+00  0.00000000E+00  0.00000000E+00
  0.00000000E+00  0.00000000E+00  0.00000000E+00
  0.00000000E+00  0.00000000E+00  0.00000000E+00
  0.00000000E+00  0.00000000E+00  0.00000000E+00
  0.00000000E+00  0.00000000E+00  0.00000000E+00
  0.00000000E+00  0.00000000E+00  0.00000000E+00
  0.00000000E+00  0.00000000E+00  0.00000000E+00
  0.00000000E+00  0.00000000E+00  0.00000000E+00
  0.00000000E+00  0.00000000E+00  0.00000000E+00
  0.00000000E+00  0.00000000E+00  0.00000000E+00
  0.00000000E+00  0.00000000E+00  0.00000000E+00
  0.00000000E+00  0.00000000E+00  0.00000000E+00
  0.00000000E+00  0.00000000E+00  0.00000000E+00
  0.00000000E+00  0.00000000E+00  0.00000000E+00
  0.00000000E+00  0.00000000E+00  0.00000000E+00
  0.00000000E+00  0.00000000E+00  0.00000000E+00
  0.00000000E+00  0.00000000E+00  0.00000000E+00
  0.00000000E+00  0.00000000E+00  0.00000000E+00
  0.00000000E+00  0.00000000E+00  0.00000000E+00
  0.00000000E+00  0.00000000E+00  0.00000000E+00
  0.00000000E+00  0.00000000E+00  0.00000000E+00
  0.00000000E+00  0.00000000E+00  0.00000000E+00
  0.00000000E+00  0.00000000E+00  0.00000000E+00
  0.00000000E+00  0.00000000E+00  0.00000000E+00
  0.00000000E+00  0.00000000E+00  0.00000000E+00
  0.00000000E+00  0.00000000E+00  0.00000000E+00
  0.00000000E+00  0.00000000E+00  0.00000000E+00
  0.00000000E+00  0.00000000E+00  0.00000000E+00
  0.00000000E+00  0.00000000E+00  0.00000000E+00
  0.00000000E+00  0.00000000E+00  0.00000000E+00
  0.00000000E+00  0.00000000E+00  0.00000000E+00
  0.00000000E+00  0.00000000E+00  0.00000000E+00
  0.00000000E+00  0.00000000E+00  0.00000000E+00
  0.00000000E+00  0.00000000E+00  0.00000000E+00
  0.00000000E+00  0.00000000E+00  0.00000000E+00
  0.00000000E+00  0.00000000E+00  0.00000000E+00
  0.00000000E+00  0.00000000E+00  0.00000000E+00
  0.00000000E+00  0.00000000E+00  0.00000000E+00
  0.00000000E+00  0.00000000E+00  0.00000000E+00
  0.00000000E+00  0.00000000E+00  0.00000000E+00
  0.00000000E+00  0.00000000E+00  0.00000000E+00
  0.00000000E+00  0.00000000E+00  0.00000000E+00
  0.00000000E+00  0.00000000E+00  0.00000000E+00
  0.00000000E+00  0.00000000E+00  0.00000000E+00
  0.00000000E+00  0.00000000E+00  0.00000000E+00
  0.00000000E+00  0.00000000E+00  0.00000000E+00
  0.00000000E+00  0.00000000E+00  0.00000000E+00
  0.00000000E+00  0.00000000E+00  0.00000000E+00
  0.00000000E+00  0.00000000E+00  0.00000000E+00
  0.00000000E+00  0.00000000E+00  0.00000000E+00
  0.00000000E+00  0.00000000E+00  0.00000000E+00
  0.00000000E+00  0.00000000E+00  0.00000000E+00
  0.00000000E+00  0.00000000E+00  0.00000000E+00
  0.00000000E+00  0.00000000E+00  0.00000000E+00
  0.00000000E+00  0.00000000E+00  0.00000000E+00
  0.00000000E+00  0.00000000E+00  0.00000000E+00
  0.00000000E+00  0.00000000E+00  0.00000000E+00
  0.00000000E+00  0.00000000E+00  0.00000000E+00
  0.00000000E+00  0.00000000E+00  0.00000000E+00
  0.00000000E+00  0.00000000E+00  0.00000000E+00
  0.00000000E+00  0.00000000E+00  0.00000000E+00
  0.00000000E+00  0.00000000E+00  0.00000000E+00
  0.00000000E+00  0.00000000E+00  0.00000000E+00
  0.00000000E+00  0.00000000E+00  0.00000000E+00
  0.00000000E+00  0.00000000E+00  0.00000000E+00
  0.00000000E+00  0.00000000E+00  0.00000000E+00
  0.00000000E+00  0.00000000E+00  0.00000000E+00
  0.00000000E+00  0.00000000E+00  0.00000000E+00
  0.00000000E+00  0.00000000E+00  0.00000000E+00
  0.00000000E+00  0.00000000E+00  0.00000000E+00
  0.00000000E+00  0.00000000E+00  0.00000000E+00
  0.00000000E+00  0.00000000E+00  0.00000000E+00
  0.00000000E+00  0.00000000E+00  0.00000000E+00
  0.00000000E+00  0.00000000E+00  0.00000000E+00
  0.00000000E+00  0.00000000E+00  0.00000000E+00
  0.00000000E+00  0.00000000E+00  0.00000000E+00
  0.00000000E+00  0.00000000E+00  0.00000000E+00
  0.00000000E+00  0.00000000E+00  0.00000000E+00
  0.00000000E+00  0.00000000E+00  0.00000000E+00
  0.00000000E+00  0.00000000E+00  0.00000000E+00
  0.00000000E+00  0.00000000E+00  0.00000000E+00
  0.00000000E+00  0.00000000E+00  0.00000000E+00
  0.00000000E+00  0.00000000E+00  0.00000000E+00
  0.00000000E+00  0.00000000E+00  0.00000000E+00
  0.00000000E+00  0.00000000E+00  0.00000000E+00
  0.00000000E+00  0.00000000E+00  0.00000000E+00
  0.00000000E+00  0.00000000E+00  0.00000000E+00
  0.00000000E+00  0.00000000E+00  0.00000000E+00
