P56 O140
1.0
4.933571 0.000000 -0.185066
0.000000 16.587570 0.000000
0.000000 0.000000 55.120879
P O
56 140
direct
0.053864 0.923932 0.025945 P5+
0.592124 0.576068 0.054804 P5+
0.092124 0.673932 0.054804 P5+
0.887197 0.826068 0.067612 P5+
0.387197 0.423932 0.067612 P5+
0.258790 0.076068 0.013137 P5+
0.758791 0.173932 0.013137 P5+
0.553864 0.326068 0.025945 P5+
0.720530 0.923932 0.109278 P5+
0.258790 0.576068 0.138137 P5+
0.758791 0.673932 0.138137 P5+
0.553864 0.826068 0.150945 P5+
0.053864 0.423932 0.150945 P5+
0.925457 0.076068 0.096470 P5+
0.425457 0.173932 0.096470 P5+
0.220530 0.326068 0.109278 P5+
0.387197 0.923932 0.192612 P5+
0.925457 0.576068 0.221470 P5+
0.425457 0.673932 0.221470 P5+
0.220530 0.826068 0.234278 P5+
0.720530 0.423932 0.234278 P5+
0.592124 0.076068 0.179804 P5+
0.092124 0.173932 0.179804 P5+
0.887197 0.326068 0.192612 P5+
0.053864 0.923932 0.275945 P5+
0.592124 0.576068 0.304804 P5+
0.092124 0.673932 0.304804 P5+
0.887197 0.826068 0.317612 P5+
0.387197 0.423932 0.317612 P5+
0.258790 0.076068 0.263137 P5+
0.758790 0.173932 0.263137 P5+
0.553864 0.326068 0.275945 P5+
0.720530 0.923932 0.359278 P5+
0.258790 0.576068 0.388137 P5+
0.758791 0.673932 0.388137 P5+
0.553864 0.826068 0.400945 P5+
0.053864 0.423932 0.400945 P5+
0.925457 0.076068 0.346470 P5+
0.425457 0.173932 0.346470 P5+
0.220530 0.326068 0.359278 P5+
0.387197 0.923932 0.442612 P5+
0.925457 0.576068 0.471470 P5+
0.425457 0.673932 0.471470 P5+
0.220531 0.826068 0.484278 P5+
0.720531 0.423932 0.484278 P5+
0.592124 0.076068 0.429804 P5+
0.092124 0.173932 0.429804 P5+
0.887197 0.326068 0.442612 P5+
0.053864 0.923932 0.525945 P5+
0.592124 0.576068 0.554804 P5+
0.092124 0.673932 0.554804 P5+
0.887197 0.826068 0.567612 P5+
0.387197 0.423932 0.567612 P5+
0.258791 0.076068 0.513137 P5+
0.758791 0.173932 0.513137 P5+
0.553864 0.326068 0.525945 P5+
0.786946 0.941627 0.015014 O2-
0.564496 0.558373 0.028917 O2-
0.064497 0.691627 0.028917 O2-
0.620279 0.808373 0.056680 O2-
0.081981 0.750000 0.072748 O2-
0.248648 0.000000 0.031081 O2-
0.243102 0.865488 0.010586 O2-
0.365213 0.634512 0.065454 O2-
0.865213 0.615488 0.065454 O2-
0.076435 0.884512 0.052252 O2-
0.120279 0.441627 0.056680 O2-
0.897830 0.058373 0.070583 O2-
0.397830 0.191627 0.070583 O2-
0.286946 0.308373 0.015014 O2-
0.748648 0.250000 0.031081 O2-
0.581982 0.500000 0.072748 O2-
0.576435 0.365488 0.052252 O2-
0.031879 0.134512 0.023787 O2-
0.531880 0.115488 0.023787 O2-
0.743102 0.384512 0.010586 O2-
0.453612 0.941627 0.098347 O2-
0.231163 0.558373 0.112250 O2-
0.731163 0.691627 0.112250 O2-
0.286946 0.808373 0.140014 O2-
0.748648 0.750000 0.156081 O2-
0.915315 0.000000 0.114414 O2-
0.909769 0.865488 0.093919 O2-
0.031880 0.634512 0.148787 O2-
0.531880 0.615488 0.148787 O2-
0.743102 0.884512 0.135586 O2-
0.786946 0.441627 0.140014 O2-
0.564497 0.058373 0.153917 O2-
0.064497 0.191627 0.153917 O2-
0.953612 0.308373 0.098347 O2-
0.415315 0.250000 0.114414 O2-
0.248648 0.500000 0.156081 O2-
0.243102 0.365488 0.135586 O2-
0.698546 0.134512 0.107120 O2-
0.198546 0.115488 0.107120 O2-
0.409769 0.384512 0.093919 O2-
0.120279 0.941627 0.181680 O2-
0.897830 0.558373 0.195583 O2-
0.397830 0.691627 0.195583 O2-
0.953613 0.808373 0.223347 O2-
0.415315 0.750000 0.239414 O2-
0.581982 0.000000 0.197748 O2-
0.576435 0.865488 0.177252 O2-
0.698546 0.634512 0.232120 O2-
0.198546 0.615488 0.232120 O2-
0.409769 0.884512 0.218919 O2-
0.453612 0.441627 0.223347 O2-
0.231163 0.058373 0.237250 O2-
0.731163 0.191627 0.237250 O2-
0.620279 0.308373 0.181680 O2-
0.081981 0.250000 0.197748 O2-
0.915315 0.500000 0.239414 O2-
0.909769 0.365488 0.218919 O2-
0.365213 0.134512 0.190454 O2-
0.865213 0.115488 0.190454 O2-
0.076435 0.384512 0.177252 O2-
0.786946 0.941627 0.265014 O2-
0.564497 0.558373 0.278917 O2-
0.064497 0.691627 0.278917 O2-
0.620279 0.808373 0.306680 O2-
0.081982 0.750000 0.322748 O2-
0.248648 0.000000 0.281081 O2-
0.243102 0.865488 0.260586 O2-
0.365213 0.634512 0.315454 O2-
0.865213 0.615488 0.315454 O2-
0.076435 0.884512 0.302252 O2-
0.120279 0.441627 0.306680 O2-
0.897830 0.058373 0.320583 O2-
0.397830 0.191627 0.320583 O2-
0.286946 0.308373 0.265014 O2-
0.748648 0.250000 0.281081 O2-
0.581982 0.500000 0.322748 O2-
0.576435 0.365488 0.302252 O2-
0.031880 0.134512 0.273787 O2-
0.531880 0.115488 0.273787 O2-
0.743102 0.384512 0.260586 O2-
0.453613 0.941627 0.348347 O2-
0.231163 0.558373 0.362250 O2-
0.731163 0.691627 0.362250 O2-
0.286946 0.808373 0.390014 O2-
0.748648 0.750000 0.406081 O2-
0.915315 1.000000 0.364414 O2-
0.909769 0.865488 0.343919 O2-
0.031880 0.634512 0.398787 O2-
0.531880 0.615488 0.398787 O2-
0.743102 0.884512 0.385586 O2-
0.786946 0.441627 0.390014 O2-
0.564497 0.058373 0.403917 O2-
0.064497 0.191627 0.403917 O2-
0.953613 0.308373 0.348347 O2-
0.415315 0.250000 0.364414 O2-
0.248648 0.500000 0.406081 O2-
0.243102 0.365488 0.385586 O2-
0.698546 0.134512 0.357120 O2-
0.198546 0.115488 0.357120 O2-
0.409769 0.384512 0.343919 O2-
0.120279 0.941627 0.431680 O2-
0.897830 0.558373 0.445583 O2-
0.397830 0.691627 0.445583 O2-
0.953613 0.808373 0.473347 O2-
0.415315 0.750000 0.489414 O2-
0.581982 1.000000 0.447748 O2-
0.576436 0.865488 0.427252 O2-
0.698546 0.634512 0.482120 O2-
0.198546 0.615488 0.482120 O2-
0.409769 0.884512 0.468919 O2-
0.453613 0.441627 0.473347 O2-
0.231163 0.058373 0.487250 O2-
0.731163 0.191627 0.487250 O2-
0.620279 0.308373 0.431680 O2-
0.081982 0.250000 0.447748 O2-
0.915315 0.500000 0.489414 O2-
0.909769 0.365488 0.468919 O2-
0.365213 0.134512 0.440454 O2-
0.865213 0.115488 0.440454 O2-
0.076436 0.384512 0.427252 O2-
0.786946 0.941627 0.515014 O2-
0.564497 0.558373 0.528917 O2-
0.064497 0.691627 0.528917 O2-
0.620279 0.808373 0.556680 O2-
0.081982 0.750000 0.572748 O2-
0.248648 0.000000 0.531081 O2-
0.243102 0.865488 0.510586 O2-
0.365213 0.634512 0.565454 O2-
0.865213 0.615488 0.565454 O2-
0.076436 0.884512 0.552252 O2-
0.120279 0.441627 0.556680 O2-
0.897830 0.058373 0.570583 O2-
0.397830 0.191627 0.570583 O2-
0.286946 0.308373 0.515014 O2-
0.748648 0.250000 0.531081 O2-
0.581982 0.500000 0.572748 O2-
0.576436 0.365488 0.552252 O2-
0.031880 0.134512 0.523787 O2-
0.531880 0.115488 0.523787 O2-
0.743102 0.384512 0.510586 O2-
