Li5 P2 N1 O6                            
   1.00000000000000     
    -0.0361697658951065   -0.3413245317019049    4.9920756544844096
     6.8721811813361180    0.1583660698800631   -0.0616576358069879
     0.1606394782254428    4.7565854719786556   -0.3405119439629830
   Li   P    N    O 
     5     2     1     6
Direct
  0.5242358390358828 -0.0103153969802358  0.7842696095978176
  0.4224406630701791  0.7410743843397865  0.3105622531925389
 -0.1006446610694722  0.5882279456250935  0.4436916619548640
  0.0425483196060680  0.2935557807357919  0.7506407702975594
  0.4977489124912653  0.2780972711093083  0.3565003996557227
  0.5325364919529797  0.5357455727877194  0.8091998137143629
 -0.0218308149894723 -0.0138444342550173  0.3291342805201608
  0.1804070283619752  0.1016034022209636  0.5296944785375141
  0.6398021757273881  0.7327488032825195  0.6806907005865783
  0.0538009855039911  0.7989502096521814  0.2072160273317956
  0.6882602371662407  0.3637977329541477  0.7076869036064058
  0.5692774059456208  0.5274256361229033  0.1381983661368278
  0.2319094271960576  0.5182847090648578  0.6869484588340109
  0.6857649900013281  0.0446483833399789  0.2135942760338408
 
  0.00000000E+00  0.00000000E+00  0.00000000E+00
  0.00000000E+00  0.00000000E+00  0.00000000E+00
  0.00000000E+00  0.00000000E+00  0.00000000E+00
  0.00000000E+00  0.00000000E+00  0.00000000E+00
  0.00000000E+00  0.00000000E+00  0.00000000E+00
  0.00000000E+00  0.00000000E+00  0.00000000E+00
  0.00000000E+00  0.00000000E+00  0.00000000E+00
  0.00000000E+00  0.00000000E+00  0.00000000E+00
  0.00000000E+00  0.00000000E+00  0.00000000E+00
  0.00000000E+00  0.00000000E+00  0.00000000E+00
  0.00000000E+00  0.00000000E+00  0.00000000E+00
  0.00000000E+00  0.00000000E+00  0.00000000E+00
  0.00000000E+00  0.00000000E+00  0.00000000E+00
  0.00000000E+00  0.00000000E+00  0.00000000E+00
