Li7 P2 N1 O7                            
   1.00000000000000     
     5.1641928175787184    0.0000008496066179   -0.0419651858427695
     0.0000009526905128    6.1469818137943877   -0.0000057686340780
    -0.0427605555947601   -0.0000048911154524    5.2295742982593234
   Li   P    N    O 
     7     2     1     7
Direct
  0.0118414097192024  0.5000003288886478  0.1460092580490666
  0.4947611897208227  0.7220559250317795  0.3346002304053472
  0.4947610168489099  0.2779441737278150  0.3345991620684425
  0.0229518061305232  0.7199746191802335  0.6790215534130976
  0.0229518060150630  0.2800231622153648  0.6790223549077410
  0.4369191240420633 -0.0000041808671119  0.9199439341256369
  0.7400800069751168  0.0000012196301348  0.6130965361634703
  0.5104327741459304  0.5000004611481098  0.8344679417524520
 -0.0140271606378512  0.0000001952460842  0.1838176613696867
  0.2108439198275801  0.5000007500465040  0.8317994443983762
  0.1031403541282059  0.2044945337832832  0.3174856902055990
  0.1031406796277352  0.7955062824114121  0.3174853068615370
  0.6357730087741588  0.5000002995645065  0.1137325296087900
  0.6830790409588168  0.0000000008371007  0.2242079561059798
  0.6302555024332612  0.7118666487309976  0.6927455236334008
  0.6302560097755313  0.2881352897330002  0.6927443078109039
  0.0509895115149576  0.0000002906921382  0.8927306091204754
 
  0.00000000E+00  0.00000000E+00  0.00000000E+00
  0.00000000E+00  0.00000000E+00  0.00000000E+00
  0.00000000E+00  0.00000000E+00  0.00000000E+00
  0.00000000E+00  0.00000000E+00  0.00000000E+00
  0.00000000E+00  0.00000000E+00  0.00000000E+00
  0.00000000E+00  0.00000000E+00  0.00000000E+00
  0.00000000E+00  0.00000000E+00  0.00000000E+00
  0.00000000E+00  0.00000000E+00  0.00000000E+00
  0.00000000E+00  0.00000000E+00  0.00000000E+00
  0.00000000E+00  0.00000000E+00  0.00000000E+00
  0.00000000E+00  0.00000000E+00  0.00000000E+00
  0.00000000E+00  0.00000000E+00  0.00000000E+00
  0.00000000E+00  0.00000000E+00  0.00000000E+00
  0.00000000E+00  0.00000000E+00  0.00000000E+00
  0.00000000E+00  0.00000000E+00  0.00000000E+00
  0.00000000E+00  0.00000000E+00  0.00000000E+00
  0.00000000E+00  0.00000000E+00  0.00000000E+00
