P14 N14 O14
1.0
4.831544 0.000000 -0.000000
-2.415772 4.183227 0.143798
0.000000 0.000000 49.514522
P N O
14 14 14
direct
0.785601 0.071201 0.956221 P5+
0.132624 0.765248 0.939223 P5+
0.093293 0.686586 0.879297 P5+
0.440317 0.380633 0.862300 P5+
0.400985 0.301971 0.802374 P5+
0.748009 0.996018 0.785377 P5+
0.708678 0.917355 0.725451 P5+
0.055701 0.611402 0.708454 P5+
0.016370 0.532740 0.648528 P5+
0.363393 0.226787 0.631531 P5+
0.324062 0.148124 0.571605 P5+
0.671086 0.842172 0.554608 P5+
0.631755 0.763509 0.494682 P5+
0.978778 0.457556 0.477685 P5+
0.915799 0.831598 0.958550 N3-
0.502426 0.004852 0.936894 N3-
0.223491 0.446982 0.881627 N3-
0.810118 0.620237 0.859970 N3-
0.531184 0.062367 0.804704 N3-
0.117811 0.235621 0.783047 N3-
0.838876 0.677752 0.727781 N3-
0.425503 0.851006 0.706124 N3-
0.146568 0.293136 0.650858 N3-
0.733195 0.466390 0.629201 N3-
0.454260 0.908521 0.573935 N3-
0.040888 0.081775 0.552278 N3-
0.761953 0.523906 0.497012 N3-
0.348580 0.697160 0.475355 N3-
0.682266 0.110533 0.986183 O2-
0.082112 0.418225 0.947722 O2-
0.989959 0.725917 0.909260 O2-
0.389805 0.033610 0.870799 O2-
0.297651 0.341302 0.832337 O2-
0.697497 0.648994 0.793876 O2-
0.605343 0.956686 0.755414 O2-
0.005189 0.264379 0.716953 O2-
0.913036 0.572071 0.678491 O2-
0.312882 0.879763 0.640030 O2-
0.220728 0.187456 0.601568 O2-
0.620574 0.495148 0.563106 O2-
0.528420 0.802840 0.524645 O2-
0.928266 0.110533 0.486183 O2-
