Li5 P2 N1 O6                            
   1.00000000000000     
     0.0000804927928777   -0.1136445373128099    5.0851201671382018
     6.4055988177218675    0.0001906402797219    0.0001021498422772
     0.0001598323016400    5.1702025070638244   -0.1228527196277752
   Li   P    N    O 
     5     2     1     6
Direct
  0.5009382768141413 -0.0000173779843045  0.8411686688911485
  0.4938182601321862  0.7435333478315079  0.3239959702953270
 -0.0094716881205152  0.7783244456508129  0.6575464518821535
 -0.0094702121773020  0.2216883690906216  0.6575006786689479
  0.4938232650474043  0.2564575870621965  0.3240121506479918
  0.5167345240605435  0.4999959869201756  0.8217228696619506
  0.0188054716021809  0.0000165451201819  0.1791188545622240
  0.6993036533446726 -0.0000003173514000  0.1890887457717789
  0.1225213488699198  0.1991678274870259  0.3206535573747125
  0.6191479767292419  0.7023735826912423  0.6913368794680165
  0.1224769022204042  0.8008351042407232  0.3206641434086391
  0.6191472754455832  0.2976111459122231  0.6913732897650253
  0.5593348947377222  0.4999981119753403  0.1160555199065495
  0.1160820512938435  0.0000156413536530  0.8918862196955387
 
  0.00000000E+00  0.00000000E+00  0.00000000E+00
  0.00000000E+00  0.00000000E+00  0.00000000E+00
  0.00000000E+00  0.00000000E+00  0.00000000E+00
  0.00000000E+00  0.00000000E+00  0.00000000E+00
  0.00000000E+00  0.00000000E+00  0.00000000E+00
  0.00000000E+00  0.00000000E+00  0.00000000E+00
  0.00000000E+00  0.00000000E+00  0.00000000E+00
  0.00000000E+00  0.00000000E+00  0.00000000E+00
  0.00000000E+00  0.00000000E+00  0.00000000E+00
  0.00000000E+00  0.00000000E+00  0.00000000E+00
  0.00000000E+00  0.00000000E+00  0.00000000E+00
  0.00000000E+00  0.00000000E+00  0.00000000E+00
  0.00000000E+00  0.00000000E+00  0.00000000E+00
  0.00000000E+00  0.00000000E+00  0.00000000E+00
