Li1
1.0
-1.762514 1.713409 1.713409
1.762514 -1.713409 1.713409
1.664304 1.713409 -1.713409
Li
1
direct
0.000000 0.000000 0.000000 Li
