Li61 P7 N32                             
   1.00000000000000     
    -0.0131234012368388    9.5508558592556234    0.0132795658301459
     0.0068301788056981    0.0132680194908424    9.5724756691400721
     9.5642084142855470   -0.0132116818564832    0.0067568601677943
   Li   P    N 
    61     7    32
Direct
  0.5014598650205161 -0.0011420597428078  0.4976015339668577
 -0.0084524276619017  0.4859602472318404 -0.0135526528380109
  0.4970657332939302  0.0008984121877349 -0.0020214290560721
 -0.0006838357693875 -0.0046303785365511  0.4983869043960870
  0.4892609003245361  0.5030855160435649  0.0035911601840743
 -0.0032590303337801  0.4943572251380696  0.4955734721201314
  0.7497486204843631 -0.0104750991391820  0.5050611187152091
  0.2479236802796879  0.0102202104736347  0.4864500641452139
  0.7743832097924859  0.4904850463036777  0.5025512155358663
  0.2195839987751434  0.5150263433261153  0.4875710984959948
  0.2582673623347378 -0.0039186116556369 -0.0181909280606839
  0.7342942836735600 -0.0051560812460517  0.0075796858380358
  0.5761384789717496  0.5757152310520780  0.4232838002020704
  0.4839058961342240  0.2487204129013657  0.0076380360367253
  0.4900236755528375  0.7534963433939015 -0.0095699929815300
  0.0111284454006946  0.4632644053133685  0.2447973151744564
 -0.0113380706929620  0.5007369330984226  0.7422582121537109
  0.2594294557935358  0.2600432017991859  0.2620370486549161
  0.2456938490472034  0.7698207581200828  0.7861093697578101
  0.2759143147594225  0.2693369211768016  0.7641559662388292
  0.2926952713915746  0.7806441882076469  0.3005766999819474
  0.7667164903989261  0.2816080264814703  0.2781685691089223
  0.7490583973073669  0.7297431787627403  0.7304164096613294
  0.7686646974700342  0.2310061237856238  0.7721064169613105
  0.7703249686697776  0.7985133895973163  0.2486795170730522
  0.0111436766648717  0.2101678863270299  0.2523733402808562
  0.9975208553949040  0.7608699792743042  0.7473454031386884
  0.2357984767188603  0.2692149080478256  0.5308263077285771
  0.2527007514485514  0.7640727377859661  0.5300055054081897
  0.7325427701606535  0.2364278760149462  0.5110557613653157
  0.7460588631601635  0.7400792197606989  0.4964129242211568
  0.7414758297647664  0.5035597302257385  0.2608852724639767
  0.7395796672380892  0.4958340018646132  0.7481781228967966
  0.2640666802604773  0.5334624766501943  0.2412326112316973
  0.2356268617289831  0.5053056524846056  0.7390873230283437
  0.5181717765546756  0.7358947977687281  0.2342688900567729
  0.5093418364888151  0.2527293832076063  0.7597570799694295
  0.2448707688835892  0.0079808151231200  0.2252140827898254
  0.2336510755592908  0.0219450113749903  0.7341491027733282
  0.2282086939905570  0.2375715030686700  0.0062676295869687
  0.2493794461977602  0.7541050760039291  0.0376887885549097
  0.7524685617018052  0.9840500873204082  0.7577847407376449
  0.7564708852377650  0.0391103311526294  0.2646744338394298
  0.7364455857517376  0.7598574317899487  0.9742930638050475
  0.7320885696666031  0.2351694419490055  0.0278588781770943
  0.0214640141973527  0.2533270392315010  0.7637445293407520
  0.0571518773933664  0.7252098725746798  0.2481213735847900
  0.5258119612422266  0.2420899270004166  0.2676941083069379
  0.5124021851822866  0.7491909482840270  0.7356947078382869
 -0.0179423740786577  0.2517513663218770  0.0065684931104715
  0.0072625208553030  0.7353402830779576 -0.0185353568800995
  0.4818013915506358  0.2190878790187513  0.5138712375300656
  0.4994212956688328  0.7762167981865097  0.4897850142837021
  0.5023624613573159  0.4871066627568677  0.2246058766043410
  0.4858514048378145  0.4970675492143982  0.7810240750238074
  0.0010129527035829 -0.0311166616009216  0.2569892567460069
 -0.0070543945941713  0.0049778299231888  0.7350713123875080
  0.4165080936126247  0.4186324644492190  0.4235786923797770
  0.4192509631211468  0.5806717846396355  0.5816970855770045
  0.5771508933397888  0.4170717474988592  0.5835004635090064
  0.8832942885533178  0.6353262766875846  0.1370836995990502
 -0.0049710455358697 -0.0087262941341109 -0.0043777562903185
  0.7414035381140203  0.4941711394196282 -0.0016405606313046
  0.2363095129013752  0.4960088500499410 -0.0025391165100739
 -0.0004736285865373  0.7485368950762953  0.4948856490483449
 -0.0079025628592593  0.2416464419324831  0.5048259957694051
  0.5013646258139369 -0.0031088745539406  0.2444415699592662
  0.4957055733811846 -0.0013474376232890  0.7519017874536272
  0.6212873744795202  0.6166993560675962  0.6177312757071239
  0.6201526218549316  0.3796514500082236  0.3837721202200768
  0.8966304276411247  0.8812239067956983  0.0961894686843923
  0.8891326237542904  0.0961676078789196  0.8989228202282401
  0.0991816469746288  0.8950364735626009  0.8887706623746922
  0.0963618998710093  0.0918042304785240  0.1001381765344685
  0.3823837283141928  0.6216655819029465  0.3824522152581390
  0.3784590935812992  0.3821237651275504  0.6253077309301216
  0.0945395299650542  0.3395547059487003  0.3958258361075760
  0.0943423287593510  0.6450347220990136  0.6057391275439323
  0.0981341257045351  0.1409009564390970  0.6053376083990694
  0.1105863880084801  0.8509850367718297  0.4013619337444138
  0.8871928232904952  0.1417322450642660  0.4016686750081179
  0.8909951792838323  0.8478379842566920  0.5946849074446902
  0.8461529359086899  0.4012995699241789  0.1085772666331373
  0.8451380362751840  0.5959866391886163  0.8960361546385877
  0.1275321016883473  0.5937032212830226  0.1004123558617303
  0.1414808898754762  0.3910490505400553  0.8913214859298820
  0.3990552610999175  0.8910533585839395  0.1451536063988453
  0.3938244634890888  0.1045491831601937  0.8514289191412476
  0.3930449279996202  0.0974624865449552  0.3446682041009614
  0.3892867856283034  0.8994145589873336  0.6481128451336886
  0.3383720556565112  0.3931662997804999  0.1020621075499789
  0.3369096220054151  0.6080332872624766  0.9042446142144014
  0.6061559644409097  0.0973165737911823  0.6522327480591833
  0.6110750048398316  0.9005809030017227  0.3469365886719205
  0.6479595411255847  0.6077222399045640  0.1001743196600168
  0.6397511628360311  0.3869633366690792  0.9037274141483835
  0.8948021085333917  0.3447858826248902  0.6115218689351619
  0.9034304279245389  0.6496346920338056  0.3787742996729230
  0.6007983726944648  0.1023585707233120  0.1426964218191711
  0.5962801353331316  0.8911684048935899  0.8539412099850665
 
  0.00000000E+00  0.00000000E+00  0.00000000E+00
  0.00000000E+00  0.00000000E+00  0.00000000E+00
  0.00000000E+00  0.00000000E+00  0.00000000E+00
  0.00000000E+00  0.00000000E+00  0.00000000E+00
  0.00000000E+00  0.00000000E+00  0.00000000E+00
  0.00000000E+00  0.00000000E+00  0.00000000E+00
  0.00000000E+00  0.00000000E+00  0.00000000E+00
  0.00000000E+00  0.00000000E+00  0.00000000E+00
  0.00000000E+00  0.00000000E+00  0.00000000E+00
  0.00000000E+00  0.00000000E+00  0.00000000E+00
  0.00000000E+00  0.00000000E+00  0.00000000E+00
  0.00000000E+00  0.00000000E+00  0.00000000E+00
  0.00000000E+00  0.00000000E+00  0.00000000E+00
  0.00000000E+00  0.00000000E+00  0.00000000E+00
  0.00000000E+00  0.00000000E+00  0.00000000E+00
  0.00000000E+00  0.00000000E+00  0.00000000E+00
  0.00000000E+00  0.00000000E+00  0.00000000E+00
  0.00000000E+00  0.00000000E+00  0.00000000E+00
  0.00000000E+00  0.00000000E+00  0.00000000E+00
  0.00000000E+00  0.00000000E+00  0.00000000E+00
  0.00000000E+00  0.00000000E+00  0.00000000E+00
  0.00000000E+00  0.00000000E+00  0.00000000E+00
  0.00000000E+00  0.00000000E+00  0.00000000E+00
  0.00000000E+00  0.00000000E+00  0.00000000E+00
  0.00000000E+00  0.00000000E+00  0.00000000E+00
  0.00000000E+00  0.00000000E+00  0.00000000E+00
  0.00000000E+00  0.00000000E+00  0.00000000E+00
  0.00000000E+00  0.00000000E+00  0.00000000E+00
  0.00000000E+00  0.00000000E+00  0.00000000E+00
  0.00000000E+00  0.00000000E+00  0.00000000E+00
  0.00000000E+00  0.00000000E+00  0.00000000E+00
  0.00000000E+00  0.00000000E+00  0.00000000E+00
  0.00000000E+00  0.00000000E+00  0.00000000E+00
  0.00000000E+00  0.00000000E+00  0.00000000E+00
  0.00000000E+00  0.00000000E+00  0.00000000E+00
  0.00000000E+00  0.00000000E+00  0.00000000E+00
  0.00000000E+00  0.00000000E+00  0.00000000E+00
  0.00000000E+00  0.00000000E+00  0.00000000E+00
  0.00000000E+00  0.00000000E+00  0.00000000E+00
  0.00000000E+00  0.00000000E+00  0.00000000E+00
  0.00000000E+00  0.00000000E+00  0.00000000E+00
  0.00000000E+00  0.00000000E+00  0.00000000E+00
  0.00000000E+00  0.00000000E+00  0.00000000E+00
  0.00000000E+00  0.00000000E+00  0.00000000E+00
  0.00000000E+00  0.00000000E+00  0.00000000E+00
  0.00000000E+00  0.00000000E+00  0.00000000E+00
  0.00000000E+00  0.00000000E+00  0.00000000E+00
  0.00000000E+00  0.00000000E+00  0.00000000E+00
  0.00000000E+00  0.00000000E+00  0.00000000E+00
  0.00000000E+00  0.00000000E+00  0.00000000E+00
  0.00000000E+00  0.00000000E+00  0.00000000E+00
  0.00000000E+00  0.00000000E+00  0.00000000E+00
  0.00000000E+00  0.00000000E+00  0.00000000E+00
  0.00000000E+00  0.00000000E+00  0.00000000E+00
  0.00000000E+00  0.00000000E+00  0.00000000E+00
  0.00000000E+00  0.00000000E+00  0.00000000E+00
  0.00000000E+00  0.00000000E+00  0.00000000E+00
  0.00000000E+00  0.00000000E+00  0.00000000E+00
  0.00000000E+00  0.00000000E+00  0.00000000E+00
  0.00000000E+00  0.00000000E+00  0.00000000E+00
  0.00000000E+00  0.00000000E+00  0.00000000E+00
  0.00000000E+00  0.00000000E+00  0.00000000E+00
  0.00000000E+00  0.00000000E+00  0.00000000E+00
  0.00000000E+00  0.00000000E+00  0.00000000E+00
  0.00000000E+00  0.00000000E+00  0.00000000E+00
  0.00000000E+00  0.00000000E+00  0.00000000E+00
  0.00000000E+00  0.00000000E+00  0.00000000E+00
  0.00000000E+00  0.00000000E+00  0.00000000E+00
  0.00000000E+00  0.00000000E+00  0.00000000E+00
  0.00000000E+00  0.00000000E+00  0.00000000E+00
  0.00000000E+00  0.00000000E+00  0.00000000E+00
  0.00000000E+00  0.00000000E+00  0.00000000E+00
  0.00000000E+00  0.00000000E+00  0.00000000E+00
  0.00000000E+00  0.00000000E+00  0.00000000E+00
  0.00000000E+00  0.00000000E+00  0.00000000E+00
  0.00000000E+00  0.00000000E+00  0.00000000E+00
  0.00000000E+00  0.00000000E+00  0.00000000E+00
  0.00000000E+00  0.00000000E+00  0.00000000E+00
  0.00000000E+00  0.00000000E+00  0.00000000E+00
  0.00000000E+00  0.00000000E+00  0.00000000E+00
  0.00000000E+00  0.00000000E+00  0.00000000E+00
  0.00000000E+00  0.00000000E+00  0.00000000E+00
  0.00000000E+00  0.00000000E+00  0.00000000E+00
  0.00000000E+00  0.00000000E+00  0.00000000E+00
  0.00000000E+00  0.00000000E+00  0.00000000E+00
  0.00000000E+00  0.00000000E+00  0.00000000E+00
  0.00000000E+00  0.00000000E+00  0.00000000E+00
  0.00000000E+00  0.00000000E+00  0.00000000E+00
  0.00000000E+00  0.00000000E+00  0.00000000E+00
  0.00000000E+00  0.00000000E+00  0.00000000E+00
  0.00000000E+00  0.00000000E+00  0.00000000E+00
  0.00000000E+00  0.00000000E+00  0.00000000E+00
  0.00000000E+00  0.00000000E+00  0.00000000E+00
  0.00000000E+00  0.00000000E+00  0.00000000E+00
  0.00000000E+00  0.00000000E+00  0.00000000E+00
  0.00000000E+00  0.00000000E+00  0.00000000E+00
  0.00000000E+00  0.00000000E+00  0.00000000E+00
  0.00000000E+00  0.00000000E+00  0.00000000E+00
  0.00000000E+00  0.00000000E+00  0.00000000E+00
  0.00000000E+00  0.00000000E+00  0.00000000E+00
