Li7 P2 N1 O7                            
   1.00000000000000     
     4.9336413874937266    0.0574043245327947   -0.0935862616015473
     0.0551746084049764    5.2625303343783827   -0.1304593286160066
    -0.1040060303070330   -0.1528201465663366    6.3992231937122677
   Li   P    N    O 
     7     2     1     7
Direct
 -0.0381901658087421  0.6857044949413598  0.2702144925822492
 -0.0063044208672563  0.6707352375428505  0.7608893763045484
  0.5322225646786295  0.3407794436278515  0.7412929623755874
  0.4395103962739818  0.9742018634200272 -0.0990838642045083
  0.0239647968530247  0.1671238133631759  0.5293690971807210
  0.5213960177484243  0.2814760102190740  0.2822186946936397
  0.3318060467126453  0.5647946855958660  0.0538382811381138
  0.4851694969984311  0.8120580124403589  0.5094691433910651
  0.0091774803103510  0.1859625306263697  0.0150285902663605
  0.1409095966929646  0.3136946463018753  0.8247129587746824
  0.6009141296683039  0.0858709149771270  0.5113371565880678
  0.1706448410236687  0.8197745085959423  0.5131936056043134
  0.6890174585805927  0.2037350386204867  0.0160617134025672
  0.5811315364386533  0.6522718134231595  0.3143896052406736
  0.1122865106824486  0.3206892492754660  0.2326417564384830
  0.0955511794727999  0.8885681308349841  0.0262819500746145
  0.5944925345411106  0.6941196061940287  0.7169644801488229
 
  0.00000000E+00  0.00000000E+00  0.00000000E+00
  0.00000000E+00  0.00000000E+00  0.00000000E+00
  0.00000000E+00  0.00000000E+00  0.00000000E+00
  0.00000000E+00  0.00000000E+00  0.00000000E+00
  0.00000000E+00  0.00000000E+00  0.00000000E+00
  0.00000000E+00  0.00000000E+00  0.00000000E+00
  0.00000000E+00  0.00000000E+00  0.00000000E+00
  0.00000000E+00  0.00000000E+00  0.00000000E+00
  0.00000000E+00  0.00000000E+00  0.00000000E+00
  0.00000000E+00  0.00000000E+00  0.00000000E+00
  0.00000000E+00  0.00000000E+00  0.00000000E+00
  0.00000000E+00  0.00000000E+00  0.00000000E+00
  0.00000000E+00  0.00000000E+00  0.00000000E+00
  0.00000000E+00  0.00000000E+00  0.00000000E+00
  0.00000000E+00  0.00000000E+00  0.00000000E+00
  0.00000000E+00  0.00000000E+00  0.00000000E+00
  0.00000000E+00  0.00000000E+00  0.00000000E+00
