Li73 P24 N1 O95                         
   1.00000000000000     
    14.7054597624757566    0.0104186944734940    0.0086651349151997
     0.0074653471940458   10.5737775103927927   -0.0161267326721845
     0.0072622663780684   -0.0188047624391583   12.2962456678494512
   Li   P    N    O 
    73    24     1    95
Direct
  0.1806312190883463  0.4547738963249026  0.0022047385239845
  0.1718607058125159  0.4171898895260236  0.4900651020848567
  0.1714830992776835  0.9232863221111300  0.0015619198914268
  0.1699228894090175  0.9180747835957815  0.4991440557536199
  0.5015808716955026  0.4242707156759832  0.0010744092804560
  0.5026634940988467  0.4221672675471316  0.4989549591255908
  0.5013094403905970  0.9231478478608030  0.0005573621156759
  0.5041215075548562  0.9217533674889341  0.4997312596732869
  0.8338266425590489  0.4208151775792519 -0.0001006167897962
  0.8378661149757265  0.4222999613922999  0.4985729776857659
  0.8362211829275935  0.9227929423790601  0.0001993806296155
  0.8365557682595310  0.9211962109822536  0.4998997756254229
  0.0041517160319273  0.0767079910686267  0.2524215326512398
  0.0033238706350388  0.0773739286047460  0.7474443741440421
  0.0035814462332597  0.5782385436689779  0.2498197818126528
  0.0018598628483751  0.5769327656198764  0.7476938994756835
  0.3378916000562808  0.0777028439331128  0.2559734311460554
  0.3384659506595505  0.0764515923243120  0.7473342590168508
  0.3327262625738645  0.5745249567587243  0.2507850804266104
  0.3379209155978288  0.5779815254941555  0.7497612761143393
  0.6694682707727895  0.0778370692960621  0.2504994664509309
  0.6687199096340847  0.0776920562372891  0.7500054220211840
  0.6703945179654989  0.5777948506848999  0.2508836687298850
  0.6692719157780782  0.5775953903947768  0.7492895542304507
  0.1812953325160630  0.1630398638863418  0.1479919947272695
  0.1699708312608930  0.1618737451308601  0.6227060003222953
  0.1686562369040764  0.6668619962072317  0.1272649517059165
  0.1693220714162502  0.6583927418267013  0.6257956840200408
  0.5014887390167734  0.1649819423504309  0.1273794163688927
  0.5029681573803351  0.1630643804886630  0.6258272321349958
  0.5050163978401276  0.6643527486184327  0.1280362515624009
  0.5027254615249237  0.6629504163307035  0.6260917092813574
  0.8343674173119107  0.1634194859884754  0.1271327224176240
  0.8358482813221483  0.1624888334388588  0.6266908052751509
  0.8368299465626279  0.6620987311646070  0.1256632466454976
  0.8359322629280456  0.6630396602845028  0.6263017135700973
 -0.0050530917000877  0.3419308023499685  0.1295532825269935
  0.0029993355172509  0.3362065923385066  0.6213207980429294
  0.0034548481910362  0.8354408521324529  0.1236620726464263
  0.0030053686539933  0.8353692414605841  0.6236033036948738
  0.3305390266805489  0.3420572255286487  0.1261184055944276
  0.3366349671854047  0.3350171060955832  0.6233884965050532
  0.3359860443975216  0.8385130165810883  0.1253784326760669
  0.3367738311319866  0.8343122711001022  0.6232505291975328
  0.6693209364662240  0.3374911497931164  0.1242334242815954
  0.6689193499814815  0.3366323903133225  0.6226567895454515
  0.6696533586875818  0.8371340128835211  0.1233351582256074
  0.6701278100938548  0.8369638451676390  0.6239266314422632
  0.0140875069833417  0.3369292184602360  0.3734543839959120
 -0.0036943425929936  0.3396683630646989  0.8697995602425083
  0.0036898203176644  0.8351064209804960  0.3768518466746390
  0.0030147287654287  0.8353187821963990  0.8757053057862074
  0.3318724434011201  0.3342368496958227  0.3737301000694674
  0.3349731409475947  0.3404983540789810  0.8779728893099350
  0.3365579063614741  0.8336136920741516  0.3770143309354952
  0.3363868450945248  0.8387660850184014  0.8759974446460719
  0.6695301426188530  0.3366557376169009  0.3768346661387336
  0.6681169017839819  0.3369877976148455  0.8763079355730161
  0.6702010915715444  0.8367542429215907  0.3759149498393143
  0.6696071405291146  0.8371427981356114  0.8767274315751570
  0.1702455435198779  0.1624754330897254  0.3770367759383763
  0.1776852443636752  0.1562573391794903  0.8619557147235885
  0.1702035390701230  0.6535987813783312  0.3706568212616004
  0.1688676466665152  0.6685756131056202  0.8709360103595980
  0.5033736763496423  0.1640186357715236  0.3745140352607368
  0.5013957990152563  0.1642186439431088  0.8741771186959847
  0.5025561654463340  0.6626030454785723  0.3733766002371365
  0.5058332426684743  0.6648227750163168  0.8730107986308364
  0.8381054853637235  0.1637529281770027  0.3742579935421007
  0.8337126912573922  0.1630534324761447  0.8735346367576190
  0.8369230966845255  0.6631371293638054  0.3736371243335838
  0.8358187908483128  0.6623919320147977  0.8736268240408421
  0.1175658321316640  0.2726602764236999  0.0069257430044797
  0.1648969790986879  0.4092221769847298  0.2474304498123533
  0.1656694312773763  0.4104160762298821  0.7544931054195414
  0.1677984809820539  0.9078720583530110  0.2519478594507504
  0.1673635200986328  0.9105516080636993  0.7482323285110588
  0.5011029382996594  0.4127143420862117  0.2494526104546121
  0.4999093761685022  0.4120913499837100  0.7504188281196404
  0.5008586753821490  0.9127116669757460  0.2501013662174438
  0.5006906713764951  0.9125633390585982  0.7502270686601196
  0.8329731404398277  0.4123071247130249  0.2506859290600720
  0.8321344287071221  0.4115925437408925  0.7490133519929159
  0.8344784948582259  0.9121155570556545  0.2491310268439547
  0.8341694674343242  0.9121328018749872  0.7509269148479943
  0.0016875229047982  0.0885148012999603  0.0004771877312877
 -0.0003590172709371  0.0855102266813758  0.5001883517443254
  0.0007003268052139  0.5849154082931024 -0.0021219457064401
  0.0004123953486302  0.5871414838509382  0.5003658525996537
  0.3303792724158079  0.0923987033535429  0.0014530919714869
  0.3352369375138649  0.0843503686553015  0.5008951420439400
  0.3368407913288867  0.5971130534466373 -0.0005018068452297
  0.3341422470600048  0.5852343077956793  0.5005021593450459
  0.6658827593367230  0.0880943140386478  0.0002824646510186
  0.6678639027122671  0.0874213311119069  0.5002037882356534
  0.6671260117009612  0.5879351201568787 -0.0000250019217026
  0.6674612972584819  0.5881354713731552  0.5001457668425675
  0.2010262647484009  0.3346110452658812  0.3477178168840186
  0.0337542770054811  0.1527120665196042  0.3956455955348007
  0.0406947502152215  0.1622534927407616  0.8993981199407280
  0.0356692918494877  0.6563221732844938  0.3967546134429326
  0.0353524812869712  0.6539809307937023  0.8936327314672627
  0.3718902034361142  0.1532811932606337  0.3981739119524912
  0.3652503856024024  0.1600875330321072  0.8966691242971286
  0.3691737208629274  0.6546506397789712  0.3965476847928607
  0.3742453329415354  0.6615688060441768  0.8948455274763641
  0.7034624077166314  0.1565616979537876  0.3965314474412890
  0.7010460381552116  0.1572360197475006  0.8962757245057318
  0.7031064868421485  0.6575614949126688  0.3965999299348966
  0.7022038290779274  0.6568941692800939  0.8957757018187376
  0.2039118606905086  0.0457710543737677  0.2563988105948279
  0.2026191095413663  0.0495425966904605  0.7450650478183861
  0.1990796526343375  0.5523548205227291  0.2400577828699632
  0.2009694767777275  0.5492697260101027  0.7541006628360609
  0.5340789227944734  0.0528177723652292  0.2502022825317362
  0.5334017430503795  0.0529276315744422  0.7503075805250167
  0.5360002787660167  0.5521394995598016  0.2501095034347339
  0.5341079765410310  0.5517110936755316  0.7500185233048599
  0.8685417584763536  0.0518895692479319  0.2487190153973295
  0.8685285883915128  0.0518631309427012  0.7516277887117655
  0.8665885080081643  0.5521886116702771  0.2492401709049191
  0.8665329678735413  0.5510645811878752  0.7500597838217019
  0.0568476735994030  0.4158758977399271  0.2426637205026210
  0.0599220719034780  0.4089374914445008  0.7498193069331803
  0.0617322807024707  0.9082881384833464  0.2502146142990806
  0.0614017484374427  0.9103234383317729  0.7500617578004637
  0.3955972981164782  0.4108109044092543  0.2490146917621033
  0.3939627588846911  0.4095530428850918  0.7509445927254680
  0.3950166039397128  0.9095220157874638  0.2508594184248064
  0.3947976173802566  0.9090778485873335  0.7501479531813487
  0.7270742606835644  0.4098509058888151  0.2514965578904559
  0.7264058083201272  0.4093083654564819  0.7492170643359747
  0.7285990201710341  0.9098933643029103  0.2493265757785742
  0.7283275591029457  0.9103065277995490  0.7509286026540078
  0.2235699540678507  0.0985866014643527  0.0019073032794822
  0.2294781830283482  0.0842673038595028  0.5010858328146307
  0.2313406754944360  0.6117203508614266 -0.0023174324627805
  0.2283533674805538  0.5875627322213025  0.5009914780529202
  0.5599465322871700  0.0905591484372311  0.0003776824372376
  0.5620303535751783  0.0900636552513432  0.5000100158808980
  0.5613400019565788  0.5909685739342548  0.0002293309698258
  0.5615797479397270  0.5907375042857338  0.4998961259228318
  0.8963975683934087  0.0933048976177744 -0.0004365252885063
  0.8936884454584527  0.0881021655802374  0.5015578007247066
  0.8949557634373417  0.5854528488250791 -0.0015055380278408
  0.8943651589019762  0.5909251899012713  0.5003521370018061
  0.1931608514185540  0.3471610999188711  0.1294470592668398
  0.2040730333841405  0.3368554772369253  0.6550767894242354
  0.2025065021127567  0.8430086912373622  0.1455633947214561
  0.2017650485850221  0.8379816737490546  0.6458381830054449
  0.5362467348258624  0.3435489672258862  0.1448141735138279
  0.5352716011647418  0.3423491244315164  0.6465587022638546
  0.5361414912448568  0.8445903717122540  0.1452786927127670
  0.5366117179628231  0.8429922771734980  0.6466244649651590
  0.8658197103654378  0.3424689216535581  0.1451328980845119
  0.8683918887173090  0.3421929115091941  0.6455777520683117
  0.8697011925945602  0.8428670505504228  0.1445808454064112
  0.8693597975890416  0.8425904366634803  0.6469975756555908
  0.0392864619640565  0.1614671685691864  0.1024968237314611
  0.0354651918722634  0.1558936363768783  0.6037403688869166
  0.0354518854696574  0.6560316485005656  0.1006481283362342
  0.0352867551212913  0.6563679658087045  0.6049751125248627
  0.3655309207872669  0.1606564381096366  0.1057350266220995
  0.3697083359929919  0.1544481383415866  0.6051828939979846
  0.3734174277798485  0.6621082604380463  0.1041545205729467
  0.3691910431503407  0.6556039012371154  0.6046200611392667
  0.7014412882831668  0.1572097882610499  0.1041983187907344
  0.7025480728395027  0.1565035627244533  0.6047300336032765
  0.7028797777617822  0.6573161408116205  0.1037034633895349
  0.7023755211957763  0.6573535251868885  0.6045595683551375
  0.0361148160395205  0.4443972254630004 -0.0029929759571222
  0.0338416052516449  0.4475177363366944  0.5010448721012226
  0.0349825471676308  0.9492860524210514 -0.0003336248295979
  0.0338339766996992  0.9456674956854790  0.5011185463049541
  0.3633359685214922  0.4540019007214214 -0.0000693022510777
  0.3690558128818962  0.4461799525603934  0.5011895057288878
  0.3626707104789951  0.9519987853734653  0.0007250015242261
  0.3695160889639393  0.9443630755699700  0.5011070967228631
  0.7006839404299772  0.4479436136235272 -0.0003296071457960
  0.7014652508942764  0.4483210411432770  0.5001026063549574
  0.7007822299808322  0.9486646043135373 -0.0001033135612871
  0.7016423549413900  0.9473964490359400  0.5001306628408713
  0.1962312247109012  0.3441888018170389  0.8638702158413216
  0.2017479913771673  0.8350507898832609  0.3541047876556380
  0.2025036690253522  0.8452735105132542  0.8537888775640194
  0.5365261214547485  0.3428760803346731  0.3529766017000360
  0.5346061437738499  0.3434129506330099  0.8549032570275471
  0.5367948816369975  0.8429759862775766  0.3532723979700960
  0.5361787351150972  0.8448884918321331  0.8546501663459398
  0.8698860064557222  0.3430819279468944  0.3532101446974524
  0.8665890039382860  0.3417132107412094  0.8532375739165293
  0.8697598956610685  0.8429678264439182  0.3528278972204659
  0.8693097793563430  0.8429005596473573  0.8550407574695286
 
  0.00000000E+00  0.00000000E+00  0.00000000E+00
  0.00000000E+00  0.00000000E+00  0.00000000E+00
  0.00000000E+00  0.00000000E+00  0.00000000E+00
  0.00000000E+00  0.00000000E+00  0.00000000E+00
  0.00000000E+00  0.00000000E+00  0.00000000E+00
  0.00000000E+00  0.00000000E+00  0.00000000E+00
  0.00000000E+00  0.00000000E+00  0.00000000E+00
  0.00000000E+00  0.00000000E+00  0.00000000E+00
  0.00000000E+00  0.00000000E+00  0.00000000E+00
  0.00000000E+00  0.00000000E+00  0.00000000E+00
  0.00000000E+00  0.00000000E+00  0.00000000E+00
  0.00000000E+00  0.00000000E+00  0.00000000E+00
  0.00000000E+00  0.00000000E+00  0.00000000E+00
  0.00000000E+00  0.00000000E+00  0.00000000E+00
  0.00000000E+00  0.00000000E+00  0.00000000E+00
  0.00000000E+00  0.00000000E+00  0.00000000E+00
  0.00000000E+00  0.00000000E+00  0.00000000E+00
  0.00000000E+00  0.00000000E+00  0.00000000E+00
  0.00000000E+00  0.00000000E+00  0.00000000E+00
  0.00000000E+00  0.00000000E+00  0.00000000E+00
  0.00000000E+00  0.00000000E+00  0.00000000E+00
  0.00000000E+00  0.00000000E+00  0.00000000E+00
  0.00000000E+00  0.00000000E+00  0.00000000E+00
  0.00000000E+00  0.00000000E+00  0.00000000E+00
  0.00000000E+00  0.00000000E+00  0.00000000E+00
  0.00000000E+00  0.00000000E+00  0.00000000E+00
  0.00000000E+00  0.00000000E+00  0.00000000E+00
  0.00000000E+00  0.00000000E+00  0.00000000E+00
  0.00000000E+00  0.00000000E+00  0.00000000E+00
  0.00000000E+00  0.00000000E+00  0.00000000E+00
  0.00000000E+00  0.00000000E+00  0.00000000E+00
  0.00000000E+00  0.00000000E+00  0.00000000E+00
  0.00000000E+00  0.00000000E+00  0.00000000E+00
  0.00000000E+00  0.00000000E+00  0.00000000E+00
  0.00000000E+00  0.00000000E+00  0.00000000E+00
  0.00000000E+00  0.00000000E+00  0.00000000E+00
  0.00000000E+00  0.00000000E+00  0.00000000E+00
  0.00000000E+00  0.00000000E+00  0.00000000E+00
  0.00000000E+00  0.00000000E+00  0.00000000E+00
  0.00000000E+00  0.00000000E+00  0.00000000E+00
  0.00000000E+00  0.00000000E+00  0.00000000E+00
  0.00000000E+00  0.00000000E+00  0.00000000E+00
  0.00000000E+00  0.00000000E+00  0.00000000E+00
  0.00000000E+00  0.00000000E+00  0.00000000E+00
  0.00000000E+00  0.00000000E+00  0.00000000E+00
  0.00000000E+00  0.00000000E+00  0.00000000E+00
  0.00000000E+00  0.00000000E+00  0.00000000E+00
  0.00000000E+00  0.00000000E+00  0.00000000E+00
  0.00000000E+00  0.00000000E+00  0.00000000E+00
  0.00000000E+00  0.00000000E+00  0.00000000E+00
  0.00000000E+00  0.00000000E+00  0.00000000E+00
  0.00000000E+00  0.00000000E+00  0.00000000E+00
  0.00000000E+00  0.00000000E+00  0.00000000E+00
  0.00000000E+00  0.00000000E+00  0.00000000E+00
  0.00000000E+00  0.00000000E+00  0.00000000E+00
  0.00000000E+00  0.00000000E+00  0.00000000E+00
  0.00000000E+00  0.00000000E+00  0.00000000E+00
  0.00000000E+00  0.00000000E+00  0.00000000E+00
  0.00000000E+00  0.00000000E+00  0.00000000E+00
  0.00000000E+00  0.00000000E+00  0.00000000E+00
  0.00000000E+00  0.00000000E+00  0.00000000E+00
  0.00000000E+00  0.00000000E+00  0.00000000E+00
  0.00000000E+00  0.00000000E+00  0.00000000E+00
  0.00000000E+00  0.00000000E+00  0.00000000E+00
  0.00000000E+00  0.00000000E+00  0.00000000E+00
  0.00000000E+00  0.00000000E+00  0.00000000E+00
  0.00000000E+00  0.00000000E+00  0.00000000E+00
  0.00000000E+00  0.00000000E+00  0.00000000E+00
  0.00000000E+00  0.00000000E+00  0.00000000E+00
  0.00000000E+00  0.00000000E+00  0.00000000E+00
  0.00000000E+00  0.00000000E+00  0.00000000E+00
  0.00000000E+00  0.00000000E+00  0.00000000E+00
  0.00000000E+00  0.00000000E+00  0.00000000E+00
  0.00000000E+00  0.00000000E+00  0.00000000E+00
  0.00000000E+00  0.00000000E+00  0.00000000E+00
  0.00000000E+00  0.00000000E+00  0.00000000E+00
  0.00000000E+00  0.00000000E+00  0.00000000E+00
  0.00000000E+00  0.00000000E+00  0.00000000E+00
  0.00000000E+00  0.00000000E+00  0.00000000E+00
  0.00000000E+00  0.00000000E+00  0.00000000E+00
  0.00000000E+00  0.00000000E+00  0.00000000E+00
  0.00000000E+00  0.00000000E+00  0.00000000E+00
  0.00000000E+00  0.00000000E+00  0.00000000E+00
  0.00000000E+00  0.00000000E+00  0.00000000E+00
  0.00000000E+00  0.00000000E+00  0.00000000E+00
  0.00000000E+00  0.00000000E+00  0.00000000E+00
  0.00000000E+00  0.00000000E+00  0.00000000E+00
  0.00000000E+00  0.00000000E+00  0.00000000E+00
  0.00000000E+00  0.00000000E+00  0.00000000E+00
  0.00000000E+00  0.00000000E+00  0.00000000E+00
  0.00000000E+00  0.00000000E+00  0.00000000E+00
  0.00000000E+00  0.00000000E+00  0.00000000E+00
  0.00000000E+00  0.00000000E+00  0.00000000E+00
  0.00000000E+00  0.00000000E+00  0.00000000E+00
  0.00000000E+00  0.00000000E+00  0.00000000E+00
  0.00000000E+00  0.00000000E+00  0.00000000E+00
  0.00000000E+00  0.00000000E+00  0.00000000E+00
  0.00000000E+00  0.00000000E+00  0.00000000E+00
  0.00000000E+00  0.00000000E+00  0.00000000E+00
  0.00000000E+00  0.00000000E+00  0.00000000E+00
  0.00000000E+00  0.00000000E+00  0.00000000E+00
  0.00000000E+00  0.00000000E+00  0.00000000E+00
  0.00000000E+00  0.00000000E+00  0.00000000E+00
  0.00000000E+00  0.00000000E+00  0.00000000E+00
  0.00000000E+00  0.00000000E+00  0.00000000E+00
  0.00000000E+00  0.00000000E+00  0.00000000E+00
  0.00000000E+00  0.00000000E+00  0.00000000E+00
  0.00000000E+00  0.00000000E+00  0.00000000E+00
  0.00000000E+00  0.00000000E+00  0.00000000E+00
  0.00000000E+00  0.00000000E+00  0.00000000E+00
  0.00000000E+00  0.00000000E+00  0.00000000E+00
  0.00000000E+00  0.00000000E+00  0.00000000E+00
  0.00000000E+00  0.00000000E+00  0.00000000E+00
  0.00000000E+00  0.00000000E+00  0.00000000E+00
  0.00000000E+00  0.00000000E+00  0.00000000E+00
  0.00000000E+00  0.00000000E+00  0.00000000E+00
  0.00000000E+00  0.00000000E+00  0.00000000E+00
  0.00000000E+00  0.00000000E+00  0.00000000E+00
  0.00000000E+00  0.00000000E+00  0.00000000E+00
  0.00000000E+00  0.00000000E+00  0.00000000E+00
  0.00000000E+00  0.00000000E+00  0.00000000E+00
  0.00000000E+00  0.00000000E+00  0.00000000E+00
  0.00000000E+00  0.00000000E+00  0.00000000E+00
  0.00000000E+00  0.00000000E+00  0.00000000E+00
  0.00000000E+00  0.00000000E+00  0.00000000E+00
  0.00000000E+00  0.00000000E+00  0.00000000E+00
  0.00000000E+00  0.00000000E+00  0.00000000E+00
  0.00000000E+00  0.00000000E+00  0.00000000E+00
  0.00000000E+00  0.00000000E+00  0.00000000E+00
  0.00000000E+00  0.00000000E+00  0.00000000E+00
  0.00000000E+00  0.00000000E+00  0.00000000E+00
  0.00000000E+00  0.00000000E+00  0.00000000E+00
  0.00000000E+00  0.00000000E+00  0.00000000E+00
  0.00000000E+00  0.00000000E+00  0.00000000E+00
  0.00000000E+00  0.00000000E+00  0.00000000E+00
  0.00000000E+00  0.00000000E+00  0.00000000E+00
  0.00000000E+00  0.00000000E+00  0.00000000E+00
  0.00000000E+00  0.00000000E+00  0.00000000E+00
  0.00000000E+00  0.00000000E+00  0.00000000E+00
  0.00000000E+00  0.00000000E+00  0.00000000E+00
  0.00000000E+00  0.00000000E+00  0.00000000E+00
  0.00000000E+00  0.00000000E+00  0.00000000E+00
  0.00000000E+00  0.00000000E+00  0.00000000E+00
  0.00000000E+00  0.00000000E+00  0.00000000E+00
  0.00000000E+00  0.00000000E+00  0.00000000E+00
  0.00000000E+00  0.00000000E+00  0.00000000E+00
  0.00000000E+00  0.00000000E+00  0.00000000E+00
  0.00000000E+00  0.00000000E+00  0.00000000E+00
  0.00000000E+00  0.00000000E+00  0.00000000E+00
  0.00000000E+00  0.00000000E+00  0.00000000E+00
  0.00000000E+00  0.00000000E+00  0.00000000E+00
  0.00000000E+00  0.00000000E+00  0.00000000E+00
  0.00000000E+00  0.00000000E+00  0.00000000E+00
  0.00000000E+00  0.00000000E+00  0.00000000E+00
  0.00000000E+00  0.00000000E+00  0.00000000E+00
  0.00000000E+00  0.00000000E+00  0.00000000E+00
  0.00000000E+00  0.00000000E+00  0.00000000E+00
  0.00000000E+00  0.00000000E+00  0.00000000E+00
  0.00000000E+00  0.00000000E+00  0.00000000E+00
  0.00000000E+00  0.00000000E+00  0.00000000E+00
  0.00000000E+00  0.00000000E+00  0.00000000E+00
  0.00000000E+00  0.00000000E+00  0.00000000E+00
  0.00000000E+00  0.00000000E+00  0.00000000E+00
  0.00000000E+00  0.00000000E+00  0.00000000E+00
  0.00000000E+00  0.00000000E+00  0.00000000E+00
  0.00000000E+00  0.00000000E+00  0.00000000E+00
  0.00000000E+00  0.00000000E+00  0.00000000E+00
  0.00000000E+00  0.00000000E+00  0.00000000E+00
  0.00000000E+00  0.00000000E+00  0.00000000E+00
  0.00000000E+00  0.00000000E+00  0.00000000E+00
  0.00000000E+00  0.00000000E+00  0.00000000E+00
  0.00000000E+00  0.00000000E+00  0.00000000E+00
  0.00000000E+00  0.00000000E+00  0.00000000E+00
  0.00000000E+00  0.00000000E+00  0.00000000E+00
  0.00000000E+00  0.00000000E+00  0.00000000E+00
  0.00000000E+00  0.00000000E+00  0.00000000E+00
  0.00000000E+00  0.00000000E+00  0.00000000E+00
  0.00000000E+00  0.00000000E+00  0.00000000E+00
  0.00000000E+00  0.00000000E+00  0.00000000E+00
  0.00000000E+00  0.00000000E+00  0.00000000E+00
  0.00000000E+00  0.00000000E+00  0.00000000E+00
  0.00000000E+00  0.00000000E+00  0.00000000E+00
  0.00000000E+00  0.00000000E+00  0.00000000E+00
  0.00000000E+00  0.00000000E+00  0.00000000E+00
  0.00000000E+00  0.00000000E+00  0.00000000E+00
  0.00000000E+00  0.00000000E+00  0.00000000E+00
  0.00000000E+00  0.00000000E+00  0.00000000E+00
  0.00000000E+00  0.00000000E+00  0.00000000E+00
  0.00000000E+00  0.00000000E+00  0.00000000E+00
  0.00000000E+00  0.00000000E+00  0.00000000E+00
  0.00000000E+00  0.00000000E+00  0.00000000E+00
  0.00000000E+00  0.00000000E+00  0.00000000E+00
  0.00000000E+00  0.00000000E+00  0.00000000E+00
