Li56 P28 N28 O56
1.0
9.155868 0.000000 0.000000
0.000000 4.748969 0.000000
0.000000 0.000000 60.071286
Li P N O
56 28 28 56
direct
0.665671 0.501556 0.037224 Li+
0.334329 0.501556 0.037224 Li+
0.334329 0.001556 0.008230 Li+
0.665671 0.001556 0.008230 Li+
0.165671 0.501556 0.082679 Li+
0.834329 0.501556 0.082679 Li+
0.834329 0.001556 0.053685 Li+
0.165671 0.001556 0.053685 Li+
0.665671 0.501556 0.128133 Li+
0.334329 0.501556 0.128133 Li+
0.334329 0.001556 0.099140 Li+
0.665671 0.001556 0.099140 Li+
0.165671 0.501556 0.173588 Li+
0.834329 0.501556 0.173588 Li+
0.834329 0.001556 0.144594 Li+
0.165671 0.001556 0.144594 Li+
0.665671 0.501556 0.219042 Li+
0.334329 0.501556 0.219042 Li+
0.334329 0.001556 0.190049 Li+
0.665671 0.001556 0.190049 Li+
0.165671 0.501556 0.264497 Li+
0.834329 0.501556 0.264497 Li+
0.834329 0.001556 0.235503 Li+
0.165671 0.001556 0.235503 Li+
0.665671 0.501556 0.309951 Li+
0.334329 0.501556 0.309951 Li+
0.334329 0.001556 0.280958 Li+
0.665671 0.001556 0.280958 Li+
0.165671 0.501556 0.355406 Li+
0.834329 0.501556 0.355406 Li+
0.834329 0.001556 0.326412 Li+
0.165671 0.001556 0.326412 Li+
0.665671 0.501556 0.400860 Li+
0.334329 0.501556 0.400860 Li+
0.334329 0.001556 0.371867 Li+
0.665671 0.001556 0.371867 Li+
0.165671 0.501556 0.446315 Li+
0.834329 0.501556 0.446315 Li+
0.834329 0.001556 0.417321 Li+
0.165671 0.001556 0.417321 Li+
0.665671 0.501556 0.491769 Li+
0.334329 0.501556 0.491769 Li+
0.334329 0.001556 0.462776 Li+
0.665671 0.001556 0.462776 Li+
0.165671 0.501556 0.537224 Li+
0.834329 0.501556 0.537224 Li+
0.834329 0.001556 0.508231 Li+
0.165671 0.001556 0.508231 Li+
0.665671 0.501556 0.582679 Li+
0.334329 0.501556 0.582679 Li+
0.334329 0.001556 0.553685 Li+
0.665671 0.001556 0.553685 Li+
0.165671 0.501556 0.628133 Li+
0.834329 0.501556 0.628133 Li+
0.834329 0.001556 0.599140 Li+
0.165671 0.001556 0.599140 Li+
0.000000 0.498511 0.036705 P5+
0.000000 0.998511 0.008750 P5+
0.500000 0.498511 0.082159 P5+
0.500000 0.998511 0.054205 P5+
0.000000 0.498511 0.127614 P5+
0.000000 0.998511 0.099659 P5+
0.500000 0.498511 0.173068 P5+
0.500000 0.998511 0.145114 P5+
0.000000 0.498511 0.218523 P5+
0.000000 0.998511 0.190568 P5+
0.500000 0.498511 0.263977 P5+
0.500000 0.998511 0.236023 P5+
0.000000 0.498511 0.309432 P5+
0.000000 0.998511 0.281477 P5+
0.500000 0.498511 0.354886 P5+
0.500000 0.998511 0.326932 P5+
0.000000 0.498511 0.400341 P5+
0.000000 0.998511 0.372386 P5+
0.500000 0.498511 0.445795 P5+
0.500000 0.998511 0.417841 P5+
0.000000 0.498511 0.491250 P5+
0.000000 0.998511 0.463295 P5+
0.500000 0.498511 0.536705 P5+
0.500000 0.998511 0.508750 P5+
0.000000 0.498511 0.582159 P5+
0.000000 0.998511 0.554205 P5+
0.500000 0.498511 0.627614 P5+
0.500000 0.998511 0.599659 P5+
0.000000 0.341176 0.012455 N3-
0.000000 0.841176 0.033000 N3-
0.500000 0.341176 0.057909 N3-
0.500000 0.841176 0.078455 N3-
0.000000 0.341176 0.103364 N3-
0.000000 0.841176 0.123909 N3-
0.500000 0.341176 0.148818 N3-
0.500000 0.841176 0.169364 N3-
0.000000 0.341176 0.194273 N3-
0.000000 0.841176 0.214818 N3-
0.500000 0.341176 0.239727 N3-
0.500000 0.841176 0.260273 N3-
0.000000 0.341176 0.285182 N3-
0.000000 0.841176 0.305727 N3-
0.500000 0.341176 0.330636 N3-
0.500000 0.841176 0.351182 N3-
0.000000 0.341176 0.376091 N3-
0.000000 0.841176 0.396636 N3-
0.500000 0.341176 0.421545 N3-
0.500000 0.841176 0.442091 N3-
0.000000 0.341176 0.467000 N3-
0.000000 0.841176 0.487545 N3-
0.500000 0.341176 0.512455 N3-
0.500000 0.841176 0.533000 N3-
0.000000 0.341176 0.557909 N3-
0.000000 0.841176 0.578455 N3-
0.500000 0.341176 0.603364 N3-
0.500000 0.841176 0.623909 N3-
0.139047 0.419101 0.050495 O2-
0.860953 0.419101 0.050495 O2-
0.860953 0.919101 0.085868 O2-
0.139047 0.919101 0.085868 O2-
0.639047 0.419101 0.005041 O2-
0.360953 0.419101 0.005041 O2-
0.360953 0.919101 0.040414 O2-
0.639047 0.919101 0.040414 O2-
0.139047 0.419101 0.141405 O2-
0.860953 0.419101 0.141405 O2-
0.860953 0.919101 0.176777 O2-
0.139047 0.919101 0.176777 O2-
0.639047 0.419101 0.095950 O2-
0.360953 0.419101 0.095950 O2-
0.360953 0.919101 0.131323 O2-
0.639047 0.919101 0.131323 O2-
0.139047 0.419101 0.232314 O2-
0.860953 0.419101 0.232314 O2-
0.860953 0.919101 0.267686 O2-
0.139047 0.919101 0.267686 O2-
0.639047 0.419101 0.186859 O2-
0.360953 0.419101 0.186859 O2-
0.360953 0.919101 0.222232 O2-
0.639047 0.919101 0.222232 O2-
0.139047 0.419101 0.323223 O2-
0.860953 0.419101 0.323223 O2-
0.860953 0.919101 0.358595 O2-
0.139047 0.919101 0.358595 O2-
0.639047 0.419101 0.277768 O2-
0.360953 0.419101 0.277768 O2-
0.360953 0.919101 0.313141 O2-
0.639047 0.919101 0.313141 O2-
0.139047 0.419101 0.414132 O2-
0.860953 0.419101 0.414132 O2-
0.860953 0.919101 0.449505 O2-
0.139047 0.919101 0.449505 O2-
0.639047 0.419101 0.368677 O2-
0.360953 0.419101 0.368677 O2-
0.360953 0.919101 0.404050 O2-
0.639047 0.919101 0.404050 O2-
0.139047 0.419101 0.505041 O2-
0.860953 0.419101 0.505041 O2-
0.860953 0.919101 0.540414 O2-
0.139047 0.919101 0.540414 O2-
0.639047 0.419101 0.459586 O2-
0.360953 0.419101 0.459586 O2-
0.360953 0.919101 0.494959 O2-
0.639047 0.919101 0.494959 O2-
0.139047 0.419101 0.595950 O2-
0.860953 0.419101 0.595950 O2-
0.860953 0.919101 0.631323 O2-
0.139047 0.919101 0.631323 O2-
0.639047 0.419101 0.550495 O2-
0.360953 0.419101 0.550495 O2-
0.360953 0.919101 0.585868 O2-
0.639047 0.919101 0.585868 O2-
