Li5 P2 N1 O6                            
   1.00000000000000     
     0.4160123061128941   -0.6529780081799356    5.0086045361654605
     6.1135070373203311    0.5230637692603062    0.5672353461430912
     0.4823023011204260    4.8384502214048339   -0.7797855497893105
   Li   P    N    O 
     5     2     1     6
Direct
  0.3874956615086985  0.0353989063177465  0.7188282526586613
  0.2039749234763078  0.4545877514863181  0.1919526804731337
  0.4937618113075804  0.7903851919455662  0.2698298415634390
 -0.0615845364652812  0.7813389624522110  0.6726458278173328
 -0.1174661325024115  0.3496806063954593  0.5298052333866718
  0.5108076627635837  0.4885432164632986  0.8622975777205913
 -0.0620552017208395  0.0726626734685872  0.1028324515812131
  0.6960407321061843  0.2551691200342598  0.8322317548113690
  0.1162576282266214  0.1858955118575768  0.3288141648189281
  0.5754741593978216  0.7020871956059507  0.6954058235267218
  0.5660880553245627  0.4985857317354384  0.1869304238538881
  0.1364568158756952 -0.0599189319462170  0.9634158099210258
  0.1917183986668173  0.4906528449046534  0.7386231893238071
  0.8054570220346834 -0.0908037807208511  0.2664439685432140
 
  0.00000000E+00  0.00000000E+00  0.00000000E+00
  0.00000000E+00  0.00000000E+00  0.00000000E+00
  0.00000000E+00  0.00000000E+00  0.00000000E+00
  0.00000000E+00  0.00000000E+00  0.00000000E+00
  0.00000000E+00  0.00000000E+00  0.00000000E+00
  0.00000000E+00  0.00000000E+00  0.00000000E+00
  0.00000000E+00  0.00000000E+00  0.00000000E+00
  0.00000000E+00  0.00000000E+00  0.00000000E+00
  0.00000000E+00  0.00000000E+00  0.00000000E+00
  0.00000000E+00  0.00000000E+00  0.00000000E+00
  0.00000000E+00  0.00000000E+00  0.00000000E+00
  0.00000000E+00  0.00000000E+00  0.00000000E+00
  0.00000000E+00  0.00000000E+00  0.00000000E+00
  0.00000000E+00  0.00000000E+00  0.00000000E+00
