Li73 P24 N1 O95                         
   1.00000000000000     
    14.6963215251499779   -0.0077088008237553    0.0167869151567236
    -0.0054904956121119   10.5604940598618011   -0.0164723519134949
     0.0140611401355229   -0.0190987584279116   12.3309704159765747
   Li   P    N    O 
    73    24     1    95
Direct
  0.1678037130382002  0.4237249295301427 -0.0019342322304667
  0.1702085897147735  0.4179064653291242  0.4962083564427160
  0.1697133809234527  0.9220989178473978 -0.0010674111537016
  0.1694397553979991  0.9193317510761392  0.5005043499797636
  0.5026619901983437  0.4213180241345897  0.0013764210567432
  0.5048041038622404  0.4209593594378303  0.4997124599097042
  0.5055058438405896  0.9222822168686921 -0.0016743887430443
  0.5054714367734923  0.9197315719814019  0.5019008440660605
  0.8356629135906551  0.4208221257917258 -0.0006877414829102
  0.8372795567690151  0.4209644747603574  0.4991937731785315
  0.8359433056342892  0.9216129784194727 -0.0004505600458497
  0.8370596289730852  0.9208102038886011  0.4995509999504438
  0.0052967071045815  0.0752078730033269  0.2495405790461844
  0.0034710744143629  0.0783344022489684  0.7493306274826238
  0.0018783973102771  0.5771753191990969  0.2491932551508929
  0.0015387301155664  0.5761330683845586  0.7493429297551423
  0.3375521004171616  0.0762468099298748  0.2497972138206657
  0.3367357880279847  0.0789159053724718  0.7507343028408439
  0.2939526924229360  0.6886489809489521  0.2314381729113846
  0.3361235421720430  0.5769697488954265  0.7508998574178130
  0.6701361394126762  0.0764714116936902  0.2497563249435437
  0.6704396300539701  0.0774438539710301  0.7503088251028666
  0.6695796344165454  0.5749493388225027  0.2501738071983814
  0.6696888905910203  0.5758680868983208  0.7501719586376761
  0.1705933921878687  0.1675016576739438  0.1273679901779705
  0.1705623319057996  0.1623820720030257  0.6243195954016905
  0.1600605208799569  0.6571773440937326  0.1184251126334654
  0.1666586732619458  0.6623251472447004  0.6283764735863268
  0.5023847750960899  0.1624330319777684  0.1263673889972097
  0.5040140320703643  0.1621593145494022  0.6266467442901733
  0.5003975971401193  0.6588293791466856  0.1278965395440766
  0.5050524788376877  0.6627480921497325  0.6270925638778211
  0.8374469144986928  0.1627593185996617  0.1263801890208197
  0.8371979137193888  0.1620385387290104  0.6259154155961120
  0.8355922131858876  0.6617966221265063  0.1258617311364231
  0.8351053349663147  0.6625740178661144  0.6268346624616210
  0.0048312196883521  0.3380037206310287  0.1228187631275603
  0.0031446666862176  0.3355112406752663  0.6224186494448409
  0.0010362665647875  0.8360985808153165  0.1224400710012537
  0.0022236874269408  0.8365263878095884  0.6237392341771508
  0.3320219173892771  0.3405752711112091  0.1258611764655030
  0.3358378743754750  0.3360797724912233  0.6232991566753323
  0.3421603341053350  0.8486133831929749  0.1122530054212691
  0.3356812808272559  0.8354461642999169  0.6280541047271574
  0.6704417712304005  0.3354491593891385  0.1237049173481788
  0.6698975109163751  0.3354489586661675  0.6231359636962938
  0.6696450821417276  0.8349699051005379  0.1234029230543706
  0.6702467573346174  0.8359316476096451  0.6240601972980294
  0.0084766828246999  0.3371960855611099  0.3737727569927713
  0.0023329209840804  0.3357901864147099  0.8751962881240639
  0.0020096230057399  0.8353031862971352  0.3755124078239688
  0.0019951476693331  0.8370427030497108  0.8754874622513912
  0.3383307754420578  0.3104990836495681  0.3813390794243358
  0.3356604387491201  0.3405362159513677  0.8773084104074829
  0.3397731172378144  0.8405439659221813  0.3841876608749603
  0.3360417981196204  0.8373265025692435  0.8747272952410891
  0.6717853329332780  0.3347922267651978  0.3766397997393206
  0.6691887354943977  0.3356280264666616  0.8762208154622473
  0.6696915213620915  0.8348340439360187  0.3760801584053973
  0.6697052009690786  0.8357527015053464  0.8760292613925765
  0.1726708690562169  0.1679928103570935  0.3731511380034633
  0.1697828058585813  0.1639874942533914  0.8737836514099196
  0.1628625939511957  0.6577864699431104  0.3777120716495193
  0.1679855668755957  0.6635097992498583  0.8716800571792181
  0.5064223979888868  0.1590969636239532  0.3741323957815609
  0.5030058306234390  0.1636793297523122  0.8739172919606695
  0.5009470914018537  0.6589140986498129  0.3722298492790302
  0.5030435273913120  0.6625420549349805  0.8740251347736323
  0.8383998220815310  0.1625804338504846  0.3734222656730267
  0.8367451946635465  0.1624065042812447  0.8738938993149930
  0.8361718214234762  0.6619607176078872  0.3733882205564683
  0.8344748023270112  0.6629420853084605  0.8724322527697577
  0.3073460124609482  0.4946808666810517  0.3218673300055563
  0.1670983931975861  0.4111634270473841  0.2498213093740295
  0.1669705816381701  0.4114328962545362  0.7493076222498900
  0.1701399423576021  0.9067602068427685  0.2496594048850516
  0.1667041727758250  0.9124417329851212  0.7500670017256658
  0.5018966574657948  0.4073308738003634  0.2514949946749729
  0.5003725034108273  0.4117205066707290  0.7497586335899551
  0.4999357924276349  0.9082461725255523  0.2495727019017049
  0.5010772176991726  0.9121403658590738  0.7505439766871748
  0.8343706962216960  0.4112152059216836  0.2494393933447981
  0.8331204975331706  0.4107962527934231  0.7493935709674623
  0.8334778455624796  0.9113301880735392  0.2494327746148823
  0.8335797287031977  0.9120283462834730  0.7498193249825318
  0.0009106376301846  0.0868927741603843  0.0001601787269744
  0.0012815080384299  0.0859360536909526  0.4987557525468765
 -0.0028208043996192  0.5877123205222952 -0.0029955891110194
 -0.0016759858168376  0.5870618975423948  0.5011737728847568
  0.3339851488161836  0.0910121131564622 -0.0014429030252325
  0.3357926480176663  0.0811531759905536  0.5025840388682759
  0.3326489874017866  0.5913387673317898 -0.0014322791969518
  0.3330340573479614  0.5893945389376730  0.5033191979541193
  0.6673655067938706  0.0870589415676914  0.0001922228487221
  0.6683717146246586  0.0857632489386626  0.5002461785408205
  0.6661555650436417  0.5865178224220711  0.0002105009924076
  0.6668082769680103  0.5867856718176945  0.4997726667601360
  0.2102468596221189  0.3474980377561705  0.3525225325339373
  0.0363591409148342  0.1536264039904496  0.3945833416393548
  0.0361351336146058  0.1562507152024757  0.8964877603902662
  0.0331719029270896  0.6570179323159846  0.3975741984918412
  0.0334443775805605  0.6573213521261227  0.8939206366462550
  0.3745151835835062  0.1429599002005390  0.3975529897409442
  0.3684092724854750  0.1619850826807882  0.8956300452949369
  0.3639276969889670  0.6552713327763152  0.3945146895567774
  0.3686821024754890  0.6577888978853463  0.8937945080980417
  0.7035881132896682  0.1545401494721414  0.3963625128016336
  0.7029067514026198  0.1560334164428304  0.8965640158222747
  0.7023368610230053  0.6557268646984517  0.3961638915248514
  0.7010704697556317  0.6558735290405239  0.8963335210023582
  0.2034594507108090  0.0462067770189388  0.2486543058238296
  0.2011825337790948  0.0521504640344927  0.7495912616252016
  0.1997471413220034  0.5597963070666265  0.2445928500317650
  0.2005812078525216  0.5517830689263870  0.7494024558909914
  0.5327037970641242  0.0486049454329422  0.2494543353603266
  0.5349187685725345  0.0522030656114165  0.7506647108030117
  0.5337027781077024  0.5482622165866945  0.2510639243412321
  0.5344368861505060  0.5516653420887284  0.7499138774301635
  0.8682375529231962  0.0508855779301868  0.2495394367939936
  0.8677945037365395  0.0519019887771410  0.7498327644462378
  0.8669511743470923  0.5519239476394060  0.2494710328925773
  0.8662239379023348  0.5512216975040940  0.7495239675360030
  0.0598120826037069  0.4147192027883461  0.2465114533697231
  0.0609910809603967  0.4083705205148792  0.7490607502963091
  0.0644193637811161  0.9028411672365183  0.2484968559910874
  0.0607875150933798  0.9101171464757540  0.7498690956570920
  0.3965657117291478  0.3973125324425074  0.2542184317798112
  0.3943429424495049  0.4095966508582430  0.7493908350015434
  0.3933125799474465  0.9026944414948329  0.2493667938499088
  0.3951156033280304  0.9101544256111767  0.7507921174525265
  0.7282790236179597  0.4076654621114684  0.2500663028946029
  0.7271343357521911  0.4075060694882605  0.7496368060725263
  0.7274627649470873  0.9087454628236691  0.2499589313013770
  0.7276123834565872  0.9093893178095949  0.7500831563625989
  0.2280713160372697  0.0896860490020987 -0.0002497554247392
  0.2301512268447858  0.0842887230462614  0.4996638970423942
  0.2267851943245755  0.5927408855836735 -0.0031426230965363
  0.2273482475165773  0.5916188249741632  0.5042078950749322
  0.5613636301303205  0.0907854608281557  0.0002007596835605
  0.5623862758233270  0.0881639864117038  0.5007119096791520
  0.5601524890857805  0.5893132284486671  0.0007018330263353
  0.5606908439669672  0.5896518368962430  0.4992915450530769
  0.8949106379179490  0.0891125426842919 -0.0002555332586075
  0.8952454904342677  0.0886235976574221  0.4997374134921965
  0.8913717448336986  0.5899700711200714 -0.0027039519290397
  0.8924227593867067  0.5901818050053295  0.5009452978087723
  0.1978829971657624  0.3499740259650909  0.1375380153349123
  0.2029596581541551  0.3417987839762843  0.6460790011173729
  0.2083849478882249  0.8333909515733313  0.1479494271432710
  0.2019132376719441  0.8416502836665568  0.6467965595245986
  0.5373364241814489  0.3401722016706944  0.1466381911216540
  0.5356591089713005  0.3422807931966140  0.6458098336607141
  0.5352248448299450  0.8398701189774398  0.1454569366324080
  0.5366002726899898  0.8425968936470470  0.6468910068029925
  0.8692286000502979  0.3426935815724989  0.1449280444659914
  0.8688031332414221  0.3418616992235539  0.6455204123459111
  0.8681405609906366  0.8421354955102264  0.1451432859854183
  0.8686111127713114  0.8424570399141029  0.6459354926310253
  0.0359087387330677  0.1553580538702744  0.1043218905508858
  0.0367260198324571  0.1554902516028060  0.6024374664861150
  0.0312758590814774  0.6578639616143718  0.1009513571197625
  0.0337402061990732  0.6567800715640617  0.6048602043377347
  0.3685896959001340  0.1580193491347275  0.1035506326863638
  0.3697939449660525  0.1555246435612427  0.6042994789792838
  0.3668437626865466  0.6665029483705749  0.1001582938477112
  0.3709134448739378  0.6587477162030151  0.6045979892974407
  0.7030290480879229  0.1554337632682221  0.1041636724904120
  0.7033801690724657  0.1553296995361687  0.6039618681707941
  0.7016977455378152  0.6553827010456917  0.1040657657176178
  0.7012978118460789  0.6561375884106179  0.6039904251149563
  0.0316548306317915  0.4484591091231040 -0.0031565339813763
  0.0323131736660561  0.4476815098807475  0.5008748846305022
  0.0348191148764725  0.9466756899354696 -0.0001226212908469
  0.0347065739816261  0.9454476751977068  0.4991442011236493
  0.3678763882624744  0.4523298581729178  0.0020272490942591
  0.3682765160545592  0.4500441124273163  0.4986912386929994
  0.3701736591053350  0.9520316922661555 -0.0049865296471274
  0.3697271735892012  0.9414390907256021  0.5068713409484027
  0.6999004677387139  0.4465044958720424 -0.0004278053020316
  0.7006664672853962  0.4468621169108091  0.5000365368350630
  0.7001797592428480  0.9465483644742486 -0.0001884720245800
  0.7016469600752115  0.9455272878233608  0.5000343271876375
  0.2020069390608688  0.3435375655892499  0.8534830483611739
  0.2062406004054533  0.8357275733383734  0.3525282606119779
  0.2017346369163594  0.8436200931146097  0.8539378674614150
  0.5391315835876944  0.3394934846520262  0.3548713564389776
  0.5352431747384885  0.3427787708975223  0.8534787346678843
  0.5345417430837428  0.8398495540540002  0.3536495606719497
  0.5361359939363426  0.8427538582943235  0.8539528284096104
  0.8701126370104897  0.3424629351830343  0.3528375626788672
  0.8684989071859743  0.3419483636413709  0.8529357638788507
  0.8688431817336872  0.8419296817151883  0.3527294660190772
  0.8683733183409132  0.8428514710129549  0.8534920025877981
 
  0.00000000E+00  0.00000000E+00  0.00000000E+00
  0.00000000E+00  0.00000000E+00  0.00000000E+00
  0.00000000E+00  0.00000000E+00  0.00000000E+00
  0.00000000E+00  0.00000000E+00  0.00000000E+00
  0.00000000E+00  0.00000000E+00  0.00000000E+00
  0.00000000E+00  0.00000000E+00  0.00000000E+00
  0.00000000E+00  0.00000000E+00  0.00000000E+00
  0.00000000E+00  0.00000000E+00  0.00000000E+00
  0.00000000E+00  0.00000000E+00  0.00000000E+00
  0.00000000E+00  0.00000000E+00  0.00000000E+00
  0.00000000E+00  0.00000000E+00  0.00000000E+00
  0.00000000E+00  0.00000000E+00  0.00000000E+00
  0.00000000E+00  0.00000000E+00  0.00000000E+00
  0.00000000E+00  0.00000000E+00  0.00000000E+00
  0.00000000E+00  0.00000000E+00  0.00000000E+00
  0.00000000E+00  0.00000000E+00  0.00000000E+00
  0.00000000E+00  0.00000000E+00  0.00000000E+00
  0.00000000E+00  0.00000000E+00  0.00000000E+00
  0.00000000E+00  0.00000000E+00  0.00000000E+00
  0.00000000E+00  0.00000000E+00  0.00000000E+00
  0.00000000E+00  0.00000000E+00  0.00000000E+00
  0.00000000E+00  0.00000000E+00  0.00000000E+00
  0.00000000E+00  0.00000000E+00  0.00000000E+00
  0.00000000E+00  0.00000000E+00  0.00000000E+00
  0.00000000E+00  0.00000000E+00  0.00000000E+00
  0.00000000E+00  0.00000000E+00  0.00000000E+00
  0.00000000E+00  0.00000000E+00  0.00000000E+00
  0.00000000E+00  0.00000000E+00  0.00000000E+00
  0.00000000E+00  0.00000000E+00  0.00000000E+00
  0.00000000E+00  0.00000000E+00  0.00000000E+00
  0.00000000E+00  0.00000000E+00  0.00000000E+00
  0.00000000E+00  0.00000000E+00  0.00000000E+00
  0.00000000E+00  0.00000000E+00  0.00000000E+00
  0.00000000E+00  0.00000000E+00  0.00000000E+00
  0.00000000E+00  0.00000000E+00  0.00000000E+00
  0.00000000E+00  0.00000000E+00  0.00000000E+00
  0.00000000E+00  0.00000000E+00  0.00000000E+00
  0.00000000E+00  0.00000000E+00  0.00000000E+00
  0.00000000E+00  0.00000000E+00  0.00000000E+00
  0.00000000E+00  0.00000000E+00  0.00000000E+00
  0.00000000E+00  0.00000000E+00  0.00000000E+00
  0.00000000E+00  0.00000000E+00  0.00000000E+00
  0.00000000E+00  0.00000000E+00  0.00000000E+00
  0.00000000E+00  0.00000000E+00  0.00000000E+00
  0.00000000E+00  0.00000000E+00  0.00000000E+00
  0.00000000E+00  0.00000000E+00  0.00000000E+00
  0.00000000E+00  0.00000000E+00  0.00000000E+00
  0.00000000E+00  0.00000000E+00  0.00000000E+00
  0.00000000E+00  0.00000000E+00  0.00000000E+00
  0.00000000E+00  0.00000000E+00  0.00000000E+00
  0.00000000E+00  0.00000000E+00  0.00000000E+00
  0.00000000E+00  0.00000000E+00  0.00000000E+00
  0.00000000E+00  0.00000000E+00  0.00000000E+00
  0.00000000E+00  0.00000000E+00  0.00000000E+00
  0.00000000E+00  0.00000000E+00  0.00000000E+00
  0.00000000E+00  0.00000000E+00  0.00000000E+00
  0.00000000E+00  0.00000000E+00  0.00000000E+00
  0.00000000E+00  0.00000000E+00  0.00000000E+00
  0.00000000E+00  0.00000000E+00  0.00000000E+00
  0.00000000E+00  0.00000000E+00  0.00000000E+00
  0.00000000E+00  0.00000000E+00  0.00000000E+00
  0.00000000E+00  0.00000000E+00  0.00000000E+00
  0.00000000E+00  0.00000000E+00  0.00000000E+00
  0.00000000E+00  0.00000000E+00  0.00000000E+00
  0.00000000E+00  0.00000000E+00  0.00000000E+00
  0.00000000E+00  0.00000000E+00  0.00000000E+00
  0.00000000E+00  0.00000000E+00  0.00000000E+00
  0.00000000E+00  0.00000000E+00  0.00000000E+00
  0.00000000E+00  0.00000000E+00  0.00000000E+00
  0.00000000E+00  0.00000000E+00  0.00000000E+00
  0.00000000E+00  0.00000000E+00  0.00000000E+00
  0.00000000E+00  0.00000000E+00  0.00000000E+00
  0.00000000E+00  0.00000000E+00  0.00000000E+00
  0.00000000E+00  0.00000000E+00  0.00000000E+00
  0.00000000E+00  0.00000000E+00  0.00000000E+00
  0.00000000E+00  0.00000000E+00  0.00000000E+00
  0.00000000E+00  0.00000000E+00  0.00000000E+00
  0.00000000E+00  0.00000000E+00  0.00000000E+00
  0.00000000E+00  0.00000000E+00  0.00000000E+00
  0.00000000E+00  0.00000000E+00  0.00000000E+00
  0.00000000E+00  0.00000000E+00  0.00000000E+00
  0.00000000E+00  0.00000000E+00  0.00000000E+00
  0.00000000E+00  0.00000000E+00  0.00000000E+00
  0.00000000E+00  0.00000000E+00  0.00000000E+00
  0.00000000E+00  0.00000000E+00  0.00000000E+00
  0.00000000E+00  0.00000000E+00  0.00000000E+00
  0.00000000E+00  0.00000000E+00  0.00000000E+00
  0.00000000E+00  0.00000000E+00  0.00000000E+00
  0.00000000E+00  0.00000000E+00  0.00000000E+00
  0.00000000E+00  0.00000000E+00  0.00000000E+00
  0.00000000E+00  0.00000000E+00  0.00000000E+00
  0.00000000E+00  0.00000000E+00  0.00000000E+00
  0.00000000E+00  0.00000000E+00  0.00000000E+00
  0.00000000E+00  0.00000000E+00  0.00000000E+00
  0.00000000E+00  0.00000000E+00  0.00000000E+00
  0.00000000E+00  0.00000000E+00  0.00000000E+00
  0.00000000E+00  0.00000000E+00  0.00000000E+00
  0.00000000E+00  0.00000000E+00  0.00000000E+00
  0.00000000E+00  0.00000000E+00  0.00000000E+00
  0.00000000E+00  0.00000000E+00  0.00000000E+00
  0.00000000E+00  0.00000000E+00  0.00000000E+00
  0.00000000E+00  0.00000000E+00  0.00000000E+00
  0.00000000E+00  0.00000000E+00  0.00000000E+00
  0.00000000E+00  0.00000000E+00  0.00000000E+00
  0.00000000E+00  0.00000000E+00  0.00000000E+00
  0.00000000E+00  0.00000000E+00  0.00000000E+00
  0.00000000E+00  0.00000000E+00  0.00000000E+00
  0.00000000E+00  0.00000000E+00  0.00000000E+00
  0.00000000E+00  0.00000000E+00  0.00000000E+00
  0.00000000E+00  0.00000000E+00  0.00000000E+00
  0.00000000E+00  0.00000000E+00  0.00000000E+00
  0.00000000E+00  0.00000000E+00  0.00000000E+00
  0.00000000E+00  0.00000000E+00  0.00000000E+00
  0.00000000E+00  0.00000000E+00  0.00000000E+00
  0.00000000E+00  0.00000000E+00  0.00000000E+00
  0.00000000E+00  0.00000000E+00  0.00000000E+00
  0.00000000E+00  0.00000000E+00  0.00000000E+00
  0.00000000E+00  0.00000000E+00  0.00000000E+00
  0.00000000E+00  0.00000000E+00  0.00000000E+00
  0.00000000E+00  0.00000000E+00  0.00000000E+00
  0.00000000E+00  0.00000000E+00  0.00000000E+00
  0.00000000E+00  0.00000000E+00  0.00000000E+00
  0.00000000E+00  0.00000000E+00  0.00000000E+00
  0.00000000E+00  0.00000000E+00  0.00000000E+00
  0.00000000E+00  0.00000000E+00  0.00000000E+00
  0.00000000E+00  0.00000000E+00  0.00000000E+00
  0.00000000E+00  0.00000000E+00  0.00000000E+00
  0.00000000E+00  0.00000000E+00  0.00000000E+00
  0.00000000E+00  0.00000000E+00  0.00000000E+00
  0.00000000E+00  0.00000000E+00  0.00000000E+00
  0.00000000E+00  0.00000000E+00  0.00000000E+00
  0.00000000E+00  0.00000000E+00  0.00000000E+00
  0.00000000E+00  0.00000000E+00  0.00000000E+00
  0.00000000E+00  0.00000000E+00  0.00000000E+00
  0.00000000E+00  0.00000000E+00  0.00000000E+00
  0.00000000E+00  0.00000000E+00  0.00000000E+00
  0.00000000E+00  0.00000000E+00  0.00000000E+00
  0.00000000E+00  0.00000000E+00  0.00000000E+00
  0.00000000E+00  0.00000000E+00  0.00000000E+00
  0.00000000E+00  0.00000000E+00  0.00000000E+00
  0.00000000E+00  0.00000000E+00  0.00000000E+00
  0.00000000E+00  0.00000000E+00  0.00000000E+00
  0.00000000E+00  0.00000000E+00  0.00000000E+00
  0.00000000E+00  0.00000000E+00  0.00000000E+00
  0.00000000E+00  0.00000000E+00  0.00000000E+00
  0.00000000E+00  0.00000000E+00  0.00000000E+00
  0.00000000E+00  0.00000000E+00  0.00000000E+00
  0.00000000E+00  0.00000000E+00  0.00000000E+00
  0.00000000E+00  0.00000000E+00  0.00000000E+00
  0.00000000E+00  0.00000000E+00  0.00000000E+00
  0.00000000E+00  0.00000000E+00  0.00000000E+00
  0.00000000E+00  0.00000000E+00  0.00000000E+00
  0.00000000E+00  0.00000000E+00  0.00000000E+00
  0.00000000E+00  0.00000000E+00  0.00000000E+00
  0.00000000E+00  0.00000000E+00  0.00000000E+00
  0.00000000E+00  0.00000000E+00  0.00000000E+00
  0.00000000E+00  0.00000000E+00  0.00000000E+00
  0.00000000E+00  0.00000000E+00  0.00000000E+00
  0.00000000E+00  0.00000000E+00  0.00000000E+00
  0.00000000E+00  0.00000000E+00  0.00000000E+00
  0.00000000E+00  0.00000000E+00  0.00000000E+00
  0.00000000E+00  0.00000000E+00  0.00000000E+00
  0.00000000E+00  0.00000000E+00  0.00000000E+00
  0.00000000E+00  0.00000000E+00  0.00000000E+00
  0.00000000E+00  0.00000000E+00  0.00000000E+00
  0.00000000E+00  0.00000000E+00  0.00000000E+00
  0.00000000E+00  0.00000000E+00  0.00000000E+00
  0.00000000E+00  0.00000000E+00  0.00000000E+00
  0.00000000E+00  0.00000000E+00  0.00000000E+00
  0.00000000E+00  0.00000000E+00  0.00000000E+00
  0.00000000E+00  0.00000000E+00  0.00000000E+00
  0.00000000E+00  0.00000000E+00  0.00000000E+00
  0.00000000E+00  0.00000000E+00  0.00000000E+00
  0.00000000E+00  0.00000000E+00  0.00000000E+00
  0.00000000E+00  0.00000000E+00  0.00000000E+00
  0.00000000E+00  0.00000000E+00  0.00000000E+00
  0.00000000E+00  0.00000000E+00  0.00000000E+00
  0.00000000E+00  0.00000000E+00  0.00000000E+00
  0.00000000E+00  0.00000000E+00  0.00000000E+00
  0.00000000E+00  0.00000000E+00  0.00000000E+00
  0.00000000E+00  0.00000000E+00  0.00000000E+00
  0.00000000E+00  0.00000000E+00  0.00000000E+00
  0.00000000E+00  0.00000000E+00  0.00000000E+00
  0.00000000E+00  0.00000000E+00  0.00000000E+00
  0.00000000E+00  0.00000000E+00  0.00000000E+00
  0.00000000E+00  0.00000000E+00  0.00000000E+00
  0.00000000E+00  0.00000000E+00  0.00000000E+00
  0.00000000E+00  0.00000000E+00  0.00000000E+00
  0.00000000E+00  0.00000000E+00  0.00000000E+00
  0.00000000E+00  0.00000000E+00  0.00000000E+00
  0.00000000E+00  0.00000000E+00  0.00000000E+00
  0.00000000E+00  0.00000000E+00  0.00000000E+00
  0.00000000E+00  0.00000000E+00  0.00000000E+00
