Li392 P56 N224
1.0
9.402378 0.000000 0.000000
0.000000 9.402378 0.000000
0.000000 0.000000 94.023780
Li P N
392 56 224
direct
0.500000 0.500000 0.080037 Li+
0.000000 0.000000 0.030037 Li+
0.000000 0.500000 0.080037 Li+
0.500000 0.000000 0.080037 Li+
0.000000 0.500000 0.030037 Li+
0.500000 0.000000 0.030037 Li+
0.000000 0.500000 0.005037 Li+
0.500000 0.750000 0.080037 Li+
0.500000 0.250000 0.080037 Li+
0.250000 0.000000 0.030037 Li+
0.750000 0.000000 0.030037 Li+
0.000000 0.500000 0.055037 Li+
0.225374 0.225374 0.002574 Li+
0.725374 0.274626 0.007499 Li+
0.274626 0.725374 0.007499 Li+
0.274626 0.274626 0.052574 Li+
0.774626 0.225374 0.057499 Li+
0.774626 0.774626 0.002574 Li+
0.225374 0.774626 0.057499 Li+
0.725374 0.725374 0.052574 Li+
0.237083 0.975164 0.005370 Li+
0.475164 0.262917 0.004703 Li+
0.524836 0.737083 0.004703 Li+
0.262917 0.753336 0.032520 Li+
0.262917 0.246664 0.027553 Li+
0.246664 0.524836 0.053745 Li+
0.753336 0.524836 0.006328 Li+
0.253336 0.237083 0.077553 Li+
0.975164 0.253336 0.003745 Li+
0.024836 0.253336 0.056328 Li+
0.746664 0.762917 0.077553 Li+
0.975164 0.746664 0.056328 Li+
0.746664 0.237083 0.082520 Li+
0.253336 0.762917 0.082520 Li+
0.024836 0.746664 0.003745 Li+
0.762917 0.024836 0.005370 Li+
0.237083 0.024836 0.054703 Li+
0.762917 0.975164 0.054703 Li+
0.246664 0.475164 0.006328 Li+
0.753336 0.475164 0.053745 Li+
0.737083 0.246664 0.032520 Li+
0.737083 0.753336 0.027553 Li+
0.524836 0.262917 0.055370 Li+
0.475164 0.737083 0.055370 Li+
0.000000 0.000000 0.006475 Li+
0.500000 0.500000 0.003598 Li+
0.500000 0.764387 0.030037 Li+
0.500000 0.235613 0.030037 Li+
0.235613 0.500000 0.030037 Li+
0.764387 0.500000 0.030037 Li+
0.264387 0.000000 0.080037 Li+
0.000000 0.264387 0.080037 Li+
0.735613 0.000000 0.080037 Li+
0.000000 0.735613 0.080037 Li+
0.000000 0.000000 0.053598 Li+
0.500000 0.500000 0.056475 Li+
0.500000 0.500000 0.180037 Li+
0.000000 0.000000 0.130037 Li+
0.000000 0.500000 0.180037 Li+
0.500000 0.000000 0.180037 Li+
0.000000 0.500000 0.130037 Li+
0.500000 0.000000 0.130037 Li+
0.000000 0.500000 0.105037 Li+
0.500000 0.750000 0.180037 Li+
0.500000 0.250000 0.180037 Li+
0.250000 0.000000 0.130037 Li+
0.750000 0.000000 0.130037 Li+
0.000000 0.500000 0.155037 Li+
0.225374 0.225374 0.102574 Li+
0.725374 0.274626 0.107499 Li+
0.274626 0.725374 0.107499 Li+
0.274626 0.274626 0.152574 Li+
0.774626 0.225374 0.157499 Li+
0.774626 0.774626 0.102574 Li+
0.225374 0.774626 0.157499 Li+
0.725374 0.725374 0.152574 Li+
0.237083 0.975164 0.105370 Li+
0.475164 0.262917 0.104703 Li+
0.524836 0.737083 0.104703 Li+
0.262917 0.753336 0.132520 Li+
0.262917 0.246664 0.127553 Li+
0.246664 0.524836 0.153745 Li+
0.753336 0.524836 0.106328 Li+
0.253336 0.237083 0.177553 Li+
0.975164 0.253336 0.103745 Li+
0.024836 0.253336 0.156328 Li+
0.746664 0.762917 0.177553 Li+
0.975164 0.746664 0.156328 Li+
0.746664 0.237083 0.182520 Li+
0.253336 0.762917 0.182520 Li+
0.024836 0.746664 0.103745 Li+
0.762917 0.024836 0.105370 Li+
0.237083 0.024836 0.154703 Li+
0.762917 0.975164 0.154703 Li+
0.246664 0.475164 0.106328 Li+
0.753336 0.475164 0.153745 Li+
0.737083 0.246664 0.132520 Li+
0.737083 0.753336 0.127553 Li+
0.524836 0.262917 0.155370 Li+
0.475164 0.737083 0.155370 Li+
0.000000 0.000000 0.106475 Li+
0.500000 0.500000 0.103598 Li+
0.500000 0.764387 0.130037 Li+
0.500000 0.235613 0.130037 Li+
0.235613 0.500000 0.130037 Li+
0.764387 0.500000 0.130037 Li+
0.264387 0.000000 0.180037 Li+
0.000000 0.264387 0.180037 Li+
0.735613 0.000000 0.180037 Li+
0.000000 0.735613 0.180037 Li+
0.000000 0.000000 0.153598 Li+
0.500000 0.500000 0.156475 Li+
0.500000 0.500000 0.280037 Li+
0.000000 0.000000 0.230037 Li+
0.000000 0.500000 0.280037 Li+
0.500000 0.000000 0.280037 Li+
0.000000 0.500000 0.230037 Li+
0.500000 0.000000 0.230037 Li+
0.000000 0.500000 0.205037 Li+
0.500000 0.750000 0.280037 Li+
0.500000 0.250000 0.280037 Li+
0.250000 0.000000 0.230037 Li+
0.750000 0.000000 0.230037 Li+
0.000000 0.500000 0.255037 Li+
0.225374 0.225374 0.202574 Li+
0.725374 0.274626 0.207499 Li+
0.274626 0.725374 0.207499 Li+
0.274626 0.274626 0.252574 Li+
0.774626 0.225374 0.257499 Li+
0.774626 0.774626 0.202574 Li+
0.225374 0.774626 0.257499 Li+
0.725374 0.725374 0.252574 Li+
0.237083 0.975164 0.205370 Li+
0.475164 0.262917 0.204703 Li+
0.524836 0.737083 0.204703 Li+
0.262917 0.753336 0.232520 Li+
0.262917 0.246664 0.227553 Li+
0.246664 0.524836 0.253745 Li+
0.753336 0.524836 0.206328 Li+
0.253336 0.237083 0.277553 Li+
0.975164 0.253336 0.203745 Li+
0.024836 0.253336 0.256328 Li+
0.746664 0.762917 0.277553 Li+
0.975164 0.746664 0.256328 Li+
0.746664 0.237083 0.282520 Li+
0.253336 0.762917 0.282520 Li+
0.024836 0.746664 0.203745 Li+
0.762917 0.024836 0.205370 Li+
0.237083 0.024836 0.254703 Li+
0.762917 0.975164 0.254703 Li+
0.246664 0.475164 0.206328 Li+
0.753336 0.475164 0.253745 Li+
0.737083 0.246664 0.232520 Li+
0.737083 0.753336 0.227553 Li+
0.524836 0.262917 0.255370 Li+
0.475164 0.737083 0.255370 Li+
0.000000 0.000000 0.206475 Li+
0.500000 0.500000 0.203598 Li+
0.500000 0.764387 0.230037 Li+
0.500000 0.235613 0.230037 Li+
0.235613 0.500000 0.230037 Li+
0.764387 0.500000 0.230037 Li+
0.264387 0.000000 0.280037 Li+
0.000000 0.264387 0.280037 Li+
0.735613 0.000000 0.280037 Li+
0.000000 0.735613 0.280037 Li+
0.000000 0.000000 0.253598 Li+
0.500000 0.500000 0.256475 Li+
0.500000 0.500000 0.380037 Li+
0.000000 0.000000 0.330037 Li+
0.000000 0.500000 0.380037 Li+
0.500000 0.000000 0.380037 Li+
0.000000 0.500000 0.330037 Li+
0.500000 0.000000 0.330037 Li+
0.000000 0.500000 0.305037 Li+
0.500000 0.750000 0.380037 Li+
0.500000 0.250000 0.380037 Li+
0.250000 0.000000 0.330037 Li+
0.750000 0.000000 0.330037 Li+
0.000000 0.500000 0.355037 Li+
0.225374 0.225374 0.302574 Li+
0.725374 0.274626 0.307499 Li+
0.274626 0.725374 0.307499 Li+
0.274626 0.274626 0.352574 Li+
0.774626 0.225374 0.357499 Li+
0.774626 0.774626 0.302574 Li+
0.225374 0.774626 0.357499 Li+
0.725374 0.725374 0.352574 Li+
0.237083 0.975164 0.305370 Li+
0.475164 0.262917 0.304703 Li+
0.524836 0.737083 0.304703 Li+
0.262917 0.753336 0.332520 Li+
0.262917 0.246664 0.327553 Li+
0.246664 0.524836 0.353745 Li+
0.753336 0.524836 0.306328 Li+
0.253336 0.237083 0.377553 Li+
0.975164 0.253336 0.303745 Li+
0.024836 0.253336 0.356328 Li+
0.746664 0.762917 0.377553 Li+
0.975164 0.746664 0.356328 Li+
0.746664 0.237083 0.382520 Li+
0.253336 0.762917 0.382520 Li+
0.024836 0.746664 0.303745 Li+
0.762917 0.024836 0.305370 Li+
0.237083 0.024836 0.354703 Li+
0.762917 0.975164 0.354703 Li+
0.246664 0.475164 0.306328 Li+
0.753336 0.475164 0.353745 Li+
0.737083 0.246664 0.332520 Li+
0.737083 0.753336 0.327553 Li+
0.524836 0.262917 0.355370 Li+
0.475164 0.737083 0.355370 Li+
0.000000 0.000000 0.306475 Li+
0.500000 0.500000 0.303598 Li+
0.500000 0.764387 0.330037 Li+
0.500000 0.235613 0.330037 Li+
0.235613 0.500000 0.330037 Li+
0.764387 0.500000 0.330037 Li+
0.264387 0.000000 0.380037 Li+
0.000000 0.264387 0.380037 Li+
0.735613 0.000000 0.380037 Li+
0.000000 0.735613 0.380037 Li+
0.000000 0.000000 0.353598 Li+
0.500000 0.500000 0.356475 Li+
0.500000 0.500000 0.480037 Li+
0.000000 0.000000 0.430037 Li+
0.000000 0.500000 0.480037 Li+
0.500000 0.000000 0.480037 Li+
0.000000 0.500000 0.430037 Li+
0.500000 0.000000 0.430037 Li+
0.000000 0.500000 0.405037 Li+
0.500000 0.750000 0.480037 Li+
0.500000 0.250000 0.480037 Li+
0.250000 0.000000 0.430037 Li+
0.750000 0.000000 0.430037 Li+
0.000000 0.500000 0.455037 Li+
0.225374 0.225374 0.402574 Li+
0.725374 0.274626 0.407499 Li+
0.274626 0.725374 0.407499 Li+
0.274626 0.274626 0.452574 Li+
0.774626 0.225374 0.457499 Li+
0.774626 0.774626 0.402574 Li+
0.225374 0.774626 0.457499 Li+
0.725374 0.725374 0.452574 Li+
0.237083 0.975164 0.405370 Li+
0.475164 0.262917 0.404703 Li+
0.524836 0.737083 0.404703 Li+
0.262917 0.753336 0.432520 Li+
0.262917 0.246664 0.427553 Li+
0.246664 0.524836 0.453745 Li+
0.753336 0.524836 0.406328 Li+
0.253336 0.237083 0.477553 Li+
0.975164 0.253336 0.403745 Li+
0.024836 0.253336 0.456328 Li+
0.746664 0.762917 0.477553 Li+
0.975164 0.746664 0.456328 Li+
0.746664 0.237083 0.482520 Li+
0.253336 0.762917 0.482520 Li+
0.024836 0.746664 0.403745 Li+
0.762917 0.024836 0.405370 Li+
0.237083 0.024836 0.454703 Li+
0.762917 0.975164 0.454703 Li+
0.246664 0.475164 0.406328 Li+
0.753336 0.475164 0.453745 Li+
0.737083 0.246664 0.432520 Li+
0.737083 0.753336 0.427553 Li+
0.524836 0.262917 0.455370 Li+
0.475164 0.737083 0.455370 Li+
0.000000 0.000000 0.406475 Li+
0.500000 0.500000 0.403598 Li+
0.500000 0.764387 0.430037 Li+
0.500000 0.235613 0.430037 Li+
0.235613 0.500000 0.430037 Li+
0.764387 0.500000 0.430037 Li+
0.264387 0.000000 0.480037 Li+
0.000000 0.264387 0.480037 Li+
0.735613 0.000000 0.480037 Li+
0.000000 0.735613 0.480037 Li+
0.000000 0.000000 0.453598 Li+
0.500000 0.500000 0.456475 Li+
0.500000 0.500000 0.580037 Li+
0.000000 0.000000 0.530037 Li+
0.000000 0.500000 0.580037 Li+
0.500000 0.000000 0.580037 Li+
0.000000 0.500000 0.530037 Li+
0.500000 0.000000 0.530037 Li+
0.000000 0.500000 0.505037 Li+
0.500000 0.750000 0.580037 Li+
0.500000 0.250000 0.580037 Li+
0.250000 0.000000 0.530037 Li+
0.750000 0.000000 0.530037 Li+
0.000000 0.500000 0.555037 Li+
0.225374 0.225374 0.502574 Li+
0.725374 0.274626 0.507499 Li+
0.274626 0.725374 0.507499 Li+
0.274626 0.274626 0.552574 Li+
0.774626 0.225374 0.557499 Li+
0.774626 0.774626 0.502574 Li+
0.225374 0.774626 0.557499 Li+
0.725374 0.725374 0.552574 Li+
0.237083 0.975164 0.505370 Li+
0.475164 0.262917 0.504703 Li+
0.524836 0.737083 0.504703 Li+
0.262917 0.753336 0.532520 Li+
0.262917 0.246664 0.527553 Li+
0.246664 0.524836 0.553745 Li+
0.753336 0.524836 0.506328 Li+
0.253336 0.237083 0.577553 Li+
0.975164 0.253336 0.503745 Li+
0.024836 0.253336 0.556328 Li+
0.746664 0.762917 0.577553 Li+
0.975164 0.746664 0.556328 Li+
0.746664 0.237083 0.582520 Li+
0.253336 0.762917 0.582520 Li+
0.024836 0.746664 0.503745 Li+
0.762917 0.024836 0.505370 Li+
0.237083 0.024836 0.554703 Li+
0.762917 0.975164 0.554703 Li+
0.246664 0.475164 0.506328 Li+
0.753336 0.475164 0.553745 Li+
0.737083 0.246664 0.532520 Li+
0.737083 0.753336 0.527553 Li+
0.524836 0.262917 0.555370 Li+
0.475164 0.737083 0.555370 Li+
0.000000 0.000000 0.506475 Li+
0.500000 0.500000 0.503598 Li+
0.500000 0.764387 0.530037 Li+
0.500000 0.235613 0.530037 Li+
0.235613 0.500000 0.530037 Li+
0.764387 0.500000 0.530037 Li+
0.264387 0.000000 0.580037 Li+
0.000000 0.264387 0.580037 Li+
0.735613 0.000000 0.580037 Li+
0.000000 0.735613 0.580037 Li+
0.000000 0.000000 0.553598 Li+
0.500000 0.500000 0.556475 Li+
0.500000 0.500000 0.680037 Li+
0.000000 0.000000 0.630037 Li+
0.000000 0.500000 0.680037 Li+
0.500000 0.000000 0.680037 Li+
0.000000 0.500000 0.630037 Li+
0.500000 0.000000 0.630037 Li+
0.000000 0.500000 0.605037 Li+
0.500000 0.750000 0.680037 Li+
0.500000 0.250000 0.680037 Li+
0.250000 0.000000 0.630037 Li+
0.750000 0.000000 0.630037 Li+
0.000000 0.500000 0.655037 Li+
0.225374 0.225374 0.602574 Li+
0.725374 0.274626 0.607499 Li+
0.274626 0.725374 0.607499 Li+
0.274626 0.274626 0.652574 Li+
0.774626 0.225374 0.657499 Li+
0.774626 0.774626 0.602574 Li+
0.225374 0.774626 0.657499 Li+
0.725374 0.725374 0.652574 Li+
0.237083 0.975164 0.605370 Li+
0.475164 0.262917 0.604703 Li+
0.524836 0.737083 0.604703 Li+
0.262917 0.753336 0.632520 Li+
0.262917 0.246664 0.627553 Li+
0.246664 0.524836 0.653745 Li+
0.753336 0.524836 0.606328 Li+
0.253336 0.237083 0.677553 Li+
0.975164 0.253336 0.603745 Li+
0.024836 0.253336 0.656328 Li+
0.746664 0.762917 0.677553 Li+
0.975164 0.746664 0.656328 Li+
0.746664 0.237083 0.682520 Li+
0.253336 0.762917 0.682520 Li+
0.024836 0.746664 0.603745 Li+
0.762917 0.024836 0.605370 Li+
0.237083 0.024836 0.654703 Li+
0.762917 0.975164 0.654703 Li+
0.246664 0.475164 0.606328 Li+
0.753336 0.475164 0.653745 Li+
0.737083 0.246664 0.632520 Li+
0.737083 0.753336 0.627553 Li+
0.524836 0.262917 0.655370 Li+
0.475164 0.737083 0.655370 Li+
0.000000 0.000000 0.606475 Li+
0.500000 0.500000 0.603598 Li+
0.500000 0.764387 0.630037 Li+
0.500000 0.235613 0.630037 Li+
0.235613 0.500000 0.630037 Li+
0.764387 0.500000 0.630037 Li+
0.264387 0.000000 0.680037 Li+
0.000000 0.264387 0.680037 Li+
0.735613 0.000000 0.680037 Li+
0.000000 0.735613 0.680037 Li+
0.000000 0.000000 0.653598 Li+
0.500000 0.500000 0.656475 Li+
0.500000 0.500000 0.030037 P4+
0.000000 0.000000 0.080037 P4+
0.000000 0.750000 0.030037 P4+
0.500000 0.000000 0.055037 P4+
0.500000 0.000000 0.005037 P4+
0.250000 0.500000 0.080037 P4+
0.750000 0.500000 0.080037 P4+
0.000000 0.250000 0.030037 P4+
0.500000 0.500000 0.130037 P4+
0.000000 0.000000 0.180037 P4+
0.000000 0.750000 0.130037 P4+
0.500000 0.000000 0.155037 P4+
0.500000 0.000000 0.105037 P4+
0.250000 0.500000 0.180037 P4+
0.750000 0.500000 0.180037 P4+
0.000000 0.250000 0.130037 P4+
0.500000 0.500000 0.230037 P4+
0.000000 0.000000 0.280037 P4+
0.000000 0.750000 0.230037 P4+
0.500000 0.000000 0.255037 P4+
0.500000 0.000000 0.205037 P4+
0.250000 0.500000 0.280037 P4+
0.750000 0.500000 0.280037 P4+
0.000000 0.250000 0.230037 P4+
0.500000 0.500000 0.330037 P4+
0.000000 0.000000 0.380037 P4+
0.000000 0.750000 0.330037 P4+
0.500000 0.000000 0.355037 P4+
0.500000 0.000000 0.305037 P4+
0.250000 0.500000 0.380037 P4+
0.750000 0.500000 0.380037 P4+
0.000000 0.250000 0.330037 P4+
0.500000 0.500000 0.430037 P4+
0.000000 0.000000 0.480037 P4+
0.000000 0.750000 0.430037 P4+
0.500000 0.000000 0.455037 P4+
0.500000 0.000000 0.405037 P4+
0.250000 0.500000 0.480037 P4+
0.750000 0.500000 0.480037 P4+
0.000000 0.250000 0.430037 P4+
0.500000 0.500000 0.530037 P4+
0.000000 0.000000 0.580037 P4+
0.000000 0.750000 0.530037 P4+
0.500000 0.000000 0.555037 P4+
0.500000 0.000000 0.505037 P4+
0.250000 0.500000 0.580037 P4+
0.750000 0.500000 0.580037 P4+
0.000000 0.250000 0.530037 P4+
0.500000 0.500000 0.630037 P4+
0.000000 0.000000 0.680037 P4+
0.000000 0.750000 0.630037 P4+
0.500000 0.000000 0.655037 P4+
0.500000 0.000000 0.605037 P4+
0.250000 0.500000 0.680037 P4+
0.750000 0.500000 0.680037 P4+
0.000000 0.250000 0.630037 P4+
0.603461 0.603461 0.040383 N2-
0.103461 0.896539 0.069690 N2-
0.896539 0.896539 0.090383 N2-
0.896539 0.103461 0.069690 N2-
0.396539 0.396539 0.040383 N2-
0.396539 0.603461 0.019690 N2-
0.603461 0.396539 0.019690 N2-
0.103461 0.103461 0.090383 N2-
0.603461 0.603461 0.140383 N2-
0.103461 0.896539 0.169690 N2-
0.896539 0.896539 0.190383 N2-
0.896539 0.103461 0.169690 N2-
0.396539 0.396539 0.140383 N2-
0.396539 0.603461 0.119690 N2-
0.603461 0.396539 0.119690 N2-
0.103461 0.103461 0.190383 N2-
0.603461 0.603461 0.240383 N2-
0.103461 0.896539 0.269690 N2-
0.896539 0.896539 0.290383 N2-
0.896539 0.103461 0.269690 N2-
0.396539 0.396539 0.240383 N2-
0.396539 0.603461 0.219690 N2-
0.603461 0.396539 0.219690 N2-
0.103461 0.103461 0.290383 N2-
0.603461 0.603461 0.340383 N2-
0.103461 0.896539 0.369690 N2-
0.896539 0.896539 0.390383 N2-
0.896539 0.103461 0.369690 N2-
0.396539 0.396539 0.340383 N2-
0.396539 0.603461 0.319690 N2-
0.603461 0.396539 0.319690 N2-
0.103461 0.103461 0.390383 N2-
0.603461 0.603461 0.440383 N2-
0.103461 0.896539 0.469690 N2-
0.896539 0.896539 0.490383 N2-
0.896539 0.103461 0.469690 N2-
0.396539 0.396539 0.440383 N2-
0.396539 0.603461 0.419690 N2-
0.603461 0.396539 0.419690 N2-
0.103461 0.103461 0.490383 N2-
0.603461 0.603461 0.540383 N2-
0.103461 0.896539 0.569690 N2-
0.896539 0.896539 0.590383 N2-
0.896539 0.103461 0.569690 N2-
0.396539 0.396539 0.540383 N2-
0.396539 0.603461 0.519690 N2-
0.603461 0.396539 0.519690 N2-
0.103461 0.103461 0.590383 N2-
0.603461 0.603461 0.640383 N2-
0.103461 0.896539 0.669690 N2-
0.896539 0.896539 0.690383 N2-
0.896539 0.103461 0.669690 N2-
0.396539 0.396539 0.640383 N2-
0.396539 0.603461 0.619690 N2-
0.603461 0.396539 0.619690 N2-
0.103461 0.103461 0.690383 N2-
0.387385 0.099421 0.015110 N3-
0.599421 0.112615 0.094963 N3-
0.400579 0.887385 0.094963 N3-
0.112615 0.850731 0.020094 N3-
0.112615 0.149269 0.039979 N3-
0.149269 0.400579 0.068775 N3-
0.850731 0.400579 0.091298 N3-
0.350731 0.387385 0.089979 N3-
0.099421 0.350731 0.018775 N3-
0.900579 0.350731 0.041298 N3-
0.649269 0.612615 0.089979 N3-
0.099421 0.649269 0.041298 N3-
0.649269 0.387385 0.070094 N3-
0.350731 0.612615 0.070094 N3-
0.900579 0.649269 0.018775 N3-
0.612615 0.900579 0.015110 N3-
0.387385 0.900579 0.044963 N3-
0.612615 0.099421 0.044963 N3-
0.149269 0.599421 0.091298 N3-
0.850731 0.599421 0.068775 N3-
0.887385 0.149269 0.020094 N3-
0.887385 0.850731 0.039979 N3-
0.400579 0.112615 0.065110 N3-
0.599421 0.887385 0.065110 N3-
0.387385 0.099421 0.115110 N3-
0.599421 0.112615 0.194963 N3-
0.400579 0.887385 0.194963 N3-
0.112615 0.850731 0.120094 N3-
0.112615 0.149269 0.139979 N3-
0.149269 0.400579 0.168775 N3-
0.850731 0.400579 0.191298 N3-
0.350731 0.387385 0.189979 N3-
0.099421 0.350731 0.118775 N3-
0.900579 0.350731 0.141298 N3-
0.649269 0.612615 0.189979 N3-
0.099421 0.649269 0.141298 N3-
0.649269 0.387385 0.170094 N3-
0.350731 0.612615 0.170094 N3-
0.900579 0.649269 0.118775 N3-
0.612615 0.900579 0.115110 N3-
0.387385 0.900579 0.144963 N3-
0.612615 0.099421 0.144963 N3-
0.149269 0.599421 0.191298 N3-
0.850731 0.599421 0.168775 N3-
0.887385 0.149269 0.120094 N3-
0.887385 0.850731 0.139979 N3-
0.400579 0.112615 0.165110 N3-
0.599421 0.887385 0.165110 N3-
0.387385 0.099421 0.215110 N3-
0.599421 0.112615 0.294963 N3-
0.400579 0.887385 0.294963 N3-
0.112615 0.850731 0.220094 N3-
0.112615 0.149269 0.239979 N3-
0.149269 0.400579 0.268775 N3-
0.850731 0.400579 0.291298 N3-
0.350731 0.387385 0.289979 N3-
0.099421 0.350731 0.218775 N3-
0.900579 0.350731 0.241298 N3-
0.649269 0.612615 0.289979 N3-
0.099421 0.649269 0.241298 N3-
0.649269 0.387385 0.270094 N3-
0.350731 0.612615 0.270094 N3-
0.900579 0.649269 0.218775 N3-
0.612615 0.900579 0.215110 N3-
0.387385 0.900579 0.244963 N3-
0.612615 0.099421 0.244963 N3-
0.149269 0.599421 0.291298 N3-
0.850731 0.599421 0.268775 N3-
0.887385 0.149269 0.220094 N3-
0.887385 0.850731 0.239979 N3-
0.400579 0.112615 0.265110 N3-
0.599421 0.887385 0.265110 N3-
0.387385 0.099421 0.315110 N3-
0.599421 0.112615 0.394963 N3-
0.400579 0.887385 0.394963 N3-
0.112615 0.850731 0.320094 N3-
0.112615 0.149269 0.339979 N3-
0.149269 0.400579 0.368775 N3-
0.850731 0.400579 0.391298 N3-
0.350731 0.387385 0.389979 N3-
0.099421 0.350731 0.318775 N3-
0.900579 0.350731 0.341298 N3-
0.649269 0.612615 0.389979 N3-
0.099421 0.649269 0.341298 N3-
0.649269 0.387385 0.370094 N3-
0.350731 0.612615 0.370094 N3-
0.900579 0.649269 0.318775 N3-
0.612615 0.900579 0.315110 N3-
0.387385 0.900579 0.344963 N3-
0.612615 0.099421 0.344963 N3-
0.149269 0.599421 0.391298 N3-
0.850731 0.599421 0.368775 N3-
0.887385 0.149269 0.320094 N3-
0.887385 0.850731 0.339979 N3-
0.400579 0.112615 0.365110 N3-
0.599421 0.887385 0.365110 N3-
0.387385 0.099421 0.415110 N3-
0.599421 0.112615 0.494963 N3-
0.400579 0.887385 0.494963 N3-
0.112615 0.850731 0.420094 N3-
0.112615 0.149269 0.439979 N3-
0.149269 0.400579 0.468775 N3-
0.850731 0.400579 0.491298 N3-
0.350731 0.387385 0.489979 N3-
0.099421 0.350731 0.418775 N3-
0.900579 0.350731 0.441298 N3-
0.649269 0.612615 0.489979 N3-
0.099421 0.649269 0.441298 N3-
0.649269 0.387385 0.470094 N3-
0.350731 0.612615 0.470094 N3-
0.900579 0.649269 0.418775 N3-
0.612615 0.900579 0.415110 N3-
0.387385 0.900579 0.444963 N3-
0.612615 0.099421 0.444963 N3-
0.149269 0.599421 0.491298 N3-
0.850731 0.599421 0.468775 N3-
0.887385 0.149269 0.420094 N3-
0.887385 0.850731 0.439979 N3-
0.400579 0.112615 0.465110 N3-
0.599421 0.887385 0.465110 N3-
0.387385 0.099421 0.515110 N3-
0.599421 0.112615 0.594963 N3-
0.400579 0.887385 0.594963 N3-
0.112615 0.850731 0.520094 N3-
0.112615 0.149269 0.539979 N3-
0.149269 0.400579 0.568775 N3-
0.850731 0.400579 0.591298 N3-
0.350731 0.387385 0.589979 N3-
0.099421 0.350731 0.518775 N3-
0.900579 0.350731 0.541298 N3-
0.649269 0.612615 0.589979 N3-
0.099421 0.649269 0.541298 N3-
0.649269 0.387385 0.570094 N3-
0.350731 0.612615 0.570094 N3-
0.900579 0.649269 0.518775 N3-
0.612615 0.900579 0.515110 N3-
0.387385 0.900579 0.544963 N3-
0.612615 0.099421 0.544963 N3-
0.149269 0.599421 0.591298 N3-
0.850731 0.599421 0.568775 N3-
0.887385 0.149269 0.520094 N3-
0.887385 0.850731 0.539979 N3-
0.400579 0.112615 0.565110 N3-
0.599421 0.887385 0.565110 N3-
0.387385 0.099421 0.615110 N3-
0.599421 0.112615 0.694963 N3-
0.400579 0.887385 0.694963 N3-
0.112615 0.850731 0.620094 N3-
0.112615 0.149269 0.639979 N3-
0.149269 0.400579 0.668775 N3-
0.850731 0.400579 0.691298 N3-
0.350731 0.387385 0.689979 N3-
0.099421 0.350731 0.618775 N3-
0.900579 0.350731 0.641298 N3-
0.649269 0.612615 0.689979 N3-
0.099421 0.649269 0.641298 N3-
0.649269 0.387385 0.670094 N3-
0.350731 0.612615 0.670094 N3-
0.900579 0.649269 0.618775 N3-
0.612615 0.900579 0.615110 N3-
0.387385 0.900579 0.644963 N3-
0.612615 0.099421 0.644963 N3-
0.149269 0.599421 0.691298 N3-
0.850731 0.599421 0.668775 N3-
0.887385 0.149269 0.620094 N3-
0.887385 0.850731 0.639979 N3-
0.400579 0.112615 0.665110 N3-
0.599421 0.887385 0.665110 N3-
