Li56 P28 O98
1.0
6.730959 0.000000 7.860032
2.035903 8.419349 5.263538
0.000000 0.000000 68.387046
Li P O
56 28 98
direct
0.144977 0.987971 0.021248 Li+
0.855023 0.012029 0.004092 Li+
0.588727 0.751653 0.055385 Li+
0.411273 0.248347 0.046878 Li+
0.327738 0.791276 0.044113 Li+
0.672262 0.208724 0.058150 Li+
0.241886 0.450796 0.002229 Li+
0.758114 0.549204 0.023111 Li+
0.144977 0.987971 0.098171 Li+
0.855023 0.012029 0.081015 Li+
0.588727 0.751653 0.132308 Li+
0.411273 0.248347 0.123801 Li+
0.327738 0.791276 0.121036 Li+
0.672262 0.208724 0.135074 Li+
0.241886 0.450796 0.079152 Li+
0.758114 0.549204 0.100034 Li+
0.144977 0.987971 0.175094 Li+
0.855023 0.012029 0.157938 Li+
0.588727 0.751653 0.209231 Li+
0.411273 0.248347 0.200724 Li+
0.327738 0.791276 0.197959 Li+
0.672262 0.208724 0.211997 Li+
0.241886 0.450796 0.156075 Li+
0.758114 0.549204 0.176957 Li+
0.144977 0.987971 0.252017 Li+
0.855023 0.012029 0.234861 Li+
0.588727 0.751653 0.286154 Li+
0.411273 0.248347 0.277647 Li+
0.327738 0.791276 0.274882 Li+
0.672262 0.208724 0.288920 Li+
0.241886 0.450796 0.232999 Li+
0.758114 0.549204 0.253880 Li+
0.144977 0.987971 0.328940 Li+
0.855023 0.012029 0.311784 Li+
0.588727 0.751653 0.363078 Li+
0.411273 0.248347 0.354570 Li+
0.327738 0.791276 0.351805 Li+
0.672262 0.208724 0.365843 Li+
0.241886 0.450796 0.309922 Li+
0.758114 0.549204 0.330803 Li+
0.144977 0.987971 0.405864 Li+
0.855023 0.012029 0.388707 Li+
0.588727 0.751653 0.440001 Li+
0.411273 0.248347 0.431493 Li+
0.327738 0.791276 0.428728 Li+
0.672262 0.208724 0.442766 Li+
0.241886 0.450796 0.386845 Li+
0.758114 0.549204 0.407726 Li+
0.144977 0.987971 0.482787 Li+
0.855023 0.012029 0.465630 Li+
0.588727 0.751653 0.516924 Li+
0.411273 0.248347 0.508416 Li+
0.327738 0.791276 0.505651 Li+
0.672262 0.208724 0.519689 Li+
0.241886 0.450796 0.463768 Li+
0.758114 0.549204 0.484649 Li+
0.213298 0.631956 0.030265 P5+
0.786702 0.368044 0.071998 P5+
0.779241 0.845502 0.063403 P5+
0.220759 0.154498 0.038860 P5+
0.213298 0.631956 0.107188 P5+
0.786702 0.368044 0.148921 P5+
0.779241 0.845502 0.140326 P5+
0.220759 0.154498 0.115783 P5+
0.213298 0.631956 0.184111 P5+
0.786702 0.368044 0.225844 P5+
0.779241 0.845502 0.217249 P5+
0.220759 0.154498 0.192706 P5+
0.213298 0.631956 0.261034 P5+
0.786702 0.368044 0.302767 P5+
0.779241 0.845502 0.294172 P5+
0.220759 0.154498 0.269629 P5+
0.213298 0.631956 0.337957 P5+
0.786702 0.368044 0.379690 P5+
0.779241 0.845502 0.371095 P5+
0.220759 0.154498 0.346552 P5+
0.213298 0.631956 0.414881 P5+
0.786702 0.368044 0.456613 P5+
0.779241 0.845502 0.448018 P5+
0.220759 0.154498 0.423476 P5+
0.213298 0.631956 0.491804 P5+
0.786702 0.368044 0.533537 P5+
0.779241 0.845502 0.524942 P5+
0.220759 0.154498 0.500399 P5+
0.741759 0.874340 0.043733 O2-
0.605720 0.790684 0.021111 O2-
0.394280 0.209316 0.004230 O2-
0.848591 0.981976 0.055158 O2-
0.743350 0.376455 0.021344 O2-
0.256650 0.623545 0.003997 O2-
0.732189 0.526190 0.055475 O2-
0.267811 0.473810 0.046788 O2-
0.702403 0.236504 0.004925 O2-
0.297597 0.763496 0.020415 O2-
0.962384 0.683894 0.057808 O2-
0.037616 0.316106 0.044455 O2-
0.151409 0.018024 0.047105 O2-
0.258241 0.125660 0.058531 O2-
0.741759 0.874340 0.120656 O2-
0.605720 0.790684 0.098034 O2-
0.394280 0.209316 0.081153 O2-
0.848591 0.981976 0.132081 O2-
0.743350 0.376455 0.098267 O2-
0.256650 0.623545 0.080920 O2-
0.732189 0.526190 0.132398 O2-
0.267811 0.473810 0.123711 O2-
0.702403 0.236504 0.081848 O2-
0.297597 0.763496 0.097338 O2-
0.962384 0.683894 0.134731 O2-
0.037616 0.316106 0.121378 O2-
0.151409 0.018024 0.124028 O2-
0.258241 0.125660 0.135454 O2-
0.741759 0.874340 0.197579 O2-
0.605720 0.790684 0.174957 O2-
0.394280 0.209316 0.158076 O2-
0.848591 0.981976 0.209004 O2-
0.743350 0.376455 0.175190 O2-
0.256650 0.623545 0.157843 O2-
0.732189 0.526190 0.209321 O2-
0.267811 0.473810 0.200634 O2-
0.702403 0.236504 0.158771 O2-
0.297597 0.763496 0.174261 O2-
0.962384 0.683894 0.211654 O2-
0.037616 0.316106 0.198302 O2-
0.151409 0.018024 0.200951 O2-
0.258241 0.125660 0.212377 O2-
0.741759 0.874340 0.274502 O2-
0.605720 0.790684 0.251880 O2-
0.394280 0.209316 0.234999 O2-
0.848591 0.981976 0.285927 O2-
0.743350 0.376455 0.252113 O2-
0.256650 0.623545 0.234766 O2-
0.732189 0.526190 0.286244 O2-
0.267811 0.473810 0.277557 O2-
0.702403 0.236504 0.235694 O2-
0.297597 0.763496 0.251184 O2-
0.962384 0.683894 0.288577 O2-
0.037616 0.316106 0.275225 O2-
0.151409 0.018024 0.277874 O2-
0.258241 0.125660 0.289300 O2-
0.741759 0.874340 0.351425 O2-
0.605720 0.790684 0.328803 O2-
0.394280 0.209316 0.311922 O2-
0.848591 0.981976 0.362850 O2-
0.743350 0.376455 0.329036 O2-
0.256650 0.623545 0.311689 O2-
0.732189 0.526190 0.363167 O2-
0.267811 0.473810 0.354480 O2-
0.702403 0.236504 0.312617 O2-
0.297597 0.763496 0.328107 O2-
0.962384 0.683894 0.365500 O2-
0.037616 0.316106 0.352148 O2-
0.151409 0.018024 0.354797 O2-
0.258241 0.125660 0.366223 O2-
0.741759 0.874340 0.428348 O2-
0.605720 0.790684 0.405726 O2-
0.394280 0.209316 0.388845 O2-
0.848591 0.981976 0.439773 O2-
0.743350 0.376455 0.405959 O2-
0.256650 0.623545 0.388612 O2-
0.732189 0.526190 0.440090 O2-
0.267811 0.473810 0.431404 O2-
0.702403 0.236504 0.389540 O2-
0.297597 0.763496 0.405030 O2-
0.962384 0.683894 0.442423 O2-
0.037616 0.316106 0.429071 O2-
0.151409 0.018024 0.431721 O2-
0.258241 0.125660 0.443146 O2-
0.741759 0.874340 0.505271 O2-
0.605720 0.790684 0.482649 O2-
0.394280 0.209316 0.465768 O2-
0.848591 0.981976 0.516697 O2-
0.743350 0.376455 0.482882 O2-
0.256650 0.623545 0.465535 O2-
0.732189 0.526190 0.517014 O2-
0.267811 0.473810 0.508327 O2-
0.702403 0.236504 0.466464 O2-
0.297597 0.763496 0.481954 O2-
0.962384 0.683894 0.519346 O2-
0.037616 0.316106 0.505994 O2-
0.151409 0.018024 0.508644 O2-
0.258241 0.125660 0.520069 O2-
