Li73 P24 N1 O95                         
   1.00000000000000     
    14.7329703701163393   -0.0000164544954998    0.0072484018735733
    -0.0000481336333431   10.5655727691241523   -0.0177918605688652
     0.0060276812545580   -0.0208002160979986   12.2956461710811205
   Li   P    N    O 
    73    24     1    95
Direct
  0.2144655576165036  0.4405989445849012  0.0002261571944130
  0.1719247547265349  0.4181106274899830  0.4906461699737339
  0.1711467443259196  0.9226006736489477  0.0023661625283221
  0.1693878454466335  0.9186321955575997  0.4997851256699082
  0.5013913713290536  0.4238518887244936  0.0017984333692456
  0.5022166029243618  0.4227111253750866  0.4994811943360707
  0.5016938302216318  0.9227809703106805  0.0011879095463081
  0.5034869182579204  0.9219697902603559  0.5004757083986151
  0.8335108475283918  0.4225471171258354  0.0000834657926853
  0.8374477204988804  0.4222663816113512  0.4989538924410272
  0.8361848171761032  0.9232383719988887  0.0008763915099434
  0.8363781175596964  0.9212684019598582  0.5003548630298562
  0.0037910071574678  0.0766898642182807  0.2532363022376045
  0.0035067626249064  0.0777020351804892  0.7484348138058525
  0.0026262093245617  0.5781514316771801  0.2501892442144664
  0.0015041324195065  0.5769150312260103  0.7485433337232096
  0.3368370135761288  0.0777797460203713  0.2560245239022363
  0.3375330286981085  0.0764065946729494  0.7486519660272989
  0.3325844308694004  0.5749117043978775  0.2516144517799464
  0.3373609333498211  0.5788728991412335  0.7495405960257023
  0.6693526012102957  0.0779464897325467  0.2516003667278998
  0.6688324270629755  0.0779537060343972  0.7504223953347710
  0.6695897279791976  0.5786056047439216  0.2518713511850660
  0.6691160647872160  0.5779677606781115  0.7493821409438844
  0.1779974681582721  0.1621384520813756  0.1432107942159941
  0.1698891601173777  0.1622053113343416  0.6241958965564625
  0.1664806469066065  0.6635895028917885  0.1257760451852525
  0.1690660251512423  0.6594689797074089  0.6264313771706176
  0.5022302613823404  0.1644829140138575  0.1282873161121736
  0.5023883523907101  0.1629872001448166  0.6265502870530593
  0.5058592704794508  0.6649867999916348  0.1288740490885050
  0.5025377132985968  0.6635618851772479  0.6265009167862389
  0.8336938217773888  0.1634804355302788  0.1278745814031810
  0.8357144134338325  0.1624578402653577  0.6271782703193637
  0.8349956080882979  0.6632151810618103  0.1266202697166252
  0.8357763931526475  0.6631558969190589  0.6263465948508041
  0.9906064231086670  0.3432612472105395  0.1328705379855980
  0.0029720683425361  0.3362620972904468  0.6218494363808130
  0.0027592239392448  0.8351097011410029  0.1241232185711667
  0.0027939080874149  0.8355427536909782  0.6245443465284189
  0.3321380475065983  0.3372271238068932  0.1310311561248236
  0.3362698687532963  0.3358543893599498  0.6230509219531426
  0.3356047711420306  0.8385337250131909  0.1261535824693050
  0.3361711861485998  0.8353923072058913  0.6240882010044759
  0.6690027677662356  0.3378763736330488  0.1248765011991033
  0.6683115095946535  0.3364302876664300  0.6225743227784005
  0.6694892551195306  0.8377660705275690  0.1242205889585542
  0.6698442279844737  0.8371049084260418  0.6244795820285437
  0.0153530838153792  0.3369486506231865  0.3739698353497765
  0.9932800789270940  0.3402437140645048  0.8681959472361630
  0.0034907757880104  0.8348970785843300  0.3772997632197236
  0.0024935009881258  0.8353861220030721  0.8771618861143965
  0.3313072060988468  0.3348460851668191  0.3749824242614733
  0.3384688151778624  0.3367539446627245  0.8747507153409040
  0.3360769603438942  0.8346390534150152  0.3773483430402723
  0.3361999765821786  0.8388500239411066  0.8763946797056666
  0.6686908388942884  0.3365963353823060  0.3778349044464148
  0.6679642186549380  0.3372793161477883  0.8764569870048530
  0.6697327223820193  0.8369776815696386  0.3767040367692185
  0.6695433344308946  0.8378201835694632  0.8769765787565128
  0.1702050410562742  0.1624979977491523  0.3764551409383224
  0.1756385395988879  0.1573432054848271  0.8671092679814419
  0.1701475526205949  0.6542379587444271  0.3704539616989154
  0.1667990128739968  0.6666411577466660  0.8730633964386727
  0.5029119314562650  0.1640789646249567  0.3754532263024303
  0.5021232772826819  0.1636055167806268  0.8747270776502610
  0.5023125986137793  0.6633162296159825  0.3743754928611308
  0.5068526080328377  0.6652468572705699  0.8729561688775892
  0.8376591540874097  0.1641828826762364  0.3750625635724926
  0.8334305776778601  0.1631936322537204  0.8743432285138725
  0.8363155245955747  0.6633616292496165  0.3745187136624836
  0.8344984833327959  0.6634773393541141  0.8735961897419046
  0.1065868348502637  0.2948436564450381  0.0097053247622157
  0.1650229648686020  0.4096013003347119  0.2475346561784033
  0.1661875091838279  0.4110173584082781  0.7547267186287862
  0.1672898244046731  0.9079592702203995  0.2516794689072467
  0.1669398520342399  0.9110180225813956  0.7499026040877613
  0.5009171393512258  0.4131530528735765  0.2504054940632885
  0.5000308055204319  0.4126079203492803  0.7503543389347791
  0.5007594301908971  0.9131466147552524  0.2508409010663593
  0.5006937639446468  0.9129664355264133  0.7507483425546360
  0.8311724577563819  0.4129522129908766  0.2516506312629724
  0.8310496516514729  0.4119013961181416  0.7488776839950116
  0.8342080047366516  0.9124429614450189  0.2500292612138558
  0.8341031535194947  0.9125757445236299  0.7513459919560395
  0.0012586070347758  0.0906940703393162  0.0014302739250977
  0.9995310252380697  0.0856015360697470  0.5008943795878295
  0.9975372001477588  0.5840744986856756  0.9987317920080703
  0.0003244224413384  0.5871293538827232  0.5007464598226478
  0.3316911088216246  0.0904267566673136  0.0021207471469354
  0.3347245621155354  0.0849464561316610  0.5016145078111237
  0.3373560804702916  0.5994593850212073  0.9996243945356956
  0.3339774529112697  0.5865872801613132  0.5009060715375415
  0.6658569007002015  0.0882734849930651  0.0009997917055598
  0.6675373595947353  0.0874947800056653  0.5009765218831865
  0.6662086465229219  0.5880907289004321  0.0003939262240403
  0.6671382240658982  0.5883188054599531  0.5008212047930520
  0.2007889751520406  0.3354318678622382  0.3482489341835048
  0.0337764277111094  0.1527964667049729  0.3963550728171582
  0.0395946539163332  0.1648418100581196  0.9003237133893238
  0.0355836100522906  0.6560130305320417  0.3969641961878392
  0.0338959967215665  0.6522464148558123  0.8947744724627240
  0.3713824320259952  0.1539267119471071  0.3988478095169330
  0.3667610471296185  0.1586376156776110  0.8975016867396327
  0.3690817099039064  0.6558503843500803  0.3969213563109169
  0.3758877609724268  0.6614349302019150  0.8949669371095024
  0.7030070008415661  0.1568224822949363  0.3973165689103973
  0.7008635180944476  0.1576246389362700  0.8970126381152994
  0.7027309172255056  0.6579125062830379  0.3973472739774273
  0.7009909686482025  0.6573556076329048  0.8962163444833955
  0.2030503902320678  0.0463638123969713  0.2546337913999885
  0.2017426845094704  0.0505007952009669  0.7479974458945863
  0.1993603735316512  0.5527284707149652  0.2401494776983985
  0.2010734342919175  0.5502016357453595  0.7545863948164141
  0.5341911792862505  0.0532673223274034  0.2512266315217366
  0.5336179399275515  0.0533399541704130  0.7507458187157858
  0.5356390386598999  0.5526784008456117  0.2510925867053689
  0.5345585865504034  0.5520579404719296  0.7500382966448484
  0.8682482829271239  0.0523761309449982  0.2497296708737119
  0.8685111612912467  0.0524072003212315  0.7520396202206264
  0.8652429031288070  0.5527219281209576  0.2499043520061532
  0.8657575180475979  0.5513498877924146  0.7501831020523551
  0.0571751457939409  0.4158844812046449  0.2423435796532740
  0.0606136059956508  0.4087346843378181  0.7507540157875643
  0.0613676053113369  0.9080304798000216  0.2503825673572133
  0.0611225725489108  0.9101212862833392  0.7514855253402443
  0.3955637756801102  0.4112255930539968  0.2502796308587804
  0.3942351885278492  0.4107031672066139  0.7502610800349085
  0.3950907497896218  0.9099213055376111  0.2512740252561049
  0.3949639126766248  0.9094769345135760  0.7508547532183173
  0.7255025059513693  0.4107755369658880  0.2529830298488172
  0.7255250503732864  0.4096967519693698  0.7487453173069506
  0.7285054506700555  0.9100556640229150  0.2503432888695770
  0.7284127864842522  0.9107200588824541  0.7512638874705989
  0.2254971435367872  0.0950387537011544  0.0025238288731869
  0.2291675456523452  0.0849342857740040  0.5016905682232379
  0.2321629225408329  0.6135346413564283  0.9978758842716887
  0.2283887488937696  0.5890353026185987  0.5013807108973644
  0.5601414423094208  0.0905285149737232  0.0010534285782700
  0.5618775627769965  0.0901980890244414  0.5009400664373568
  0.5605361564774279  0.5904731680890449  0.0006069107736581
  0.5614394746794342  0.5909697274773760  0.5005983873529326
  0.8960373370896112  0.0940521049381188  0.0003887367888205
  0.8937610433104347  0.0883818255185649  0.5021244673976186
  0.8918785120244869  0.5899402241612388  0.9990090254619829
  0.8944575055387184  0.5907999087808226  0.5006995705476120
  0.1940756489737647  0.3466808891841037  0.1299578730273527
  0.2042020564036286  0.3381601804004062  0.6547390891567069
  0.2018059280949752  0.8414862579469710  0.1459211014216000
  0.2015029383376799  0.8396424077837026  0.6468883677479033
  0.5355304360906766  0.3441742511181244  0.1454044257969014
  0.5352105415149466  0.3423110655574529  0.6468122244254886
  0.5363248710494189  0.8450615364566982  0.1461729027468123
  0.5363689434485287  0.8433649087538599  0.6470409104809330
  0.8630060242031704  0.3430246147462359  0.1458352977784215
  0.8678644520316222  0.3424277542766358  0.6457561930330419
  0.8691944467467331  0.8433877407625705  0.1453572172248175
  0.8691739316159546  0.8428287039039617  0.6474505076715871
  0.0379728146363045  0.1642508551366320  0.1036475190263819
  0.0354074889631556  0.1559479956639847  0.6045176066346013
  0.0336467163825864  0.6542232452758275  0.1014773954410290
  0.0351991996401354  0.6566036622845872  0.6053041238301632
  0.3669691613260972  0.1593063982567239  0.1062561073387427
  0.3691648973426063  0.1550452779408470  0.6060367724400189
  0.3749692173840750  0.6620794434534581  0.1043376900061779
  0.3691349750939289  0.6569256381059027  0.6050245649383673
  0.7010824739537014  0.1573964455226705  0.1051296282287071
  0.7024390135666165  0.1566418537538822  0.6054024027590544
  0.7014332283397475  0.6576829810057587  0.1043308215630789
  0.7022422080019241  0.6575957375144006  0.6051400821362797
  0.0267879457109838  0.4415281688558196  0.9980023480383705
  0.0337574086024273  0.4474805074363779  0.5016336801227137
  0.0350194515492905  0.9515637881354087  0.0007722453754213
  0.0334746878626324  0.9456327441021024  0.5018208829771366
  0.3587962716975175  0.4534503770241919  0.0000770353183697
  0.3687837875507138  0.4474178264840240  0.5015484146532392
  0.3645477950209449  0.9502499928012853  0.0014047721177591
  0.3690887655948936  0.9450092670572874  0.5018295915101938
  0.6998672466659589  0.4481966426892010  0.9999951767951590
  0.7009464935309095  0.4484293096395937  0.5006910584060376
  0.7007961206791075  0.9488639014222857  0.0005313762961620
  0.7012992362796442  0.9474986851327585  0.5007640163318032
  0.1981907592112831  0.3442952583449512  0.8633503199720797
  0.2014927647077098  0.8364854760257545  0.3544527084180140
  0.2020302046102739  0.8443839785509449  0.8548454542363698
  0.5362029605392036  0.3430465753651740  0.3537197815847751
  0.5337305261216109  0.3438944893606324  0.8553340992238210
  0.5364184318916336  0.8433677725983165  0.3540867846190038
  0.5364139564423289  0.8452490942880880  0.8549712808763215
  0.8688287517700697  0.3435419173982038  0.3536226888416466
  0.8646920902528786  0.3419447124134969  0.8532339632570953
  0.8695365206997178  0.8430943984110931  0.3535666494287249
  0.8690533005631836  0.8434794510423805  0.8555145951697294
 
  0.00000000E+00  0.00000000E+00  0.00000000E+00
  0.00000000E+00  0.00000000E+00  0.00000000E+00
  0.00000000E+00  0.00000000E+00  0.00000000E+00
  0.00000000E+00  0.00000000E+00  0.00000000E+00
  0.00000000E+00  0.00000000E+00  0.00000000E+00
  0.00000000E+00  0.00000000E+00  0.00000000E+00
  0.00000000E+00  0.00000000E+00  0.00000000E+00
  0.00000000E+00  0.00000000E+00  0.00000000E+00
  0.00000000E+00  0.00000000E+00  0.00000000E+00
  0.00000000E+00  0.00000000E+00  0.00000000E+00
  0.00000000E+00  0.00000000E+00  0.00000000E+00
  0.00000000E+00  0.00000000E+00  0.00000000E+00
  0.00000000E+00  0.00000000E+00  0.00000000E+00
  0.00000000E+00  0.00000000E+00  0.00000000E+00
  0.00000000E+00  0.00000000E+00  0.00000000E+00
  0.00000000E+00  0.00000000E+00  0.00000000E+00
  0.00000000E+00  0.00000000E+00  0.00000000E+00
  0.00000000E+00  0.00000000E+00  0.00000000E+00
  0.00000000E+00  0.00000000E+00  0.00000000E+00
  0.00000000E+00  0.00000000E+00  0.00000000E+00
  0.00000000E+00  0.00000000E+00  0.00000000E+00
  0.00000000E+00  0.00000000E+00  0.00000000E+00
  0.00000000E+00  0.00000000E+00  0.00000000E+00
  0.00000000E+00  0.00000000E+00  0.00000000E+00
  0.00000000E+00  0.00000000E+00  0.00000000E+00
  0.00000000E+00  0.00000000E+00  0.00000000E+00
  0.00000000E+00  0.00000000E+00  0.00000000E+00
  0.00000000E+00  0.00000000E+00  0.00000000E+00
  0.00000000E+00  0.00000000E+00  0.00000000E+00
  0.00000000E+00  0.00000000E+00  0.00000000E+00
  0.00000000E+00  0.00000000E+00  0.00000000E+00
  0.00000000E+00  0.00000000E+00  0.00000000E+00
  0.00000000E+00  0.00000000E+00  0.00000000E+00
  0.00000000E+00  0.00000000E+00  0.00000000E+00
  0.00000000E+00  0.00000000E+00  0.00000000E+00
  0.00000000E+00  0.00000000E+00  0.00000000E+00
  0.00000000E+00  0.00000000E+00  0.00000000E+00
  0.00000000E+00  0.00000000E+00  0.00000000E+00
  0.00000000E+00  0.00000000E+00  0.00000000E+00
  0.00000000E+00  0.00000000E+00  0.00000000E+00
  0.00000000E+00  0.00000000E+00  0.00000000E+00
  0.00000000E+00  0.00000000E+00  0.00000000E+00
  0.00000000E+00  0.00000000E+00  0.00000000E+00
  0.00000000E+00  0.00000000E+00  0.00000000E+00
  0.00000000E+00  0.00000000E+00  0.00000000E+00
  0.00000000E+00  0.00000000E+00  0.00000000E+00
  0.00000000E+00  0.00000000E+00  0.00000000E+00
  0.00000000E+00  0.00000000E+00  0.00000000E+00
  0.00000000E+00  0.00000000E+00  0.00000000E+00
  0.00000000E+00  0.00000000E+00  0.00000000E+00
  0.00000000E+00  0.00000000E+00  0.00000000E+00
  0.00000000E+00  0.00000000E+00  0.00000000E+00
  0.00000000E+00  0.00000000E+00  0.00000000E+00
  0.00000000E+00  0.00000000E+00  0.00000000E+00
  0.00000000E+00  0.00000000E+00  0.00000000E+00
  0.00000000E+00  0.00000000E+00  0.00000000E+00
  0.00000000E+00  0.00000000E+00  0.00000000E+00
  0.00000000E+00  0.00000000E+00  0.00000000E+00
  0.00000000E+00  0.00000000E+00  0.00000000E+00
  0.00000000E+00  0.00000000E+00  0.00000000E+00
  0.00000000E+00  0.00000000E+00  0.00000000E+00
  0.00000000E+00  0.00000000E+00  0.00000000E+00
  0.00000000E+00  0.00000000E+00  0.00000000E+00
  0.00000000E+00  0.00000000E+00  0.00000000E+00
  0.00000000E+00  0.00000000E+00  0.00000000E+00
  0.00000000E+00  0.00000000E+00  0.00000000E+00
  0.00000000E+00  0.00000000E+00  0.00000000E+00
  0.00000000E+00  0.00000000E+00  0.00000000E+00
  0.00000000E+00  0.00000000E+00  0.00000000E+00
  0.00000000E+00  0.00000000E+00  0.00000000E+00
  0.00000000E+00  0.00000000E+00  0.00000000E+00
  0.00000000E+00  0.00000000E+00  0.00000000E+00
  0.00000000E+00  0.00000000E+00  0.00000000E+00
  0.00000000E+00  0.00000000E+00  0.00000000E+00
  0.00000000E+00  0.00000000E+00  0.00000000E+00
  0.00000000E+00  0.00000000E+00  0.00000000E+00
  0.00000000E+00  0.00000000E+00  0.00000000E+00
  0.00000000E+00  0.00000000E+00  0.00000000E+00
  0.00000000E+00  0.00000000E+00  0.00000000E+00
  0.00000000E+00  0.00000000E+00  0.00000000E+00
  0.00000000E+00  0.00000000E+00  0.00000000E+00
  0.00000000E+00  0.00000000E+00  0.00000000E+00
  0.00000000E+00  0.00000000E+00  0.00000000E+00
  0.00000000E+00  0.00000000E+00  0.00000000E+00
  0.00000000E+00  0.00000000E+00  0.00000000E+00
  0.00000000E+00  0.00000000E+00  0.00000000E+00
  0.00000000E+00  0.00000000E+00  0.00000000E+00
  0.00000000E+00  0.00000000E+00  0.00000000E+00
  0.00000000E+00  0.00000000E+00  0.00000000E+00
  0.00000000E+00  0.00000000E+00  0.00000000E+00
  0.00000000E+00  0.00000000E+00  0.00000000E+00
  0.00000000E+00  0.00000000E+00  0.00000000E+00
  0.00000000E+00  0.00000000E+00  0.00000000E+00
  0.00000000E+00  0.00000000E+00  0.00000000E+00
  0.00000000E+00  0.00000000E+00  0.00000000E+00
  0.00000000E+00  0.00000000E+00  0.00000000E+00
  0.00000000E+00  0.00000000E+00  0.00000000E+00
  0.00000000E+00  0.00000000E+00  0.00000000E+00
  0.00000000E+00  0.00000000E+00  0.00000000E+00
  0.00000000E+00  0.00000000E+00  0.00000000E+00
  0.00000000E+00  0.00000000E+00  0.00000000E+00
  0.00000000E+00  0.00000000E+00  0.00000000E+00
  0.00000000E+00  0.00000000E+00  0.00000000E+00
  0.00000000E+00  0.00000000E+00  0.00000000E+00
  0.00000000E+00  0.00000000E+00  0.00000000E+00
  0.00000000E+00  0.00000000E+00  0.00000000E+00
  0.00000000E+00  0.00000000E+00  0.00000000E+00
  0.00000000E+00  0.00000000E+00  0.00000000E+00
  0.00000000E+00  0.00000000E+00  0.00000000E+00
  0.00000000E+00  0.00000000E+00  0.00000000E+00
  0.00000000E+00  0.00000000E+00  0.00000000E+00
  0.00000000E+00  0.00000000E+00  0.00000000E+00
  0.00000000E+00  0.00000000E+00  0.00000000E+00
  0.00000000E+00  0.00000000E+00  0.00000000E+00
  0.00000000E+00  0.00000000E+00  0.00000000E+00
  0.00000000E+00  0.00000000E+00  0.00000000E+00
  0.00000000E+00  0.00000000E+00  0.00000000E+00
  0.00000000E+00  0.00000000E+00  0.00000000E+00
  0.00000000E+00  0.00000000E+00  0.00000000E+00
  0.00000000E+00  0.00000000E+00  0.00000000E+00
  0.00000000E+00  0.00000000E+00  0.00000000E+00
  0.00000000E+00  0.00000000E+00  0.00000000E+00
  0.00000000E+00  0.00000000E+00  0.00000000E+00
  0.00000000E+00  0.00000000E+00  0.00000000E+00
  0.00000000E+00  0.00000000E+00  0.00000000E+00
  0.00000000E+00  0.00000000E+00  0.00000000E+00
  0.00000000E+00  0.00000000E+00  0.00000000E+00
  0.00000000E+00  0.00000000E+00  0.00000000E+00
  0.00000000E+00  0.00000000E+00  0.00000000E+00
  0.00000000E+00  0.00000000E+00  0.00000000E+00
  0.00000000E+00  0.00000000E+00  0.00000000E+00
  0.00000000E+00  0.00000000E+00  0.00000000E+00
  0.00000000E+00  0.00000000E+00  0.00000000E+00
  0.00000000E+00  0.00000000E+00  0.00000000E+00
  0.00000000E+00  0.00000000E+00  0.00000000E+00
  0.00000000E+00  0.00000000E+00  0.00000000E+00
  0.00000000E+00  0.00000000E+00  0.00000000E+00
  0.00000000E+00  0.00000000E+00  0.00000000E+00
  0.00000000E+00  0.00000000E+00  0.00000000E+00
  0.00000000E+00  0.00000000E+00  0.00000000E+00
  0.00000000E+00  0.00000000E+00  0.00000000E+00
  0.00000000E+00  0.00000000E+00  0.00000000E+00
  0.00000000E+00  0.00000000E+00  0.00000000E+00
  0.00000000E+00  0.00000000E+00  0.00000000E+00
  0.00000000E+00  0.00000000E+00  0.00000000E+00
  0.00000000E+00  0.00000000E+00  0.00000000E+00
  0.00000000E+00  0.00000000E+00  0.00000000E+00
  0.00000000E+00  0.00000000E+00  0.00000000E+00
  0.00000000E+00  0.00000000E+00  0.00000000E+00
  0.00000000E+00  0.00000000E+00  0.00000000E+00
  0.00000000E+00  0.00000000E+00  0.00000000E+00
  0.00000000E+00  0.00000000E+00  0.00000000E+00
  0.00000000E+00  0.00000000E+00  0.00000000E+00
  0.00000000E+00  0.00000000E+00  0.00000000E+00
  0.00000000E+00  0.00000000E+00  0.00000000E+00
  0.00000000E+00  0.00000000E+00  0.00000000E+00
  0.00000000E+00  0.00000000E+00  0.00000000E+00
  0.00000000E+00  0.00000000E+00  0.00000000E+00
  0.00000000E+00  0.00000000E+00  0.00000000E+00
  0.00000000E+00  0.00000000E+00  0.00000000E+00
  0.00000000E+00  0.00000000E+00  0.00000000E+00
  0.00000000E+00  0.00000000E+00  0.00000000E+00
  0.00000000E+00  0.00000000E+00  0.00000000E+00
  0.00000000E+00  0.00000000E+00  0.00000000E+00
  0.00000000E+00  0.00000000E+00  0.00000000E+00
  0.00000000E+00  0.00000000E+00  0.00000000E+00
  0.00000000E+00  0.00000000E+00  0.00000000E+00
  0.00000000E+00  0.00000000E+00  0.00000000E+00
  0.00000000E+00  0.00000000E+00  0.00000000E+00
  0.00000000E+00  0.00000000E+00  0.00000000E+00
  0.00000000E+00  0.00000000E+00  0.00000000E+00
  0.00000000E+00  0.00000000E+00  0.00000000E+00
  0.00000000E+00  0.00000000E+00  0.00000000E+00
  0.00000000E+00  0.00000000E+00  0.00000000E+00
  0.00000000E+00  0.00000000E+00  0.00000000E+00
  0.00000000E+00  0.00000000E+00  0.00000000E+00
  0.00000000E+00  0.00000000E+00  0.00000000E+00
  0.00000000E+00  0.00000000E+00  0.00000000E+00
  0.00000000E+00  0.00000000E+00  0.00000000E+00
  0.00000000E+00  0.00000000E+00  0.00000000E+00
  0.00000000E+00  0.00000000E+00  0.00000000E+00
  0.00000000E+00  0.00000000E+00  0.00000000E+00
  0.00000000E+00  0.00000000E+00  0.00000000E+00
  0.00000000E+00  0.00000000E+00  0.00000000E+00
  0.00000000E+00  0.00000000E+00  0.00000000E+00
  0.00000000E+00  0.00000000E+00  0.00000000E+00
  0.00000000E+00  0.00000000E+00  0.00000000E+00
  0.00000000E+00  0.00000000E+00  0.00000000E+00
  0.00000000E+00  0.00000000E+00  0.00000000E+00
  0.00000000E+00  0.00000000E+00  0.00000000E+00
  0.00000000E+00  0.00000000E+00  0.00000000E+00
  0.00000000E+00  0.00000000E+00  0.00000000E+00
  0.00000000E+00  0.00000000E+00  0.00000000E+00
