(1, 0, 1)                               
   1.00000000000000     
     3.6639079627251876    0.0000760721393067   -2.1155687086162720
     0.0346148782893990    7.4984334922287612   -4.1714727946072303
    -0.1729806761270874    0.3013615271312944   58.9364197084673478
   Li   P 
    42    14
Selective dynamics
Direct
 -0.0025264974543903  0.7435344570059640  0.0527140354608229   T   T   T
  0.0043492108080774  0.1841195334341856  0.0138276081759064   T   T   T
  0.3333330000000032  0.0841190000000012  0.0536280000000033   F   F   F
  0.6666669999999968  0.5841190000000012  0.0655319999999975   F   F   F
  0.6835558142933115  0.8850894355273351  0.0180077450828062   T   T   T
  0.3561638849180081  0.4516054636543745  0.0117450407878205   T   T   T
  0.0000000000000000  0.7500000000000000  0.1250000000000000   F   F   F
  0.0000000000000000  0.2500000000000000  0.0892860000000013   F   F   F
  0.3333330000000032  0.0841190000000012  0.1250560000000007   F   F   F
  0.6666669999999968  0.5841190000000012  0.1369609999999994   F   F   F
  0.6666669999999968  0.9158809999999988  0.0892300000000006   F   F   F
  0.3333330000000032  0.4158809999999988  0.0773250000000019   F   F   F
  0.0000000000000000  0.7500000000000000  0.1964290000000020   F   F   F
  0.0000000000000000  0.2500000000000000  0.1607139999999987   F   F   F
  0.3333330000000032  0.0841190000000012  0.1964850000000027   F   F   F
  0.6666669999999968  0.5841190000000012  0.2083889999999968   F   F   F
  0.6666669999999968  0.9158809999999988  0.1606579999999980   F   F   F
  0.3333330000000032  0.4158809999999988  0.1487529999999992   F   F   F
  0.0000000000000000  0.7500000000000000  0.2678569999999993   F   F   F
  0.0000000000000000  0.2500000000000000  0.2321430000000007   F   F   F
  0.3333330000000032  0.0841190000000012  0.2679130000000001   F   F   F
  0.6666669999999968  0.5841190000000012  0.2798179999999988   F   F   F
  0.6666669999999968  0.9158809999999988  0.2320869999999999   F   F   F
  0.3333330000000032  0.4158809999999988  0.2201820000000012   F   F   F
  0.0000000000000000  0.7500000000000000  0.3392860000000013   F   F   F
  0.0000000000000000  0.2500000000000000  0.3035709999999980   F   F   F
  0.3333330000000032  0.0841190000000012  0.3393420000000020   F   F   F
  0.6666669999999968  0.5841190000000012  0.3512470000000008   F   F   F
  0.6666669999999968  0.9158809999999988  0.3035149999999973   F   F   F
  0.3333330000000032  0.4158809999999988  0.2916110000000032   F   F   F
  0.0000000000000000  0.7500000000000000  0.4107139999999987   F   F   F
  0.0000000000000000  0.2500000000000000  0.3750000000000000   F   F   F
  0.3333330000000032  0.0841190000000012  0.4107699999999994   F   F   F
  0.6666669999999968  0.5841190000000012  0.4226749999999981   F   F   F
  0.6666669999999968  0.9158809999999988  0.3749439999999993   F   F   F
  0.3333330000000032  0.4158809999999988  0.3630390000000006   F   F   F
 -0.0043316447588298  0.8158882881877426  0.4861735200615745   T   T   T
  0.0025207442633751  0.2564594984229345  0.4472855576757503   T   T   T
  0.3164283754659374  0.1149093274582608  0.4819916925110571   T   T   T
  0.6438437813089160  0.5483930436289252  0.4882547597055721   T   T   T
  0.6666669999999968  0.9158809999999988  0.4463719999999967   F   F   F
  0.3333330000000032  0.4158809999999988  0.4344680000000025   F   F   F
  0.3368015383737410  0.7648556221019767  0.0312713623210312   T   T   T
  0.6444797899211426  0.2470666462846898  0.0383355435063350   T   T   T
  0.3333330000000032  0.7500000000000000  0.1011900000000026   F   F   F
  0.6666669999999968  0.2500000000000000  0.1130950000000013   F   F   F
  0.3333330000000032  0.7500000000000000  0.1726189999999974   F   F   F
  0.6666669999999968  0.2500000000000000  0.1845240000000032   F   F   F
  0.3333330000000032  0.7500000000000000  0.2440479999999994   F   F   F
  0.6666669999999968  0.2500000000000000  0.2559520000000006   F   F   F
  0.3333330000000032  0.7500000000000000  0.3154759999999968   F   F   F
  0.6666669999999968  0.2500000000000000  0.3273810000000026   F   F   F
  0.3333330000000032  0.7500000000000000  0.3869049999999987   F   F   F
  0.6666669999999968  0.2500000000000000  0.3988099999999974   F   F   F
  0.3555376273979921  0.7529344914556314  0.4616652776132461   T   T   T
  0.6631842825701464  0.2351421715328141  0.4687280665492582   T   T   T
 
  0.00000000E+00  0.00000000E+00  0.00000000E+00
  0.00000000E+00  0.00000000E+00  0.00000000E+00
  0.00000000E+00  0.00000000E+00  0.00000000E+00
  0.00000000E+00  0.00000000E+00  0.00000000E+00
  0.00000000E+00  0.00000000E+00  0.00000000E+00
  0.00000000E+00  0.00000000E+00  0.00000000E+00
  0.00000000E+00  0.00000000E+00  0.00000000E+00
  0.00000000E+00  0.00000000E+00  0.00000000E+00
  0.00000000E+00  0.00000000E+00  0.00000000E+00
  0.00000000E+00  0.00000000E+00  0.00000000E+00
  0.00000000E+00  0.00000000E+00  0.00000000E+00
  0.00000000E+00  0.00000000E+00  0.00000000E+00
  0.00000000E+00  0.00000000E+00  0.00000000E+00
  0.00000000E+00  0.00000000E+00  0.00000000E+00
  0.00000000E+00  0.00000000E+00  0.00000000E+00
  0.00000000E+00  0.00000000E+00  0.00000000E+00
  0.00000000E+00  0.00000000E+00  0.00000000E+00
  0.00000000E+00  0.00000000E+00  0.00000000E+00
  0.00000000E+00  0.00000000E+00  0.00000000E+00
  0.00000000E+00  0.00000000E+00  0.00000000E+00
  0.00000000E+00  0.00000000E+00  0.00000000E+00
  0.00000000E+00  0.00000000E+00  0.00000000E+00
  0.00000000E+00  0.00000000E+00  0.00000000E+00
  0.00000000E+00  0.00000000E+00  0.00000000E+00
  0.00000000E+00  0.00000000E+00  0.00000000E+00
  0.00000000E+00  0.00000000E+00  0.00000000E+00
  0.00000000E+00  0.00000000E+00  0.00000000E+00
  0.00000000E+00  0.00000000E+00  0.00000000E+00
  0.00000000E+00  0.00000000E+00  0.00000000E+00
  0.00000000E+00  0.00000000E+00  0.00000000E+00
  0.00000000E+00  0.00000000E+00  0.00000000E+00
  0.00000000E+00  0.00000000E+00  0.00000000E+00
  0.00000000E+00  0.00000000E+00  0.00000000E+00
  0.00000000E+00  0.00000000E+00  0.00000000E+00
  0.00000000E+00  0.00000000E+00  0.00000000E+00
  0.00000000E+00  0.00000000E+00  0.00000000E+00
  0.00000000E+00  0.00000000E+00  0.00000000E+00
  0.00000000E+00  0.00000000E+00  0.00000000E+00
  0.00000000E+00  0.00000000E+00  0.00000000E+00
  0.00000000E+00  0.00000000E+00  0.00000000E+00
  0.00000000E+00  0.00000000E+00  0.00000000E+00
  0.00000000E+00  0.00000000E+00  0.00000000E+00
  0.00000000E+00  0.00000000E+00  0.00000000E+00
  0.00000000E+00  0.00000000E+00  0.00000000E+00
  0.00000000E+00  0.00000000E+00  0.00000000E+00
  0.00000000E+00  0.00000000E+00  0.00000000E+00
  0.00000000E+00  0.00000000E+00  0.00000000E+00
  0.00000000E+00  0.00000000E+00  0.00000000E+00
  0.00000000E+00  0.00000000E+00  0.00000000E+00
  0.00000000E+00  0.00000000E+00  0.00000000E+00
  0.00000000E+00  0.00000000E+00  0.00000000E+00
  0.00000000E+00  0.00000000E+00  0.00000000E+00
  0.00000000E+00  0.00000000E+00  0.00000000E+00
  0.00000000E+00  0.00000000E+00  0.00000000E+00
  0.00000000E+00  0.00000000E+00  0.00000000E+00
  0.00000000E+00  0.00000000E+00  0.00000000E+00
