Li56 P28 O98
1.0
4.907295 0.000000 -1.895193
-0.730671 8.419349 -9.115751
0.000000 0.000000 86.585765
Li P O
56 28 98
direct
0.744463 0.987971 0.037518 Li+
0.255537 0.012029 0.063686 Li+
0.395677 0.751653 0.064179 Li+
0.604323 0.248347 0.037025 Li+
0.027769 0.791276 0.005897 Li+
0.972231 0.208724 0.011974 Li+
0.056952 0.450796 0.068011 Li+
0.943048 0.549204 0.033193 Li+
0.744463 0.987971 0.120851 Li+
0.255537 0.012029 0.147019 Li+
0.395677 0.751653 0.147512 Li+
0.604323 0.248347 0.120358 Li+
0.027769 0.791276 0.089230 Li+
0.972231 0.208724 0.095307 Li+
0.056952 0.450796 0.151344 Li+
0.943048 0.549204 0.116526 Li+
0.744463 0.987971 0.204185 Li+
0.255537 0.012029 0.230352 Li+
0.395677 0.751653 0.230846 Li+
0.604323 0.248347 0.203691 Li+
0.027769 0.791276 0.172563 Li+
0.972231 0.208724 0.178640 Li+
0.056952 0.450796 0.234678 Li+
0.943048 0.549204 0.199859 Li+
0.744463 0.987971 0.287518 Li+
0.255537 0.012029 0.313686 Li+
0.395677 0.751653 0.314179 Li+
0.604323 0.248347 0.287025 Li+
0.027769 0.791276 0.255897 Li+
0.972231 0.208724 0.261974 Li+
0.056952 0.450796 0.318011 Li+
0.943048 0.549204 0.283193 Li+
0.744463 0.987971 0.370851 Li+
0.255537 0.012029 0.397019 Li+
0.395677 0.751653 0.397512 Li+
0.604323 0.248347 0.370358 Li+
0.027769 0.791276 0.339230 Li+
0.972231 0.208724 0.345307 Li+
0.056952 0.450796 0.401344 Li+
0.943048 0.549204 0.366526 Li+
0.744463 0.987971 0.454185 Li+
0.255537 0.012029 0.480352 Li+
0.395677 0.751653 0.480846 Li+
0.604323 0.248347 0.453691 Li+
0.027769 0.791276 0.422563 Li+
0.972231 0.208724 0.428640 Li+
0.056952 0.450796 0.484678 Li+
0.943048 0.549204 0.449859 Li+
0.744463 0.987971 0.537518 Li+
0.255537 0.012029 0.563686 Li+
0.395677 0.751653 0.564179 Li+
0.604323 0.248347 0.537025 Li+
0.027769 0.791276 0.505897 Li+
0.972231 0.208724 0.511974 Li+
0.056952 0.450796 0.568011 Li+
0.943048 0.549204 0.533193 Li+
0.573990 0.631956 0.002157 P5+
0.426010 0.368044 0.015714 P5+
0.784272 0.845502 0.056124 P5+
0.215728 0.154498 0.045080 P5+
0.573990 0.631956 0.085490 P5+
0.426010 0.368044 0.099047 P5+
0.784272 0.845502 0.139457 P5+
0.215728 0.154498 0.128414 P5+
0.573990 0.631956 0.168823 P5+
0.426010 0.368044 0.182380 P5+
0.784272 0.845502 0.222790 P5+
0.215728 0.154498 0.211747 P5+
0.573990 0.631956 0.252157 P5+
0.426010 0.368044 0.265714 P5+
0.784272 0.845502 0.306124 P5+
0.215728 0.154498 0.295080 P5+
0.573990 0.631956 0.335490 P5+
0.426010 0.368044 0.349047 P5+
0.784272 0.845502 0.389457 P5+
0.215728 0.154498 0.378414 P5+
0.573990 0.631956 0.418823 P5+
0.426010 0.368044 0.432380 P5+
0.784272 0.845502 0.472790 P5+
0.215728 0.154498 0.461747 P5+
0.573990 0.631956 0.502157 P5+
0.426010 0.368044 0.515714 P5+
0.784272 0.845502 0.556124 P5+
0.215728 0.154498 0.545080 P5+
0.519912 0.874340 0.061650 O2-
0.006130 0.790684 0.066016 O2-
0.993870 0.209316 0.035188 O2-
0.882911 0.981976 0.061717 O2-
0.732561 0.376455 0.020027 O2-
0.267439 0.623545 0.081177 O2-
0.314844 0.526190 0.033435 O2-
0.685156 0.473810 0.067769 O2-
0.338222 0.236504 0.011777 O2-
0.661778 0.763496 0.006094 O2-
0.733069 0.683894 0.027394 O2-
0.266931 0.316106 0.073809 O2-
0.117089 0.018024 0.039487 O2-
0.480088 0.125660 0.039554 O2-
0.519912 0.874340 0.144984 O2-
0.006130 0.790684 0.149349 O2-
0.993870 0.209316 0.118522 O2-
0.882911 0.981976 0.145051 O2-
0.732561 0.376455 0.103361 O2-
0.267439 0.623545 0.164510 O2-
0.314844 0.526190 0.116769 O2-
0.685156 0.473810 0.151102 O2-
0.338222 0.236504 0.095110 O2-
0.661778 0.763496 0.089427 O2-
0.733069 0.683894 0.110728 O2-
0.266931 0.316106 0.157143 O2-
0.117089 0.018024 0.122820 O2-
0.480088 0.125660 0.122887 O2-
0.519912 0.874340 0.228317 O2-
0.006130 0.790684 0.232682 O2-
0.993870 0.209316 0.201855 O2-
0.882911 0.981976 0.228384 O2-
0.732561 0.376455 0.186694 O2-
0.267439 0.623545 0.247843 O2-
0.314844 0.526190 0.200102 O2-
0.685156 0.473810 0.234435 O2-
0.338222 0.236504 0.178444 O2-
0.661778 0.763496 0.172760 O2-
0.733069 0.683894 0.194061 O2-
0.266931 0.316106 0.240476 O2-
0.117089 0.018024 0.206153 O2-
0.480088 0.125660 0.206220 O2-
0.519912 0.874340 0.311650 O2-
0.006130 0.790684 0.316016 O2-
0.993870 0.209316 0.285188 O2-
0.882911 0.981976 0.311717 O2-
0.732561 0.376455 0.270027 O2-
0.267439 0.623545 0.331177 O2-
0.314844 0.526190 0.283435 O2-
0.685156 0.473810 0.317769 O2-
0.338222 0.236504 0.261777 O2-
0.661778 0.763496 0.256094 O2-
0.733069 0.683894 0.277394 O2-
0.266931 0.316106 0.323809 O2-
0.117089 0.018024 0.289487 O2-
0.480088 0.125660 0.289554 O2-
0.519912 0.874340 0.394984 O2-
0.006130 0.790684 0.399349 O2-
0.993870 0.209316 0.368522 O2-
0.882911 0.981976 0.395051 O2-
0.732561 0.376455 0.353361 O2-
0.267439 0.623545 0.414510 O2-
0.314844 0.526190 0.366769 O2-
0.685156 0.473810 0.401102 O2-
0.338222 0.236504 0.345110 O2-
0.661778 0.763496 0.339427 O2-
0.733069 0.683894 0.360728 O2-
0.266931 0.316106 0.407143 O2-
0.117089 0.018024 0.372820 O2-
0.480088 0.125660 0.372887 O2-
0.519912 0.874340 0.478317 O2-
0.006130 0.790684 0.482682 O2-
0.993870 0.209316 0.451855 O2-
0.882911 0.981976 0.478384 O2-
0.732561 0.376455 0.436694 O2-
0.267439 0.623545 0.497843 O2-
0.314844 0.526190 0.450102 O2-
0.685156 0.473810 0.484435 O2-
0.338222 0.236504 0.428444 O2-
0.661778 0.763496 0.422760 O2-
0.733069 0.683894 0.444061 O2-
0.266931 0.316106 0.490476 O2-
0.117089 0.018024 0.456153 O2-
0.480088 0.125660 0.456220 O2-
0.519912 0.874340 0.561650 O2-
0.006130 0.790684 0.566016 O2-
0.993870 0.209316 0.535188 O2-
0.882911 0.981976 0.561717 O2-
0.732561 0.376455 0.520027 O2-
0.267439 0.623545 0.581177 O2-
0.314844 0.526190 0.533435 O2-
0.685156 0.473810 0.567769 O2-
0.338222 0.236504 0.511777 O2-
0.661778 0.763496 0.506094 O2-
0.733069 0.683894 0.527394 O2-
0.266931 0.316106 0.573809 O2-
0.117089 0.018024 0.539487 O2-
0.480088 0.125660 0.539554 O2-
