Li71 P24 N1 O94                         
   1.00000000000000     
    14.6981813146399709   -0.0060112361073420   -0.0025983658418610
    -0.0043035783234268   10.5839382256935366    0.0013094045984986
    -0.0021612304543594    0.0014932241966018   12.3111226757292496
   Li   P    N    O 
    71    24     1    94
Direct
  0.1704643403140524  0.4200651529412480 -0.0022651048172613
  0.1702415285398136  0.4227048816039428  0.5028763364510449
  0.1693193195436322  0.9310208791897254  0.0069336377578939
  0.1705687136426644  0.9223707122691791  0.5001085989798075
  0.5025146438942550  0.4215758416321075 -0.0003520517563620
  0.5033202685496022  0.4223802227429694  0.5005645793369959
  0.5041163675094875  0.9236471446382863 -0.0001323612313724
  0.5022239333166103  0.9233437554011835  0.4998131881060284
  0.8356833027627024  0.4224959952132279 -0.0011834260897548
  0.8339785346467958  0.4234409129883854  0.5018319093895789
  0.8356441978016439  0.9204157515078151 -0.0014212665759214
  0.8354965770614768  0.9198344267311469  0.4999821904651220
  0.0139643091399869  0.0748672540396634  0.2428036279694789
  0.0037799957399099  0.0746727910816065  0.7532740192922227
 -0.0061957199138336  0.6149023957565426  0.2501252248867517
  0.0036955812755488  0.5777177148459260  0.7506497572030431
  0.3331105872715724  0.0763887218070303  0.2432228349375044
  0.3362316726231410  0.0772420674114162  0.7518711892480490
  0.3402715050943739  0.5815646376488820  0.2499361902887442
  0.3365851649608492  0.5775364099087196  0.7507398312604863
  0.6707097398690822  0.0767553920658657  0.2492696399546976
  0.6694466502925184  0.0765679123460558  0.7499380322933197
  0.6682099883943017  0.5781249184428867  0.2495820094102382
  0.6692940116539021  0.5777334443380169  0.7501626157675904
  0.1706070095904172  0.1621124868104799  0.6278178164233666
  0.1703392003794561  0.6652322938858757  0.1243866257251098
  0.1703614865608938  0.6641567404987524  0.6276004539593104
  0.5023448717819421  0.1624002252321669  0.1257267722462190
  0.5021082130149473  0.1631259837131140  0.6263466458915622
  0.5027784709430312  0.6638104263371495  0.1255549361659216
  0.5027403619765182  0.6637810286904039  0.6266377809508874
  0.8406808622695938  0.1607564052423490  0.1251295854155580
  0.8354578700280225  0.1634223813124705  0.6270809072418470
  0.8341513206753906  0.6640926015545774  0.1245451984943450
  0.8355306976951087  0.6632769332807260  0.6273307070829287
  0.0019497919168623  0.3282476982466839  0.1113736135938181
  0.0034616986428724  0.3355563371436525  0.6250179704226572
  0.0039691371623323  0.8400484442361935  0.1216446708210088
  0.0026199919255339  0.8357357280775689  0.6266777261383830
  0.3357149868261743  0.3312747993131672  0.1208875968190068
  0.3362248049588014  0.3362982503922897  0.6244375776889606
  0.3369809972850862  0.8377318025251098  0.1217702820145961
  0.3359315486144049  0.8374017413166273  0.6238725917718866
  0.6695368512852804  0.3360587788132604  0.1232951899629254
  0.6688105171386045  0.3365494549248306  0.6238965650602736
  0.6695186839691215  0.8371398496497960  0.1237867231783730
  0.6689904930602282  0.8369499375371917  0.6234456860367911
 -0.0038054871707513  0.3381100080377880  0.3899276052004328
  0.0031106633030470  0.3350633859762011  0.8750035705566689
  0.0040049629317350  0.8415667026133529  0.3791316782341329
  0.0035140087804477  0.8365000821996007  0.8773310041910707
  0.3401908045246619  0.3363031587134827  0.3776864826576702
  0.3368302430233707  0.3339399106555618  0.8763029375420074
  0.3353420601413724  0.8370512335601032  0.3759778949641299
  0.3363476387380152  0.8377429406898889  0.8777898090981684
  0.6690973220932014  0.3367622653896755  0.3753919503488297
  0.6695741775056827  0.3366798218676659  0.8760596933834888
  0.6690250258803052  0.8372403671888317  0.3761086731865432
  0.6694028664382115  0.8367574861807654  0.8764118735696220
  0.1748500165789122  0.1605426508656152  0.3630209296546463
  0.1684616221990481  0.1622172207127124  0.8781632336998507
  0.1683919319349173  0.6645706986338155  0.3789093384255925
  0.1705000840785902  0.6641908649439807  0.8742134703886518
  0.5020634273955173  0.1624197318596040  0.3725792649855550
  0.5041003549990224  0.1630286571437780  0.8737402351024495
  0.5027580590532027  0.6640418631685956  0.3739766664773586
  0.5025257207341219  0.6635150377269965  0.8735338036887645
  0.8372545904236051  0.1624836150834492  0.3719488640597984
  0.8354929225403970  0.1623347841878292  0.8712491083481561
  0.8341073867769094  0.6642397307858915  0.3755868374972346
  0.8362966599430971  0.6629207159218569  0.8730992344815346
  0.1722171567504244  0.4171503125400925  0.2492916771752421
  0.1671262658615032  0.4121758265492785  0.7500322446458944
  0.1691225121561700  0.9074002531194120  0.2521319001431030
  0.1673811672570611  0.9114712263235172  0.7510854780442308
  0.4995239651216329  0.4121599093247376  0.2495001755443620
  0.5004789562557092  0.4124476597417659  0.7500329418375855
  0.5007991618574616  0.9118941654854127  0.2500165964548853
  0.5005988836732613  0.9119520334234970  0.7496581165722279
  0.8350514997939437  0.4145859961603847  0.2497112080698925
  0.8339325232662173  0.4124280401351347  0.7497770687055391
  0.8349059048284462  0.9111936872745314  0.2502994542143596
  0.8335033622074156  0.9110101225703494  0.7493523569348475
 -0.0032011953122446  0.0869972399149262 -0.0007213195924725
  0.0004718586735082  0.0857595268686182  0.5037906456476916
  0.0001292491618594  0.5871816648214905  0.0003961981263217
 -0.0005306833884895  0.5890884823463822  0.5009128871237660
  0.3350399586140548  0.0867948583418316 -0.0022011933066527
  0.3325840897041971  0.0886701536559476  0.4992065754622297
  0.3338728732024395  0.5867464683629250 -0.0002613799360114
  0.3340101671782074  0.5875400286030081  0.5007963853341876
  0.6682946243151964  0.0881954667609780 -0.0000456967744660
  0.6672317382942851  0.0884005200017791  0.4996178411833259
  0.6668768424344448  0.5875498656829077 -0.0000922166465094
  0.6664244458106754  0.5878397211325318  0.4998753132901180
  0.0321012085273338  0.1622805677447641  0.3950771469268178
  0.0335141002655082  0.1567916913873887  0.8960184613058895
  0.0340373395319808  0.6580209514014620  0.3964165547552227
  0.0359024081306659  0.6558136553486391  0.8969515171977774
  0.3682261910163709  0.1577868012596527  0.3953999639363997
  0.3728498044794318  0.1566729034930434  0.8944771232284379
  0.3691945194879858  0.6564458068234945  0.3967809325748954
  0.3691236062152496  0.6562660106171940  0.8960337091962189
  0.7031823134228965  0.1575904066492008  0.3958713377252427
  0.7025926468827249  0.1569583258911394  0.8952881300266825
  0.7016746651131461  0.6568012488256645  0.3957626490325021
  0.7026330204735522  0.6567470815975373  0.8962951158997786
  0.2043955617077483  0.0436586851935762  0.2555349247242012
  0.2002839559324980  0.0514889639920625  0.7502003963451013
  0.1986665499531118  0.5592885965820366  0.2542546719637905
  0.2008175800367607  0.5519839161415586  0.7500422918627617
  0.5351691899789297  0.0514713546504502  0.2499237307952102
  0.5347473579406943  0.0515913210643520  0.7493593910627993
  0.5329512746513063  0.5522436695616958  0.2499149841599135
  0.5342937408889236  0.5523228381883440  0.7496940203976749
  0.8691519365940432  0.0504066098406926  0.2503814733575312
  0.8675263769482241  0.0505874584659962  0.7484128302275089
  0.8690675849713173  0.5546144879915632  0.2504216110236598
  0.8679921893069902  0.5520898259748895  0.7497993955035336
  0.0609959410642449  0.4100566926054254  0.7499790772563990
  0.0625775150877788  0.9028973628444373  0.2501463028914217
  0.0612635079009895  0.9075220197713263  0.7513922514862886
  0.3933674969435286  0.4092603485387436  0.2489609086123064
  0.3945790174769548  0.4096370801432683  0.7501840675432677
  0.3950439780602016  0.9086294622201426  0.2497077112006611
  0.3947463719006731  0.9089832195226200  0.7498167336201906
  0.7293574975113799  0.4112201796166283  0.2490951713354902
  0.7280211907863846  0.4099376288922397  0.7494874604488034
  0.7288700089147351  0.9085301760278174  0.2501984377035819
  0.7275622974284540  0.9086486709528608  0.7498259761918554
  0.2309949660068391  0.0866705333744974 -0.0062481343659186
  0.2265119615378761  0.0923801133109505  0.4988596338951846
  0.2279088253027084  0.5895219987989759 -0.0001624841354789
  0.2280124708543478  0.5892982885366008  0.5014555660502180
  0.5625004882596233  0.0915009920208878  0.0006876618173410
  0.5613152463248383  0.0915537976700374  0.4994041006944204
  0.5610496638315103  0.5899978934665079 -0.0003030097135347
  0.5606224064146440  0.5906288415095573  0.5000443518166717
  0.8904293994582264  0.0854949469325253 -0.0058262130596461
  0.8942159403850052  0.0881841452382221  0.5007427459785845
  0.8942630150122363  0.5900220236189425  0.0002150029897834
  0.8936666860842460  0.5901112125834620  0.5008358339148711
  0.2014533623694350  0.3539691624849474  0.1433763125484861
  0.2018353171251162  0.3432288988149624  0.6457779884357071
  0.2040995875903417  0.8388220796056656  0.1475553687852961
  0.2024064238225019  0.8428237113985352  0.6465587329805770
  0.5357172406402924  0.3432821415110588  0.1461590190498220
  0.5355527281145913  0.3431826248252449  0.6460406402232793
  0.5366865338553803  0.8423910960126501  0.1465672877378667
  0.5356141557106650  0.8430739224537870  0.6453600069844500
  0.8722092961151227  0.3459426138139762  0.1468330005379768
  0.8692354807066922  0.3432543494420182  0.6457617384531805
  0.8699993618368568  0.8410324241444177  0.1466652508272341
  0.8682579539917499  0.8415680896931299  0.6453322335472959
  0.0243864190259634  0.1569475089917946  0.1039475399230039
  0.0356375684600881  0.1546819787301106  0.6079483659936590
  0.0353931167905491  0.6561664669528996  0.1047153170972868
  0.0353555232010196  0.6572880874069407  0.6043779920625031
  0.3709881222743635  0.1563817958213751  0.1017409950962815
  0.3680401798847650  0.1572462778616624  0.6034368943174357
  0.3693044377489088  0.6558589470764656  0.1036808087722795
  0.3691661846504851  0.6568435048848948  0.6044973138722417
  0.7046663083839154  0.1573524694966821  0.1034982985988999
  0.7025225807598837  0.1572677143194025  0.6037343051570749
  0.7019251228890675  0.6566990189957526  0.1040592691367681
  0.7022210620604914  0.6567497803108423  0.6035671301510565
  0.0340443750540743  0.4474028997899125  0.0013256975817281
  0.0346502880429336  0.4498416599965979  0.4997513623522481
  0.0326370502894723  0.9480298246798321 -0.0003341888414146
  0.0338072747418073  0.9456677248950192  0.5054157560507387
  0.3675045107800504  0.4469743753066403 -0.0004029808300463
  0.3677741458174112  0.4476831493730417  0.5005645274893382
  0.3716788209220372  0.9474935703384204 -0.0005671583502856
  0.3661692267821024  0.9487990180118867  0.4994262009748616
  0.7010218695812468  0.4479071206326432  0.0001439834576174
  0.7000444228143937  0.4479203839249916  0.4995325800479019
  0.7011207885119110  0.9479089644067105 -0.0000419610747772
  0.7008119468832866  0.9485154548063796  0.4996494101934983
  0.2013327626463828  0.3455876026929470  0.3542039290353266
  0.2022671521509462  0.3426504188221129  0.8534112640203868
  0.2018289026253555  0.8357944646349458  0.3567703905343577
  0.2028077914868020  0.8422558692556745  0.8545314840998686
  0.5346353779021060  0.3433188651980186  0.3537276448049027
  0.5363425903148802  0.3437930677618919  0.8537698640542910
  0.5358837253412524  0.8431059764257526  0.3544261713901004
  0.5364030350292778  0.8426474461513536  0.8532320928896983
  0.8698391655709460  0.3460672746720838  0.3542562092826010
  0.8690722991162136  0.3433283959858863  0.8536714311032479
  0.8698647676345298  0.8414334272079844  0.3543738431425239
  0.8690611546988978  0.8413767445622659  0.8528138752695621
 
  0.00000000E+00  0.00000000E+00  0.00000000E+00
  0.00000000E+00  0.00000000E+00  0.00000000E+00
  0.00000000E+00  0.00000000E+00  0.00000000E+00
  0.00000000E+00  0.00000000E+00  0.00000000E+00
  0.00000000E+00  0.00000000E+00  0.00000000E+00
  0.00000000E+00  0.00000000E+00  0.00000000E+00
  0.00000000E+00  0.00000000E+00  0.00000000E+00
  0.00000000E+00  0.00000000E+00  0.00000000E+00
  0.00000000E+00  0.00000000E+00  0.00000000E+00
  0.00000000E+00  0.00000000E+00  0.00000000E+00
  0.00000000E+00  0.00000000E+00  0.00000000E+00
  0.00000000E+00  0.00000000E+00  0.00000000E+00
  0.00000000E+00  0.00000000E+00  0.00000000E+00
  0.00000000E+00  0.00000000E+00  0.00000000E+00
  0.00000000E+00  0.00000000E+00  0.00000000E+00
  0.00000000E+00  0.00000000E+00  0.00000000E+00
  0.00000000E+00  0.00000000E+00  0.00000000E+00
  0.00000000E+00  0.00000000E+00  0.00000000E+00
  0.00000000E+00  0.00000000E+00  0.00000000E+00
  0.00000000E+00  0.00000000E+00  0.00000000E+00
  0.00000000E+00  0.00000000E+00  0.00000000E+00
  0.00000000E+00  0.00000000E+00  0.00000000E+00
  0.00000000E+00  0.00000000E+00  0.00000000E+00
  0.00000000E+00  0.00000000E+00  0.00000000E+00
  0.00000000E+00  0.00000000E+00  0.00000000E+00
  0.00000000E+00  0.00000000E+00  0.00000000E+00
  0.00000000E+00  0.00000000E+00  0.00000000E+00
  0.00000000E+00  0.00000000E+00  0.00000000E+00
  0.00000000E+00  0.00000000E+00  0.00000000E+00
  0.00000000E+00  0.00000000E+00  0.00000000E+00
  0.00000000E+00  0.00000000E+00  0.00000000E+00
  0.00000000E+00  0.00000000E+00  0.00000000E+00
  0.00000000E+00  0.00000000E+00  0.00000000E+00
  0.00000000E+00  0.00000000E+00  0.00000000E+00
  0.00000000E+00  0.00000000E+00  0.00000000E+00
  0.00000000E+00  0.00000000E+00  0.00000000E+00
  0.00000000E+00  0.00000000E+00  0.00000000E+00
  0.00000000E+00  0.00000000E+00  0.00000000E+00
  0.00000000E+00  0.00000000E+00  0.00000000E+00
  0.00000000E+00  0.00000000E+00  0.00000000E+00
  0.00000000E+00  0.00000000E+00  0.00000000E+00
  0.00000000E+00  0.00000000E+00  0.00000000E+00
  0.00000000E+00  0.00000000E+00  0.00000000E+00
  0.00000000E+00  0.00000000E+00  0.00000000E+00
  0.00000000E+00  0.00000000E+00  0.00000000E+00
  0.00000000E+00  0.00000000E+00  0.00000000E+00
  0.00000000E+00  0.00000000E+00  0.00000000E+00
  0.00000000E+00  0.00000000E+00  0.00000000E+00
  0.00000000E+00  0.00000000E+00  0.00000000E+00
  0.00000000E+00  0.00000000E+00  0.00000000E+00
  0.00000000E+00  0.00000000E+00  0.00000000E+00
  0.00000000E+00  0.00000000E+00  0.00000000E+00
  0.00000000E+00  0.00000000E+00  0.00000000E+00
  0.00000000E+00  0.00000000E+00  0.00000000E+00
  0.00000000E+00  0.00000000E+00  0.00000000E+00
  0.00000000E+00  0.00000000E+00  0.00000000E+00
  0.00000000E+00  0.00000000E+00  0.00000000E+00
  0.00000000E+00  0.00000000E+00  0.00000000E+00
  0.00000000E+00  0.00000000E+00  0.00000000E+00
  0.00000000E+00  0.00000000E+00  0.00000000E+00
  0.00000000E+00  0.00000000E+00  0.00000000E+00
  0.00000000E+00  0.00000000E+00  0.00000000E+00
  0.00000000E+00  0.00000000E+00  0.00000000E+00
  0.00000000E+00  0.00000000E+00  0.00000000E+00
  0.00000000E+00  0.00000000E+00  0.00000000E+00
  0.00000000E+00  0.00000000E+00  0.00000000E+00
  0.00000000E+00  0.00000000E+00  0.00000000E+00
  0.00000000E+00  0.00000000E+00  0.00000000E+00
  0.00000000E+00  0.00000000E+00  0.00000000E+00
  0.00000000E+00  0.00000000E+00  0.00000000E+00
  0.00000000E+00  0.00000000E+00  0.00000000E+00
  0.00000000E+00  0.00000000E+00  0.00000000E+00
  0.00000000E+00  0.00000000E+00  0.00000000E+00
  0.00000000E+00  0.00000000E+00  0.00000000E+00
  0.00000000E+00  0.00000000E+00  0.00000000E+00
  0.00000000E+00  0.00000000E+00  0.00000000E+00
  0.00000000E+00  0.00000000E+00  0.00000000E+00
  0.00000000E+00  0.00000000E+00  0.00000000E+00
  0.00000000E+00  0.00000000E+00  0.00000000E+00
  0.00000000E+00  0.00000000E+00  0.00000000E+00
  0.00000000E+00  0.00000000E+00  0.00000000E+00
  0.00000000E+00  0.00000000E+00  0.00000000E+00
  0.00000000E+00  0.00000000E+00  0.00000000E+00
  0.00000000E+00  0.00000000E+00  0.00000000E+00
  0.00000000E+00  0.00000000E+00  0.00000000E+00
  0.00000000E+00  0.00000000E+00  0.00000000E+00
  0.00000000E+00  0.00000000E+00  0.00000000E+00
  0.00000000E+00  0.00000000E+00  0.00000000E+00
  0.00000000E+00  0.00000000E+00  0.00000000E+00
  0.00000000E+00  0.00000000E+00  0.00000000E+00
  0.00000000E+00  0.00000000E+00  0.00000000E+00
  0.00000000E+00  0.00000000E+00  0.00000000E+00
  0.00000000E+00  0.00000000E+00  0.00000000E+00
  0.00000000E+00  0.00000000E+00  0.00000000E+00
  0.00000000E+00  0.00000000E+00  0.00000000E+00
  0.00000000E+00  0.00000000E+00  0.00000000E+00
  0.00000000E+00  0.00000000E+00  0.00000000E+00
  0.00000000E+00  0.00000000E+00  0.00000000E+00
  0.00000000E+00  0.00000000E+00  0.00000000E+00
  0.00000000E+00  0.00000000E+00  0.00000000E+00
  0.00000000E+00  0.00000000E+00  0.00000000E+00
  0.00000000E+00  0.00000000E+00  0.00000000E+00
  0.00000000E+00  0.00000000E+00  0.00000000E+00
  0.00000000E+00  0.00000000E+00  0.00000000E+00
  0.00000000E+00  0.00000000E+00  0.00000000E+00
  0.00000000E+00  0.00000000E+00  0.00000000E+00
  0.00000000E+00  0.00000000E+00  0.00000000E+00
  0.00000000E+00  0.00000000E+00  0.00000000E+00
  0.00000000E+00  0.00000000E+00  0.00000000E+00
  0.00000000E+00  0.00000000E+00  0.00000000E+00
  0.00000000E+00  0.00000000E+00  0.00000000E+00
  0.00000000E+00  0.00000000E+00  0.00000000E+00
  0.00000000E+00  0.00000000E+00  0.00000000E+00
  0.00000000E+00  0.00000000E+00  0.00000000E+00
  0.00000000E+00  0.00000000E+00  0.00000000E+00
  0.00000000E+00  0.00000000E+00  0.00000000E+00
  0.00000000E+00  0.00000000E+00  0.00000000E+00
  0.00000000E+00  0.00000000E+00  0.00000000E+00
  0.00000000E+00  0.00000000E+00  0.00000000E+00
  0.00000000E+00  0.00000000E+00  0.00000000E+00
  0.00000000E+00  0.00000000E+00  0.00000000E+00
  0.00000000E+00  0.00000000E+00  0.00000000E+00
  0.00000000E+00  0.00000000E+00  0.00000000E+00
  0.00000000E+00  0.00000000E+00  0.00000000E+00
  0.00000000E+00  0.00000000E+00  0.00000000E+00
  0.00000000E+00  0.00000000E+00  0.00000000E+00
  0.00000000E+00  0.00000000E+00  0.00000000E+00
  0.00000000E+00  0.00000000E+00  0.00000000E+00
  0.00000000E+00  0.00000000E+00  0.00000000E+00
  0.00000000E+00  0.00000000E+00  0.00000000E+00
  0.00000000E+00  0.00000000E+00  0.00000000E+00
  0.00000000E+00  0.00000000E+00  0.00000000E+00
  0.00000000E+00  0.00000000E+00  0.00000000E+00
  0.00000000E+00  0.00000000E+00  0.00000000E+00
  0.00000000E+00  0.00000000E+00  0.00000000E+00
  0.00000000E+00  0.00000000E+00  0.00000000E+00
  0.00000000E+00  0.00000000E+00  0.00000000E+00
  0.00000000E+00  0.00000000E+00  0.00000000E+00
  0.00000000E+00  0.00000000E+00  0.00000000E+00
  0.00000000E+00  0.00000000E+00  0.00000000E+00
  0.00000000E+00  0.00000000E+00  0.00000000E+00
  0.00000000E+00  0.00000000E+00  0.00000000E+00
  0.00000000E+00  0.00000000E+00  0.00000000E+00
  0.00000000E+00  0.00000000E+00  0.00000000E+00
  0.00000000E+00  0.00000000E+00  0.00000000E+00
  0.00000000E+00  0.00000000E+00  0.00000000E+00
  0.00000000E+00  0.00000000E+00  0.00000000E+00
  0.00000000E+00  0.00000000E+00  0.00000000E+00
  0.00000000E+00  0.00000000E+00  0.00000000E+00
  0.00000000E+00  0.00000000E+00  0.00000000E+00
  0.00000000E+00  0.00000000E+00  0.00000000E+00
  0.00000000E+00  0.00000000E+00  0.00000000E+00
  0.00000000E+00  0.00000000E+00  0.00000000E+00
  0.00000000E+00  0.00000000E+00  0.00000000E+00
  0.00000000E+00  0.00000000E+00  0.00000000E+00
  0.00000000E+00  0.00000000E+00  0.00000000E+00
  0.00000000E+00  0.00000000E+00  0.00000000E+00
  0.00000000E+00  0.00000000E+00  0.00000000E+00
  0.00000000E+00  0.00000000E+00  0.00000000E+00
  0.00000000E+00  0.00000000E+00  0.00000000E+00
  0.00000000E+00  0.00000000E+00  0.00000000E+00
  0.00000000E+00  0.00000000E+00  0.00000000E+00
  0.00000000E+00  0.00000000E+00  0.00000000E+00
  0.00000000E+00  0.00000000E+00  0.00000000E+00
  0.00000000E+00  0.00000000E+00  0.00000000E+00
  0.00000000E+00  0.00000000E+00  0.00000000E+00
  0.00000000E+00  0.00000000E+00  0.00000000E+00
  0.00000000E+00  0.00000000E+00  0.00000000E+00
  0.00000000E+00  0.00000000E+00  0.00000000E+00
  0.00000000E+00  0.00000000E+00  0.00000000E+00
  0.00000000E+00  0.00000000E+00  0.00000000E+00
  0.00000000E+00  0.00000000E+00  0.00000000E+00
  0.00000000E+00  0.00000000E+00  0.00000000E+00
  0.00000000E+00  0.00000000E+00  0.00000000E+00
  0.00000000E+00  0.00000000E+00  0.00000000E+00
  0.00000000E+00  0.00000000E+00  0.00000000E+00
  0.00000000E+00  0.00000000E+00  0.00000000E+00
  0.00000000E+00  0.00000000E+00  0.00000000E+00
  0.00000000E+00  0.00000000E+00  0.00000000E+00
  0.00000000E+00  0.00000000E+00  0.00000000E+00
  0.00000000E+00  0.00000000E+00  0.00000000E+00
  0.00000000E+00  0.00000000E+00  0.00000000E+00
  0.00000000E+00  0.00000000E+00  0.00000000E+00
  0.00000000E+00  0.00000000E+00  0.00000000E+00
  0.00000000E+00  0.00000000E+00  0.00000000E+00
  0.00000000E+00  0.00000000E+00  0.00000000E+00
  0.00000000E+00  0.00000000E+00  0.00000000E+00
  0.00000000E+00  0.00000000E+00  0.00000000E+00
  0.00000000E+00  0.00000000E+00  0.00000000E+00
  0.00000000E+00  0.00000000E+00  0.00000000E+00
