Li73 P24 N1 O95                         
   1.00000000000000     
    14.6907658300904149   -0.0021114242974657   -0.0031983382314953
    -0.0016597269386095   10.5785645689542704   -0.0045194685652533
    -0.0024935301165228   -0.0054854479504383   12.3013631607337377
   Li   P    N    O 
    73    24     1    95
Direct
  0.1731412214125487  0.4246927843239652  0.9954058145299296
  0.1731055237534511  0.4235491740706342  0.5018557786179300
  0.1711705908927331  0.9227776526607308  0.9996605566427501
  0.1668943474098599  0.9258856850869432  0.4984710065160280
  0.5027178559810649  0.4225538398145951  0.9988713216691130
  0.5035462933758860  0.4223754410792693  0.4990521815260545
  0.5031438556739263  0.9231771678716906  0.9989520249098189
  0.5042521619932745  0.9235597661048809  0.4994108318660619
  0.8372779586494825  0.4228600358918307  0.9972114429102333
  0.8378941484726825  0.4229499389109460  0.5007897316754751
  0.8358144676087683  0.9233908860559873  0.9989258703395321
  0.8381307614131818  0.9229004245762522  0.5015440480707687
  0.0100318880498636  0.0482069022927084  0.2561964919917761
  0.0030914161046068  0.0797852032025658  0.7431973395258693
  0.0049136980953707  0.5799729339504690  0.2500534951823890
  0.0041157262892423  0.5802533816507328  0.7483753506126485
  0.3357857845790698  0.0761581642037062  0.2500872148652515
  0.3365320805397176  0.0786726371817956  0.7481321197114336
  0.3357558706806972  0.5778753402049577  0.2492598071574075
  0.3374408905239156  0.5781906138199147  0.7486489393030085
  0.6701589252490049  0.0782360003611853  0.2502441022600833
  0.6698657148349429  0.0779247555190529  0.7491378889334069
  0.6705234554083062  0.5778533547306040  0.2492259548491615
  0.6704303540451098  0.5779466978720459  0.7489503880156023
  0.1689999829946049  0.1606326188560559  0.1280742280157058
  0.1668360126917617  0.1636446953075336  0.6220708097305938
  0.1702636875776538  0.6626014304144028  0.1244135590393100
  0.1701046939366525  0.6664089571935760  0.6257248426733579
  0.5022516485179030  0.1632348166371207  0.1260697625926327
  0.5035870331976516  0.1635685734410157  0.6253483916945640
  0.5039171681636941  0.6630264759482986  0.1256346014421425
  0.5040144908044631  0.6639100491198233  0.6254063004747769
  0.8322074782995679  0.1614421024692577  0.1226681709223854
  0.8378304469735370  0.1622610850450580  0.6267480439435551
  0.8368039826965654  0.6648098169060888  0.1241954804348919
  0.8371428041374223  0.6643502531089135  0.6267879875790805
  0.9642856588704243  0.2420482394601197  0.2578259873838671
  0.0039090961510086  0.3341228630956274  0.6237672312438778
  0.0029177300954796  0.8336256141355943  0.1211916649147578
  0.0028304432785584  0.8448489668303168  0.6223065039939664
  0.3357098787701335  0.3368916487949392  0.1227065239873404
  0.3371003017758138  0.3362530544797086  0.6227195829762114
  0.3390252441621553  0.8361908560783353  0.1220787326134070
  0.3363311302973775  0.8380827652600603  0.6220952195917400
  0.6682024383793862  0.3370932148576947  0.1221376509583540
  0.6705163801920880  0.3367226609140467  0.6227566966042031
  0.6695987265221423  0.8372403198397443  0.1227774062150497
  0.6704994239003033  0.8372938961462879  0.6232362814226755
  0.0161981138481376  0.3449751429737688  0.3948745430339975
  0.0034560065438866  0.3379083309091675  0.8723247174358484
  0.0041900169336108  0.8363283695393495  0.3793896698681102
  0.0028539526854155  0.8418901612118205  0.8755840504777765
  0.3357065807892728  0.3359504795999683  0.3753781518492511
  0.3369365437657003  0.3369350221160269  0.8746307995873979
  0.3386402267661009  0.8364179121942452  0.3765198048144871
  0.3368465614653572  0.8377511582754091  0.8751613009201543
  0.6703693746338774  0.3360874765364286  0.3752693614745975
  0.6697783349300960  0.3372788197964952  0.8753735727854596
  0.6704813060373279  0.8373420375621250  0.3759420054249079
  0.6695271564047469  0.8370369369466574  0.8759864324954706
  0.1633005919086918  0.1607679800523778  0.3721066631673044
  0.1701411830855930  0.1646848263204960  0.8731150968098105
  0.1701270788038944  0.6628108578178639  0.3738490007194984
  0.1705596006717895  0.6662284229827494  0.8715623795339424
  0.5032350674636185  0.1632603915762159  0.3728224722149010
  0.5026058222958063  0.1639426215242191  0.8724691516447000
  0.5037518432497365  0.6632569525780845  0.3726735533999732
  0.5040038352270113  0.6637686267659271  0.8727734177655757
  0.8387012682856081  0.1587901426146028  0.3804744509062076
  0.8361436722625518  0.1638240206548151  0.8725205238374759
  0.8376397988520868  0.6653495776723352  0.3736538390676677
  0.8368116175155718  0.6643720613873756  0.8724113169660603
  0.0114885400793791  0.3461876479089822  0.1075972447095747
  0.1652286948206352  0.4107748116363227  0.2486411106114721
  0.1680853915182670  0.4133885865084251  0.7485851559751823
  0.1706745972184668  0.9050085692544207  0.2485287168920848
  0.1675261815970567  0.9150970404489768  0.7494603344878876
  0.5004645436728342  0.4123588477280301  0.2490846325582847
  0.5011654823813442  0.4127936047721142  0.7490500739854916
  0.5013093037532894  0.9122917846033103  0.2491861272040534
  0.5007674973883186  0.9127074372218776  0.7492438678553606
  0.8357397031166304  0.4144084607437501  0.2492611666270688
  0.8342361158437647  0.4129153358540246  0.7492714730981525
  0.8339474769595132  0.9133800741278834  0.2482198211796204
  0.8335764522196214  0.9127975321234054  0.7509627090326184
  0.9994183018997904  0.0904308034114503  0.0030389445951599
  0.9991885722560594  0.0921241473504409  0.4912661957732845
  0.0014663863564152  0.5907098889296309  0.9962713866178947
  0.0017680603138876  0.5923047110033438  0.5027735508135104
  0.3336057651940135  0.0885408680158611 -0.0004147265418921
  0.3344784276092589  0.0882419135499922  0.4985364168232910
  0.3346736907211300  0.5883708316721759  0.9987025158308712
  0.3347751266600736  0.5880363922193886  0.4992573415580185
  0.6662856569016734  0.0886330653654280  0.9990521626689609
  0.6678717283834434  0.0881312798383200  0.4998448100968572
  0.6679653949946175  0.5877857522447694  0.9993666596717719
  0.6681979052160167  0.5878200557683929  0.4988867507129902
  0.0281454346572761  0.1613099366419876  0.3828123309162427
  0.0367355309216463  0.1617933404448618  0.9016732630393027
  0.0366296191830652  0.6572215918381260  0.3968163862190183
  0.0356566024878304  0.6627334821543212  0.8937916363682239
  0.3700464159294480  0.1572253800286841  0.3944857516091916
  0.3688152374305866  0.1578644307976009  0.8957224957460975
  0.3701910346333927  0.6560937469619352  0.3949079707554828
  0.3704068109709246  0.6575352591607809  0.8951054727283345
  0.7036483721959366  0.1574117538905916  0.3960285452293479
  0.7020208703872349  0.1577871898425123  0.8954742094389946
  0.7036015490811992  0.6569355921789269  0.3948805242636285
  0.7030629680345072  0.6570609069598824  0.8955239612996605
  0.2002028427417996  0.0464502983275558  0.2479011406847626
  0.2015163927749620  0.0547780165015579  0.7491773402234144
  0.1972296914977893  0.5512635085226184  0.2481312350387708
  0.2016935431157203  0.5534389740778101  0.7487325179467992
  0.5352753738707468  0.0520476453836548  0.2491112902253058
  0.5344898958534313  0.0525837403435727  0.7493727006146794
  0.5350230778287022  0.5518566027636940  0.2490245904035986
  0.5351640268221127  0.5525570303295292  0.7491712539492306
  0.8676251614221024  0.0537185923291385  0.2467980592865095
  0.8676360231689338  0.0523356479726036  0.7516877322441506
  0.8683615312076446  0.5540771708651957  0.2479555925420158
  0.8682418814048771  0.5526213607663722  0.7498217347805334
  0.0581580685693916  0.4057856828580340  0.2485066851349717
  0.0621076238391697  0.4109194550487749  0.7487748044680279
  0.0649548555435200  0.8921894970994947  0.2479961093159846
  0.0615574065810309  0.9133565235736978  0.7506215280728394
  0.3944207473026063  0.4100232572439829  0.2492926717202134
  0.3951870987537343  0.4101899581251558  0.7489256963480455
  0.3954060516423858  0.9095744972350195  0.2492649471486317
  0.3947992533010333  0.9100393299380611  0.7488938595234668
  0.7302758108072502  0.4083909959240041  0.2473404829511125
  0.7282124672850019  0.4103409938664276  0.7495314583771696
  0.7280079501855141  0.9104092350412778  0.2487839051633594
  0.7275079224881399  0.9101899071696556  0.7505769558184030
  0.2275510741420516  0.0911529419389235 -0.0001314994352082
  0.2287942671549797  0.0907687118971899  0.4980670921468813
  0.2286944024723883  0.5921915086942179  0.9981110956531267
  0.2288011805092636  0.5914291964557624  0.4995954119140338
  0.5604046359495057  0.0912766940758111  0.9990592122523387
  0.5618034550119292  0.0913644115372795  0.4989525710049400
  0.5620051474669910  0.5896809349014053  0.9992283678306489
  0.5622141698057558  0.5902510986609881  0.4987480394990674
  0.8935200808363040  0.0916207067345039 -0.0003126052700612
  0.8914923738567554  0.0860547355909224  0.5048130622497604
  0.8954614533760475  0.5900789593820595  0.9982205835857061
  0.8956816781208206  0.5913561719145022  0.5005080028306308
  0.1998171327439713  0.3424283523349543  0.1439031501481022
  0.2037432011865611  0.3439257546401945  0.6451291357979582
  0.2071050044465152  0.8387465466697787  0.1438592400809413
  0.2026295065356660  0.8453723601191379  0.6457355899855999
  0.5353619906096829  0.3432054181669332  0.1448363151745938
  0.5365526126138956  0.3435864088391749  0.6451756656489018
  0.5362158982423650  0.8430508836406136  0.1449238601660547
  0.5364981927012555  0.8434580846874282  0.6455287632191415
  0.8757397269700931  0.3407774758318159  0.1484436259907402
  0.8694347036210002  0.3439632571199980  0.6454517395317225
  0.8691491148782384  0.8440962402443730  0.1440589185407269
  0.8687063789889332  0.8427173175575317  0.6477076800880154
  0.0311861555651234  0.1590144447128876  0.1104163776714774
  0.0347403433044057  0.1580088858843733  0.6007398267259813
  0.0365581770262021  0.6563934047990299  0.1017249197155773
  0.0353900312081740  0.6650770487646833  0.6052806955461580
  0.3686113247316789  0.1575128527553368  0.1039348791240984
  0.3700708109498236  0.1576621307648145  0.6024918354601312
  0.3702926804093407  0.6561420000724713  0.1031645760536506
  0.3703854316899061  0.6575582197828911  0.6029324597286163
  0.7013324730677929  0.1583658863414020  0.1031483122906680
  0.7024925480042948  0.1571683335477716  0.6041812559250821
  0.7030474254300333  0.6572209877915276  0.1034395655767204
  0.7032989468641259  0.6569744881390426  0.6029828620504812
  0.0374145364147843  0.4520365484525705  0.9920317462638771
  0.0384493719605409  0.4544081902815136  0.5079639821086822
  0.0347141918502030  0.9515113311213051  0.0030864549732489
  0.0333686128141805  0.9488503830699833  0.4984824128663941
  0.3672888144295899  0.4479508408283858  0.9987068606971884
  0.3678821179017185  0.4478558108859605  0.4992841641337772
  0.3679353248363973  0.9489855211057900  0.9991350515220090
  0.3691871542351125  0.9487430132202027  0.4989743217033559
  0.7025195243005043  0.4481405218702277 -0.0002415438797991
  0.7022913039542845  0.4480253592823110  0.4983833338831878
  0.7004115004009048  0.9490636290351031  0.9996498188014912
  0.7009553620473303  0.9480350759324384  0.4996140399300358
  0.2013315304793724  0.3437079976037652  0.3525642727632297
  0.2035153169964830  0.3444388355590312  0.8526300975541474
  0.2068794371320822  0.8392328042474425  0.3531813688773227
  0.2030194334280188  0.8456443430256472  0.8534218874522701
  0.5363456100061871  0.3430993314523204  0.3526440732948540
  0.5361440402054238  0.3437020028255660  0.8532511359388621
  0.5367093741065487  0.8429664613475014  0.3529855131190539
  0.5358620163521070  0.8436611030410325  0.8534518453309737
  0.8730182012127810  0.3447132379832675  0.3521756276857698
  0.8694635795880249  0.3434402601485641  0.8533098375834279
  0.8699612493545298  0.8446188634512479  0.3517129506714053
  0.8685020966564171  0.8439036193436898  0.8553952414583527
 
  0.00000000E+00  0.00000000E+00  0.00000000E+00
  0.00000000E+00  0.00000000E+00  0.00000000E+00
  0.00000000E+00  0.00000000E+00  0.00000000E+00
  0.00000000E+00  0.00000000E+00  0.00000000E+00
  0.00000000E+00  0.00000000E+00  0.00000000E+00
  0.00000000E+00  0.00000000E+00  0.00000000E+00
  0.00000000E+00  0.00000000E+00  0.00000000E+00
  0.00000000E+00  0.00000000E+00  0.00000000E+00
  0.00000000E+00  0.00000000E+00  0.00000000E+00
  0.00000000E+00  0.00000000E+00  0.00000000E+00
  0.00000000E+00  0.00000000E+00  0.00000000E+00
  0.00000000E+00  0.00000000E+00  0.00000000E+00
  0.00000000E+00  0.00000000E+00  0.00000000E+00
  0.00000000E+00  0.00000000E+00  0.00000000E+00
  0.00000000E+00  0.00000000E+00  0.00000000E+00
  0.00000000E+00  0.00000000E+00  0.00000000E+00
  0.00000000E+00  0.00000000E+00  0.00000000E+00
  0.00000000E+00  0.00000000E+00  0.00000000E+00
  0.00000000E+00  0.00000000E+00  0.00000000E+00
  0.00000000E+00  0.00000000E+00  0.00000000E+00
  0.00000000E+00  0.00000000E+00  0.00000000E+00
  0.00000000E+00  0.00000000E+00  0.00000000E+00
  0.00000000E+00  0.00000000E+00  0.00000000E+00
  0.00000000E+00  0.00000000E+00  0.00000000E+00
  0.00000000E+00  0.00000000E+00  0.00000000E+00
  0.00000000E+00  0.00000000E+00  0.00000000E+00
  0.00000000E+00  0.00000000E+00  0.00000000E+00
  0.00000000E+00  0.00000000E+00  0.00000000E+00
  0.00000000E+00  0.00000000E+00  0.00000000E+00
  0.00000000E+00  0.00000000E+00  0.00000000E+00
  0.00000000E+00  0.00000000E+00  0.00000000E+00
  0.00000000E+00  0.00000000E+00  0.00000000E+00
  0.00000000E+00  0.00000000E+00  0.00000000E+00
  0.00000000E+00  0.00000000E+00  0.00000000E+00
  0.00000000E+00  0.00000000E+00  0.00000000E+00
  0.00000000E+00  0.00000000E+00  0.00000000E+00
  0.00000000E+00  0.00000000E+00  0.00000000E+00
  0.00000000E+00  0.00000000E+00  0.00000000E+00
  0.00000000E+00  0.00000000E+00  0.00000000E+00
  0.00000000E+00  0.00000000E+00  0.00000000E+00
  0.00000000E+00  0.00000000E+00  0.00000000E+00
  0.00000000E+00  0.00000000E+00  0.00000000E+00
  0.00000000E+00  0.00000000E+00  0.00000000E+00
  0.00000000E+00  0.00000000E+00  0.00000000E+00
  0.00000000E+00  0.00000000E+00  0.00000000E+00
  0.00000000E+00  0.00000000E+00  0.00000000E+00
  0.00000000E+00  0.00000000E+00  0.00000000E+00
  0.00000000E+00  0.00000000E+00  0.00000000E+00
  0.00000000E+00  0.00000000E+00  0.00000000E+00
  0.00000000E+00  0.00000000E+00  0.00000000E+00
  0.00000000E+00  0.00000000E+00  0.00000000E+00
  0.00000000E+00  0.00000000E+00  0.00000000E+00
  0.00000000E+00  0.00000000E+00  0.00000000E+00
  0.00000000E+00  0.00000000E+00  0.00000000E+00
  0.00000000E+00  0.00000000E+00  0.00000000E+00
  0.00000000E+00  0.00000000E+00  0.00000000E+00
  0.00000000E+00  0.00000000E+00  0.00000000E+00
  0.00000000E+00  0.00000000E+00  0.00000000E+00
  0.00000000E+00  0.00000000E+00  0.00000000E+00
  0.00000000E+00  0.00000000E+00  0.00000000E+00
  0.00000000E+00  0.00000000E+00  0.00000000E+00
  0.00000000E+00  0.00000000E+00  0.00000000E+00
  0.00000000E+00  0.00000000E+00  0.00000000E+00
  0.00000000E+00  0.00000000E+00  0.00000000E+00
  0.00000000E+00  0.00000000E+00  0.00000000E+00
  0.00000000E+00  0.00000000E+00  0.00000000E+00
  0.00000000E+00  0.00000000E+00  0.00000000E+00
  0.00000000E+00  0.00000000E+00  0.00000000E+00
  0.00000000E+00  0.00000000E+00  0.00000000E+00
  0.00000000E+00  0.00000000E+00  0.00000000E+00
  0.00000000E+00  0.00000000E+00  0.00000000E+00
  0.00000000E+00  0.00000000E+00  0.00000000E+00
  0.00000000E+00  0.00000000E+00  0.00000000E+00
  0.00000000E+00  0.00000000E+00  0.00000000E+00
  0.00000000E+00  0.00000000E+00  0.00000000E+00
  0.00000000E+00  0.00000000E+00  0.00000000E+00
  0.00000000E+00  0.00000000E+00  0.00000000E+00
  0.00000000E+00  0.00000000E+00  0.00000000E+00
  0.00000000E+00  0.00000000E+00  0.00000000E+00
  0.00000000E+00  0.00000000E+00  0.00000000E+00
  0.00000000E+00  0.00000000E+00  0.00000000E+00
  0.00000000E+00  0.00000000E+00  0.00000000E+00
  0.00000000E+00  0.00000000E+00  0.00000000E+00
  0.00000000E+00  0.00000000E+00  0.00000000E+00
  0.00000000E+00  0.00000000E+00  0.00000000E+00
  0.00000000E+00  0.00000000E+00  0.00000000E+00
  0.00000000E+00  0.00000000E+00  0.00000000E+00
  0.00000000E+00  0.00000000E+00  0.00000000E+00
  0.00000000E+00  0.00000000E+00  0.00000000E+00
  0.00000000E+00  0.00000000E+00  0.00000000E+00
  0.00000000E+00  0.00000000E+00  0.00000000E+00
  0.00000000E+00  0.00000000E+00  0.00000000E+00
  0.00000000E+00  0.00000000E+00  0.00000000E+00
  0.00000000E+00  0.00000000E+00  0.00000000E+00
  0.00000000E+00  0.00000000E+00  0.00000000E+00
  0.00000000E+00  0.00000000E+00  0.00000000E+00
  0.00000000E+00  0.00000000E+00  0.00000000E+00
  0.00000000E+00  0.00000000E+00  0.00000000E+00
  0.00000000E+00  0.00000000E+00  0.00000000E+00
  0.00000000E+00  0.00000000E+00  0.00000000E+00
  0.00000000E+00  0.00000000E+00  0.00000000E+00
  0.00000000E+00  0.00000000E+00  0.00000000E+00
  0.00000000E+00  0.00000000E+00  0.00000000E+00
  0.00000000E+00  0.00000000E+00  0.00000000E+00
  0.00000000E+00  0.00000000E+00  0.00000000E+00
  0.00000000E+00  0.00000000E+00  0.00000000E+00
  0.00000000E+00  0.00000000E+00  0.00000000E+00
  0.00000000E+00  0.00000000E+00  0.00000000E+00
  0.00000000E+00  0.00000000E+00  0.00000000E+00
  0.00000000E+00  0.00000000E+00  0.00000000E+00
  0.00000000E+00  0.00000000E+00  0.00000000E+00
  0.00000000E+00  0.00000000E+00  0.00000000E+00
  0.00000000E+00  0.00000000E+00  0.00000000E+00
  0.00000000E+00  0.00000000E+00  0.00000000E+00
  0.00000000E+00  0.00000000E+00  0.00000000E+00
  0.00000000E+00  0.00000000E+00  0.00000000E+00
  0.00000000E+00  0.00000000E+00  0.00000000E+00
  0.00000000E+00  0.00000000E+00  0.00000000E+00
  0.00000000E+00  0.00000000E+00  0.00000000E+00
  0.00000000E+00  0.00000000E+00  0.00000000E+00
  0.00000000E+00  0.00000000E+00  0.00000000E+00
  0.00000000E+00  0.00000000E+00  0.00000000E+00
  0.00000000E+00  0.00000000E+00  0.00000000E+00
  0.00000000E+00  0.00000000E+00  0.00000000E+00
  0.00000000E+00  0.00000000E+00  0.00000000E+00
  0.00000000E+00  0.00000000E+00  0.00000000E+00
  0.00000000E+00  0.00000000E+00  0.00000000E+00
  0.00000000E+00  0.00000000E+00  0.00000000E+00
  0.00000000E+00  0.00000000E+00  0.00000000E+00
  0.00000000E+00  0.00000000E+00  0.00000000E+00
  0.00000000E+00  0.00000000E+00  0.00000000E+00
  0.00000000E+00  0.00000000E+00  0.00000000E+00
  0.00000000E+00  0.00000000E+00  0.00000000E+00
  0.00000000E+00  0.00000000E+00  0.00000000E+00
  0.00000000E+00  0.00000000E+00  0.00000000E+00
  0.00000000E+00  0.00000000E+00  0.00000000E+00
  0.00000000E+00  0.00000000E+00  0.00000000E+00
  0.00000000E+00  0.00000000E+00  0.00000000E+00
  0.00000000E+00  0.00000000E+00  0.00000000E+00
  0.00000000E+00  0.00000000E+00  0.00000000E+00
  0.00000000E+00  0.00000000E+00  0.00000000E+00
  0.00000000E+00  0.00000000E+00  0.00000000E+00
  0.00000000E+00  0.00000000E+00  0.00000000E+00
  0.00000000E+00  0.00000000E+00  0.00000000E+00
  0.00000000E+00  0.00000000E+00  0.00000000E+00
  0.00000000E+00  0.00000000E+00  0.00000000E+00
  0.00000000E+00  0.00000000E+00  0.00000000E+00
  0.00000000E+00  0.00000000E+00  0.00000000E+00
  0.00000000E+00  0.00000000E+00  0.00000000E+00
  0.00000000E+00  0.00000000E+00  0.00000000E+00
  0.00000000E+00  0.00000000E+00  0.00000000E+00
  0.00000000E+00  0.00000000E+00  0.00000000E+00
  0.00000000E+00  0.00000000E+00  0.00000000E+00
  0.00000000E+00  0.00000000E+00  0.00000000E+00
  0.00000000E+00  0.00000000E+00  0.00000000E+00
  0.00000000E+00  0.00000000E+00  0.00000000E+00
  0.00000000E+00  0.00000000E+00  0.00000000E+00
  0.00000000E+00  0.00000000E+00  0.00000000E+00
  0.00000000E+00  0.00000000E+00  0.00000000E+00
  0.00000000E+00  0.00000000E+00  0.00000000E+00
  0.00000000E+00  0.00000000E+00  0.00000000E+00
  0.00000000E+00  0.00000000E+00  0.00000000E+00
  0.00000000E+00  0.00000000E+00  0.00000000E+00
  0.00000000E+00  0.00000000E+00  0.00000000E+00
  0.00000000E+00  0.00000000E+00  0.00000000E+00
  0.00000000E+00  0.00000000E+00  0.00000000E+00
  0.00000000E+00  0.00000000E+00  0.00000000E+00
  0.00000000E+00  0.00000000E+00  0.00000000E+00
  0.00000000E+00  0.00000000E+00  0.00000000E+00
  0.00000000E+00  0.00000000E+00  0.00000000E+00
  0.00000000E+00  0.00000000E+00  0.00000000E+00
  0.00000000E+00  0.00000000E+00  0.00000000E+00
  0.00000000E+00  0.00000000E+00  0.00000000E+00
  0.00000000E+00  0.00000000E+00  0.00000000E+00
  0.00000000E+00  0.00000000E+00  0.00000000E+00
  0.00000000E+00  0.00000000E+00  0.00000000E+00
  0.00000000E+00  0.00000000E+00  0.00000000E+00
  0.00000000E+00  0.00000000E+00  0.00000000E+00
  0.00000000E+00  0.00000000E+00  0.00000000E+00
  0.00000000E+00  0.00000000E+00  0.00000000E+00
  0.00000000E+00  0.00000000E+00  0.00000000E+00
  0.00000000E+00  0.00000000E+00  0.00000000E+00
  0.00000000E+00  0.00000000E+00  0.00000000E+00
  0.00000000E+00  0.00000000E+00  0.00000000E+00
  0.00000000E+00  0.00000000E+00  0.00000000E+00
  0.00000000E+00  0.00000000E+00  0.00000000E+00
  0.00000000E+00  0.00000000E+00  0.00000000E+00
  0.00000000E+00  0.00000000E+00  0.00000000E+00
  0.00000000E+00  0.00000000E+00  0.00000000E+00
  0.00000000E+00  0.00000000E+00  0.00000000E+00
  0.00000000E+00  0.00000000E+00  0.00000000E+00
  0.00000000E+00  0.00000000E+00  0.00000000E+00
  0.00000000E+00  0.00000000E+00  0.00000000E+00
