Li61 P7 N32                             
   1.00000000000000     
    -0.0036869747943402    9.4722341609178482   -0.0043893189858832
     0.0144245609308092   -0.0039618263877256    9.5577650415111624
     9.5476590347115664   -0.0033433178474042    0.0145358360314613
   Li   P    N 
    61     7    32
Direct
  0.5004941607091307  0.0008294347898474  0.5051881346935476
  0.0095671899532686  0.5134216208629870 -0.0194296410432873
  0.4973078529735711 -0.0032019706055276  0.0047935755609161
  0.0048413574517124  0.0027472966618322  0.5007219577759260
  0.4954939408975731  0.4930587344549254  0.0045663646175026
  0.0080554320072427  0.5026330558026494  0.5038594269347232
  0.7521338501035487  0.0032011942085530  0.5080789554359254
  0.2531207691895990  0.0035256784118277  0.5035479322048321
  0.7684749962308535  0.5017356946303259  0.5075076967918030
  0.2404954305226397  0.5053704966585109  0.5067628979689844
  0.2639617262857585  0.0009199073698218  0.0035396417395576
  0.7353526942319814 -0.0014872167274192  0.0051976627185619
  0.6744294247436846  0.5788512784405435 -0.0842248327757948
  0.5056271079380841  0.2402073437761248 -0.0065214240336686
  0.5061783662949925  0.7534195967443772  0.0165150869741847
 -0.0241718721884158  0.4939781560318510  0.2773019186686337
 -0.0065454973886298  0.5134205463225853  0.7389246799086826
  0.2531476684819854  0.2100382443847449  0.2208904672119205
  0.2425278377281621  0.7865249911896867  0.7866606167855158
  0.2609073084135935  0.2862416157629741  0.7171835281137564
  0.2739612782580008  0.7331530829203279  0.2899158132928462
  0.7682031474284724  0.3068867482162836  0.3082863283104295
  0.7605795360506149  0.7030883022221510  0.7022759122350284
  0.7370648339702150  0.1983748686189450  0.8048973868014265
  0.7429788392019907  0.8049421838489013  0.2021495839442647
 -0.0177635131143849  0.2269492070624337  0.2457588717236143
  0.9902139178201215  0.7536669720270043  0.7580043207921897
  0.2640602302407130  0.2501495948180079  0.4726016769705442
  0.2668721199288919  0.7587247424302104  0.5337834093748310
  0.7443041460225160  0.2376532521884847  0.5483772121629624
  0.7491898738509438  0.7730309704342860  0.4596550674670872
  0.6840317302210427  0.4256449913728717  0.1009425906864632
  0.8280038536315506  0.4102285694932118  0.9261570059846937
  0.1017173227095585  0.3834092249895710  0.1482191952502452
  0.2381081448190663  0.5387073533460196  0.7440798467798915
  0.5174513643343575  0.7460067619670032  0.2578906546526936
  0.5119549784717810  0.2553365118499878  0.7516553725501416
  0.2359825490970338  0.9747761786651580  0.2590203216503491
  0.2390438267424910  0.0293979771877877  0.7489319380100840
  0.2633117702681663  0.2399113956083020  0.9649891289217266
  0.2626461024031225  0.7599297295293858  0.0382996212993526
  0.7595889490028995  0.9594054577255051  0.7443331787120194
  0.7542375787839751  0.0484611643247260  0.2730177149963532
  0.7644140854177441  0.7803719201104662  0.9520441456202143
  0.7580780129826372  0.2196895712360983  0.0524734917459199
  0.0095155140091519  0.2521916004895995  0.7582714705774314
  0.0208079361427883  0.7420145609121417  0.2388979820999600
  0.4973021250663416  0.2634627843081557  0.2537091653473750
  0.4906380654451268  0.7360959937204797  0.7571848322142835
  0.0012138744952023  0.2489215353223424  0.0012135474426149
  0.0125806092267170  0.7444178773581596 -0.0121804588040666
  0.5037121622036895  0.2391536386860971  0.5003360249944705
  0.5068282473284950  0.7620705794286304  0.5094111576047728
  0.4939547060778250  0.5157213969305017  0.2425363341803445
  0.4887955232434552  0.4855795124760605  0.7639051851038383
 -0.0032173479382448 -0.0140116763243991  0.2625008671022773
 -0.0000038500997164  0.0032910414168272  0.7385145595683823
  0.2586682041289372  0.4867337866639884  0.2737716139529177
  0.7361772674378451  0.4525888264953127  0.7252878099594390
  0.7269432995010786  0.5667135431572305  0.2959265862082019
  0.8346356590801367  0.5925033514549759  0.0854866764250407
  0.4997202875733636  0.5008851867329436  0.5036385435499432
  0.0038716251098670 -0.0012680382442084  0.0008286342205315
  0.2542235145501694  0.5028857871749881 -0.0002316595655296
  0.0056685508667950  0.7519808123468968  0.5009108435096499
  0.0031471438465266  0.2528636399482783  0.5013255748495385
  0.4988599872740540  0.0023289739071812  0.2542570568430163
  0.4993176468924488 -0.0029001342946710  0.7555909329880115
  0.6032117331151057  0.5977742305650543  0.6095049099068558
  0.6050502408782708  0.4035316682672549  0.3987301215635757
  0.9014665182787173  0.8928561935828718  0.0991667966055117
  0.8971871834536734  0.1002042797460716  0.9004718559101069
  0.1096713479693677  0.9040313709250670  0.8961743137500076
  0.1056391445329944  0.0995040036010761  0.1078759597594018
  0.3968517475354111  0.6078942667274937  0.4052801302126369
  0.3945833619855653  0.3946171199444319  0.5988095096377644
  0.1014400003341899  0.3505862240617121  0.3866359276067635
  0.1057190344222416  0.6526146744926830  0.6094703202390990
  0.1141061923886316  0.1543954909765586  0.6011411785931833
  0.1151426961573097  0.8511307017038042  0.3998959619974233
  0.8885326261953651  0.1497228352206174  0.4109473804836989
  0.8941996643740217  0.8537107881757268  0.5958861117674490
  0.8825647271362589  0.3779433412117246  0.1293250076162911
  0.8688592326124697  0.6181263398615970  0.8697126799992559
  0.1507830687371539  0.5964375723622851  0.1130901955980483
  0.1540593203361119  0.4025120632279162  0.8896867188945217
  0.3973731917955279  0.8918013542957658  0.1583458118830630
  0.3990535433403286  0.1059806103120385  0.8538959927498238
  0.3905749920285320  0.1032934478601354  0.3536239702134337
  0.3898683438071721  0.8983013057262910  0.6545472027612254
  0.3434946857541495  0.3874817749938411  0.1049257632122812
  0.3535209838691515  0.6135580586687812  0.9044335530097656
  0.6119284939712519  0.0936652561748444  0.6545044275467463
  0.6125348524327419  0.9082112083935543  0.3561217081934392
  0.6361860422787262  0.6303624268300206  0.1232747999602693
  0.6331582566849487  0.3688445397789947  0.8901548358547485
  0.9055228268312743  0.3566095908972140  0.6072767003819429
  0.9040238723754561  0.6498351289234292  0.3956750547997562
  0.5976190932637476  0.1073852161233029  0.1499379657493471
  0.5984068065382174  0.8900869049359814  0.8579404169825220
 
  0.00000000E+00  0.00000000E+00  0.00000000E+00
  0.00000000E+00  0.00000000E+00  0.00000000E+00
  0.00000000E+00  0.00000000E+00  0.00000000E+00
  0.00000000E+00  0.00000000E+00  0.00000000E+00
  0.00000000E+00  0.00000000E+00  0.00000000E+00
  0.00000000E+00  0.00000000E+00  0.00000000E+00
  0.00000000E+00  0.00000000E+00  0.00000000E+00
  0.00000000E+00  0.00000000E+00  0.00000000E+00
  0.00000000E+00  0.00000000E+00  0.00000000E+00
  0.00000000E+00  0.00000000E+00  0.00000000E+00
  0.00000000E+00  0.00000000E+00  0.00000000E+00
  0.00000000E+00  0.00000000E+00  0.00000000E+00
  0.00000000E+00  0.00000000E+00  0.00000000E+00
  0.00000000E+00  0.00000000E+00  0.00000000E+00
  0.00000000E+00  0.00000000E+00  0.00000000E+00
  0.00000000E+00  0.00000000E+00  0.00000000E+00
  0.00000000E+00  0.00000000E+00  0.00000000E+00
  0.00000000E+00  0.00000000E+00  0.00000000E+00
  0.00000000E+00  0.00000000E+00  0.00000000E+00
  0.00000000E+00  0.00000000E+00  0.00000000E+00
  0.00000000E+00  0.00000000E+00  0.00000000E+00
  0.00000000E+00  0.00000000E+00  0.00000000E+00
  0.00000000E+00  0.00000000E+00  0.00000000E+00
  0.00000000E+00  0.00000000E+00  0.00000000E+00
  0.00000000E+00  0.00000000E+00  0.00000000E+00
  0.00000000E+00  0.00000000E+00  0.00000000E+00
  0.00000000E+00  0.00000000E+00  0.00000000E+00
  0.00000000E+00  0.00000000E+00  0.00000000E+00
  0.00000000E+00  0.00000000E+00  0.00000000E+00
  0.00000000E+00  0.00000000E+00  0.00000000E+00
  0.00000000E+00  0.00000000E+00  0.00000000E+00
  0.00000000E+00  0.00000000E+00  0.00000000E+00
  0.00000000E+00  0.00000000E+00  0.00000000E+00
  0.00000000E+00  0.00000000E+00  0.00000000E+00
  0.00000000E+00  0.00000000E+00  0.00000000E+00
  0.00000000E+00  0.00000000E+00  0.00000000E+00
  0.00000000E+00  0.00000000E+00  0.00000000E+00
  0.00000000E+00  0.00000000E+00  0.00000000E+00
  0.00000000E+00  0.00000000E+00  0.00000000E+00
  0.00000000E+00  0.00000000E+00  0.00000000E+00
  0.00000000E+00  0.00000000E+00  0.00000000E+00
  0.00000000E+00  0.00000000E+00  0.00000000E+00
  0.00000000E+00  0.00000000E+00  0.00000000E+00
  0.00000000E+00  0.00000000E+00  0.00000000E+00
  0.00000000E+00  0.00000000E+00  0.00000000E+00
  0.00000000E+00  0.00000000E+00  0.00000000E+00
  0.00000000E+00  0.00000000E+00  0.00000000E+00
  0.00000000E+00  0.00000000E+00  0.00000000E+00
  0.00000000E+00  0.00000000E+00  0.00000000E+00
  0.00000000E+00  0.00000000E+00  0.00000000E+00
  0.00000000E+00  0.00000000E+00  0.00000000E+00
  0.00000000E+00  0.00000000E+00  0.00000000E+00
  0.00000000E+00  0.00000000E+00  0.00000000E+00
  0.00000000E+00  0.00000000E+00  0.00000000E+00
  0.00000000E+00  0.00000000E+00  0.00000000E+00
  0.00000000E+00  0.00000000E+00  0.00000000E+00
  0.00000000E+00  0.00000000E+00  0.00000000E+00
  0.00000000E+00  0.00000000E+00  0.00000000E+00
  0.00000000E+00  0.00000000E+00  0.00000000E+00
  0.00000000E+00  0.00000000E+00  0.00000000E+00
  0.00000000E+00  0.00000000E+00  0.00000000E+00
  0.00000000E+00  0.00000000E+00  0.00000000E+00
  0.00000000E+00  0.00000000E+00  0.00000000E+00
  0.00000000E+00  0.00000000E+00  0.00000000E+00
  0.00000000E+00  0.00000000E+00  0.00000000E+00
  0.00000000E+00  0.00000000E+00  0.00000000E+00
  0.00000000E+00  0.00000000E+00  0.00000000E+00
  0.00000000E+00  0.00000000E+00  0.00000000E+00
  0.00000000E+00  0.00000000E+00  0.00000000E+00
  0.00000000E+00  0.00000000E+00  0.00000000E+00
  0.00000000E+00  0.00000000E+00  0.00000000E+00
  0.00000000E+00  0.00000000E+00  0.00000000E+00
  0.00000000E+00  0.00000000E+00  0.00000000E+00
  0.00000000E+00  0.00000000E+00  0.00000000E+00
  0.00000000E+00  0.00000000E+00  0.00000000E+00
  0.00000000E+00  0.00000000E+00  0.00000000E+00
  0.00000000E+00  0.00000000E+00  0.00000000E+00
  0.00000000E+00  0.00000000E+00  0.00000000E+00
  0.00000000E+00  0.00000000E+00  0.00000000E+00
  0.00000000E+00  0.00000000E+00  0.00000000E+00
  0.00000000E+00  0.00000000E+00  0.00000000E+00
  0.00000000E+00  0.00000000E+00  0.00000000E+00
  0.00000000E+00  0.00000000E+00  0.00000000E+00
  0.00000000E+00  0.00000000E+00  0.00000000E+00
  0.00000000E+00  0.00000000E+00  0.00000000E+00
  0.00000000E+00  0.00000000E+00  0.00000000E+00
  0.00000000E+00  0.00000000E+00  0.00000000E+00
  0.00000000E+00  0.00000000E+00  0.00000000E+00
  0.00000000E+00  0.00000000E+00  0.00000000E+00
  0.00000000E+00  0.00000000E+00  0.00000000E+00
  0.00000000E+00  0.00000000E+00  0.00000000E+00
  0.00000000E+00  0.00000000E+00  0.00000000E+00
  0.00000000E+00  0.00000000E+00  0.00000000E+00
  0.00000000E+00  0.00000000E+00  0.00000000E+00
  0.00000000E+00  0.00000000E+00  0.00000000E+00
  0.00000000E+00  0.00000000E+00  0.00000000E+00
  0.00000000E+00  0.00000000E+00  0.00000000E+00
  0.00000000E+00  0.00000000E+00  0.00000000E+00
  0.00000000E+00  0.00000000E+00  0.00000000E+00
  0.00000000E+00  0.00000000E+00  0.00000000E+00
