Li71 P24 N1 O94                         
   1.00000000000000     
    14.7358489864939326    0.0159137365071257    0.0019985387473052
     0.0114072225986281   10.5671517180043022    0.0091456758362044
     0.0016753677239840    0.0106463094666542   12.3285919395863885
   Li   P    N    O 
    71    24     1    94
Direct
  0.1683432141106067  0.4236265743804678 -0.0006229649748666
  0.1685273160813726  0.4247930086690667  0.5018710905281419
  0.1671400654512638  0.9232527040594394 -0.0014599809960618
  0.1684005981016487  0.9232960794620592  0.5015542597375301
  0.5040182680781364  0.4223738138150109 -0.0007785943246869
  0.5037147888091861  0.4224154354815540  0.5008638665044282
  0.5051985751036792  0.9222154880948140 -0.0010681053723080
  0.5041368950925367  0.9228006347958891  0.5009183622382438
  0.8365262918199812  0.4228495675523817  0.0000867898611964
  0.8368384599281663  0.4226149008564223  0.5000304485219121
  0.8347198232796356  0.9205073562605305 -0.0001608843495030
  0.8359004688260523  0.9251028327890684  0.4993025241497361
  0.0002851295895120  0.0727811484322251  0.7492998119109805
  0.0018844904426102  0.5824262552139737  0.2506650043033133
  0.0023292354875126  0.5771207851204960  0.7500646121881118
  0.3724189264636764  0.0838251378002617  0.2500185889627126
  0.3367765364271878  0.0770511925866564  0.7498919951676404
  0.3377101579013640  0.5782758846479602  0.2500486939565917
  0.3365079113919482  0.5770488295867832  0.7500307368379565
  0.6787978138012267  0.0758100817019274  0.2497783215826395
  0.6697602286942950  0.0767987094616856  0.7496091834165485
  0.6698351884365373  0.5794949437097042  0.2502188587911139
  0.6696331048868734  0.5770418605169270  0.7499561471690792
  0.1706280618262064  0.1773236713083995  0.1143783281331501
  0.1680780529011064  0.1615391418475882  0.6286742662491562
  0.1683508396352442  0.6599813026741200  0.1239972730405888
  0.1691232175916124  0.6628086623591793  0.6270757707465403
  0.5080746123430264  0.1654526897021491  0.1236169151677009
  0.5030127046745159  0.1636148765130593  0.6267429702689827
  0.5035966726045890  0.6620162613141605  0.1255435484156760
  0.5030936213562458  0.6631284664295072  0.6266022150223979
  0.8407949923221599  0.1628902753898432  0.1262689444934005
  0.8360945925735566  0.1635967381664410  0.6265023959359201
  0.8349331625713520  0.6639720465813502  0.1261004637465573
  0.8357258251510487  0.6633442752029138  0.6263737512646192
  0.0000132104134991  0.3414253138353456  0.1274855879731494
  0.0026269523925196  0.3353370078259544  0.6247895123389953
 -0.0035764594117958  0.8394721541182197  0.1223002240868361
  0.0023083224467296  0.8371181082551586  0.6231976222354335
  0.3381263446264219  0.3386974071546693  0.1235153781613607
  0.3356917275573919  0.3366734488401728  0.6241016020068459
  0.3396159405978041  0.8353257819190066  0.1221969668676906
  0.3367252363418247  0.8362482574473358  0.6239570010151670
  0.6712940669517946  0.3370486253010220  0.1238512370962872
  0.6698357078990244  0.3363273343215398  0.6244173313458317
  0.6689753332424528  0.8342327013735044  0.1219375975519224
  0.6692952684906458  0.8360544334999923  0.6235566187901923
  0.0012351278368223  0.3369612573820417  0.3744131418176269
  0.0021518601700499  0.3350528360279300  0.8773993226962659
 -0.0028449523402487  0.8433677233280713  0.3774395597665680
  0.0011096131896584  0.8343947127682859  0.8745678860980431
  0.3372337077182633  0.3381116906131018  0.3767623127436720
  0.3361290284103383  0.3366091599014096  0.8762053692870789
  0.3390971630578504  0.8354162622676129  0.3774525923844035
  0.3367887980905079  0.8363886237940795  0.8762462583316510
  0.6709699364678022  0.3372622656684881  0.3768906372553268
  0.6697649101963189  0.3363116902655238  0.8758831399752098
  0.6689731676417172  0.8346181680610346  0.3785778180091793
  0.6693281189405857  0.8359840782938865  0.8756106800176180
  0.1630169213094518  0.1793985504307489  0.3892142232673757
  0.1687581939191932  0.1608252801963705  0.8728406893165243
  0.1681202523936220  0.6605997037212044  0.3761087590627544
  0.1692295343177123  0.6625997159911550  0.8733575010471397
  0.5079748086795233  0.1653709558358280  0.3762207651522425
  0.5036812116992566  0.1634491326907002  0.8726490726374680
  0.5037020995537237  0.6620790850312920  0.3745241491889524
  0.5029555704170021  0.6630388076847292  0.8730076701432838
  0.8403386597741158  0.1626621586710789  0.3714385329809446
  0.8351385159984674  0.1625346252564456  0.8728354497381794
  0.8352852147744135  0.6649659521766494  0.3741439843705583
  0.8353796403076900  0.6625399393715682  0.8732429357185942
  0.1680377398437090  0.4159114569731253  0.2506351739821166
  0.1667028469501339  0.4111325376176931  0.7505017784264422
  0.1642117411821772  0.8991365276455433  0.2492261278014232
  0.1676592960045133  0.9104913990234975  0.7500465230110993
  0.5012688931313257  0.4126927825085061  0.2502246988188260
  0.5003498026178606  0.4120103053515678  0.7499643492296219
  0.5007489411488276  0.9096989815869770  0.2500793427821623
  0.5003374275929336  0.9121349540394278  0.7498005320589854
  0.8324837777921975  0.4144664537062065  0.2502765577324060
  0.8334968909011581  0.4121311210148584  0.7501649667648961
  0.8277197179478524  0.9119972277660995  0.2498654590720345
  0.8322521875735135  0.9110783115987517  0.7492490888854932
 -0.0010368346671477  0.0847196560013184 -0.0047684381137369
  0.0008618340599328  0.0907488551469569  0.5044896304965880
 -0.0000333067827505  0.5887050338963518 -0.0007632232438001
 -0.0000774480670797  0.5889956763951908  0.5008316952126425
  0.3359104920894285  0.0869535904061206  0.0002614993627757
  0.3345249153337875  0.0876310166303672  0.4990063066048754
  0.3344018407494335  0.5871680746034771 -0.0006654201464523
  0.3343042506282592  0.5873792281308748  0.5006571675267325
  0.6669015719946511  0.0875586653466347 -0.0012006274638403
  0.6670098257676557  0.0879609518678938  0.5008649279991968
  0.6666178461303556  0.5867817558338273 -0.0009674350748081
  0.6668398256274477  0.5868274259955686  0.5009872024329716
  0.0420010255598416  0.1699586031033116  0.0911286177079820
  0.0393499015981272  0.1681527005627201  0.4089706636535617
  0.0339476766785457  0.1520044607944202  0.8893660051066876
  0.0352563272560984  0.6595343262098387  0.3976829471438605
  0.0353453006064136  0.6567473897170617  0.8948923105797573
  0.3704616554620263  0.1567558356880995  0.3950821088848406
  0.3700155679879708  0.1570237444251738  0.8966526746410731
  0.3698409552308539  0.6560646419800478  0.3967704608366370
  0.3693342749210456  0.6565945176872586  0.8955809077406897
  0.7012861075697457  0.1573917193809095  0.3970839770387701
  0.7017172083389448  0.1561973189899261  0.8946013513265501
  0.7017210644432976  0.6558235570720599  0.3971944794945651
  0.7016463239340004  0.6561156376954749  0.8952367918990597
  0.2018169718228521  0.0502768566150304  0.7501791712572491
  0.2025687404228121  0.5555024492851498  0.2507693459220996
  0.2012625980687159  0.5506772773523749  0.7502739581365305
  0.5286391819708148  0.0526605864062317  0.2499299269373418
  0.5337467406897722  0.0520896081464047  0.7496794950800698
  0.5340158617553195  0.5528857433106554  0.2500732059611210
  0.5337585672777205  0.5519694492356028  0.7498482548202288
  0.8505323354040909  0.0539264845135998  0.2489857614618500
  0.8652702735109700  0.0510778677943191  0.7497404551668683
  0.8663865379667377  0.5544312495006243  0.2503186087193689
  0.8670382379228060  0.5520838295424318  0.7501117939225821
  0.0627987060524413  0.4152787028750057  0.2508644179941203
  0.0611457918083628  0.4094712845673688  0.7507752356657476
  0.0609246384183136  0.8886553905356064  0.2490647034332649
  0.0621335516900966  0.9068112499243756  0.7497513716433214
  0.3954688375672784  0.4090878387408500  0.2502144180030950
  0.3945828100058776  0.4088687477767993  0.7499718246022560
  0.3947261861646112  0.9049665991104517  0.2499336147695617
  0.3945729992218744  0.9095060660265912  0.7499275874503584
  0.7267161800397054  0.4118724548161409  0.2506561552592516
  0.7277461065358497  0.4093447151293531  0.7501167349676486
  0.7219014692118029  0.8986711244009152  0.2501611610146203
  0.7265280950055987  0.9079786255457356  0.7493162408059981
  0.2301543975382531  0.0890025941279838  0.0014070812031819
  0.2286219823406926  0.0908226551404453  0.4974662614318591
  0.2286349489331540  0.5899134790821301 -0.0005069569351225
  0.2285345474207696  0.5906508295025800  0.5007911355194691
  0.5609829404727331  0.0903979468521278 -0.0015106548508280
  0.5610529341883573  0.0903836469666019  0.5015060486321484
  0.5608155481124560  0.5900429708253706 -0.0008927196321223
  0.5610122124186547  0.5898581791164070  0.5008925073475761
  0.8930212026022646  0.0851901558911494 -0.0032681818148176
  0.8950648804065724  0.0920135631480779  0.5013540434682223
  0.8942498291324218  0.5917342176089112 -0.0003753020924687
  0.8942287972839588  0.5916250844351124  0.5004575587319304
  0.2051241798340192  0.3470061382210980  0.1475031492941507
  0.2017828150575974  0.3417559353552789  0.6465405607483612
  0.2067872544884176  0.8423624199090813  0.1440717665341178
  0.2033311859587733  0.8420368881252587  0.6460461485501662
  0.5365790342524470  0.3438627818949224  0.1463959198960575
  0.5356566760334962  0.3428511940847481  0.6462851171973411
  0.5360804360655749  0.8423478832664878  0.1460967105233771
  0.5353503598862274  0.8429843968428903  0.6459888372616382
  0.8669200376212320  0.3462110078568506  0.1460124427850875
  0.8687650824033420  0.3433254729239564  0.6463827969978363
  0.8651774740185699  0.8434760197943000  0.1465002823846926
  0.8680996908467383  0.8430072428784590  0.6452879245815650
  0.0336547835978154  0.1531545628428443  0.6129849281808444
  0.0353794078026102  0.6584959452452288  0.1024784128263333
  0.0352215763590046  0.6573403117278481  0.6049552455776983
  0.3706106354165178  0.1566231502213060  0.1044600084947442
  0.3687566560834235  0.1570769731696082  0.6026760034500129
  0.3698858362161168  0.6558330225063855  0.1030545908348928
  0.3694579676204111  0.6565055316056071  0.6042213833618942
  0.7014588043491045  0.1570687926519675  0.1021699464365612
  0.7020226591269669  0.1566677852858651  0.6047136743268009
  0.7015836328822016  0.6554886158470047  0.1027147177708779
  0.7017292557690793  0.6561505404667041  0.6046469669678773
  0.0339813320755940  0.4489222978334951 -0.0001499812940222
  0.0339813121887605  0.4491010879316799  0.5005243556648024
  0.0316865831089845  0.9434670075247565 -0.0027827369281462
  0.0347386684526205  0.9502172181002637  0.5005961940174353
  0.3683065886870725  0.4471902589870262 -0.0007322780209111
  0.3678255010071808  0.4472164595469966  0.5007401487846116
  0.3702320920068562  0.9474976063818573  0.0001515056385804
  0.3682116471320436  0.9478149119065619  0.4996274749607489
  0.7002592721549639  0.4468054452913743 -0.0009749817779864
  0.7006264326742506  0.4469202667035134  0.5012047031345357
  0.6996439139683508  0.9470705650493710 -0.0009323121934917
  0.7002708482747166  0.9477693125393585  0.5006911848810299
  0.2036609325276654  0.3458104693278450  0.3542522890093769
  0.2020035742464920  0.3413422974472971  0.8543218733849103
  0.2064536775582317  0.8430139422597528  0.3550296293568323
  0.2031807669897077  0.8418632004999896  0.8541294374005868
  0.5364989238698010  0.3438552531343840  0.3542314235889891
  0.5357545384464328  0.3429106979457725  0.8537714746611792
  0.5358606426168906  0.8425843533620628  0.3544719455569959
  0.5355967031885871  0.8427377000819057  0.8535093549523416
  0.8679468067654339  0.3453664079882641  0.3539385842490664
  0.8685895202837233  0.3429010689525127  0.8541358411590704
  0.8656160196013306  0.8451182161422772  0.3540311274106323
  0.8675785581351120  0.8412467942911833  0.8526900244320911
 
  0.00000000E+00  0.00000000E+00  0.00000000E+00
  0.00000000E+00  0.00000000E+00  0.00000000E+00
  0.00000000E+00  0.00000000E+00  0.00000000E+00
  0.00000000E+00  0.00000000E+00  0.00000000E+00
  0.00000000E+00  0.00000000E+00  0.00000000E+00
  0.00000000E+00  0.00000000E+00  0.00000000E+00
  0.00000000E+00  0.00000000E+00  0.00000000E+00
  0.00000000E+00  0.00000000E+00  0.00000000E+00
  0.00000000E+00  0.00000000E+00  0.00000000E+00
  0.00000000E+00  0.00000000E+00  0.00000000E+00
  0.00000000E+00  0.00000000E+00  0.00000000E+00
  0.00000000E+00  0.00000000E+00  0.00000000E+00
  0.00000000E+00  0.00000000E+00  0.00000000E+00
  0.00000000E+00  0.00000000E+00  0.00000000E+00
  0.00000000E+00  0.00000000E+00  0.00000000E+00
  0.00000000E+00  0.00000000E+00  0.00000000E+00
  0.00000000E+00  0.00000000E+00  0.00000000E+00
  0.00000000E+00  0.00000000E+00  0.00000000E+00
  0.00000000E+00  0.00000000E+00  0.00000000E+00
  0.00000000E+00  0.00000000E+00  0.00000000E+00
  0.00000000E+00  0.00000000E+00  0.00000000E+00
  0.00000000E+00  0.00000000E+00  0.00000000E+00
  0.00000000E+00  0.00000000E+00  0.00000000E+00
  0.00000000E+00  0.00000000E+00  0.00000000E+00
  0.00000000E+00  0.00000000E+00  0.00000000E+00
  0.00000000E+00  0.00000000E+00  0.00000000E+00
  0.00000000E+00  0.00000000E+00  0.00000000E+00
  0.00000000E+00  0.00000000E+00  0.00000000E+00
  0.00000000E+00  0.00000000E+00  0.00000000E+00
  0.00000000E+00  0.00000000E+00  0.00000000E+00
  0.00000000E+00  0.00000000E+00  0.00000000E+00
  0.00000000E+00  0.00000000E+00  0.00000000E+00
  0.00000000E+00  0.00000000E+00  0.00000000E+00
  0.00000000E+00  0.00000000E+00  0.00000000E+00
  0.00000000E+00  0.00000000E+00  0.00000000E+00
  0.00000000E+00  0.00000000E+00  0.00000000E+00
  0.00000000E+00  0.00000000E+00  0.00000000E+00
  0.00000000E+00  0.00000000E+00  0.00000000E+00
  0.00000000E+00  0.00000000E+00  0.00000000E+00
  0.00000000E+00  0.00000000E+00  0.00000000E+00
  0.00000000E+00  0.00000000E+00  0.00000000E+00
  0.00000000E+00  0.00000000E+00  0.00000000E+00
  0.00000000E+00  0.00000000E+00  0.00000000E+00
  0.00000000E+00  0.00000000E+00  0.00000000E+00
  0.00000000E+00  0.00000000E+00  0.00000000E+00
  0.00000000E+00  0.00000000E+00  0.00000000E+00
  0.00000000E+00  0.00000000E+00  0.00000000E+00
  0.00000000E+00  0.00000000E+00  0.00000000E+00
  0.00000000E+00  0.00000000E+00  0.00000000E+00
  0.00000000E+00  0.00000000E+00  0.00000000E+00
  0.00000000E+00  0.00000000E+00  0.00000000E+00
  0.00000000E+00  0.00000000E+00  0.00000000E+00
  0.00000000E+00  0.00000000E+00  0.00000000E+00
  0.00000000E+00  0.00000000E+00  0.00000000E+00
  0.00000000E+00  0.00000000E+00  0.00000000E+00
  0.00000000E+00  0.00000000E+00  0.00000000E+00
  0.00000000E+00  0.00000000E+00  0.00000000E+00
  0.00000000E+00  0.00000000E+00  0.00000000E+00
  0.00000000E+00  0.00000000E+00  0.00000000E+00
  0.00000000E+00  0.00000000E+00  0.00000000E+00
  0.00000000E+00  0.00000000E+00  0.00000000E+00
  0.00000000E+00  0.00000000E+00  0.00000000E+00
  0.00000000E+00  0.00000000E+00  0.00000000E+00
  0.00000000E+00  0.00000000E+00  0.00000000E+00
  0.00000000E+00  0.00000000E+00  0.00000000E+00
  0.00000000E+00  0.00000000E+00  0.00000000E+00
  0.00000000E+00  0.00000000E+00  0.00000000E+00
  0.00000000E+00  0.00000000E+00  0.00000000E+00
  0.00000000E+00  0.00000000E+00  0.00000000E+00
  0.00000000E+00  0.00000000E+00  0.00000000E+00
  0.00000000E+00  0.00000000E+00  0.00000000E+00
  0.00000000E+00  0.00000000E+00  0.00000000E+00
  0.00000000E+00  0.00000000E+00  0.00000000E+00
  0.00000000E+00  0.00000000E+00  0.00000000E+00
  0.00000000E+00  0.00000000E+00  0.00000000E+00
  0.00000000E+00  0.00000000E+00  0.00000000E+00
  0.00000000E+00  0.00000000E+00  0.00000000E+00
  0.00000000E+00  0.00000000E+00  0.00000000E+00
  0.00000000E+00  0.00000000E+00  0.00000000E+00
  0.00000000E+00  0.00000000E+00  0.00000000E+00
  0.00000000E+00  0.00000000E+00  0.00000000E+00
  0.00000000E+00  0.00000000E+00  0.00000000E+00
  0.00000000E+00  0.00000000E+00  0.00000000E+00
  0.00000000E+00  0.00000000E+00  0.00000000E+00
  0.00000000E+00  0.00000000E+00  0.00000000E+00
  0.00000000E+00  0.00000000E+00  0.00000000E+00
  0.00000000E+00  0.00000000E+00  0.00000000E+00
  0.00000000E+00  0.00000000E+00  0.00000000E+00
  0.00000000E+00  0.00000000E+00  0.00000000E+00
  0.00000000E+00  0.00000000E+00  0.00000000E+00
  0.00000000E+00  0.00000000E+00  0.00000000E+00
  0.00000000E+00  0.00000000E+00  0.00000000E+00
  0.00000000E+00  0.00000000E+00  0.00000000E+00
  0.00000000E+00  0.00000000E+00  0.00000000E+00
  0.00000000E+00  0.00000000E+00  0.00000000E+00
  0.00000000E+00  0.00000000E+00  0.00000000E+00
  0.00000000E+00  0.00000000E+00  0.00000000E+00
  0.00000000E+00  0.00000000E+00  0.00000000E+00
  0.00000000E+00  0.00000000E+00  0.00000000E+00
  0.00000000E+00  0.00000000E+00  0.00000000E+00
  0.00000000E+00  0.00000000E+00  0.00000000E+00
  0.00000000E+00  0.00000000E+00  0.00000000E+00
  0.00000000E+00  0.00000000E+00  0.00000000E+00
  0.00000000E+00  0.00000000E+00  0.00000000E+00
  0.00000000E+00  0.00000000E+00  0.00000000E+00
  0.00000000E+00  0.00000000E+00  0.00000000E+00
  0.00000000E+00  0.00000000E+00  0.00000000E+00
  0.00000000E+00  0.00000000E+00  0.00000000E+00
  0.00000000E+00  0.00000000E+00  0.00000000E+00
  0.00000000E+00  0.00000000E+00  0.00000000E+00
  0.00000000E+00  0.00000000E+00  0.00000000E+00
  0.00000000E+00  0.00000000E+00  0.00000000E+00
  0.00000000E+00  0.00000000E+00  0.00000000E+00
  0.00000000E+00  0.00000000E+00  0.00000000E+00
  0.00000000E+00  0.00000000E+00  0.00000000E+00
  0.00000000E+00  0.00000000E+00  0.00000000E+00
  0.00000000E+00  0.00000000E+00  0.00000000E+00
  0.00000000E+00  0.00000000E+00  0.00000000E+00
  0.00000000E+00  0.00000000E+00  0.00000000E+00
  0.00000000E+00  0.00000000E+00  0.00000000E+00
  0.00000000E+00  0.00000000E+00  0.00000000E+00
  0.00000000E+00  0.00000000E+00  0.00000000E+00
  0.00000000E+00  0.00000000E+00  0.00000000E+00
  0.00000000E+00  0.00000000E+00  0.00000000E+00
  0.00000000E+00  0.00000000E+00  0.00000000E+00
  0.00000000E+00  0.00000000E+00  0.00000000E+00
  0.00000000E+00  0.00000000E+00  0.00000000E+00
  0.00000000E+00  0.00000000E+00  0.00000000E+00
  0.00000000E+00  0.00000000E+00  0.00000000E+00
  0.00000000E+00  0.00000000E+00  0.00000000E+00
  0.00000000E+00  0.00000000E+00  0.00000000E+00
  0.00000000E+00  0.00000000E+00  0.00000000E+00
  0.00000000E+00  0.00000000E+00  0.00000000E+00
  0.00000000E+00  0.00000000E+00  0.00000000E+00
  0.00000000E+00  0.00000000E+00  0.00000000E+00
  0.00000000E+00  0.00000000E+00  0.00000000E+00
  0.00000000E+00  0.00000000E+00  0.00000000E+00
  0.00000000E+00  0.00000000E+00  0.00000000E+00
  0.00000000E+00  0.00000000E+00  0.00000000E+00
  0.00000000E+00  0.00000000E+00  0.00000000E+00
  0.00000000E+00  0.00000000E+00  0.00000000E+00
  0.00000000E+00  0.00000000E+00  0.00000000E+00
  0.00000000E+00  0.00000000E+00  0.00000000E+00
  0.00000000E+00  0.00000000E+00  0.00000000E+00
  0.00000000E+00  0.00000000E+00  0.00000000E+00
  0.00000000E+00  0.00000000E+00  0.00000000E+00
  0.00000000E+00  0.00000000E+00  0.00000000E+00
  0.00000000E+00  0.00000000E+00  0.00000000E+00
  0.00000000E+00  0.00000000E+00  0.00000000E+00
  0.00000000E+00  0.00000000E+00  0.00000000E+00
  0.00000000E+00  0.00000000E+00  0.00000000E+00
  0.00000000E+00  0.00000000E+00  0.00000000E+00
  0.00000000E+00  0.00000000E+00  0.00000000E+00
  0.00000000E+00  0.00000000E+00  0.00000000E+00
  0.00000000E+00  0.00000000E+00  0.00000000E+00
  0.00000000E+00  0.00000000E+00  0.00000000E+00
  0.00000000E+00  0.00000000E+00  0.00000000E+00
  0.00000000E+00  0.00000000E+00  0.00000000E+00
  0.00000000E+00  0.00000000E+00  0.00000000E+00
  0.00000000E+00  0.00000000E+00  0.00000000E+00
  0.00000000E+00  0.00000000E+00  0.00000000E+00
  0.00000000E+00  0.00000000E+00  0.00000000E+00
  0.00000000E+00  0.00000000E+00  0.00000000E+00
  0.00000000E+00  0.00000000E+00  0.00000000E+00
  0.00000000E+00  0.00000000E+00  0.00000000E+00
  0.00000000E+00  0.00000000E+00  0.00000000E+00
  0.00000000E+00  0.00000000E+00  0.00000000E+00
  0.00000000E+00  0.00000000E+00  0.00000000E+00
  0.00000000E+00  0.00000000E+00  0.00000000E+00
  0.00000000E+00  0.00000000E+00  0.00000000E+00
  0.00000000E+00  0.00000000E+00  0.00000000E+00
  0.00000000E+00  0.00000000E+00  0.00000000E+00
  0.00000000E+00  0.00000000E+00  0.00000000E+00
  0.00000000E+00  0.00000000E+00  0.00000000E+00
  0.00000000E+00  0.00000000E+00  0.00000000E+00
  0.00000000E+00  0.00000000E+00  0.00000000E+00
  0.00000000E+00  0.00000000E+00  0.00000000E+00
  0.00000000E+00  0.00000000E+00  0.00000000E+00
  0.00000000E+00  0.00000000E+00  0.00000000E+00
  0.00000000E+00  0.00000000E+00  0.00000000E+00
  0.00000000E+00  0.00000000E+00  0.00000000E+00
  0.00000000E+00  0.00000000E+00  0.00000000E+00
  0.00000000E+00  0.00000000E+00  0.00000000E+00
  0.00000000E+00  0.00000000E+00  0.00000000E+00
  0.00000000E+00  0.00000000E+00  0.00000000E+00
  0.00000000E+00  0.00000000E+00  0.00000000E+00
  0.00000000E+00  0.00000000E+00  0.00000000E+00
  0.00000000E+00  0.00000000E+00  0.00000000E+00
  0.00000000E+00  0.00000000E+00  0.00000000E+00
  0.00000000E+00  0.00000000E+00  0.00000000E+00
