Li7 P2 N1 O7                            
   1.00000000000000     
     5.0392716286969126    0.0121238097842415   -0.0012528933655537
     0.0176604737136724    6.3179824356915324    0.0603819919531713
     0.0013272281583918    0.0519617615755007    5.2427115232720949
   Li   P    N    O 
     7     2     1     7
Direct
  0.0262402865387178  0.4907552200568858  0.1411654046189552
  0.5005689777482136  0.7384111233136997  0.2944107586582289
  0.5228762630750288  0.2739057613772130  0.3398473126422170
  0.0547445165595193  0.7321818068895217  0.6517876430159923
  0.0520521074572449  0.2557042805202461  0.6437165832799295
  0.4110593752440484  0.1059451367130119  0.9817960068140151
  0.7150080935849997 -0.0173928943691477  0.6320814379650664
  0.5275011382705915  0.4952778319893297  0.8118216219179892
  0.0016250338315263 -0.0000141725818801  0.1714204632546002
  0.1441211373021683  0.2004310210545956  0.2807995366743788
  0.1080640732099076  0.7797213596141807  0.2863472480290599
  0.6239824214290678  0.5036297929469219  0.0916792976579057
  0.2194101495822283  0.4955803135976146  0.8001662026596591
  0.6876549648325989 -0.0008077000990719  0.2197060320107346
  0.6384184901156348  0.6829398886958602  0.6500605307374367
  0.6219953462900973  0.2781640197667996  0.6991516958965166
  0.0491976249284327 -0.0144327894857812  0.8667322241673177
 
  0.00000000E+00  0.00000000E+00  0.00000000E+00
  0.00000000E+00  0.00000000E+00  0.00000000E+00
  0.00000000E+00  0.00000000E+00  0.00000000E+00
  0.00000000E+00  0.00000000E+00  0.00000000E+00
  0.00000000E+00  0.00000000E+00  0.00000000E+00
  0.00000000E+00  0.00000000E+00  0.00000000E+00
  0.00000000E+00  0.00000000E+00  0.00000000E+00
  0.00000000E+00  0.00000000E+00  0.00000000E+00
  0.00000000E+00  0.00000000E+00  0.00000000E+00
  0.00000000E+00  0.00000000E+00  0.00000000E+00
  0.00000000E+00  0.00000000E+00  0.00000000E+00
  0.00000000E+00  0.00000000E+00  0.00000000E+00
  0.00000000E+00  0.00000000E+00  0.00000000E+00
  0.00000000E+00  0.00000000E+00  0.00000000E+00
  0.00000000E+00  0.00000000E+00  0.00000000E+00
  0.00000000E+00  0.00000000E+00  0.00000000E+00
  0.00000000E+00  0.00000000E+00  0.00000000E+00
