Li5 P2 N1 O6                            
   1.00000000000000     
    -0.3895634208360029   -0.4063719012153760    5.2527225492634813
     5.8947555292075231   -0.4056725999522368   -0.4374736205046518
    -0.4022042812607718    5.1283324549706135   -0.4620883897275401
   Li   P    N    O 
     5     2     1     6
Direct
  0.5344076297773169  0.1726719074349988  0.0862385794355804
  0.2285987566390246  0.5403276000173705  0.1141111055034408
  0.5044937755466873  0.8973004433891587  0.5037603568343851
  0.9567829694856451  0.7000357525405847  0.6109830604226083
  0.8895801142455625  0.2048877748184926  0.6894683341086718
  0.3855513548429158  0.3841089131490508  0.5782471011956921
  0.0274496597293553  0.0087995453689215  0.1951140829123807
  0.2459747103578958  0.2470281632743938  0.2793976301296753
  0.5759100001184588  0.5891279449148996  0.5272763389379339
  0.1401836065818457  0.8059654165434623  0.3109272485345557
  0.5359934508179537  0.2236299668347891  0.7385053744973892
  0.9687346412609151  0.9613097582622646  0.8893779729806003
  0.1758487604112039  0.4684908327572343  0.7346168649196377
  0.7778015701852602  0.0434429806943772  0.3120339495874521
 
  0.00000000E+00  0.00000000E+00  0.00000000E+00
  0.00000000E+00  0.00000000E+00  0.00000000E+00
  0.00000000E+00  0.00000000E+00  0.00000000E+00
  0.00000000E+00  0.00000000E+00  0.00000000E+00
  0.00000000E+00  0.00000000E+00  0.00000000E+00
  0.00000000E+00  0.00000000E+00  0.00000000E+00
  0.00000000E+00  0.00000000E+00  0.00000000E+00
  0.00000000E+00  0.00000000E+00  0.00000000E+00
  0.00000000E+00  0.00000000E+00  0.00000000E+00
  0.00000000E+00  0.00000000E+00  0.00000000E+00
  0.00000000E+00  0.00000000E+00  0.00000000E+00
  0.00000000E+00  0.00000000E+00  0.00000000E+00
  0.00000000E+00  0.00000000E+00  0.00000000E+00
  0.00000000E+00  0.00000000E+00  0.00000000E+00
