Li5 P2 N1 O6                            
   1.00000000000000     
    -0.3836159649668422   -0.3817831099635379    5.2123792819352692
     5.9047828360727976   -0.4083741458051424   -0.4287631870825302
    -0.4049193126101978    5.1147807902134774   -0.4362553473953444
   Li   P    N    O 
     5     2     1     6
Direct
  0.5364023253429120  0.1741466293534123  0.0865694704621358
  0.2290936073379985  0.5401374872135959  0.1146959119176902
  0.5058278360185107  0.8972397318448649  0.5044141086606264
 -0.0430453554080681  0.6995606267166455  0.6112056259177934
 -0.1101504796384508  0.2046564860500829  0.6901189422457354
  0.3848977106812344  0.3838534834654019  0.5778498890901512
  0.0278892912588042  0.0085653317095653  0.1948157061246055
  0.2460441990094851  0.2466545717611958  0.2792574241844514
  0.5757941807120162  0.5887698583576373  0.5261723586873697
  0.1405065890313100  0.8057594956449932  0.3100568812900810
  0.5356800326493073  0.2244619338641974  0.7389886680337732
 -0.0301654422278793 -0.0384393033029434  0.8886946602964770
  0.1725336089251998  0.4684796910293634  0.7345821889744426
  0.7760028963076511  0.0432809762919869  0.3126361641146695
 
  0.00000000E+00  0.00000000E+00  0.00000000E+00
  0.00000000E+00  0.00000000E+00  0.00000000E+00
  0.00000000E+00  0.00000000E+00  0.00000000E+00
  0.00000000E+00  0.00000000E+00  0.00000000E+00
  0.00000000E+00  0.00000000E+00  0.00000000E+00
  0.00000000E+00  0.00000000E+00  0.00000000E+00
  0.00000000E+00  0.00000000E+00  0.00000000E+00
  0.00000000E+00  0.00000000E+00  0.00000000E+00
  0.00000000E+00  0.00000000E+00  0.00000000E+00
  0.00000000E+00  0.00000000E+00  0.00000000E+00
  0.00000000E+00  0.00000000E+00  0.00000000E+00
  0.00000000E+00  0.00000000E+00  0.00000000E+00
  0.00000000E+00  0.00000000E+00  0.00000000E+00
  0.00000000E+00  0.00000000E+00  0.00000000E+00
