Li7 P2 N1 O7                            
   1.00000000000000     
     4.8543783261870850   -0.0199219156259570   -0.0058366569830224
    -0.0211677908041951    5.4777543639234647    0.0640475195798292
    -0.0072051838764339    0.0736360997819921    6.3150454711339403
   Li   P    N    O 
     7     2     1     7
Direct
  0.0325399911434285  0.6286960669829045  0.2279591118223752
  0.0096673029597875  0.6795884432361590  0.7642121781280840
  0.5118611750278638  0.3283215399926104  0.7547395863039748
  0.5053394150709765  0.8490784508207175 -0.0069026549794921
  0.0317693638914641  0.1850201316051535  0.5344426482624562
  0.5030663070511266  0.3303796696381901  0.2439854736217489
  0.8742195033273426  0.9727796141406566  0.2802325659758024
  0.4953738080224305  0.8223764302032237  0.5025445071890522
  0.0087677529518979  0.1657356835027599 -0.0096655566782072
  0.0963284991949435  0.8915728891011258  0.0041640235978585
  0.1125218488350572  0.3271989253928507  0.7941750808884401
  0.6117449826000066  0.0940934632778910  0.4959994049109334
  0.1736651074334840  0.8273374797578168  0.4924858560084161
  0.6817127038789181  0.1943169843309184  0.0000499996497370
  0.6125299324240147  0.6941268474162162  0.2996744064772651
  0.1047939988222012  0.3011667191338604  0.2073672564311905
  0.5941283073650887  0.6842906614669487  0.7036461123903655
 
  0.00000000E+00  0.00000000E+00  0.00000000E+00
  0.00000000E+00  0.00000000E+00  0.00000000E+00
  0.00000000E+00  0.00000000E+00  0.00000000E+00
  0.00000000E+00  0.00000000E+00  0.00000000E+00
  0.00000000E+00  0.00000000E+00  0.00000000E+00
  0.00000000E+00  0.00000000E+00  0.00000000E+00
  0.00000000E+00  0.00000000E+00  0.00000000E+00
  0.00000000E+00  0.00000000E+00  0.00000000E+00
  0.00000000E+00  0.00000000E+00  0.00000000E+00
  0.00000000E+00  0.00000000E+00  0.00000000E+00
  0.00000000E+00  0.00000000E+00  0.00000000E+00
  0.00000000E+00  0.00000000E+00  0.00000000E+00
  0.00000000E+00  0.00000000E+00  0.00000000E+00
  0.00000000E+00  0.00000000E+00  0.00000000E+00
  0.00000000E+00  0.00000000E+00  0.00000000E+00
  0.00000000E+00  0.00000000E+00  0.00000000E+00
  0.00000000E+00  0.00000000E+00  0.00000000E+00
