Li5 P2 N1 O6                            
   1.00000000000000     
    -0.5249842797406814   -0.7175004364114402    4.9361217742746275
     6.4210606287668917   -0.4582444497491735   -0.6676831141200810
    -0.3903360027915745    4.7953095733336442   -0.8123447230721254
   Li   P    N    O 
     5     2     1     6
Direct
  0.4948166689231293  0.1614225874685388  0.0226650010729381
  0.1355725355304784  0.3913703522672907  0.1685428679976659
  0.4926275901969150  0.7993112037390123  0.3698788401467131
 -0.0674620862256663  0.6342767139041047  0.5148422994859645
 -0.0777235448409198  0.1972588532399544  0.6214758996541166
  0.5193951209248928  0.5097864679941755  0.8172850296015380
 -0.0823244739378627 -0.0904974773440725  0.0727828675304670
  0.7000007266309592  0.7373918052493907  0.7738361842527123
  0.1066847535115244  0.7962773398212405  0.2824960291366370
  0.6705166217465748  0.3261438035696157  0.7737735986297709
  0.5039572785384923  0.5240513894735690  0.1349574534808553
  0.0999916005449365  0.0892715705243843  0.9740575567590677
  0.2067421304765243  0.4487686412858900  0.5926522785233932
  0.7396320779800447  0.0151557488069046  0.2408110937281574
 
  0.00000000E+00  0.00000000E+00  0.00000000E+00
  0.00000000E+00  0.00000000E+00  0.00000000E+00
  0.00000000E+00  0.00000000E+00  0.00000000E+00
  0.00000000E+00  0.00000000E+00  0.00000000E+00
  0.00000000E+00  0.00000000E+00  0.00000000E+00
  0.00000000E+00  0.00000000E+00  0.00000000E+00
  0.00000000E+00  0.00000000E+00  0.00000000E+00
  0.00000000E+00  0.00000000E+00  0.00000000E+00
  0.00000000E+00  0.00000000E+00  0.00000000E+00
  0.00000000E+00  0.00000000E+00  0.00000000E+00
  0.00000000E+00  0.00000000E+00  0.00000000E+00
  0.00000000E+00  0.00000000E+00  0.00000000E+00
  0.00000000E+00  0.00000000E+00  0.00000000E+00
  0.00000000E+00  0.00000000E+00  0.00000000E+00
