Li28 P14 N14 O28
1.0
4.748969 0.000000 -0.000000
0.000000 5.328285 -0.150216
0.000000 0.000000 56.303787
Li P N O
28 14 14 28
Selective dynamics
direct
0.498444 0.418775 0.985428 T T T Li
0.498444 0.921761 0.957816 F F F Li
0.998444 0.081225 0.931239 F F F Li
0.998444 0.578240 0.958851 T T T Li
0.498444 0.918775 0.902095 F F F Li
0.498444 0.421760 0.874483 F F F Li
0.998444 0.581225 0.847905 F F F Li
0.998444 0.078240 0.875517 F F F Li
0.498444 0.418775 0.818761 F F F Li
0.498444 0.921761 0.791149 F F F Li
0.998444 0.081225 0.764572 F F F Li
0.998444 0.578240 0.792184 F F F Li
0.498444 0.918775 0.735428 F F F Li
0.498444 0.421760 0.707816 F F F Li
0.998444 0.581225 0.681239 F F F Li
0.998444 0.078240 0.708851 F F F Li
0.498444 0.418775 0.652095 F F F Li
0.498444 0.921760 0.624483 F F F Li
0.998444 0.081225 0.597905 F F F Li
0.998444 0.578240 0.625517 F F F Li
0.498444 0.918775 0.568761 F F F Li
0.498444 0.421761 0.541149 F F F Li
0.998444 0.581225 0.514572 F F F Li
0.998444 0.078240 0.542184 F F F Li
0.498444 0.418775 0.485428 F F F Li
0.498444 0.921761 0.457816 T T T Li
0.998444 0.081225 0.431239 T T T Li
0.998444 0.578240 0.458851 F F F Li
0.501489 0.423125 0.929479 F F F P
0.001489 0.076875 0.987187 T T T P
0.501489 0.923125 0.846146 F F F P
0.001489 0.576875 0.903854 F F F P
0.501489 0.423125 0.762813 F F F P
0.001489 0.076875 0.820521 F F F P
0.501489 0.923125 0.679479 F F F P
0.001489 0.576875 0.737188 F F F P
0.501489 0.423125 0.596146 F F F P
0.001489 0.076875 0.653854 F F F P
0.501489 0.923125 0.512813 F F F P
0.001489 0.576875 0.570521 F F F P
0.501489 0.423125 0.429479 T T T P
0.001489 0.076875 0.487188 F F F P
0.658824 0.056500 0.990583 T T T N
0.158824 0.443500 0.926083 F F F N
0.658824 0.556500 0.907250 F F F N
0.158824 0.943500 0.842750 F F F N
0.658824 0.056500 0.823917 F F F N
0.158824 0.443500 0.759417 F F F N
0.658824 0.556500 0.740583 F F F N
0.158824 0.943500 0.676083 F F F N
0.658824 0.056500 0.657250 F F F N
0.158824 0.443500 0.592750 F F F N
0.658824 0.556500 0.573917 F F F N
0.158824 0.943500 0.509417 F F F N
0.658824 0.056500 0.490583 F F F N
0.158824 0.443500 0.426083 T T T N
0.580899 0.555845 0.953708 F F F O
0.580899 0.138704 0.930534 F F F O
0.080899 0.944154 0.962959 T T T O
0.080899 0.361295 0.986133 T T T O
0.580899 0.055845 0.870375 F F F O
0.580899 0.638704 0.847200 F F F O
0.080899 0.444154 0.879625 F F F O
0.080899 0.861295 0.902800 F F F O
0.580899 0.555845 0.787041 F F F O
0.580899 0.138704 0.763867 F F F O
0.080899 0.944154 0.796292 F F F O
0.080899 0.361295 0.819466 F F F O
0.580899 0.055845 0.703708 F F F O
0.580899 0.638705 0.680534 F F F O
0.080899 0.444154 0.712959 F F F O
0.080899 0.861296 0.736133 F F F O
0.580899 0.555845 0.620375 F F F O
0.580899 0.138705 0.597200 F F F O
0.080899 0.944154 0.629625 F F F O
0.080899 0.361295 0.652800 F F F O
0.580899 0.055846 0.537041 F F F O
0.580899 0.638705 0.513867 F F F O
0.080899 0.444155 0.546292 F F F O
0.080899 0.861296 0.569466 F F F O
0.580899 0.555845 0.453708 T T T O
0.580899 0.138704 0.430534 T T T O
0.080899 0.944154 0.462959 F F F O
0.080899 0.361295 0.486133 F F F O
