Li5 P2 N1 O6                            
   1.00000000000000     
    -0.4107230921893661   -0.5047406968388766    4.9109059317165897
     6.1505223648559024   -0.3550847417020785   -0.5147476016669091
    -0.4251755836041871    5.2113392599881880   -0.6230659387054066
   Li   P    N    O 
     5     2     1     6
Direct
  0.4752525664904143  0.1093839470303764  0.0304615503575285
 -0.0959279684228801  0.4055152762107764  0.2890678065436277
  0.4925236569765143  0.7734113346677037  0.3070941327664093
  0.0465094673429809  0.7398851786632930  0.6336289386651321
 -0.0656560134572364  0.1997875570112239  0.6938968445132044
  0.5330372364910803  0.5079405989872561  0.7400473496636000
 -0.0716649623083592 -0.0913440994971323  0.1417394119620841
  0.8005417917449937  0.0697382383914932  0.3126853716272547
  0.6575428323415659  0.5625359939028247  0.5060833716419878
  0.1007421834675944  0.7464401745020292  0.2767852085522480
  0.6602710970155543  0.3280288684916652  0.8730251877313632
  0.6203676820643829  0.7348556583609349 -0.0426813701857342
  0.0770694420037920 -0.0120605762779458  0.9249312431215492
  0.2118179882496265  0.4658708495554993  0.6732919530397395
 
  0.00000000E+00  0.00000000E+00  0.00000000E+00
  0.00000000E+00  0.00000000E+00  0.00000000E+00
  0.00000000E+00  0.00000000E+00  0.00000000E+00
  0.00000000E+00  0.00000000E+00  0.00000000E+00
  0.00000000E+00  0.00000000E+00  0.00000000E+00
  0.00000000E+00  0.00000000E+00  0.00000000E+00
  0.00000000E+00  0.00000000E+00  0.00000000E+00
  0.00000000E+00  0.00000000E+00  0.00000000E+00
  0.00000000E+00  0.00000000E+00  0.00000000E+00
  0.00000000E+00  0.00000000E+00  0.00000000E+00
  0.00000000E+00  0.00000000E+00  0.00000000E+00
  0.00000000E+00  0.00000000E+00  0.00000000E+00
  0.00000000E+00  0.00000000E+00  0.00000000E+00
  0.00000000E+00  0.00000000E+00  0.00000000E+00
