Li12 P28
1.0
7.722508 0.000000 0.000000
0.000000 9.978980 0.000000
0.000000 0.000000 10.709336
Li P
12 28
direct
0.850185 0.307382 0.816212 Li
0.350185 0.192618 0.183788 Li
0.149815 0.807382 0.683788 Li
0.649815 0.692618 0.316212 Li
0.568698 0.026280 0.015039 Li
0.068698 0.473720 0.984961 Li
0.431302 0.526280 0.484961 Li
0.931302 0.973720 0.515039 Li
0.401918 0.301123 0.691024 Li
0.901918 0.198877 0.308976 Li
0.598082 0.801123 0.808976 Li
0.098082 0.698877 0.191024 Li
0.280567 0.875063 0.318431 P
0.780567 0.624937 0.681569 P
0.719433 0.375063 0.181569 P
0.219433 0.124937 0.818431 P
0.637535 0.047995 0.387710 P
0.137535 0.452005 0.612290 P
0.362465 0.547995 0.112290 P
0.862465 0.952005 0.887710 P
0.533535 0.942671 0.565642 P
0.033535 0.557329 0.434358 P
0.466465 0.442671 0.934358 P
0.966465 0.057329 0.065642 P
0.405625 0.133862 0.494860 P
0.905625 0.366138 0.505140 P
0.594375 0.633862 0.005140 P
0.094375 0.866138 0.994860 P
0.316720 0.927556 0.881174 P
0.816720 0.572444 0.118826 P
0.683280 0.427556 0.618826 P
0.183280 0.072444 0.381174 P
0.129046 0.218717 0.994585 P
0.629046 0.281283 0.005415 P
0.870954 0.718717 0.505415 P
0.370954 0.781283 0.494585 P
0.966252 0.070983 0.733888 P
0.466252 0.429017 0.266112 P
0.033748 0.570983 0.766112 P
0.533748 0.929017 0.233888 P
