Li140 P140 O420
1.0
5.521558 0.000000 0.000000
0.000000 16.540545 2.677750
0.000000 0.000000 119.816820
Li P O
140 140 420
direct
0.494607 0.818220 0.105674 Li+
0.505393 0.318220 0.050118 Li+
0.484419 0.934004 0.008103 Li+
0.515581 0.434004 0.063659 Li+
0.505784 0.049457 0.021483 Li+
0.494216 0.549457 0.077038 Li+
0.507224 0.164548 0.034768 Li+
0.492776 0.664548 0.090324 Li+
0.992783 0.241566 0.042589 Li+
0.007217 0.741566 0.098145 Li+
0.521194 0.318286 0.105912 Li+
0.478806 0.818286 0.050357 Li+
0.476313 0.433730 0.008256 Li+
0.523687 0.933730 0.063812 Li+
0.533250 0.550453 0.021499 Li+
0.466750 0.050453 0.077054 Li+
0.477737 0.667016 0.034807 Li+
0.522263 0.167016 0.090363 Li+
0.960889 0.743634 0.042811 Li+
0.039111 0.243634 0.098366 Li+
0.494607 0.818220 0.216785 Li+
0.505393 0.318220 0.161229 Li+
0.484419 0.934004 0.119214 Li+
0.515581 0.434004 0.174770 Li+
0.505784 0.049457 0.132594 Li+
0.494216 0.549457 0.188150 Li+
0.507224 0.164548 0.145879 Li+
0.492776 0.664548 0.201435 Li+
0.992783 0.241566 0.153700 Li+
0.007217 0.741566 0.209256 Li+
0.521194 0.318286 0.217023 Li+
0.478806 0.818286 0.161468 Li+
0.476313 0.433730 0.119367 Li+
0.523687 0.933730 0.174923 Li+
0.533250 0.550453 0.132610 Li+
0.466750 0.050453 0.188165 Li+
0.477737 0.667016 0.145918 Li+
0.522263 0.167016 0.201474 Li+
0.960889 0.743634 0.153922 Li+
0.039111 0.243634 0.209477 Li+
0.494607 0.818220 0.327896 Li+
0.505393 0.318220 0.272340 Li+
0.484419 0.934004 0.230325 Li+
0.515581 0.434004 0.285881 Li+
0.505784 0.049457 0.243705 Li+
0.494216 0.549457 0.299261 Li+
0.507224 0.164548 0.256991 Li+
0.492776 0.664548 0.312546 Li+
0.992783 0.241566 0.264811 Li+
0.007217 0.741566 0.320367 Li+
0.521194 0.318286 0.328135 Li+
0.478806 0.818286 0.272579 Li+
0.476313 0.433730 0.230478 Li+
0.523687 0.933730 0.286034 Li+
0.533250 0.550453 0.243721 Li+
0.466750 0.050453 0.299277 Li+
0.477737 0.667016 0.257029 Li+
0.522263 0.167016 0.312585 Li+
0.960889 0.743634 0.265033 Li+
0.039111 0.243634 0.320589 Li+
0.494607 0.818220 0.439007 Li+
0.505393 0.318220 0.383451 Li+
0.484419 0.934004 0.341436 Li+
0.515581 0.434004 0.396992 Li+
0.505784 0.049457 0.354816 Li+
0.494216 0.549457 0.410372 Li+
0.507224 0.164548 0.368102 Li+
0.492776 0.664548 0.423657 Li+
0.992783 0.241566 0.375922 Li+
0.007217 0.741566 0.431478 Li+
0.521194 0.318286 0.439246 Li+
0.478806 0.818286 0.383690 Li+
0.476313 0.433730 0.341589 Li+
0.523687 0.933730 0.397145 Li+
0.533250 0.550453 0.354832 Li+
0.466750 0.050453 0.410388 Li+
0.477737 0.667016 0.368140 Li+
0.522263 0.167016 0.423696 Li+
0.960889 0.743634 0.376144 Li+
0.039111 0.243634 0.431700 Li+
0.494607 0.818220 0.550118 Li+
0.505393 0.318220 0.494562 Li+
0.484419 0.934004 0.452547 Li+
0.515581 0.434004 0.508103 Li+
0.505784 0.049457 0.465927 Li+
0.494216 0.549457 0.521483 Li+
0.507224 0.164548 0.479213 Li+
0.492776 0.664548 0.534768 Li+
0.992783 0.241566 0.487033 Li+
0.007217 0.741566 0.542589 Li+
0.521194 0.318286 0.550357 Li+
0.478806 0.818286 0.494801 Li+
0.476313 0.433730 0.452701 Li+
0.523687 0.933730 0.508256 Li+
0.533250 0.550453 0.465943 Li+
0.466750 0.050453 0.521499 Li+
0.477737 0.667016 0.479252 Li+
0.522263 0.167016 0.534807 Li+
0.960889 0.743634 0.487255 Li+
0.039111 0.243634 0.542811 Li+
0.494607 0.818220 0.661229 Li+
0.505393 0.318220 0.605674 Li+
0.484419 0.934004 0.563659 Li+
0.515581 0.434004 0.619214 Li+
0.505784 0.049457 0.577039 Li+
0.494216 0.549457 0.632594 Li+
0.507224 0.164548 0.590324 Li+
0.492776 0.664548 0.645880 Li+
0.992783 0.241566 0.598145 Li+
0.007217 0.741566 0.653700 Li+
0.521194 0.318286 0.661468 Li+
0.478806 0.818286 0.605912 Li+
0.476313 0.433730 0.563812 Li+
0.523687 0.933730 0.619367 Li+
0.533250 0.550453 0.577054 Li+
0.466750 0.050453 0.632610 Li+
0.477737 0.667016 0.590363 Li+
0.522263 0.167016 0.645918 Li+
0.960889 0.743634 0.598366 Li+
0.039111 0.243634 0.653922 Li+
0.494607 0.818220 0.772340 Li+
0.505393 0.318220 0.716785 Li+
0.484419 0.934004 0.674770 Li+
0.515581 0.434004 0.730325 Li+
0.505784 0.049457 0.688150 Li+
0.494216 0.549457 0.743705 Li+
0.507224 0.164548 0.701435 Li+
0.492776 0.664548 0.756991 Li+
0.992783 0.241566 0.709256 Li+
0.007217 0.741566 0.764811 Li+
0.521194 0.318286 0.772579 Li+
0.478806 0.818286 0.717023 Li+
0.476313 0.433730 0.674923 Li+
0.523687 0.933730 0.730478 Li+
0.533250 0.550453 0.688165 Li+
0.466750 0.050453 0.743721 Li+
0.477737 0.667016 0.701474 Li+
0.522263 0.167016 0.757029 Li+
0.960889 0.743634 0.709477 Li+
0.039111 0.243634 0.765033 Li+
0.185377 0.000413 0.099396 P5+
0.814623 0.500413 0.043841 P5+
0.843317 0.093280 0.000899 P5+
0.156683 0.593280 0.056455 P5+
0.188444 0.197061 0.011093 P5+
0.811556 0.697061 0.066648 P5+
0.828977 0.308311 0.019895 P5+
0.171023 0.808311 0.075451 P5+
0.159739 0.408249 0.031012 P5+
0.840261 0.908249 0.086568 P5+
0.843930 0.574567 0.109586 P5+
0.156070 0.074567 0.054030 P5+
0.174322 0.674438 0.009642 P5+
0.825678 0.174438 0.065197 P5+
0.812278 0.786455 0.018403 P5+
0.187722 0.286455 0.073959 P5+
0.151901 0.889856 0.028671 P5+
0.848099 0.389856 0.084226 P5+
0.809867 0.982845 0.041259 P5+
0.190133 0.482845 0.096815 P5+
0.185377 0.000413 0.210508 P5+
0.814623 0.500413 0.154952 P5+
0.843317 0.093280 0.112010 P5+
0.156683 0.593280 0.167566 P5+
0.188444 0.197061 0.122204 P5+
0.811556 0.697061 0.177760 P5+
0.828977 0.308311 0.131006 P5+
0.171023 0.808311 0.186562 P5+
0.159739 0.408249 0.142123 P5+
0.840261 0.908249 0.197679 P5+
0.843930 0.574567 0.220697 P5+
0.156070 0.074567 0.165141 P5+
0.174322 0.674438 0.120753 P5+
0.825678 0.174438 0.176308 P5+
0.812278 0.786455 0.129514 P5+
0.187722 0.286455 0.185070 P5+
0.151901 0.889856 0.139782 P5+
0.848099 0.389856 0.195338 P5+
0.809867 0.982845 0.152371 P5+
0.190133 0.482845 0.207926 P5+
0.185377 0.000413 0.321619 P5+
0.814623 0.500413 0.266063 P5+
0.843317 0.093280 0.223121 P5+
0.156683 0.593280 0.278677 P5+
0.188444 0.197061 0.233315 P5+
0.811556 0.697061 0.288871 P5+
0.828977 0.308311 0.242117 P5+
0.171023 0.808311 0.297673 P5+
0.159739 0.408249 0.253235 P5+
0.840261 0.908249 0.308790 P5+
0.843930 0.574567 0.331808 P5+
0.156070 0.074567 0.276253 P5+
0.174322 0.674438 0.231864 P5+
0.825678 0.174438 0.287419 P5+
0.812278 0.786455 0.240625 P5+
0.187722 0.286455 0.296181 P5+
0.151901 0.889856 0.250893 P5+
0.848099 0.389856 0.306449 P5+
0.809867 0.982845 0.263482 P5+
0.190133 0.482845 0.319037 P5+
0.185377 0.000413 0.432730 P5+
0.814623 0.500413 0.377174 P5+
0.843317 0.093280 0.334233 P5+
0.156683 0.593280 0.389788 P5+
0.188444 0.197061 0.344426 P5+
0.811556 0.697061 0.399982 P5+
0.828977 0.308311 0.353228 P5+
0.171023 0.808311 0.408784 P5+
0.159739 0.408249 0.364346 P5+
0.840261 0.908249 0.419901 P5+
0.843930 0.574567 0.442919 P5+
0.156070 0.074567 0.387364 P5+
0.174322 0.674438 0.342975 P5+
0.825678 0.174438 0.398531 P5+
0.812278 0.786455 0.351736 P5+
0.187722 0.286455 0.407292 P5+
0.151901 0.889856 0.362004 P5+
0.848099 0.389856 0.417560 P5+
0.809867 0.982845 0.374593 P5+
0.190133 0.482845 0.430148 P5+
0.185377 0.000413 0.543841 P5+
0.814623 0.500413 0.488285 P5+
0.843317 0.093280 0.445344 P5+
0.156683 0.593280 0.500899 P5+
0.188444 0.197061 0.455537 P5+
0.811556 0.697061 0.511093 P5+
0.828977 0.308311 0.464339 P5+
0.171023 0.808311 0.519895 P5+
0.159739 0.408249 0.475457 P5+
0.840261 0.908249 0.531012 P5+
0.843930 0.574567 0.554030 P5+
0.156070 0.074567 0.498475 P5+
0.174322 0.674438 0.454086 P5+
0.825678 0.174438 0.509642 P5+
0.812278 0.786455 0.462848 P5+
0.187722 0.286455 0.518403 P5+
0.151901 0.889856 0.473115 P5+
0.848099 0.389856 0.528671 P5+
0.809867 0.982845 0.485704 P5+
0.190133 0.482845 0.541260 P5+
0.185377 0.000413 0.654952 P5+
0.814623 0.500413 0.599396 P5+
0.843317 0.093280 0.556455 P5+
0.156683 0.593280 0.612010 P5+
0.188444 0.197061 0.566648 P5+
0.811556 0.697061 0.622204 P5+
0.828977 0.308311 0.575451 P5+
0.171023 0.808311 0.631006 P5+
0.159739 0.408249 0.586568 P5+
0.840261 0.908249 0.642123 P5+
0.843930 0.574567 0.665142 P5+
0.156070 0.074567 0.609586 P5+
0.174322 0.674438 0.565197 P5+
0.825678 0.174438 0.620753 P5+
0.812278 0.786455 0.573959 P5+
0.187722 0.286455 0.629514 P5+
0.151901 0.889856 0.584226 P5+
0.848099 0.389856 0.639782 P5+
0.809867 0.982845 0.596815 P5+
0.190133 0.482845 0.652371 P5+
0.185377 0.000413 0.766063 P5+
0.814623 0.500413 0.710508 P5+
0.843317 0.093280 0.667566 P5+
0.156683 0.593280 0.723121 P5+
0.188444 0.197061 0.677760 P5+
0.811556 0.697061 0.733315 P5+
0.828977 0.308311 0.686562 P5+
0.171023 0.808311 0.742117 P5+
0.159739 0.408249 0.697679 P5+
0.840261 0.908249 0.753235 P5+
0.843930 0.574567 0.776253 P5+
0.156070 0.074567 0.720697 P5+
0.174322 0.674438 0.676308 P5+
0.825678 0.174438 0.731864 P5+
0.812278 0.786455 0.685070 P5+
0.187722 0.286455 0.740625 P5+
0.151901 0.889856 0.695338 P5+
0.848099 0.389856 0.750893 P5+
0.809867 0.982845 0.707926 P5+
0.190133 0.482845 0.763482 P5+
0.069000 0.035413 0.110037 O2-
0.931000 0.535413 0.054481 O2-
0.951087 0.140628 0.010590 O2-
0.048913 0.640628 0.066146 O2-
0.080018 0.275856 0.015395 O2-
0.919982 0.775856 0.070951 O2-
0.926681 0.392259 0.023378 O2-
0.073319 0.892259 0.078934 O2-
0.942022 0.978148 0.093051 O2-
0.057978 0.478148 0.037496 O2-
0.076781 0.590622 0.006119 O2-
0.923219 0.090622 0.061675 O2-
0.921841 0.709404 0.013681 O2-
0.078159 0.209404 0.069237 O2-
0.049265 0.843555 0.018778 O2-
0.950735 0.343555 0.074334 O2-
0.918787 0.943480 0.030857 O2-
0.081213 0.443480 0.086412 O2-
0.944691 0.504327 0.103089 O2-
0.055309 0.004327 0.047534 O2-
0.322795 0.926111 0.104497 O2-
0.677205 0.426111 0.048942 O2-
0.313918 0.066074 0.091622 O2-
0.686082 0.566074 0.036066 O2-
0.643576 0.041349 0.006560 O2-
0.356424 0.541349 0.062115 O2-
0.795305 0.153257 0.101507 O2-
0.204695 0.653257 0.045951 O2-
0.351974 0.154647 0.020086 O2-
0.648026 0.654647 0.075641 O2-
0.281781 0.224590 0.110417 O2-
0.718219 0.724590 0.054862 O2-
0.751546 0.252705 0.030414 O2-
0.248454 0.752705 0.085970 O2-
0.656290 0.330648 0.010293 O2-
0.343710 0.830648 0.065848 O2-
0.215121 0.332841 0.039278 O2-
0.784879 0.832841 0.094834 O2-
0.355777 0.446708 0.023351 O2-
0.644223 0.946708 0.078906 O2-
0.649890 0.536665 0.006301 O2-
0.350110 0.036665 0.061856 O2-
0.785996 0.649394 0.101273 O2-
0.214004 0.149394 0.045717 O2-
0.340793 0.651785 0.019487 O2-
0.659207 0.151785 0.075042 O2-
0.258044 0.728542 0.110212 O2-
0.741956 0.228542 0.054656 O2-
0.725734 0.758375 0.030296 O2-
0.274266 0.258375 0.085852 O2-
0.642950 0.828801 0.009649 O2-
0.357050 0.328801 0.065204 O2-
0.205272 0.829973 0.039130 O2-
0.794728 0.329973 0.094685 O2-
0.347295 0.944360 0.023156 O2-
0.652705 0.444360 0.078712 O2-
0.677470 0.919559 0.049265 O2-
0.322530 0.419559 0.104820 O2-
0.678914 0.057634 0.035868 O2-
0.321086 0.557634 0.091424 O2-
0.069000 0.035413 0.221148 O2-
0.931000 0.535413 0.165592 O2-
0.951087 0.140628 0.121701 O2-
0.048913 0.640628 0.177257 O2-
0.080018 0.275856 0.126506 O2-
0.919982 0.775856 0.182062 O2-
0.926681 0.392259 0.134489 O2-
0.073319 0.892259 0.190045 O2-
0.942022 0.978148 0.204162 O2-
0.057978 0.478148 0.148607 O2-
0.076781 0.590622 0.117230 O2-
0.923219 0.090622 0.172786 O2-
0.921841 0.709404 0.124792 O2-
0.078159 0.209404 0.180348 O2-
0.049265 0.843555 0.129889 O2-
0.950735 0.343555 0.185445 O2-
0.918787 0.943480 0.141968 O2-
0.081213 0.443480 0.197524 O2-
0.944691 0.504327 0.214201 O2-
0.055309 0.004327 0.158645 O2-
0.322795 0.926111 0.215608 O2-
0.677205 0.426111 0.160053 O2-
0.313918 0.066074 0.202733 O2-
0.686082 0.566074 0.147177 O2-
0.643576 0.041349 0.117671 O2-
0.356424 0.541349 0.173226 O2-
0.795305 0.153257 0.212618 O2-
0.204695 0.653257 0.157062 O2-
0.351974 0.154647 0.131197 O2-
0.648026 0.654647 0.186752 O2-
0.281781 0.224590 0.221528 O2-
0.718219 0.724590 0.165973 O2-
0.751546 0.252705 0.141525 O2-
0.248454 0.752705 0.197081 O2-
0.656290 0.330648 0.121404 O2-
0.343710 0.830648 0.176959 O2-
0.215121 0.332841 0.150389 O2-
0.784879 0.832841 0.205945 O2-
0.355777 0.446708 0.134462 O2-
0.644223 0.946708 0.190018 O2-
0.649890 0.536665 0.117412 O2-
0.350110 0.036665 0.172967 O2-
0.785996 0.649394 0.212384 O2-
0.214004 0.149394 0.156828 O2-
0.340793 0.651785 0.130598 O2-
0.659207 0.151785 0.186153 O2-
0.258044 0.728542 0.221323 O2-
0.741956 0.228542 0.165767 O2-
0.725734 0.758375 0.141407 O2-
0.274266 0.258375 0.196963 O2-
0.642950 0.828801 0.120760 O2-
0.357050 0.328801 0.176316 O2-
0.205272 0.829973 0.150241 O2-
0.794728 0.329973 0.205796 O2-
0.347295 0.944360 0.134267 O2-
0.652705 0.444360 0.189823 O2-
0.677470 0.919559 0.160376 O2-
0.322530 0.419559 0.215931 O2-
0.678914 0.057634 0.146980 O2-
0.321086 0.557634 0.202535 O2-
0.069000 0.035413 0.332259 O2-
0.931000 0.535413 0.276704 O2-
0.951087 0.140628 0.232812 O2-
0.048913 0.640628 0.288368 O2-
0.080018 0.275856 0.237617 O2-
0.919982 0.775856 0.293173 O2-
0.926681 0.392259 0.245601 O2-
0.073319 0.892259 0.301156 O2-
0.942022 0.978148 0.315273 O2-
0.057978 0.478148 0.259718 O2-
0.076781 0.590622 0.228342 O2-
0.923219 0.090622 0.283897 O2-
0.921841 0.709404 0.235903 O2-
0.078159 0.209404 0.291459 O2-
0.049265 0.843555 0.241000 O2-
0.950735 0.343555 0.296556 O2-
0.918787 0.943480 0.253079 O2-
0.081213 0.443480 0.308635 O2-
0.944691 0.504327 0.325312 O2-
0.055309 0.004327 0.269756 O2-
0.322795 0.926111 0.326720 O2-
0.677205 0.426111 0.271164 O2-
0.313918 0.066074 0.313844 O2-
0.686082 0.566074 0.258288 O2-
0.643576 0.041349 0.228782 O2-
0.356424 0.541349 0.284337 O2-
0.795305 0.153257 0.323729 O2-
0.204695 0.653257 0.268173 O2-
0.351974 0.154647 0.242308 O2-
0.648026 0.654647 0.297863 O2-
0.281781 0.224590 0.332639 O2-
0.718219 0.724590 0.277084 O2-
0.751546 0.252705 0.252636 O2-
0.248454 0.752705 0.308192 O2-
0.656290 0.330648 0.232515 O2-
0.343710 0.830648 0.288070 O2-
0.215121 0.332841 0.261500 O2-
0.784879 0.832841 0.317056 O2-
0.355777 0.446708 0.245573 O2-
0.644223 0.946708 0.301129 O2-
0.649890 0.536665 0.228523 O2-
0.350110 0.036665 0.284078 O2-
0.785996 0.649394 0.323495 O2-
0.214004 0.149394 0.267939 O2-
0.340793 0.651785 0.241709 O2-
0.659207 0.151785 0.297265 O2-
0.258044 0.728542 0.332434 O2-
0.741956 0.228542 0.276878 O2-
0.725734 0.758375 0.252518 O2-
0.274266 0.258375 0.308074 O2-
0.642950 0.828801 0.231871 O2-
0.357050 0.328801 0.287427 O2-
0.205272 0.829973 0.261352 O2-
0.794728 0.329973 0.316908 O2-
0.347295 0.944360 0.245378 O2-
0.652705 0.444360 0.300934 O2-
0.677470 0.919559 0.271487 O2-
0.322530 0.419559 0.327042 O2-
0.678914 0.057634 0.258091 O2-
0.321086 0.557634 0.313646 O2-
0.069000 0.035413 0.443370 O2-
0.931000 0.535413 0.387815 O2-
0.951087 0.140628 0.343923 O2-
0.048913 0.640628 0.399479 O2-
0.080018 0.275856 0.348728 O2-
0.919982 0.775856 0.404284 O2-
0.926681 0.392259 0.356712 O2-
0.073319 0.892259 0.412267 O2-
0.942022 0.978148 0.426384 O2-
0.057978 0.478148 0.370829 O2-
0.076781 0.590622 0.339453 O2-
0.923219 0.090622 0.395008 O2-
0.921841 0.709404 0.347015 O2-
0.078159 0.209404 0.402570 O2-
0.049265 0.843555 0.352112 O2-
0.950735 0.343555 0.407667 O2-
0.918787 0.943480 0.364190 O2-
0.081213 0.443480 0.419746 O2-
0.944691 0.504327 0.436423 O2-
0.055309 0.004327 0.380867 O2-
0.322795 0.926111 0.437831 O2-
0.677205 0.426111 0.382275 O2-
0.313918 0.066074 0.424955 O2-
0.686082 0.566074 0.369399 O2-
0.643576 0.041349 0.339893 O2-
0.356424 0.541349 0.395448 O2-
0.795305 0.153257 0.434840 O2-
0.204695 0.653257 0.379284 O2-
0.351974 0.154647 0.353419 O2-
0.648026 0.654647 0.408975 O2-
0.281781 0.224590 0.443750 O2-
0.718219 0.724590 0.388195 O2-
0.751546 0.252705 0.363747 O2-
0.248454 0.752705 0.419303 O2-
0.656290 0.330648 0.343626 O2-
0.343710 0.830648 0.399181 O2-
0.215121 0.332841 0.372611 O2-
0.784879 0.832841 0.428167 O2-
0.355777 0.446708 0.356684 O2-
0.644223 0.946708 0.412240 O2-
0.649890 0.536665 0.339634 O2-
0.350110 0.036665 0.395189 O2-
0.785996 0.649394 0.434606 O2-
0.214004 0.149394 0.379050 O2-
0.340793 0.651785 0.352820 O2-
0.659207 0.151785 0.408376 O2-
0.258044 0.728542 0.443545 O2-
0.741956 0.228542 0.387990 O2-
0.725734 0.758375 0.363629 O2-
0.274266 0.258375 0.419185 O2-
0.642950 0.828801 0.342982 O2-
0.357050 0.328801 0.398538 O2-
0.205272 0.829973 0.372463 O2-
0.794728 0.329973 0.428019 O2-
0.347295 0.944360 0.356489 O2-
0.652705 0.444360 0.412045 O2-
0.677470 0.919559 0.382598 O2-
0.322530 0.419559 0.438154 O2-
0.678914 0.057634 0.369202 O2-
0.321086 0.557634 0.424757 O2-
0.069000 0.035413 0.554481 O2-
0.931000 0.535413 0.498926 O2-
0.951087 0.140628 0.455035 O2-
0.048913 0.640628 0.510590 O2-
0.080018 0.275856 0.459839 O2-
0.919982 0.775856 0.515395 O2-
0.926681 0.392259 0.467823 O2-
0.073319 0.892259 0.523378 O2-
0.942022 0.978148 0.537496 O2-
0.057978 0.478148 0.481940 O2-
0.076781 0.590622 0.450564 O2-
0.923219 0.090622 0.506119 O2-
0.921841 0.709404 0.458126 O2-
0.078159 0.209404 0.513681 O2-
0.049265 0.843555 0.463223 O2-
0.950735 0.343555 0.518778 O2-
0.918787 0.943480 0.475301 O2-
0.081213 0.443480 0.530857 O2-
0.944691 0.504327 0.547534 O2-
0.055309 0.004327 0.491978 O2-
0.322795 0.926111 0.548942 O2-
0.677205 0.426111 0.493386 O2-
0.313918 0.066074 0.536066 O2-
0.686082 0.566074 0.480511 O2-
0.643576 0.041349 0.451004 O2-
0.356424 0.541349 0.506560 O2-
0.795305 0.153257 0.545951 O2-
0.204695 0.653257 0.490395 O2-
0.351974 0.154647 0.464530 O2-
0.648026 0.654647 0.520086 O2-
0.281781 0.224590 0.554862 O2-
0.718219 0.724590 0.499306 O2-
0.751546 0.252705 0.474858 O2-
0.248454 0.752705 0.530414 O2-
0.656290 0.330648 0.454737 O2-
0.343710 0.830648 0.510293 O2-
0.215121 0.332841 0.483723 O2-
0.784879 0.832841 0.539278 O2-
0.355777 0.446708 0.467795 O2-
0.644223 0.946708 0.523351 O2-
0.649890 0.536665 0.450745 O2-
0.350110 0.036665 0.506300 O2-
0.785996 0.649394 0.545717 O2-
0.214004 0.149394 0.490161 O2-
0.340793 0.651785 0.463931 O2-
0.659207 0.151785 0.519487 O2-
0.258044 0.728542 0.554656 O2-
0.741956 0.228542 0.499101 O2-
0.725734 0.758375 0.474741 O2-
0.274266 0.258375 0.530296 O2-
0.642950 0.828801 0.454093 O2-
0.357050 0.328801 0.509649 O2-
0.205272 0.829973 0.483574 O2-
0.794728 0.329973 0.539130 O2-
0.347295 0.944360 0.467600 O2-
0.652705 0.444360 0.523156 O2-
0.677470 0.919559 0.493709 O2-
0.322530 0.419559 0.549265 O2-
0.678914 0.057634 0.480313 O2-
0.321086 0.557634 0.535868 O2-
0.069000 0.035413 0.665593 O2-
0.931000 0.535413 0.610037 O2-
0.951087 0.140628 0.566146 O2-
0.048913 0.640628 0.621701 O2-
0.080018 0.275856 0.570951 O2-
0.919982 0.775856 0.626506 O2-
0.926681 0.392259 0.578934 O2-
0.073319 0.892259 0.634490 O2-
0.942022 0.978148 0.648607 O2-
0.057978 0.478148 0.593051 O2-
0.076781 0.590622 0.561675 O2-
0.923219 0.090622 0.617231 O2-
0.921841 0.709404 0.569237 O2-
0.078159 0.209404 0.624792 O2-
0.049265 0.843555 0.574334 O2-
0.950735 0.343555 0.629889 O2-
0.918787 0.943480 0.586413 O2-
0.081213 0.443480 0.641968 O2-
0.944691 0.504327 0.658645 O2-
0.055309 0.004327 0.603089 O2-
0.322795 0.926111 0.660053 O2-
0.677205 0.426111 0.604497 O2-
0.313918 0.066074 0.647177 O2-
0.686082 0.566074 0.591622 O2-
0.643576 0.041349 0.562115 O2-
0.356424 0.541349 0.617671 O2-
0.795305 0.153257 0.657062 O2-
0.204695 0.653257 0.601507 O2-
0.351974 0.154647 0.575641 O2-
0.648026 0.654647 0.631197 O2-
0.281781 0.224590 0.665973 O2-
0.718219 0.724590 0.610417 O2-
0.751546 0.252705 0.585970 O2-
0.248454 0.752705 0.641525 O2-
0.656290 0.330648 0.565848 O2-
0.343710 0.830648 0.621404 O2-
0.215121 0.332841 0.594834 O2-
0.784879 0.832841 0.650389 O2-
0.355777 0.446708 0.578906 O2-
0.644223 0.946708 0.634462 O2-
0.649890 0.536665 0.561856 O2-
0.350110 0.036665 0.617412 O2-
0.785996 0.649394 0.656828 O2-
0.214004 0.149394 0.601273 O2-
0.340793 0.651785 0.575042 O2-
0.659207 0.151785 0.630598 O2-
0.258044 0.728542 0.665767 O2-
0.741956 0.228542 0.610212 O2-
0.725734 0.758375 0.585852 O2-
0.274266 0.258375 0.641407 O2-
0.642950 0.828801 0.565204 O2-
0.357050 0.328801 0.620760 O2-
0.205272 0.829973 0.594685 O2-
0.794728 0.329973 0.650241 O2-
0.347295 0.944360 0.578712 O2-
0.652705 0.444360 0.634267 O2-
0.677470 0.919559 0.604820 O2-
0.322530 0.419559 0.660376 O2-
0.678914 0.057634 0.591424 O2-
0.321086 0.557634 0.646980 O2-
0.069000 0.035413 0.776704 O2-
0.931000 0.535413 0.721148 O2-
0.951087 0.140628 0.677257 O2-
0.048913 0.640628 0.732812 O2-
0.080018 0.275856 0.682062 O2-
0.919982 0.775856 0.737617 O2-
0.926681 0.392259 0.690045 O2-
0.073319 0.892259 0.745601 O2-
0.942022 0.978148 0.759718 O2-
0.057978 0.478148 0.704162 O2-
0.076781 0.590622 0.672786 O2-
0.923219 0.090622 0.728342 O2-
0.921841 0.709404 0.680348 O2-
0.078159 0.209404 0.735903 O2-
0.049265 0.843555 0.685445 O2-
0.950735 0.343555 0.741000 O2-
0.918787 0.943480 0.697524 O2-
0.081213 0.443480 0.753079 O2-
0.944691 0.504327 0.769756 O2-
0.055309 0.004327 0.714201 O2-
0.322795 0.926111 0.771164 O2-
0.677205 0.426111 0.715608 O2-
0.313918 0.066074 0.758288 O2-
0.686082 0.566074 0.702733 O2-
0.643576 0.041349 0.673226 O2-
0.356424 0.541349 0.728782 O2-
0.795305 0.153257 0.768173 O2-
0.204695 0.653257 0.712618 O2-
0.351974 0.154647 0.686752 O2-
0.648026 0.654647 0.742308 O2-
0.281781 0.224590 0.777084 O2-
0.718219 0.724590 0.721528 O2-
0.751546 0.252705 0.697081 O2-
0.248454 0.752705 0.752636 O2-
0.656290 0.330648 0.676959 O2-
0.343710 0.830648 0.732515 O2-
0.215121 0.332841 0.705945 O2-
0.784879 0.832841 0.761500 O2-
0.355777 0.446708 0.690017 O2-
0.644223 0.946708 0.745573 O2-
0.649890 0.536665 0.672967 O2-
0.350110 0.036665 0.728523 O2-
0.785996 0.649394 0.767939 O2-
0.214004 0.149394 0.712384 O2-
0.340793 0.651785 0.686153 O2-
0.659207 0.151785 0.741709 O2-
0.258044 0.728542 0.776879 O2-
0.741956 0.228542 0.721323 O2-
0.725734 0.758375 0.696963 O2-
0.274266 0.258375 0.752518 O2-
0.642950 0.828801 0.676315 O2-
0.357050 0.328801 0.731871 O2-
0.205272 0.829973 0.705796 O2-
0.794728 0.329973 0.761352 O2-
0.347295 0.944360 0.689823 O2-
0.652705 0.444360 0.745378 O2-
0.677470 0.919559 0.715931 O2-
0.322530 0.419559 0.771487 O2-
0.678914 0.057634 0.702535 O2-
0.321086 0.557634 0.758091 O2-
