(2, 1, 1)                               
   1.00000000000000     
     3.3061535389142396   -0.0000000003642972    0.0000000063111774
    -0.0000000022120232    7.9471006011215808   -0.5616360861478796
     0.0000000626667915    0.0199253366129460   37.9042669222485316
   Li   O 
    32    16
Selective dynamics
Direct
  0.5000000000000000  0.6875000000000000  0.9375000000000000   F   F   F
  0.4999999772438858  0.0825574857836815  0.9883748123846023   T   T   T
  0.0000000000000000  0.5125000000000028  0.9125000000000014   F   F   F
 -0.0000000076481862  0.8459773121375445  0.9577458589930119   T   T   T
  0.0000000000000000  0.0125000000000028  0.9125000000000014   F   F   F
 -0.0000000104158120  0.3513538803841849  0.9658646123078223   T   T   T
  0.4999999954110624  0.5301595245811163  0.9856694483751417   T   T   T
  0.5000000000000000  0.1875000000000000  0.9375000000000000   F   F   F
  0.5000000000000000  0.9874999999999972  0.8374999999999986   F   F   F
  0.5000000000000000  0.3374999999999986  0.8875000000000028   F   F   F
  0.0000000000000000  0.8125000000000000  0.8125000000000000   F   F   F
  0.0000000000000000  0.1625000000000014  0.8624999999999972   F   F   F
  0.0000000000000000  0.3125000000000000  0.8125000000000000   F   F   F
  0.0000000000000000  0.6625000000000014  0.8624999999999972   F   F   F
  0.5000000000000000  0.8374999999999986  0.8875000000000028   F   F   F
  0.5000000000000000  0.4874999999999972  0.8374999999999986   F   F   F
  0.5000000000000000  0.2875000000000014  0.7374999999999972   F   F   F
  0.5000000000000000  0.6375000000000028  0.7875000000000014   F   F   F
  0.0000000000000000  0.1124999999999972  0.7124999999999986   F   F   F
  0.0000000000000000  0.4624999999999986  0.7625000000000028   F   F   F
  0.0000000000000000  0.6124999999999972  0.7124999999999986   F   F   F
  0.0000000000000000  0.9624999999999986  0.7625000000000028   F   F   F
  0.5000000000000000  0.1375000000000028  0.7875000000000014   F   F   F
  0.5000000000000000  0.7875000000000014  0.7374999999999972   F   F   F
  0.5000000015073516  0.6040729509818275  0.6422794152630340   T   T   T
  0.5000000000000000  0.9375000000000000  0.6875000000000000   F   F   F
  0.0000000066140078  0.3675312310133770  0.6116566607109524   T   T   T
  0.0000000000000000  0.7625000000000028  0.6625000000000014   F   F   F
  0.0000000095737063  0.9198121548023110  0.6143165505380580   T   T   T
  0.0000000000000000  0.2625000000000028  0.6625000000000014   F   F   F
  0.5000000000000000  0.4375000000000000  0.6875000000000000   F   F   F
  0.5000000062009072  0.0987494945795614  0.6341061465463577   T   T   T
  0.0000000000000000  0.2625000000000028  0.9125000000000014   F   F   F
 -0.0000000077059667  0.6196245042107019  0.9620381341893862   T   T   T
  0.5000000000000000  0.9375000000000000  0.9375000000000000   F   F   F
  0.4999999928925320  0.2937562949562451  0.9833758184774409   T   T   T
  0.0000000000000000  0.5625000000000000  0.8125000000000000   F   F   F
  0.0000000000000000  0.9125000000000014  0.8624999999999972   F   F   F
  0.5000000000000000  0.2374999999999972  0.8374999999999986   F   F   F
  0.5000000000000000  0.5874999999999986  0.8875000000000028   F   F   F
  0.0000000000000000  0.8624999999999972  0.7124999999999986   F   F   F
  0.0000000000000000  0.2124999999999986  0.7625000000000028   F   F   F
  0.5000000000000000  0.5375000000000014  0.7374999999999972   F   F   F
  0.5000000000000000  0.8875000000000028  0.7875000000000014   F   F   F
  0.0000000019889609  0.1562492323724954  0.6166045594085553   T   T   T
  0.0000000000000000  0.5125000000000028  0.6625000000000014   F   F   F
  0.5000000059549017  0.8303847872491140  0.6379476481790372   T   T   T
  0.5000000000000000  0.1875000000000000  0.6875000000000000   F   F   F
 
  0.00000000E+00  0.00000000E+00  0.00000000E+00
  0.00000000E+00  0.00000000E+00  0.00000000E+00
  0.00000000E+00  0.00000000E+00  0.00000000E+00
  0.00000000E+00  0.00000000E+00  0.00000000E+00
  0.00000000E+00  0.00000000E+00  0.00000000E+00
  0.00000000E+00  0.00000000E+00  0.00000000E+00
  0.00000000E+00  0.00000000E+00  0.00000000E+00
  0.00000000E+00  0.00000000E+00  0.00000000E+00
  0.00000000E+00  0.00000000E+00  0.00000000E+00
  0.00000000E+00  0.00000000E+00  0.00000000E+00
  0.00000000E+00  0.00000000E+00  0.00000000E+00
  0.00000000E+00  0.00000000E+00  0.00000000E+00
  0.00000000E+00  0.00000000E+00  0.00000000E+00
  0.00000000E+00  0.00000000E+00  0.00000000E+00
  0.00000000E+00  0.00000000E+00  0.00000000E+00
  0.00000000E+00  0.00000000E+00  0.00000000E+00
  0.00000000E+00  0.00000000E+00  0.00000000E+00
  0.00000000E+00  0.00000000E+00  0.00000000E+00
  0.00000000E+00  0.00000000E+00  0.00000000E+00
  0.00000000E+00  0.00000000E+00  0.00000000E+00
  0.00000000E+00  0.00000000E+00  0.00000000E+00
  0.00000000E+00  0.00000000E+00  0.00000000E+00
  0.00000000E+00  0.00000000E+00  0.00000000E+00
  0.00000000E+00  0.00000000E+00  0.00000000E+00
  0.00000000E+00  0.00000000E+00  0.00000000E+00
  0.00000000E+00  0.00000000E+00  0.00000000E+00
  0.00000000E+00  0.00000000E+00  0.00000000E+00
  0.00000000E+00  0.00000000E+00  0.00000000E+00
  0.00000000E+00  0.00000000E+00  0.00000000E+00
  0.00000000E+00  0.00000000E+00  0.00000000E+00
  0.00000000E+00  0.00000000E+00  0.00000000E+00
  0.00000000E+00  0.00000000E+00  0.00000000E+00
  0.00000000E+00  0.00000000E+00  0.00000000E+00
  0.00000000E+00  0.00000000E+00  0.00000000E+00
  0.00000000E+00  0.00000000E+00  0.00000000E+00
  0.00000000E+00  0.00000000E+00  0.00000000E+00
  0.00000000E+00  0.00000000E+00  0.00000000E+00
  0.00000000E+00  0.00000000E+00  0.00000000E+00
  0.00000000E+00  0.00000000E+00  0.00000000E+00
  0.00000000E+00  0.00000000E+00  0.00000000E+00
  0.00000000E+00  0.00000000E+00  0.00000000E+00
  0.00000000E+00  0.00000000E+00  0.00000000E+00
  0.00000000E+00  0.00000000E+00  0.00000000E+00
  0.00000000E+00  0.00000000E+00  0.00000000E+00
  0.00000000E+00  0.00000000E+00  0.00000000E+00
  0.00000000E+00  0.00000000E+00  0.00000000E+00
  0.00000000E+00  0.00000000E+00  0.00000000E+00
  0.00000000E+00  0.00000000E+00  0.00000000E+00
