(2, 1, 1)
1.0
3.294299 0.000000 -0.000000
0.000000 8.049253 -0.569168
0.000000 0.000000 38.134265
Li O
32 16
Selective dynamics
direct
0.500000 0.687500 0.937500 F F F Li+
0.500000 0.037500 0.987500 T T T Li+
0.000000 0.512500 0.912500 F F F Li+
0.000000 0.862500 0.962500 T T T Li+
0.000000 0.012500 0.912500 F F F Li+
0.000000 0.362500 0.962500 T T T Li+
0.500000 0.537500 0.987500 T T T Li+
0.500000 0.187500 0.937500 F F F Li+
0.500000 0.987500 0.837500 F F F Li+
0.500000 0.337500 0.887500 F F F Li+
1.000000 0.812500 0.812500 F F F Li+
1.000000 0.162500 0.862500 F F F Li+
1.000000 0.312500 0.812500 F F F Li+
0.000000 0.662500 0.862500 F F F Li+
0.500000 0.837500 0.887500 F F F Li+
0.500000 0.487500 0.837500 F F F Li+
0.500000 0.287500 0.737500 F F F Li+
0.500000 0.637500 0.787500 F F F Li+
1.000000 0.112500 0.712500 F F F Li+
1.000000 0.462500 0.762500 F F F Li+
1.000000 0.612500 0.712500 F F F Li+
1.000000 0.962500 0.762500 F F F Li+
0.500000 0.137500 0.787500 F F F Li+
0.500000 0.787500 0.737500 F F F Li+
0.500000 0.587500 0.637500 T T T Li+
0.500000 0.937500 0.687500 F F F Li+
1.000000 0.412500 0.612500 T T T Li+
1.000000 0.762500 0.662500 F F F Li+
1.000000 0.912500 0.612500 T T T Li+
1.000000 0.262500 0.662500 F F F Li+
0.500000 0.437500 0.687500 F F F Li+
0.500000 0.087500 0.637500 T T T Li+
1.000000 0.262500 0.912500 F F F O2-
0.000000 0.612500 0.962500 T T T O2-
0.500000 0.937500 0.937500 F F F O2-
0.500000 0.287500 0.987500 T T T O2-
1.000000 0.562500 0.812500 F F F O2-
0.000000 0.912500 0.862500 F F F O2-
0.500000 0.237500 0.837500 F F F O2-
0.500000 0.587500 0.887500 F F F O2-
1.000000 0.862500 0.712500 F F F O2-
1.000000 0.212500 0.762500 F F F O2-
0.500000 0.537500 0.737500 F F F O2-
0.500000 0.887500 0.787500 F F F O2-
1.000000 0.162500 0.612500 T T T O2-
1.000000 0.512500 0.662500 F F F O2-
0.500000 0.837500 0.637500 T T T O2-
0.500000 0.187500 0.687500 F F F O2-
