Li56 P28 O98
1.0
4.907295 0.000000 -1.895193
-0.730671 8.419349 5.315209
0.000000 0.000000 79.370284
Li P O
56 28 98
direct
0.744463 0.987971 0.065676 Li+
0.255537 0.012029 0.089848 Li+
0.395677 0.751653 0.046818 Li+
0.604323 0.248347 0.017796 Li+
0.027769 0.791276 0.066942 Li+
0.972231 0.208724 0.088581 Li+
0.056952 0.450796 0.014791 Li+
0.943048 0.549204 0.049824 Li+
0.744463 0.987971 0.156585 Li+
0.255537 0.012029 0.180757 Li+
0.395677 0.751653 0.137727 Li+
0.604323 0.248347 0.108706 Li+
0.027769 0.791276 0.157852 Li+
0.972231 0.208724 0.179490 Li+
0.056952 0.450796 0.105700 Li+
0.943048 0.549204 0.140733 Li+
0.744463 0.987971 0.247494 Li+
0.255537 0.012029 0.271666 Li+
0.395677 0.751653 0.228636 Li+
0.604323 0.248347 0.199615 Li+
0.027769 0.791276 0.248761 Li+
0.972231 0.208724 0.270400 Li+
0.056952 0.450796 0.196609 Li+
0.943048 0.549204 0.231642 Li+
0.744463 0.987971 0.338403 Li+
0.255537 0.012029 0.362575 Li+
0.395677 0.751653 0.319546 Li+
0.604323 0.248347 0.290524 Li+
0.027769 0.791276 0.339670 Li+
0.972231 0.208724 0.361309 Li+
0.056952 0.450796 0.287518 Li+
0.943048 0.549204 0.322551 Li+
0.744463 0.987971 0.429312 Li+
0.255537 0.012029 0.453484 Li+
0.395677 0.751653 0.410455 Li+
0.604323 0.248347 0.381433 Li+
0.027769 0.791276 0.430579 Li+
0.972231 0.208724 0.452218 Li+
0.056952 0.450796 0.378427 Li+
0.943048 0.549204 0.413460 Li+
0.744463 0.987971 0.520221 Li+
0.255537 0.012029 0.544394 Li+
0.395677 0.751653 0.501364 Li+
0.604323 0.248347 0.472342 Li+
0.027769 0.791276 0.521488 Li+
0.972231 0.208724 0.543127 Li+
0.056952 0.450796 0.469336 Li+
0.943048 0.549204 0.504369 Li+
0.744463 0.987971 0.611130 Li+
0.255537 0.012029 0.635303 Li+
0.395677 0.751653 0.592273 Li+
0.604323 0.248347 0.563251 Li+
0.027769 0.791276 0.612397 Li+
0.972231 0.208724 0.634036 Li+
0.056952 0.450796 0.560245 Li+
0.943048 0.549204 0.595278 Li+
0.573990 0.631956 0.000921 P5+
0.426010 0.368044 0.063694 P5+
0.784272 0.845502 0.020967 P5+
0.215728 0.154498 0.043648 P5+
0.573990 0.631956 0.091830 P5+
0.426010 0.368044 0.154603 P5+
0.784272 0.845502 0.111876 P5+
0.215728 0.154498 0.134557 P5+
0.573990 0.631956 0.182739 P5+
0.426010 0.368044 0.245512 P5+
0.784272 0.845502 0.202785 P5+
0.215728 0.154498 0.225466 P5+
0.573990 0.631956 0.273648 P5+
0.426010 0.368044 0.336421 P5+
0.784272 0.845502 0.293694 P5+
0.215728 0.154498 0.316375 P5+
0.573990 0.631956 0.364557 P5+
0.426010 0.368044 0.427330 P5+
0.784272 0.845502 0.384603 P5+
0.215728 0.154498 0.407284 P5+
0.573990 0.631956 0.455466 P5+
0.426010 0.368044 0.518240 P5+
0.784272 0.845502 0.475513 P5+
0.215728 0.154498 0.498193 P5+
0.573990 0.631956 0.546375 P5+
0.426010 0.368044 0.609149 P5+
0.784272 0.845502 0.566422 P5+
0.215728 0.154498 0.589102 P5+
0.519912 0.874340 0.021753 O2-
0.006130 0.790684 0.041725 O2-
0.993870 0.209316 0.022890 O2-
0.882911 0.981976 0.002256 O2-
0.732561 0.376455 0.066871 O2-
0.267439 0.623545 0.088653 O2-
0.314844 0.526190 0.054273 O2-
0.685156 0.473810 0.010342 O2-
0.338222 0.236504 0.083316 O2-
0.661778 0.763496 0.072208 O2-
0.733069 0.683894 0.019009 O2-
0.266931 0.316106 0.045605 O2-
0.117089 0.018024 0.062359 O2-
0.480088 0.125660 0.042862 O2-
0.519912 0.874340 0.112662 O2-
0.006130 0.790684 0.132634 O2-
0.993870 0.209316 0.113799 O2-
0.882911 0.981976 0.093165 O2-
0.732561 0.376455 0.157780 O2-
0.267439 0.623545 0.179562 O2-
0.314844 0.526190 0.145182 O2-
0.685156 0.473810 0.101251 O2-
0.338222 0.236504 0.174225 O2-
0.661778 0.763496 0.163117 O2-
0.733069 0.683894 0.109918 O2-
0.266931 0.316106 0.136514 O2-
0.117089 0.018024 0.153268 O2-
0.480088 0.125660 0.133771 O2-
0.519912 0.874340 0.203571 O2-
0.006130 0.790684 0.223543 O2-
0.993870 0.209316 0.204708 O2-
0.882911 0.981976 0.184074 O2-
0.732561 0.376455 0.248689 O2-
0.267439 0.623545 0.270471 O2-
0.314844 0.526190 0.236091 O2-
0.685156 0.473810 0.192160 O2-
0.338222 0.236504 0.265134 O2-
0.661778 0.763496 0.254026 O2-
0.733069 0.683894 0.200828 O2-
0.266931 0.316106 0.227424 O2-
0.117089 0.018024 0.244177 O2-
0.480088 0.125660 0.224680 O2-
0.519912 0.874340 0.294480 O2-
0.006130 0.790684 0.314452 O2-
0.993870 0.209316 0.295617 O2-
0.882911 0.981976 0.274983 O2-
0.732561 0.376455 0.339598 O2-
0.267439 0.623545 0.361381 O2-
0.314844 0.526190 0.327000 O2-
0.685156 0.473810 0.283069 O2-
0.338222 0.236504 0.356043 O2-
0.661778 0.763496 0.344935 O2-
0.733069 0.683894 0.291737 O2-
0.266931 0.316106 0.318333 O2-
0.117089 0.018024 0.335086 O2-
0.480088 0.125660 0.315589 O2-
0.519912 0.874340 0.385389 O2-
0.006130 0.790684 0.405362 O2-
0.993870 0.209316 0.386526 O2-
0.882911 0.981976 0.365892 O2-
0.732561 0.376455 0.430507 O2-
0.267439 0.623545 0.452290 O2-
0.314844 0.526190 0.417909 O2-
0.685156 0.473810 0.373978 O2-
0.338222 0.236504 0.446952 O2-
0.661778 0.763496 0.435844 O2-
0.733069 0.683894 0.382646 O2-
0.266931 0.316106 0.409242 O2-
0.117089 0.018024 0.425995 O2-
0.480088 0.125660 0.406498 O2-
0.519912 0.874340 0.476298 O2-
0.006130 0.790684 0.496271 O2-
0.993870 0.209316 0.477435 O2-
0.882911 0.981976 0.456801 O2-
0.732561 0.376455 0.521416 O2-
0.267439 0.623545 0.543199 O2-
0.314844 0.526190 0.508818 O2-
0.685156 0.473810 0.464887 O2-
0.338222 0.236504 0.537861 O2-
0.661778 0.763496 0.526753 O2-
0.733069 0.683894 0.473555 O2-
0.266931 0.316106 0.500151 O2-
0.117089 0.018024 0.516904 O2-
0.480088 0.125660 0.497407 O2-
0.519912 0.874340 0.567207 O2-
0.006130 0.790684 0.587180 O2-
0.993870 0.209316 0.568344 O2-
0.882911 0.981976 0.547710 O2-
0.732561 0.376455 0.612325 O2-
0.267439 0.623545 0.634108 O2-
0.314844 0.526190 0.599727 O2-
0.685156 0.473810 0.555796 O2-
0.338222 0.236504 0.628770 O2-
0.661778 0.763496 0.617663 O2-
0.733069 0.683894 0.564464 O2-
0.266931 0.316106 0.591060 O2-
0.117089 0.018024 0.607813 O2-
0.480088 0.125660 0.588316 O2-
