Li73 P24 N1 O95                         
   1.00000000000000     
    14.7144777827731641    0.0001803813095239    0.0018318984996952
     0.0000222613890721   10.5665883800086569   -0.0001712254838607
     0.0016150275067541   -0.0002369684746498   12.3039706731645850
   Li   P    N    O 
    73    24     1    95
Direct
  0.1746801060125957  0.4472393261707323  0.0007186176990248
  0.1695751323215550  0.4196786372532043  0.5008367208071977
  0.1711848894757472  0.9318166084629211  0.0009879086395397
  0.1699226588194446  0.9214266517973706  0.5006149952352664
  0.5014132218477018  0.4237037614051307  0.0003759483443922
  0.5027288855906787  0.4223079529621290  0.5006105417266506
  0.4983895596656869  0.9268838666989225  0.0004957928808638
  0.5032114697118816  0.9227486919325878  0.5005273444986676
  0.8341301193442481  0.4210165641774691  0.0004165814771732
  0.8348200032926641  0.4218562482107511  0.5003895552598627
  0.8365353601567942  0.9225907081364914  0.0004085511142405
  0.8359294502827064  0.9228217344666861  0.5005440750549637
  0.0037482836437599  0.0780096155264818  0.2508451033797075
  0.0029571966805289  0.0773336161106158  0.7496392125076730
  0.0018844561514599  0.5789768360119631  0.2513003987882829
  0.0014658381140357  0.5788236213435557  0.7496439869834453
  0.3417413855961705  0.0764143379659322  0.2507023359815223
  0.3405546791146887  0.0772668373103486  0.7520349861389173
  0.3369240388912791  0.5790332041837861  0.2497777889540346
  0.3366446094164328  0.5787835247373977  0.7517363483523128
  0.6687936339181851  0.0779533883458779  0.2500949184223301
  0.6685595180087692  0.0777282537721230  0.7509996430576688
  0.6689924732410046  0.5783731804339359  0.2503633962208917
  0.6685794243921966  0.5783260739006438  0.7504969453580803
  0.1893882108542985  0.1538427411457595  0.1448941508203099
  0.1692797494512083  0.1624991396520203  0.6243044695520488
  0.1698552370856740  0.6684579978376429  0.1283057793125369
  0.1688450267965333  0.6594278321025540  0.6261472784120462
  0.5001218215903187  0.1633912022920855  0.1253906987352219
  0.5027877772148679  0.1637745995276146  0.6272182940448410
  0.5036328104333915  0.6655660466797687  0.1270641095840264
  0.5021678323041336  0.6636041252391395  0.6268305645304790
  0.8348728852682127  0.1636187270436894  0.1272566911045300
  0.8352484594365879  0.1629623747664094  0.6269260673649518
  0.8361047800953978  0.6628863289667388  0.1263839761854950
  0.8353438747988172  0.6632340498038863  0.6263342822616524
 -0.0015523108529883  0.3393972042988823  0.1276387267006296
  0.0013140860908318  0.3367120242644595  0.6238934017037170
  0.0036313427145982  0.8371024239451579  0.1249136400502372
  0.0024044624617426  0.8363544029979139  0.6234682185082782
  0.3363271931701152  0.3361178595253472  0.1219754137041413
  0.3367292891137005  0.3359904123810080  0.6261591159005639
  0.3362574195443180  0.8430428708844113  0.1227273416341837
  0.3357175766162311  0.8357765450911665  0.6238561556362967
  0.6682305307410269  0.3369972611902777  0.1238877609060644
  0.6680253194791024  0.3368468555713884  0.6243399757851260
  0.6694240800872437  0.8376957207916412  0.1236868893438527
  0.6693654132477330  0.8369473352481120  0.6242882452959203
  0.0015195644092404  0.3366418813008290  0.3773688134627610
 -0.0018941378949736  0.3394228835323189  0.8734290813398821
  0.0027570976464182  0.8366129111409909  0.3775135620907137
  0.0034609479763381  0.8369345696662347  0.8761392867519767
  0.3369617456968235  0.3360487975437795  0.3753716490660121
  0.3352156153032999  0.3352404589073107  0.8794612245110824
  0.3358702200566661  0.8356544496728335  0.3776338762446133
  0.3359548955012563  0.8430642990677072  0.8787492620340738
  0.6684147947642144  0.3369172402724261  0.3765934243052769
  0.6680527148792694  0.3370208393219039  0.8769923001674705
  0.6697779866238397  0.8370798476044371  0.3769086851522040
  0.6690881054807748  0.8377224468557155  0.8775232223299286
  0.1694296704322795  0.1624235120214293  0.3768288804726488
  0.1821051224600241  0.1519580997217853  0.8565384622269500
  0.1689709027889822  0.6599144165297842  0.3753308893834963
  0.1697759448926915  0.6683383903674662  0.8730325518616201
  0.5030315402319717  0.1638965614635462  0.3741354790948200
  0.5008893332911726  0.1635183587081729  0.8758169192051015
  0.5023791882834929  0.6636105440200960  0.3742687849445196
  0.5035454630645051  0.6656057091355601  0.8740725231828189
  0.8355877153389544  0.1629813689381305  0.3738161432846147
  0.8343387131460048  0.1634481892911054  0.8733568319248486
  0.8355982304466958  0.6633374506372997  0.3743270158501673
  0.8358039492265936  0.6627448902181675  0.8744082604189982
  0.1312782390806922  0.2423337610180080  0.0017771313381091
  0.1649442908702949  0.4124814025303616  0.2479885326635516
  0.1645691442753077  0.4122283909984622  0.7535732647187322
  0.1678043089610192  0.9094939079106691  0.2547663566614042
  0.1674571124248886  0.9091208336551989  0.7462478718245318
  0.4997837099092746  0.4131606911263746  0.2497840497807891
  0.4994539593019717  0.4131318422672936  0.7514290774546152
  0.5009695434774503  0.9121207002663052  0.2510662094304573
  0.5005974100228696  0.9123499595756814  0.7501241680273926
  0.8325902360328307  0.4126448314995762  0.2507544423756357
  0.8321785803587429  0.4125563327768350  0.7500222431174624
  0.8341416204367834  0.9122465106438351  0.2504451192139352
  0.8337117659984551  0.9119718178623926  0.7505437979180951
 -0.0009691052379833  0.0880834686120797  0.0001924735516264
 -0.0001108826277854  0.0881496823503793  0.5005089031086630
  0.0008088027326441  0.5865741312917996  0.0004363314957750
 -0.0002506229880871  0.5866630302243844  0.5004385172324327
  0.3264645657517626  0.0935152415354368  0.0004481722550870
  0.3343143825309539  0.0880129691747888  0.5008328670464588
  0.3352252834861129  0.5945509907761096  0.0006597960926306
  0.3331833307463573  0.5854986927811316  0.5006796085682771
  0.6671399440497132  0.0883494686435637  0.0006160866722732
  0.6668872549537050  0.0881861447661321  0.5006168275175387
  0.6668006351924125  0.5882239349758831  0.0004755720257772
  0.6664684224714412  0.5878715381521625  0.5004921392680095
  0.2198571091373756  0.1038755704542934 -0.0001185679105896
  0.0353924527169934  0.1575718100707042  0.3966903782689535
  0.0364321287589067  0.1606750600740621  0.8977549973265284
  0.0349264996417156  0.6559598997810914  0.3965338152308326
  0.0358237207132227  0.6556639571039808  0.8964260388544706
  0.3699464056164384  0.1572281291042935  0.3971096569880148
  0.3710215597991665  0.1597603227935488  0.8962434700281978
  0.3681045059062888  0.6552968098254806  0.3968970884129613
  0.3710511985050825  0.6613188658995458  0.8963090959674852
  0.7022317516143065  0.1573502960419082  0.3965688731995848
  0.7021950077645694  0.1577132780786956  0.8964416223487039
  0.7021431976250796  0.6568808687099287  0.3965909519475070
  0.7023400186107284  0.6572727098084823  0.8965029358370543
  0.2043943698158267  0.0475597559135003  0.2613461855209345
  0.2036600614311737  0.0473840016778199  0.7398531789594828
  0.2002047296656428  0.5514515031730675  0.2485132216501615
  0.1999643026124681  0.5511574507857192  0.7531658754304310
  0.5338482902060507  0.0525384638643234  0.2511761023868580
  0.5339260338169409  0.0525379627159772  0.7499272381204436
  0.5337459193965038  0.5531015277372195  0.2504086935196380
  0.5333667791934472  0.5531421185413967  0.7505705858921838
  0.8684781100045733  0.0520945712379282  0.2500135835753413
  0.8679722606618810  0.0518809001117020  0.7507228435859754
  0.8669454728966951  0.5523665157791553  0.2504675810633254
  0.8665357943749789  0.5522387357187664  0.7502366039153314
  0.0592332685239368  0.4109586402247445  0.2513194597580865
  0.0588068724204405  0.4108668337039273  0.7499457325647306
  0.0617893264967272  0.9104341958021422  0.2521070973003791
  0.0613895969209777  0.9099383926021881  0.7488469670968217
  0.3938847650763999  0.4107441203277520  0.2494151819671057
  0.3935514318585780  0.4105854423604155  0.7521801958068611
  0.3952191538891192  0.9077980567483206  0.2519579727219734
  0.3948683897322219  0.9084662721838977  0.7494995032561037
  0.7268951905801522  0.4101344307333058  0.2505849612513749
  0.7264903456235640  0.4100588575750704  0.7501562187992716
  0.7283480307516070  0.9101392262070498  0.2503583476024042
  0.7279475927744554  0.9098142164897317  0.7507646751645785
  0.2284212169227044  0.0910830919391086  0.5006232465947827
  0.2292857920664121  0.6038470976314110  0.0007513367212768
  0.2272064103795883  0.5859886846793250  0.5006613323874120
  0.5616406033945707  0.0908461655026909  0.0008416950113678
  0.5611183853003940  0.0910432251197970  0.5005452876509117
  0.5610702888335045  0.5913469321940866  0.0005953500999221
  0.5606732120117740  0.5908251467624990  0.5004921414588701
  0.8935487577941092  0.0928040098185936 -0.0000777063105852
  0.8940782569813728  0.0910466042818014  0.5004282735410444
  0.8951047965082251  0.5874921768473799  0.0003757948729473
  0.8939413269019560  0.5890672075260495  0.5004071868064750
  0.1966504329371829  0.3448321004942178  0.1405809287134732
  0.2019543706502037  0.3404363471781349  0.6520945925137568
  0.2028989209835318  0.8433355211950033  0.1499770161263337
  0.2004960016125231  0.8367083158958029  0.6430099396371241
  0.5352480908620360  0.3444390442796902  0.1458078952598270
  0.5343923661236147  0.3437892686138407  0.6472411539591885
  0.5365195175546829  0.8441551917131710  0.1467982759299856
  0.5361367378270164  0.8430628073860214  0.6461530948331865
  0.8676276586753554  0.3433322133939624  0.1465744717936721
  0.8677616418989492  0.3429872529018700  0.6464140149290657
  0.8695581345220544  0.8426160588065760  0.1466695533583872
  0.8687211498643042  0.8429548987199150  0.6462820847900359
  0.0359227908257247  0.1613448680957479  0.1022504574835355
  0.0351796820334504  0.1576103497688050  0.6043941619700535
  0.0358124005202160  0.6558067458028770  0.1043895575240500
  0.0347986494122186  0.6558811229006142  0.6044217582995359
  0.3694920837779780  0.1593738923227134  0.1061187273271399
  0.3696213032989248  0.1570812838008242  0.6047259119577886
  0.3711091371027121  0.6611622347462195  0.1050768597402008
  0.3679785008886108  0.6552705723464436  0.6044977177654595
  0.7025745936391352  0.1577374915542612  0.1045198949360925
  0.7020044506109601  0.1573054493926599  0.6047159189623162
  0.7025555828030994  0.6572827882706216  0.1043466396577066
  0.7019873302337843  0.6568991404747662  0.6044057706167727
  0.0361071537483048  0.4462352959225998  0.0006008574254996
  0.0341253630873898  0.4468191766720404  0.5005429038907071
  0.0312162471168700  0.9482681092166736  0.0004469670344532
  0.0337464772959264  0.9483197862108136  0.5006090592499794
  0.3644928972779701  0.4526489496183285  0.0005854309833583
  0.3672479413635333  0.4456963182823331  0.5006826202627559
  0.3653481949001485  0.9524157345532398  0.0007066307403347
  0.3675030096256688  0.9477321390753911  0.5007185419363460
  0.7004414429628658  0.4481825976456993  0.0004573205347510
  0.6998812648388699  0.4476677079526001  0.5005142555536088
  0.7019552950695157  0.9487691405967104  0.0005029024059804
  0.7009411696982001  0.9483162060841970  0.5006377468165206
  0.2023162025164421  0.3403978327192744  0.3492806212454825
  0.1960293538723644  0.3442570703859674  0.8608149231862479
  0.2007234198102997  0.8369295107234908  0.3579754944118719
  0.2026124356953972  0.8429865348348237  0.8509967613203014
  0.5348563020227861  0.3437909740287119  0.3538388726615295
  0.5352980654239348  0.3445739835004833  0.8552265082656703
  0.5366818220284498  0.8429683716811486  0.3549666098475753
  0.5362231062535446  0.8441902134919649  0.8542949519365569
  0.8681292013102383  0.3430175773022913  0.3543498501709418
  0.8672228164586854  0.3432204957435183  0.8541646071844002
  0.8691076710803353  0.8431485658523266  0.3546500590445857
  0.8693044079635811  0.8424249216687602  0.8542511709361748
 
  0.00000000E+00  0.00000000E+00  0.00000000E+00
  0.00000000E+00  0.00000000E+00  0.00000000E+00
  0.00000000E+00  0.00000000E+00  0.00000000E+00
  0.00000000E+00  0.00000000E+00  0.00000000E+00
  0.00000000E+00  0.00000000E+00  0.00000000E+00
  0.00000000E+00  0.00000000E+00  0.00000000E+00
  0.00000000E+00  0.00000000E+00  0.00000000E+00
  0.00000000E+00  0.00000000E+00  0.00000000E+00
  0.00000000E+00  0.00000000E+00  0.00000000E+00
  0.00000000E+00  0.00000000E+00  0.00000000E+00
  0.00000000E+00  0.00000000E+00  0.00000000E+00
  0.00000000E+00  0.00000000E+00  0.00000000E+00
  0.00000000E+00  0.00000000E+00  0.00000000E+00
  0.00000000E+00  0.00000000E+00  0.00000000E+00
  0.00000000E+00  0.00000000E+00  0.00000000E+00
  0.00000000E+00  0.00000000E+00  0.00000000E+00
  0.00000000E+00  0.00000000E+00  0.00000000E+00
  0.00000000E+00  0.00000000E+00  0.00000000E+00
  0.00000000E+00  0.00000000E+00  0.00000000E+00
  0.00000000E+00  0.00000000E+00  0.00000000E+00
  0.00000000E+00  0.00000000E+00  0.00000000E+00
  0.00000000E+00  0.00000000E+00  0.00000000E+00
  0.00000000E+00  0.00000000E+00  0.00000000E+00
  0.00000000E+00  0.00000000E+00  0.00000000E+00
  0.00000000E+00  0.00000000E+00  0.00000000E+00
  0.00000000E+00  0.00000000E+00  0.00000000E+00
  0.00000000E+00  0.00000000E+00  0.00000000E+00
  0.00000000E+00  0.00000000E+00  0.00000000E+00
  0.00000000E+00  0.00000000E+00  0.00000000E+00
  0.00000000E+00  0.00000000E+00  0.00000000E+00
  0.00000000E+00  0.00000000E+00  0.00000000E+00
  0.00000000E+00  0.00000000E+00  0.00000000E+00
  0.00000000E+00  0.00000000E+00  0.00000000E+00
  0.00000000E+00  0.00000000E+00  0.00000000E+00
  0.00000000E+00  0.00000000E+00  0.00000000E+00
  0.00000000E+00  0.00000000E+00  0.00000000E+00
  0.00000000E+00  0.00000000E+00  0.00000000E+00
  0.00000000E+00  0.00000000E+00  0.00000000E+00
  0.00000000E+00  0.00000000E+00  0.00000000E+00
  0.00000000E+00  0.00000000E+00  0.00000000E+00
  0.00000000E+00  0.00000000E+00  0.00000000E+00
  0.00000000E+00  0.00000000E+00  0.00000000E+00
  0.00000000E+00  0.00000000E+00  0.00000000E+00
  0.00000000E+00  0.00000000E+00  0.00000000E+00
  0.00000000E+00  0.00000000E+00  0.00000000E+00
  0.00000000E+00  0.00000000E+00  0.00000000E+00
  0.00000000E+00  0.00000000E+00  0.00000000E+00
  0.00000000E+00  0.00000000E+00  0.00000000E+00
  0.00000000E+00  0.00000000E+00  0.00000000E+00
  0.00000000E+00  0.00000000E+00  0.00000000E+00
  0.00000000E+00  0.00000000E+00  0.00000000E+00
  0.00000000E+00  0.00000000E+00  0.00000000E+00
  0.00000000E+00  0.00000000E+00  0.00000000E+00
  0.00000000E+00  0.00000000E+00  0.00000000E+00
  0.00000000E+00  0.00000000E+00  0.00000000E+00
  0.00000000E+00  0.00000000E+00  0.00000000E+00
  0.00000000E+00  0.00000000E+00  0.00000000E+00
  0.00000000E+00  0.00000000E+00  0.00000000E+00
  0.00000000E+00  0.00000000E+00  0.00000000E+00
  0.00000000E+00  0.00000000E+00  0.00000000E+00
  0.00000000E+00  0.00000000E+00  0.00000000E+00
  0.00000000E+00  0.00000000E+00  0.00000000E+00
  0.00000000E+00  0.00000000E+00  0.00000000E+00
  0.00000000E+00  0.00000000E+00  0.00000000E+00
  0.00000000E+00  0.00000000E+00  0.00000000E+00
  0.00000000E+00  0.00000000E+00  0.00000000E+00
  0.00000000E+00  0.00000000E+00  0.00000000E+00
  0.00000000E+00  0.00000000E+00  0.00000000E+00
  0.00000000E+00  0.00000000E+00  0.00000000E+00
  0.00000000E+00  0.00000000E+00  0.00000000E+00
  0.00000000E+00  0.00000000E+00  0.00000000E+00
  0.00000000E+00  0.00000000E+00  0.00000000E+00
  0.00000000E+00  0.00000000E+00  0.00000000E+00
  0.00000000E+00  0.00000000E+00  0.00000000E+00
  0.00000000E+00  0.00000000E+00  0.00000000E+00
  0.00000000E+00  0.00000000E+00  0.00000000E+00
  0.00000000E+00  0.00000000E+00  0.00000000E+00
  0.00000000E+00  0.00000000E+00  0.00000000E+00
  0.00000000E+00  0.00000000E+00  0.00000000E+00
  0.00000000E+00  0.00000000E+00  0.00000000E+00
  0.00000000E+00  0.00000000E+00  0.00000000E+00
  0.00000000E+00  0.00000000E+00  0.00000000E+00
  0.00000000E+00  0.00000000E+00  0.00000000E+00
  0.00000000E+00  0.00000000E+00  0.00000000E+00
  0.00000000E+00  0.00000000E+00  0.00000000E+00
  0.00000000E+00  0.00000000E+00  0.00000000E+00
  0.00000000E+00  0.00000000E+00  0.00000000E+00
  0.00000000E+00  0.00000000E+00  0.00000000E+00
  0.00000000E+00  0.00000000E+00  0.00000000E+00
  0.00000000E+00  0.00000000E+00  0.00000000E+00
  0.00000000E+00  0.00000000E+00  0.00000000E+00
  0.00000000E+00  0.00000000E+00  0.00000000E+00
  0.00000000E+00  0.00000000E+00  0.00000000E+00
  0.00000000E+00  0.00000000E+00  0.00000000E+00
  0.00000000E+00  0.00000000E+00  0.00000000E+00
  0.00000000E+00  0.00000000E+00  0.00000000E+00
  0.00000000E+00  0.00000000E+00  0.00000000E+00
  0.00000000E+00  0.00000000E+00  0.00000000E+00
  0.00000000E+00  0.00000000E+00  0.00000000E+00
  0.00000000E+00  0.00000000E+00  0.00000000E+00
  0.00000000E+00  0.00000000E+00  0.00000000E+00
  0.00000000E+00  0.00000000E+00  0.00000000E+00
  0.00000000E+00  0.00000000E+00  0.00000000E+00
  0.00000000E+00  0.00000000E+00  0.00000000E+00
  0.00000000E+00  0.00000000E+00  0.00000000E+00
  0.00000000E+00  0.00000000E+00  0.00000000E+00
  0.00000000E+00  0.00000000E+00  0.00000000E+00
  0.00000000E+00  0.00000000E+00  0.00000000E+00
  0.00000000E+00  0.00000000E+00  0.00000000E+00
  0.00000000E+00  0.00000000E+00  0.00000000E+00
  0.00000000E+00  0.00000000E+00  0.00000000E+00
  0.00000000E+00  0.00000000E+00  0.00000000E+00
  0.00000000E+00  0.00000000E+00  0.00000000E+00
  0.00000000E+00  0.00000000E+00  0.00000000E+00
  0.00000000E+00  0.00000000E+00  0.00000000E+00
  0.00000000E+00  0.00000000E+00  0.00000000E+00
  0.00000000E+00  0.00000000E+00  0.00000000E+00
  0.00000000E+00  0.00000000E+00  0.00000000E+00
  0.00000000E+00  0.00000000E+00  0.00000000E+00
  0.00000000E+00  0.00000000E+00  0.00000000E+00
  0.00000000E+00  0.00000000E+00  0.00000000E+00
  0.00000000E+00  0.00000000E+00  0.00000000E+00
  0.00000000E+00  0.00000000E+00  0.00000000E+00
  0.00000000E+00  0.00000000E+00  0.00000000E+00
  0.00000000E+00  0.00000000E+00  0.00000000E+00
  0.00000000E+00  0.00000000E+00  0.00000000E+00
  0.00000000E+00  0.00000000E+00  0.00000000E+00
  0.00000000E+00  0.00000000E+00  0.00000000E+00
  0.00000000E+00  0.00000000E+00  0.00000000E+00
  0.00000000E+00  0.00000000E+00  0.00000000E+00
  0.00000000E+00  0.00000000E+00  0.00000000E+00
  0.00000000E+00  0.00000000E+00  0.00000000E+00
  0.00000000E+00  0.00000000E+00  0.00000000E+00
  0.00000000E+00  0.00000000E+00  0.00000000E+00
  0.00000000E+00  0.00000000E+00  0.00000000E+00
  0.00000000E+00  0.00000000E+00  0.00000000E+00
  0.00000000E+00  0.00000000E+00  0.00000000E+00
  0.00000000E+00  0.00000000E+00  0.00000000E+00
  0.00000000E+00  0.00000000E+00  0.00000000E+00
  0.00000000E+00  0.00000000E+00  0.00000000E+00
  0.00000000E+00  0.00000000E+00  0.00000000E+00
  0.00000000E+00  0.00000000E+00  0.00000000E+00
  0.00000000E+00  0.00000000E+00  0.00000000E+00
  0.00000000E+00  0.00000000E+00  0.00000000E+00
  0.00000000E+00  0.00000000E+00  0.00000000E+00
  0.00000000E+00  0.00000000E+00  0.00000000E+00
  0.00000000E+00  0.00000000E+00  0.00000000E+00
  0.00000000E+00  0.00000000E+00  0.00000000E+00
  0.00000000E+00  0.00000000E+00  0.00000000E+00
  0.00000000E+00  0.00000000E+00  0.00000000E+00
  0.00000000E+00  0.00000000E+00  0.00000000E+00
  0.00000000E+00  0.00000000E+00  0.00000000E+00
  0.00000000E+00  0.00000000E+00  0.00000000E+00
  0.00000000E+00  0.00000000E+00  0.00000000E+00
  0.00000000E+00  0.00000000E+00  0.00000000E+00
  0.00000000E+00  0.00000000E+00  0.00000000E+00
  0.00000000E+00  0.00000000E+00  0.00000000E+00
  0.00000000E+00  0.00000000E+00  0.00000000E+00
  0.00000000E+00  0.00000000E+00  0.00000000E+00
  0.00000000E+00  0.00000000E+00  0.00000000E+00
  0.00000000E+00  0.00000000E+00  0.00000000E+00
  0.00000000E+00  0.00000000E+00  0.00000000E+00
  0.00000000E+00  0.00000000E+00  0.00000000E+00
  0.00000000E+00  0.00000000E+00  0.00000000E+00
  0.00000000E+00  0.00000000E+00  0.00000000E+00
  0.00000000E+00  0.00000000E+00  0.00000000E+00
  0.00000000E+00  0.00000000E+00  0.00000000E+00
  0.00000000E+00  0.00000000E+00  0.00000000E+00
  0.00000000E+00  0.00000000E+00  0.00000000E+00
  0.00000000E+00  0.00000000E+00  0.00000000E+00
  0.00000000E+00  0.00000000E+00  0.00000000E+00
  0.00000000E+00  0.00000000E+00  0.00000000E+00
  0.00000000E+00  0.00000000E+00  0.00000000E+00
  0.00000000E+00  0.00000000E+00  0.00000000E+00
  0.00000000E+00  0.00000000E+00  0.00000000E+00
  0.00000000E+00  0.00000000E+00  0.00000000E+00
  0.00000000E+00  0.00000000E+00  0.00000000E+00
  0.00000000E+00  0.00000000E+00  0.00000000E+00
  0.00000000E+00  0.00000000E+00  0.00000000E+00
  0.00000000E+00  0.00000000E+00  0.00000000E+00
  0.00000000E+00  0.00000000E+00  0.00000000E+00
  0.00000000E+00  0.00000000E+00  0.00000000E+00
  0.00000000E+00  0.00000000E+00  0.00000000E+00
  0.00000000E+00  0.00000000E+00  0.00000000E+00
  0.00000000E+00  0.00000000E+00  0.00000000E+00
  0.00000000E+00  0.00000000E+00  0.00000000E+00
  0.00000000E+00  0.00000000E+00  0.00000000E+00
  0.00000000E+00  0.00000000E+00  0.00000000E+00
  0.00000000E+00  0.00000000E+00  0.00000000E+00
  0.00000000E+00  0.00000000E+00  0.00000000E+00
  0.00000000E+00  0.00000000E+00  0.00000000E+00
  0.00000000E+00  0.00000000E+00  0.00000000E+00
  0.00000000E+00  0.00000000E+00  0.00000000E+00
