Li71 P24 N1 O94                         
   1.00000000000000     
    14.7323239772599290   -0.0102806236306153    0.0060448672483691
    -0.0073846371620888   10.5544854372878554    0.0068215391283420
     0.0050476099224290    0.0079820330423634   12.3500577917828789
   Li   P    N    O 
    71    24     1    94
Direct
  0.1998564535734174  0.4160877414318815 -0.0008490592231646
  0.1667998028014400  0.4243155059728737  0.5032554712023736
  0.1709812758690392  0.9231176770196691  0.0019740875101415
  0.1709748394999670  0.9204997632458908  0.4986527423741435
  0.5010920549685101  0.4209156726078193  0.0003332031246570
  0.5029027796127052  0.4210538779829047  0.5002253658433250
  0.5028496412438537  0.9222460852506776  0.0002395495786520
  0.5043533698678025  0.9221037792156381  0.5003569254313379
  0.8329933518833332  0.4199717428316020  0.0011638966491749
  0.8372266853489528  0.4234498258196204  0.4996166490447629
  0.8360175318828139  0.9253650918899878  0.0008768345501539
  0.8376703198810410  0.9261551702364322  0.4981467000631155
  0.0014747919437652  0.0698584573762500  0.7457742745084972
  0.0008714356370268  0.5825768241050641  0.2526821076868147
  0.0011852719144981  0.5795475831637530  0.7467933748796763
  0.3357210515658985  0.0759673756894283  0.2509864857977682
  0.3371432318030428  0.0761799771399482  0.7495063785829520
  0.3375312231082312  0.5780241547361044  0.2509169515539620
  0.3373022541340014  0.5778733726612714  0.7487269597878743
  0.6758978652055079  0.0745595173590014  0.2507345512984927
  0.6697661500172427  0.0761976165777717  0.7492551180934983
  0.6691643644975530  0.5789322142668607  0.2511861478251841
  0.6683131258893973  0.5775798608445686  0.7493143196310116
  0.1677875181290130  0.1607833977064557  0.1276261874181656
  0.1690676584618653  0.1614065075852741  0.6259119139075757
  0.1710826451055954  0.6691835020834882  0.1256254911769979
  0.1695126262497040  0.6636015645427726  0.6258238751678590
  0.5040362564434776  0.1617608139217528  0.1272441498512804
  0.5033271065385030  0.1625289802041482  0.6262260622949745
  0.5037475503716781  0.6627706184359232  0.1266872729745409
  0.5030312793864963  0.6628448085499865  0.6257599105536640
  0.8345892514413680  0.1613554752982855  0.1253556723228478
  0.8369352292344997  0.1635679973251722  0.6254366649060620
  0.8325431364651192  0.6676404160322975  0.1287966403170822
  0.8348599895835789  0.6649870553714068  0.6255928004963248
 -0.0069657010377749  0.3021316942100234  0.1569102064556358
  0.0035344460206621  0.3363632584891201  0.6234958223115084
 -0.0003981156225374  0.8548961834458397  0.1285497933517896
  0.0032179431602255  0.8389651887493711  0.6215684397401248
  0.3373929397202041  0.3341099719986146  0.1276404060160815
  0.3351312817227809  0.3354514843267488  0.6229200596371142
  0.3387587017231272  0.8379396143519720  0.1243796822934228
  0.3374437683882374  0.8353599077173426  0.6237314770230211
  0.6684268481798468  0.3364863106130624  0.1247103430626048
  0.6696205395089189  0.3356062491827235  0.6240070580791079
  0.6675764821426505  0.8354743210462334  0.1224060795014772
  0.6695700448409821  0.8363239708592141  0.6233203402517008
  0.0066104250147294  0.3400852567138670  0.3796468292508221
 -0.0034372584614740  0.3172331390340776  0.8557464683385836
  0.0018004117669963  0.8469958088683226  0.3741037045025402
  0.0023470792531550  0.8429929634255857  0.8746832072824607
  0.3388348327630611  0.3307300470875554  0.3783302699447246
  0.3385137007143915  0.3339530097224307  0.8731830581837075
  0.3387566768350497  0.8364194524678251  0.3769125267259851
  0.3369063361193264  0.8375190231138149  0.8765860653775946
  0.6697507546630139  0.3359154538337762  0.3769721756714363
  0.6676866337174803  0.3360498004468631  0.8760292866071597
  0.6684793524346272  0.8349239415195969  0.3781027528986254
  0.6686122839915238  0.8368024603214117  0.8766834988325650
  0.1693001678649361  0.1536848088644327  0.3744750096042950
  0.1689087806523713  0.1600744066049013  0.8720809651629630
  0.1694895758241606  0.6647318033947607  0.3745453545021052
  0.1713266567166913  0.6649772930929687  0.8725382970950576
  0.5049595827246030  0.1610206891611225  0.3735046794945408
  0.5029619034359566  0.1622914155976960  0.8729498426588533
  0.5032360633063504  0.6624931903004427  0.3744248437420468
  0.5033556473223889  0.6631799658097933  0.8732138045826543
  0.8407022118331079  0.1633214362335954  0.3716765518558006
  0.8338698400603078  0.1621751308529114  0.8728666091065767
  0.8356376268081825  0.6671912142004282  0.3742088540898894
  0.8323978073265900  0.6651468544536334  0.8711750982573581
  0.1659990390121842  0.4160093068452624  0.2462539634567974
  0.1668825068042472  0.4128897269031913  0.7515815666750533
  0.1696621680524217  0.9089866064193918  0.2501050249149749
  0.1684233833789526  0.9104892518883425  0.7495484342013454
  0.5004246508489965  0.4119896091136106  0.2505755593290266
  0.4999942403256036  0.4120783572881792  0.7496180860699295
  0.5017097091986449  0.9118884607511299  0.2502886048303257
  0.5007653941739906  0.9115088863162708  0.7501345767602018
  0.8328702986873529  0.4145405582341748  0.2501993759627700
  0.8326946374144523  0.4136585687726226  0.7503660289641640
  0.8290047158011754  0.9134826206342365  0.2495815863845995
  0.8327002634636980  0.9117852211042581  0.7496798891389310
  0.0013340598242169  0.0904071865968720 -0.0074259034317804
  0.0028302307524209  0.0927854848488899  0.5034885279273276
 -0.0023802689123976  0.5983449695277115 -0.0000049239705800
 -0.0008301654392682  0.5906157689678315  0.5008849352324973
  0.3344553096115208  0.0879235955149376 -0.0002455322859912
  0.3355772898969223  0.0854614966419088  0.5010963488644736
  0.3337230277877687  0.5893079792063739 -0.0002954726525042
  0.3342021770478177  0.5866600114473677  0.5001630674503575
  0.6659471152317322  0.0881204740079022 -0.0009559384812621
  0.6679174984742031  0.0880275293763442  0.5006753746810925
  0.6655529350975226  0.5863177113411351 -0.0004787849183113
  0.6670411200707483  0.5863576567427744  0.5007222425646934
  0.2003637009202279  0.3500870663010178  0.3580694581353546
  0.0419999457770320  0.1700653157681664  0.4084665409335251
  0.0330351734279341  0.1498477320530028  0.8823051656687076
  0.0349288290073372  0.6587938671124324  0.3972170755108844
  0.0352231934668199  0.6590125869035210  0.8942798043818230
  0.3715633943472477  0.1536485780479126  0.3972562205893709
  0.3698162610515695  0.1568389936907620  0.8957066808236476
  0.3699557853382626  0.6552219977138651  0.3964514879829441
  0.3699698910265558  0.6561718459378687  0.8958032576059359
  0.7032837539849371  0.1579047768891085  0.3977223994295125
  0.7009288275058302  0.1567647203102127  0.8947228279851382
  0.7022643900846099  0.6557146655498153  0.3972720397472526
  0.7006060719488234  0.6558320503308734  0.8957506845710722
  0.2022856449764923  0.0499347901241512  0.2499277662219967
  0.2021519965305386  0.0505143777396542  0.7493941717815655
  0.2014071007490970  0.5555822366149714  0.2470359099284541
  0.2012380387321969  0.5525624741940841  0.7510492097010716
  0.5370232427126538  0.0512239982048346  0.2500468936519583
  0.5344723850632246  0.0516753251945693  0.7499112784985364
  0.5342187957314736  0.5521753628363176  0.2503468305108820
  0.5336588267890641  0.5522626343644055  0.7497958817616792
  0.8512508441385526  0.0558764242292116  0.2482577362914735
  0.8652306911154017  0.0522537659183901  0.7498262495873007
  0.8659668782934570  0.5551381994426124  0.2489355328749421
  0.8661697255505342  0.5539690997864377  0.7505256871867741
  0.0598008889735298  0.4132924755927060  0.2441242227314879
  0.0607995681216978  0.4123674159533835  0.7531572780113981
  0.0659445813240169  0.8966559271049663  0.2502383510733026
  0.0626923311122760  0.9057586900767581  0.7488618492977563
  0.3946453521436399  0.4092482320317966  0.2512224916128113
  0.3942045997785662  0.4092711502112560  0.7487474132746945
  0.3960426251907480  0.9103884704870218  0.2504299268845713
  0.3950656807320754  0.9083702719892178  0.7502092333566759
  0.7273167069630690  0.4104374380350199  0.2507689251988950
  0.7272289902090107  0.4094847952064228  0.7506700099640694
  0.7234525994275096  0.8977935168076023  0.2498808143830986
  0.7270700867246763  0.9069084398359595  0.7502391247515774
  0.2288516993024194  0.0912870024903416 -0.0006502205293888
  0.2300309145502288  0.0870557781605473  0.5013198069083934
  0.2277454026381626  0.5949897820441828 -0.0004910260108280
  0.2285142077219208  0.5908854877861186  0.5008740850223262
  0.5602730023498662  0.0902528358945218 -0.0007339418899942
  0.5621186687191464  0.0904285947372131  0.5008384165581640
  0.5598541897850686  0.5885449592660444 -0.0003771755886660
  0.5613009356323717  0.5887435774765163  0.5004838914444117
  0.8954827806063977  0.0935955634352260 -0.0022356891526069
  0.8967654281350216  0.0937786940804218  0.5001642332660567
  0.8923443152353199  0.5926284560472384 -0.0002293247677102
  0.8933940228527134  0.5936052482270792  0.5004961326500208
  0.2013818627287740  0.3471815869397935  0.1420377960931097
  0.2007145465487961  0.3426857054927310  0.6484750875394334
  0.2076942071569655  0.8430945251425452  0.1453924725130775
  0.2041169385379261  0.8410162570168317  0.6465340485764115
  0.5347780375080553  0.3433197176839391  0.1462793586894890
  0.5360325981453393  0.3427015762704277  0.6467612077871731
  0.5353515693107216  0.8421226283545481  0.1460804082937256
  0.5361896232801493  0.8422354474437096  0.6467596908824889
  0.8674513896502662  0.3448345402697234  0.1458929222211146
  0.8692368629429241  0.3444290620998906  0.6478436507253149
  0.8670631360258176  0.8460573283044778  0.1457634489704345
  0.8687839273985757  0.8437182343841751  0.6461642557700813
  0.0424048043609789  0.1692857339197098  0.0848215919718390
  0.0340901387267732  0.1554657251024649  0.6126183330790436
  0.0351010669058153  0.6612426837085493  0.1039871462030430
  0.0348105499898508  0.6593869630014707  0.6045382134554708
  0.3698683058027867  0.1567853843920891  0.1034171729325895
  0.3700248522398469  0.1561533115981222  0.6045147034181869
  0.3704969452029598  0.6556931273695731  0.1031646996278630
  0.3699723841872533  0.6555786042339916  0.6037184690584882
  0.7010997582314169  0.1582817048403093  0.1017848144151198
  0.7028587306678409  0.1564365662306989  0.6049203080492772
  0.7007563147210145  0.6555547402245431  0.1028254067244834
  0.7017286849057834  0.6558349935609350  0.6044609769083955
  0.0319008641012571  0.4503202952622926  0.5029950945631968
  0.0342799326225231  0.9498316603024498 -0.0019748685098982
  0.0362374121489358  0.9521281744596741  0.5006955577747311
  0.3618574917410479  0.4461123657970160 -0.0004063380422321
  0.3675637115651071  0.4463474601606333  0.5004804978829228
  0.3683575460522654  0.9479328255629567 -0.0004308001243242
  0.3701591862773130  0.9458474677214599  0.5019287287845484
  0.6996779615411248  0.4464291615755303 -0.0004345975923680
  0.7012049396539968  0.4464837155650236  0.5009705535927538
  0.7001921168408266  0.9482376994256372 -0.0004999578316363
  0.7014284392416065  0.9477849520579084  0.5005136082942671
  0.2018740893028387  0.3430490241960714  0.8552423888548685
  0.2077411168682617  0.8416773396123979  0.3539704327865636
  0.2032347397415537  0.8424822014770190  0.8541052585009205
  0.5359027784999215  0.3425342901263268  0.3538233731786068
  0.5341155347346159  0.3433681647110832  0.8540830575440955
  0.5357987865288011  0.8418833078241564  0.3541297054064936
  0.5357174514515283  0.8426585352738762  0.8541366196607225
  0.8705792501943949  0.3462777580436716  0.3526687009349355
  0.8683245994113412  0.3450147762625999  0.8548465196541826
  0.8678303922301360  0.8467774892569577  0.3528621217417218
  0.8686537299750444  0.8431997164195062  0.8536547628850806
 
  0.00000000E+00  0.00000000E+00  0.00000000E+00
  0.00000000E+00  0.00000000E+00  0.00000000E+00
  0.00000000E+00  0.00000000E+00  0.00000000E+00
  0.00000000E+00  0.00000000E+00  0.00000000E+00
  0.00000000E+00  0.00000000E+00  0.00000000E+00
  0.00000000E+00  0.00000000E+00  0.00000000E+00
  0.00000000E+00  0.00000000E+00  0.00000000E+00
  0.00000000E+00  0.00000000E+00  0.00000000E+00
  0.00000000E+00  0.00000000E+00  0.00000000E+00
  0.00000000E+00  0.00000000E+00  0.00000000E+00
  0.00000000E+00  0.00000000E+00  0.00000000E+00
  0.00000000E+00  0.00000000E+00  0.00000000E+00
  0.00000000E+00  0.00000000E+00  0.00000000E+00
  0.00000000E+00  0.00000000E+00  0.00000000E+00
  0.00000000E+00  0.00000000E+00  0.00000000E+00
  0.00000000E+00  0.00000000E+00  0.00000000E+00
  0.00000000E+00  0.00000000E+00  0.00000000E+00
  0.00000000E+00  0.00000000E+00  0.00000000E+00
  0.00000000E+00  0.00000000E+00  0.00000000E+00
  0.00000000E+00  0.00000000E+00  0.00000000E+00
  0.00000000E+00  0.00000000E+00  0.00000000E+00
  0.00000000E+00  0.00000000E+00  0.00000000E+00
  0.00000000E+00  0.00000000E+00  0.00000000E+00
  0.00000000E+00  0.00000000E+00  0.00000000E+00
  0.00000000E+00  0.00000000E+00  0.00000000E+00
  0.00000000E+00  0.00000000E+00  0.00000000E+00
  0.00000000E+00  0.00000000E+00  0.00000000E+00
  0.00000000E+00  0.00000000E+00  0.00000000E+00
  0.00000000E+00  0.00000000E+00  0.00000000E+00
  0.00000000E+00  0.00000000E+00  0.00000000E+00
  0.00000000E+00  0.00000000E+00  0.00000000E+00
  0.00000000E+00  0.00000000E+00  0.00000000E+00
  0.00000000E+00  0.00000000E+00  0.00000000E+00
  0.00000000E+00  0.00000000E+00  0.00000000E+00
  0.00000000E+00  0.00000000E+00  0.00000000E+00
  0.00000000E+00  0.00000000E+00  0.00000000E+00
  0.00000000E+00  0.00000000E+00  0.00000000E+00
  0.00000000E+00  0.00000000E+00  0.00000000E+00
  0.00000000E+00  0.00000000E+00  0.00000000E+00
  0.00000000E+00  0.00000000E+00  0.00000000E+00
  0.00000000E+00  0.00000000E+00  0.00000000E+00
  0.00000000E+00  0.00000000E+00  0.00000000E+00
  0.00000000E+00  0.00000000E+00  0.00000000E+00
  0.00000000E+00  0.00000000E+00  0.00000000E+00
  0.00000000E+00  0.00000000E+00  0.00000000E+00
  0.00000000E+00  0.00000000E+00  0.00000000E+00
  0.00000000E+00  0.00000000E+00  0.00000000E+00
  0.00000000E+00  0.00000000E+00  0.00000000E+00
  0.00000000E+00  0.00000000E+00  0.00000000E+00
  0.00000000E+00  0.00000000E+00  0.00000000E+00
  0.00000000E+00  0.00000000E+00  0.00000000E+00
  0.00000000E+00  0.00000000E+00  0.00000000E+00
  0.00000000E+00  0.00000000E+00  0.00000000E+00
  0.00000000E+00  0.00000000E+00  0.00000000E+00
  0.00000000E+00  0.00000000E+00  0.00000000E+00
  0.00000000E+00  0.00000000E+00  0.00000000E+00
  0.00000000E+00  0.00000000E+00  0.00000000E+00
  0.00000000E+00  0.00000000E+00  0.00000000E+00
  0.00000000E+00  0.00000000E+00  0.00000000E+00
  0.00000000E+00  0.00000000E+00  0.00000000E+00
  0.00000000E+00  0.00000000E+00  0.00000000E+00
  0.00000000E+00  0.00000000E+00  0.00000000E+00
  0.00000000E+00  0.00000000E+00  0.00000000E+00
  0.00000000E+00  0.00000000E+00  0.00000000E+00
  0.00000000E+00  0.00000000E+00  0.00000000E+00
  0.00000000E+00  0.00000000E+00  0.00000000E+00
  0.00000000E+00  0.00000000E+00  0.00000000E+00
  0.00000000E+00  0.00000000E+00  0.00000000E+00
  0.00000000E+00  0.00000000E+00  0.00000000E+00
  0.00000000E+00  0.00000000E+00  0.00000000E+00
  0.00000000E+00  0.00000000E+00  0.00000000E+00
  0.00000000E+00  0.00000000E+00  0.00000000E+00
  0.00000000E+00  0.00000000E+00  0.00000000E+00
  0.00000000E+00  0.00000000E+00  0.00000000E+00
  0.00000000E+00  0.00000000E+00  0.00000000E+00
  0.00000000E+00  0.00000000E+00  0.00000000E+00
  0.00000000E+00  0.00000000E+00  0.00000000E+00
  0.00000000E+00  0.00000000E+00  0.00000000E+00
  0.00000000E+00  0.00000000E+00  0.00000000E+00
  0.00000000E+00  0.00000000E+00  0.00000000E+00
  0.00000000E+00  0.00000000E+00  0.00000000E+00
  0.00000000E+00  0.00000000E+00  0.00000000E+00
  0.00000000E+00  0.00000000E+00  0.00000000E+00
  0.00000000E+00  0.00000000E+00  0.00000000E+00
  0.00000000E+00  0.00000000E+00  0.00000000E+00
  0.00000000E+00  0.00000000E+00  0.00000000E+00
  0.00000000E+00  0.00000000E+00  0.00000000E+00
  0.00000000E+00  0.00000000E+00  0.00000000E+00
  0.00000000E+00  0.00000000E+00  0.00000000E+00
  0.00000000E+00  0.00000000E+00  0.00000000E+00
  0.00000000E+00  0.00000000E+00  0.00000000E+00
  0.00000000E+00  0.00000000E+00  0.00000000E+00
  0.00000000E+00  0.00000000E+00  0.00000000E+00
  0.00000000E+00  0.00000000E+00  0.00000000E+00
  0.00000000E+00  0.00000000E+00  0.00000000E+00
  0.00000000E+00  0.00000000E+00  0.00000000E+00
  0.00000000E+00  0.00000000E+00  0.00000000E+00
  0.00000000E+00  0.00000000E+00  0.00000000E+00
  0.00000000E+00  0.00000000E+00  0.00000000E+00
  0.00000000E+00  0.00000000E+00  0.00000000E+00
  0.00000000E+00  0.00000000E+00  0.00000000E+00
  0.00000000E+00  0.00000000E+00  0.00000000E+00
  0.00000000E+00  0.00000000E+00  0.00000000E+00
  0.00000000E+00  0.00000000E+00  0.00000000E+00
  0.00000000E+00  0.00000000E+00  0.00000000E+00
  0.00000000E+00  0.00000000E+00  0.00000000E+00
  0.00000000E+00  0.00000000E+00  0.00000000E+00
  0.00000000E+00  0.00000000E+00  0.00000000E+00
  0.00000000E+00  0.00000000E+00  0.00000000E+00
  0.00000000E+00  0.00000000E+00  0.00000000E+00
  0.00000000E+00  0.00000000E+00  0.00000000E+00
  0.00000000E+00  0.00000000E+00  0.00000000E+00
  0.00000000E+00  0.00000000E+00  0.00000000E+00
  0.00000000E+00  0.00000000E+00  0.00000000E+00
  0.00000000E+00  0.00000000E+00  0.00000000E+00
  0.00000000E+00  0.00000000E+00  0.00000000E+00
  0.00000000E+00  0.00000000E+00  0.00000000E+00
  0.00000000E+00  0.00000000E+00  0.00000000E+00
  0.00000000E+00  0.00000000E+00  0.00000000E+00
  0.00000000E+00  0.00000000E+00  0.00000000E+00
  0.00000000E+00  0.00000000E+00  0.00000000E+00
  0.00000000E+00  0.00000000E+00  0.00000000E+00
  0.00000000E+00  0.00000000E+00  0.00000000E+00
  0.00000000E+00  0.00000000E+00  0.00000000E+00
  0.00000000E+00  0.00000000E+00  0.00000000E+00
  0.00000000E+00  0.00000000E+00  0.00000000E+00
  0.00000000E+00  0.00000000E+00  0.00000000E+00
  0.00000000E+00  0.00000000E+00  0.00000000E+00
  0.00000000E+00  0.00000000E+00  0.00000000E+00
  0.00000000E+00  0.00000000E+00  0.00000000E+00
  0.00000000E+00  0.00000000E+00  0.00000000E+00
  0.00000000E+00  0.00000000E+00  0.00000000E+00
  0.00000000E+00  0.00000000E+00  0.00000000E+00
  0.00000000E+00  0.00000000E+00  0.00000000E+00
  0.00000000E+00  0.00000000E+00  0.00000000E+00
  0.00000000E+00  0.00000000E+00  0.00000000E+00
  0.00000000E+00  0.00000000E+00  0.00000000E+00
  0.00000000E+00  0.00000000E+00  0.00000000E+00
  0.00000000E+00  0.00000000E+00  0.00000000E+00
  0.00000000E+00  0.00000000E+00  0.00000000E+00
  0.00000000E+00  0.00000000E+00  0.00000000E+00
  0.00000000E+00  0.00000000E+00  0.00000000E+00
  0.00000000E+00  0.00000000E+00  0.00000000E+00
  0.00000000E+00  0.00000000E+00  0.00000000E+00
  0.00000000E+00  0.00000000E+00  0.00000000E+00
  0.00000000E+00  0.00000000E+00  0.00000000E+00
  0.00000000E+00  0.00000000E+00  0.00000000E+00
  0.00000000E+00  0.00000000E+00  0.00000000E+00
  0.00000000E+00  0.00000000E+00  0.00000000E+00
  0.00000000E+00  0.00000000E+00  0.00000000E+00
  0.00000000E+00  0.00000000E+00  0.00000000E+00
  0.00000000E+00  0.00000000E+00  0.00000000E+00
  0.00000000E+00  0.00000000E+00  0.00000000E+00
  0.00000000E+00  0.00000000E+00  0.00000000E+00
  0.00000000E+00  0.00000000E+00  0.00000000E+00
  0.00000000E+00  0.00000000E+00  0.00000000E+00
  0.00000000E+00  0.00000000E+00  0.00000000E+00
  0.00000000E+00  0.00000000E+00  0.00000000E+00
  0.00000000E+00  0.00000000E+00  0.00000000E+00
  0.00000000E+00  0.00000000E+00  0.00000000E+00
  0.00000000E+00  0.00000000E+00  0.00000000E+00
  0.00000000E+00  0.00000000E+00  0.00000000E+00
  0.00000000E+00  0.00000000E+00  0.00000000E+00
  0.00000000E+00  0.00000000E+00  0.00000000E+00
  0.00000000E+00  0.00000000E+00  0.00000000E+00
  0.00000000E+00  0.00000000E+00  0.00000000E+00
  0.00000000E+00  0.00000000E+00  0.00000000E+00
  0.00000000E+00  0.00000000E+00  0.00000000E+00
  0.00000000E+00  0.00000000E+00  0.00000000E+00
  0.00000000E+00  0.00000000E+00  0.00000000E+00
  0.00000000E+00  0.00000000E+00  0.00000000E+00
  0.00000000E+00  0.00000000E+00  0.00000000E+00
  0.00000000E+00  0.00000000E+00  0.00000000E+00
  0.00000000E+00  0.00000000E+00  0.00000000E+00
  0.00000000E+00  0.00000000E+00  0.00000000E+00
  0.00000000E+00  0.00000000E+00  0.00000000E+00
  0.00000000E+00  0.00000000E+00  0.00000000E+00
  0.00000000E+00  0.00000000E+00  0.00000000E+00
  0.00000000E+00  0.00000000E+00  0.00000000E+00
  0.00000000E+00  0.00000000E+00  0.00000000E+00
  0.00000000E+00  0.00000000E+00  0.00000000E+00
  0.00000000E+00  0.00000000E+00  0.00000000E+00
  0.00000000E+00  0.00000000E+00  0.00000000E+00
  0.00000000E+00  0.00000000E+00  0.00000000E+00
  0.00000000E+00  0.00000000E+00  0.00000000E+00
  0.00000000E+00  0.00000000E+00  0.00000000E+00
  0.00000000E+00  0.00000000E+00  0.00000000E+00
  0.00000000E+00  0.00000000E+00  0.00000000E+00
  0.00000000E+00  0.00000000E+00  0.00000000E+00
  0.00000000E+00  0.00000000E+00  0.00000000E+00
