Li56 P56
1.0
10.250751 0.000000 0.000000
2.639560 4.931949 4.970385
0.000000 0.000000 64.615005
Li P
56 56
Selective dynamics
direct
0.670700 0.217008 0.030365 T T T Li+
0.829300 0.782992 0.025289 T T T Li+
0.329300 0.782992 0.046558 F F F Li+
0.170700 0.217008 0.051634 T T T Li+
0.970214 0.225768 0.008917 T T T Li+
0.529786 0.774232 0.005189 T T T Li+
0.029786 0.774232 0.068006 F F F Li+
0.470214 0.225768 0.071734 T T T Li+
0.670700 0.217008 0.107288 F F F Li+
0.829300 0.782992 0.102212 F F F Li+
0.329300 0.782992 0.123481 F F F Li+
0.170700 0.217008 0.128557 F F F Li+
0.970214 0.225768 0.085840 F F F Li+
0.529786 0.774232 0.082112 F F F Li+
0.029786 0.774232 0.144930 F F F Li+
0.470214 0.225768 0.148658 F F F Li+
0.670700 0.217008 0.184211 F F F Li+
0.829300 0.782992 0.179135 F F F Li+
0.329300 0.782992 0.200404 F F F Li+
0.170700 0.217008 0.205480 F F F Li+
0.970214 0.225768 0.162763 F F F Li+
0.529786 0.774232 0.159035 F F F Li+
0.029786 0.774232 0.221853 F F F Li+
0.470214 0.225768 0.225581 F F F Li+
0.670700 0.217008 0.261134 F F F Li+
0.829300 0.782992 0.256059 F F F Li+
0.329300 0.782992 0.277327 F F F Li+
0.170700 0.217008 0.282403 F F F Li+
0.970214 0.225768 0.239686 F F F Li+
0.529786 0.774232 0.235958 F F F Li+
0.029786 0.774232 0.298776 F F F Li+
0.470214 0.225768 0.302504 F F F Li+
0.670700 0.217008 0.338057 F F F Li+
0.829300 0.782992 0.332982 F F F Li+
0.329300 0.782992 0.354250 F F F Li+
0.170700 0.217008 0.359326 F F F Li+
0.970214 0.225768 0.316609 F F F Li+
0.529786 0.774232 0.312881 F F F Li+
0.029786 0.774232 0.375699 F F F Li+
0.470214 0.225768 0.379427 F F F Li+
0.670700 0.217008 0.414980 F F F Li+
0.829300 0.782992 0.409905 F F F Li+
0.329300 0.782992 0.431173 F F F Li+
0.170700 0.217008 0.436249 F F F Li+
0.970214 0.225768 0.393532 F F F Li+
0.529786 0.774232 0.389804 F F F Li+
0.029786 0.774232 0.452622 F F F Li+
0.470214 0.225768 0.456350 F F F Li+
0.670700 0.217008 0.491903 F F F Li+
0.829300 0.782992 0.486828 T T T Li+
0.329300 0.782992 0.508097 T T T Li+
0.170700 0.217008 0.513172 T T T Li+
0.970214 0.225768 0.470455 F F F Li+
0.529786 0.774232 0.466727 T T T Li+
0.029786 0.774232 0.529545 T T T Li+
0.470214 0.225768 0.533273 T T T Li+
0.707084 0.316645 0.060650 T T T P-
0.792916 0.683355 0.070903 F F F P-
0.292916 0.683355 0.016273 T T T P-
0.207084 0.316645 0.006020 T T T P-
0.888258 0.303182 0.041599 T T T P-
0.611742 0.696818 0.049781 F F F P-
0.111742 0.696818 0.035324 T T T P-
0.388258 0.303182 0.027142 T T T P-
0.707084 0.316645 0.137573 F F F P-
0.792916 0.683355 0.147826 F F F P-
0.292916 0.683355 0.093196 F F F P-
0.207084 0.316645 0.082943 F F F P-
0.888258 0.303182 0.118522 F F F P-
0.611742 0.696818 0.126704 F F F P-
0.111742 0.696818 0.112247 F F F P-
0.388258 0.303182 0.104065 F F F P-
0.707084 0.316645 0.214496 F F F P-
0.792916 0.683355 0.224749 F F F P-
0.292916 0.683355 0.170119 F F F P-
0.207084 0.316645 0.159866 F F F P-
0.888258 0.303182 0.195445 F F F P-
0.611742 0.696818 0.203627 F F F P-
0.111742 0.696818 0.189170 F F F P-
0.388258 0.303182 0.180988 F F F P-
0.707084 0.316645 0.291419 F F F P-
0.792916 0.683355 0.301672 F F F P-
0.292916 0.683355 0.247042 F F F P-
0.207084 0.316645 0.236789 F F F P-
0.888258 0.303182 0.272369 F F F P-
0.611742 0.696818 0.280550 F F F P-
0.111742 0.696818 0.266093 F F F P-
0.388258 0.303182 0.257911 F F F P-
0.707084 0.316645 0.368342 F F F P-
0.792916 0.683355 0.378595 F F F P-
0.292916 0.683355 0.323965 F F F P-
0.207084 0.316645 0.313712 F F F P-
0.888258 0.303182 0.349292 F F F P-
0.611742 0.696818 0.357473 F F F P-
0.111742 0.696818 0.343016 F F F P-
0.388258 0.303182 0.334834 F F F P-
0.707084 0.316645 0.445265 F F F P-
0.792916 0.683355 0.455519 F F F P-
0.292916 0.683355 0.400888 F F F P-
0.207084 0.316645 0.390635 F F F P-
0.888258 0.303182 0.426215 F F F P-
0.611742 0.696818 0.434397 F F F P-
0.111742 0.696818 0.419939 F F F P-
0.388258 0.303182 0.411757 F F F P-
0.707084 0.316645 0.522189 T T T P-
0.792916 0.683355 0.532442 T T T P-
0.292916 0.683355 0.477811 T T T P-
0.207084 0.316645 0.467558 F F F P-
0.888258 0.303182 0.503138 T T T P-
0.611742 0.696818 0.511320 T T T P-
0.111742 0.696818 0.496862 T T T P-
0.388258 0.303182 0.488680 F F F P-
