(2, 1, 2)                               
   1.00000000000000     
     5.5368096565957732   -0.0423684415738001   -6.3015644250115974
    -0.0550445908474712    7.7023398347142473   -3.1448689671021590
     0.0586487814722684    0.0484114788718609   44.1591064895205605
   Li   O 
    32    32
Selective dynamics
Direct
  0.0349251888278555  0.5226755284471658  0.0330427267460741   T   T   T
  0.5312849823411083  0.5070841282714285  0.0489222270027563   T   T   T
  0.0022142803979026  0.0059679798618218  0.0593782750264637   T   T   T
  0.5471709668973017 -0.0274109532233875  0.0219206603893421   T   T   T
  0.2110243792621107  0.7664394900098925  0.0278479589140491   T   T   T
  0.6717233458619153  0.7429956193351690  0.0564306512245186   T   T   T
  0.3543018132692689  0.2302846856040924  0.0526907321813301   T   T   T
  0.8326461789147419  0.2252025871870129  0.0146846381546573   T   T   T
  0.0000000000000000  0.5000000000000000  0.0892860000000013   F   F   F
  0.5000000000000000  0.5000000000000000  0.1250000000000000   F   F   F
  0.0000000000000000  0.0000000000000000  0.1250000000000000   F   F   F
  0.5000000000000000  0.0000000000000000  0.0892860000000013   F   F   F
  0.1666669999999968  0.7500000000000000  0.0952380000000019   F   F   F
  0.6666669999999968  0.7500000000000000  0.1309520000000006   F   F   F
  0.3333330000000032  0.2500000000000000  0.1190479999999994   F   F   F
  0.8333330000000032  0.2500000000000000  0.0833330000000032   F   F   F
  0.0000000000000000  0.5000000000000000  0.1607139999999987   F   F   F
  0.5000000000000000  0.5000000000000000  0.1964290000000020   F   F   F
  0.0000000000000000  0.0000000000000000  0.1964290000000020   F   F   F
  0.5000000000000000  0.0000000000000000  0.1607139999999987   F   F   F
  0.1666669999999968  0.7500000000000000  0.1666669999999968   F   F   F
  0.6666669999999968  0.7500000000000000  0.2023810000000026   F   F   F
  0.3333330000000032  0.2500000000000000  0.1904759999999968   F   F   F
  0.8333330000000032  0.2500000000000000  0.1547619999999981   F   F   F
 -0.0312871329203743  0.4929154585420308  0.2367923040640116   T   T   T
  0.4650725230676463  0.4773241347044581  0.2526709707885995   T   T   T
 -0.0471725465061667  0.0274101650695104  0.2637930566309123   T   T   T
  0.4977813422070369 -0.0059667251747804  0.2263351879481944   T   T   T
  0.1457019458967653  0.7697146884421635  0.2330236347612601   T   T   T
  0.6673556282589834  0.7747973226215912  0.2710298843372057   T   T   T
  0.2889723214260012  0.2335633147594665  0.2578659295217052   T   T   T
  0.8282761665164327  0.2570037821583365  0.2292835200199460   T   T   T
  0.1666669999999968  0.1493099999999998  0.0523319999999998   F   F   F
  0.6831285481867357  0.1280004487460272  0.0201669264359116   T   T   T
  0.3476651471787242  0.6670896205976657  0.0079203594758188   T   T   T
  0.8559081496449461  0.6478723874445445  0.0430753405064167   T   T   T
  0.3697231434995151  0.8672020990190242  0.0247994537213095   T   T   T
  0.8522038619071601  0.8462630124252815  0.0556182287550343   T   T   T
  0.1666669999999968  0.3506900000000002  0.0667159999999996   F   F   F
  0.6756620017432978  0.3281564801210279  0.0312897873694517   T   T   T
  0.1666669999999968  0.1493099999999998  0.1237599999999972   F   F   F
  0.6666669999999968  0.1493099999999998  0.0880459999999985   F   F   F
  0.3333330000000032  0.6493099999999998  0.0761409999999998   F   F   F
  0.8333330000000032  0.6493099999999998  0.1118549999999985   F   F   F
  0.3333330000000032  0.8506900000000002  0.0905249999999995   F   F   F
  0.8333330000000032  0.8506900000000002  0.1262400000000028   F   F   F
  0.1666669999999968  0.3506900000000002  0.1381450000000015   F   F   F
  0.6666669999999968  0.3506900000000002  0.1024299999999982   F   F   F
  0.1666669999999968  0.1493099999999998  0.1951889999999992   F   F   F
  0.6666669999999968  0.1493099999999998  0.1594750000000005   F   F   F
  0.3333330000000032  0.6493099999999998  0.1475700000000018   F   F   F
  0.8333330000000032  0.6493099999999998  0.1832840000000004   F   F   F
  0.3333330000000032  0.8506900000000002  0.1619540000000015   F   F   F
  0.8333330000000032  0.8506900000000002  0.1976680000000002   F   F   F
  0.1666669999999968  0.3506900000000002  0.2095729999999989   F   F   F
  0.6666669999999968  0.3506900000000002  0.1738590000000002   F   F   F
  0.1302769249884015  0.1327987238896036  0.2609148090882552   T   T   T
  0.6477940526435247  0.1537378883470791  0.2300958132607120   T   T   T
  0.3333330000000032  0.6493099999999998  0.2189979999999991   F   F   F
  0.8243380688149908  0.6718430677297148  0.2544246577573495   T   T   T
  0.3333330000000032  0.8506900000000002  0.2333830000000034   F   F   F
  0.8168701069837714  0.8719987288706706  0.2655471321630520   T   T   T
  0.1523343557910311  0.3329107193271444  0.2777935897871015   T   T   T
  0.6440916870244217  0.3521268840594149  0.2426389749194572   T   T   T
 
  0.00000000E+00  0.00000000E+00  0.00000000E+00
  0.00000000E+00  0.00000000E+00  0.00000000E+00
  0.00000000E+00  0.00000000E+00  0.00000000E+00
  0.00000000E+00  0.00000000E+00  0.00000000E+00
  0.00000000E+00  0.00000000E+00  0.00000000E+00
  0.00000000E+00  0.00000000E+00  0.00000000E+00
  0.00000000E+00  0.00000000E+00  0.00000000E+00
  0.00000000E+00  0.00000000E+00  0.00000000E+00
  0.00000000E+00  0.00000000E+00  0.00000000E+00
  0.00000000E+00  0.00000000E+00  0.00000000E+00
  0.00000000E+00  0.00000000E+00  0.00000000E+00
  0.00000000E+00  0.00000000E+00  0.00000000E+00
  0.00000000E+00  0.00000000E+00  0.00000000E+00
  0.00000000E+00  0.00000000E+00  0.00000000E+00
  0.00000000E+00  0.00000000E+00  0.00000000E+00
  0.00000000E+00  0.00000000E+00  0.00000000E+00
  0.00000000E+00  0.00000000E+00  0.00000000E+00
  0.00000000E+00  0.00000000E+00  0.00000000E+00
  0.00000000E+00  0.00000000E+00  0.00000000E+00
  0.00000000E+00  0.00000000E+00  0.00000000E+00
  0.00000000E+00  0.00000000E+00  0.00000000E+00
  0.00000000E+00  0.00000000E+00  0.00000000E+00
  0.00000000E+00  0.00000000E+00  0.00000000E+00
  0.00000000E+00  0.00000000E+00  0.00000000E+00
  0.00000000E+00  0.00000000E+00  0.00000000E+00
  0.00000000E+00  0.00000000E+00  0.00000000E+00
  0.00000000E+00  0.00000000E+00  0.00000000E+00
  0.00000000E+00  0.00000000E+00  0.00000000E+00
  0.00000000E+00  0.00000000E+00  0.00000000E+00
  0.00000000E+00  0.00000000E+00  0.00000000E+00
  0.00000000E+00  0.00000000E+00  0.00000000E+00
  0.00000000E+00  0.00000000E+00  0.00000000E+00
  0.00000000E+00  0.00000000E+00  0.00000000E+00
  0.00000000E+00  0.00000000E+00  0.00000000E+00
  0.00000000E+00  0.00000000E+00  0.00000000E+00
  0.00000000E+00  0.00000000E+00  0.00000000E+00
  0.00000000E+00  0.00000000E+00  0.00000000E+00
  0.00000000E+00  0.00000000E+00  0.00000000E+00
  0.00000000E+00  0.00000000E+00  0.00000000E+00
  0.00000000E+00  0.00000000E+00  0.00000000E+00
  0.00000000E+00  0.00000000E+00  0.00000000E+00
  0.00000000E+00  0.00000000E+00  0.00000000E+00
  0.00000000E+00  0.00000000E+00  0.00000000E+00
  0.00000000E+00  0.00000000E+00  0.00000000E+00
  0.00000000E+00  0.00000000E+00  0.00000000E+00
  0.00000000E+00  0.00000000E+00  0.00000000E+00
  0.00000000E+00  0.00000000E+00  0.00000000E+00
  0.00000000E+00  0.00000000E+00  0.00000000E+00
  0.00000000E+00  0.00000000E+00  0.00000000E+00
  0.00000000E+00  0.00000000E+00  0.00000000E+00
  0.00000000E+00  0.00000000E+00  0.00000000E+00
  0.00000000E+00  0.00000000E+00  0.00000000E+00
  0.00000000E+00  0.00000000E+00  0.00000000E+00
  0.00000000E+00  0.00000000E+00  0.00000000E+00
  0.00000000E+00  0.00000000E+00  0.00000000E+00
  0.00000000E+00  0.00000000E+00  0.00000000E+00
  0.00000000E+00  0.00000000E+00  0.00000000E+00
  0.00000000E+00  0.00000000E+00  0.00000000E+00
  0.00000000E+00  0.00000000E+00  0.00000000E+00
  0.00000000E+00  0.00000000E+00  0.00000000E+00
  0.00000000E+00  0.00000000E+00  0.00000000E+00
  0.00000000E+00  0.00000000E+00  0.00000000E+00
  0.00000000E+00  0.00000000E+00  0.00000000E+00
  0.00000000E+00  0.00000000E+00  0.00000000E+00
