Li56 P8 N32                             
   1.00000000000000     
     9.3741986051572574   -0.0000000000000000    0.0000000000000000
     0.0000000000000000    9.3741986051572574    0.0000000000000000
    -0.0000000000000000    0.0000000000000000    9.3741986051572574
   Li   P    N 
    56     8    32
Direct
 -0.0000000000000000  0.5000000000000000  0.5000000000000000
  0.5000000000000000  0.0000000000000000  0.0000000000000000
 -0.0000000000000000  0.0000000000000000  0.5000000000000000
 -0.0000000000000000  0.5000000000000000  0.0000000000000000
  0.5000000000000000  0.0000000000000000  0.5000000000000000
  0.5000000000000000  0.5000000000000000  0.0000000000000000
  0.2500000000000000  0.0000000000000000  0.5000000000000000
 -0.0000000000000000  0.5000000000000000  0.7500000000000000
 -0.0000000000000000  0.5000000000000000  0.2500000000000000
  0.5000000000000000  0.2500000000000000  0.0000000000000000
  0.5000000000000000  0.7500000000000000  0.0000000000000000
  0.7500000000000000  0.0000000000000000  0.5000000000000000
  0.2250423573826158  0.2250423573826158  0.2250423573826158
  0.2749576426173841  0.7250423573826160  0.2749576426173841
  0.2749576426173841  0.2749576426173841  0.7250423573826160
  0.7250423573826160  0.2749576426173841  0.2749576426173841
  0.7749576426173840  0.7749576426173840  0.2250423573826158
  0.2250423573826158  0.7749576426173840  0.7749576426173840
  0.7749576426173840  0.2250423573826158  0.7749576426173840
  0.7250423573826160  0.7250423573826160  0.7250423573826160
  0.2534557038700410  0.2380091276822941  0.9750673743891852
  0.2465442961299590  0.4750673743891853  0.2619908723177059
  0.2465442961299590  0.5249326256108148  0.7380091276822939
  0.5249326256108148  0.2619908723177059  0.7534557038700409
  0.4750673743891853  0.2619908723177059  0.2465442961299590
  0.7380091276822939  0.2465442961299590  0.5249326256108148
  0.2619908723177059  0.7534557038700409  0.5249326256108148
  0.9750673743891852  0.2534557038700410  0.2380091276822941
  0.2380091276822941  0.9750673743891852  0.2534557038700410
  0.7619908723177061  0.0249326256108146  0.2534557038700410
  0.9750673743891852  0.7465442961299591  0.7619908723177061
  0.7619908723177061  0.9750673743891852  0.7465442961299591
  0.0249326256108146  0.7465442961299591  0.2380091276822941
  0.0249326256108146  0.2534557038700410  0.7619908723177061
  0.2380091276822941  0.0249326256108146  0.7465442961299591
  0.2534557038700410  0.7619908723177061  0.0249326256108146
  0.7465442961299591  0.2380091276822941  0.0249326256108146
  0.7465442961299591  0.7619908723177061  0.9750673743891852
  0.2619908723177059  0.2465442961299590  0.4750673743891853
  0.7380091276822939  0.7534557038700409  0.4750673743891853
  0.5249326256108148  0.7380091276822939  0.2465442961299590
  0.4750673743891853  0.7380091276822939  0.7534557038700409
  0.7534557038700409  0.5249326256108148  0.2619908723177059
  0.7534557038700409  0.4750673743891853  0.7380091276822939
  0.2635742855360427  0.0000000000000000  0.0000000000000000
  0.2364257144639572  0.5000000000000000  0.5000000000000000
  0.5000000000000000  0.5000000000000000  0.7635742855360431
  0.5000000000000000  0.5000000000000000  0.2364257144639572
  0.5000000000000000  0.2364257144639572  0.5000000000000000
  0.5000000000000000  0.7635742855360431  0.5000000000000000
 -0.0000000000000000  0.2635742855360427  0.0000000000000000
 -0.0000000000000000  0.0000000000000000  0.2635742855360427
 -0.0000000000000000  0.7364257144639569  0.0000000000000000
 -0.0000000000000000  0.0000000000000000  0.7364257144639569
  0.7364257144639569  0.0000000000000000  0.0000000000000000
  0.7635742855360431  0.5000000000000000  0.5000000000000000
  0.5000000000000000  0.5000000000000000  0.5000000000000000
 -0.0000000000000000  0.0000000000000000  0.0000000000000000
  0.5000000000000000  0.0000000000000000  0.7500000000000000
  0.7500000000000000  0.5000000000000000  0.0000000000000000
  0.2500000000000000  0.5000000000000000  0.0000000000000000
 -0.0000000000000000  0.2500000000000000  0.5000000000000000
 -0.0000000000000000  0.7500000000000000  0.5000000000000000
  0.5000000000000000  0.0000000000000000  0.2500000000000000
  0.6037274145361220  0.6037274145361220  0.6037274145361220
  0.8962725854638780  0.1037274145361220  0.8962725854638780
  0.1037274145361220  0.8962725854638780  0.8962725854638780
  0.8962725854638780  0.8962725854638780  0.1037274145361220
  0.6037274145361220  0.3962725854638779  0.3962725854638779
  0.3962725854638779  0.3962725854638779  0.6037274145361220
  0.3962725854638779  0.6037274145361220  0.3962725854638779
  0.1037274145361220  0.1037274145361220  0.1037274145361220
  0.3509550174238645  0.3870475214762832  0.0996327030831609
  0.1490449825761354  0.5996327030831607  0.1129524785237167
  0.1490449825761354  0.4003672969168391  0.8870475214762834
  0.4003672969168391  0.1129524785237167  0.8509550174238646
  0.5996327030831607  0.1129524785237167  0.1490449825761354
  0.8870475214762834  0.1490449825761354  0.4003672969168391
  0.1129524785237167  0.8509550174238646  0.4003672969168391
  0.0996327030831609  0.3509550174238645  0.3870475214762832
  0.3870475214762832  0.0996327030831609  0.3509550174238645
  0.6129524785237166  0.9003672969168393  0.3509550174238645
  0.0996327030831609  0.6490449825761354  0.6129524785237166
  0.6129524785237166  0.0996327030831609  0.6490449825761354
  0.9003672969168393  0.6490449825761354  0.3870475214762832
  0.9003672969168393  0.3509550174238645  0.6129524785237166
  0.3870475214762832  0.9003672969168393  0.6490449825761354
  0.3509550174238645  0.6129524785237166  0.9003672969168393
  0.6490449825761354  0.3870475214762832  0.9003672969168393
  0.6490449825761354  0.6129524785237166  0.0996327030831609
  0.1129524785237167  0.1490449825761354  0.5996327030831607
  0.8870475214762834  0.8509550174238646  0.5996327030831607
  0.4003672969168391  0.8870475214762834  0.1490449825761354
  0.5996327030831607  0.8870475214762834  0.8509550174238646
  0.8509550174238646  0.4003672969168391  0.1129524785237167
  0.8509550174238646  0.5996327030831607  0.8870475214762834
 
  0.00000000E+00  0.00000000E+00  0.00000000E+00
  0.00000000E+00  0.00000000E+00  0.00000000E+00
  0.00000000E+00  0.00000000E+00  0.00000000E+00
  0.00000000E+00  0.00000000E+00  0.00000000E+00
  0.00000000E+00  0.00000000E+00  0.00000000E+00
  0.00000000E+00  0.00000000E+00  0.00000000E+00
  0.00000000E+00  0.00000000E+00  0.00000000E+00
  0.00000000E+00  0.00000000E+00  0.00000000E+00
  0.00000000E+00  0.00000000E+00  0.00000000E+00
  0.00000000E+00  0.00000000E+00  0.00000000E+00
  0.00000000E+00  0.00000000E+00  0.00000000E+00
  0.00000000E+00  0.00000000E+00  0.00000000E+00
  0.00000000E+00  0.00000000E+00  0.00000000E+00
  0.00000000E+00  0.00000000E+00  0.00000000E+00
  0.00000000E+00  0.00000000E+00  0.00000000E+00
  0.00000000E+00  0.00000000E+00  0.00000000E+00
  0.00000000E+00  0.00000000E+00  0.00000000E+00
  0.00000000E+00  0.00000000E+00  0.00000000E+00
  0.00000000E+00  0.00000000E+00  0.00000000E+00
  0.00000000E+00  0.00000000E+00  0.00000000E+00
  0.00000000E+00  0.00000000E+00  0.00000000E+00
  0.00000000E+00  0.00000000E+00  0.00000000E+00
  0.00000000E+00  0.00000000E+00  0.00000000E+00
  0.00000000E+00  0.00000000E+00  0.00000000E+00
  0.00000000E+00  0.00000000E+00  0.00000000E+00
  0.00000000E+00  0.00000000E+00  0.00000000E+00
  0.00000000E+00  0.00000000E+00  0.00000000E+00
  0.00000000E+00  0.00000000E+00  0.00000000E+00
  0.00000000E+00  0.00000000E+00  0.00000000E+00
  0.00000000E+00  0.00000000E+00  0.00000000E+00
  0.00000000E+00  0.00000000E+00  0.00000000E+00
  0.00000000E+00  0.00000000E+00  0.00000000E+00
  0.00000000E+00  0.00000000E+00  0.00000000E+00
  0.00000000E+00  0.00000000E+00  0.00000000E+00
  0.00000000E+00  0.00000000E+00  0.00000000E+00
  0.00000000E+00  0.00000000E+00  0.00000000E+00
  0.00000000E+00  0.00000000E+00  0.00000000E+00
  0.00000000E+00  0.00000000E+00  0.00000000E+00
  0.00000000E+00  0.00000000E+00  0.00000000E+00
  0.00000000E+00  0.00000000E+00  0.00000000E+00
  0.00000000E+00  0.00000000E+00  0.00000000E+00
  0.00000000E+00  0.00000000E+00  0.00000000E+00
  0.00000000E+00  0.00000000E+00  0.00000000E+00
  0.00000000E+00  0.00000000E+00  0.00000000E+00
  0.00000000E+00  0.00000000E+00  0.00000000E+00
  0.00000000E+00  0.00000000E+00  0.00000000E+00
  0.00000000E+00  0.00000000E+00  0.00000000E+00
  0.00000000E+00  0.00000000E+00  0.00000000E+00
  0.00000000E+00  0.00000000E+00  0.00000000E+00
  0.00000000E+00  0.00000000E+00  0.00000000E+00
  0.00000000E+00  0.00000000E+00  0.00000000E+00
  0.00000000E+00  0.00000000E+00  0.00000000E+00
  0.00000000E+00  0.00000000E+00  0.00000000E+00
  0.00000000E+00  0.00000000E+00  0.00000000E+00
  0.00000000E+00  0.00000000E+00  0.00000000E+00
  0.00000000E+00  0.00000000E+00  0.00000000E+00
  0.00000000E+00  0.00000000E+00  0.00000000E+00
  0.00000000E+00  0.00000000E+00  0.00000000E+00
  0.00000000E+00  0.00000000E+00  0.00000000E+00
  0.00000000E+00  0.00000000E+00  0.00000000E+00
  0.00000000E+00  0.00000000E+00  0.00000000E+00
  0.00000000E+00  0.00000000E+00  0.00000000E+00
  0.00000000E+00  0.00000000E+00  0.00000000E+00
  0.00000000E+00  0.00000000E+00  0.00000000E+00
  0.00000000E+00  0.00000000E+00  0.00000000E+00
  0.00000000E+00  0.00000000E+00  0.00000000E+00
  0.00000000E+00  0.00000000E+00  0.00000000E+00
  0.00000000E+00  0.00000000E+00  0.00000000E+00
  0.00000000E+00  0.00000000E+00  0.00000000E+00
  0.00000000E+00  0.00000000E+00  0.00000000E+00
  0.00000000E+00  0.00000000E+00  0.00000000E+00
  0.00000000E+00  0.00000000E+00  0.00000000E+00
  0.00000000E+00  0.00000000E+00  0.00000000E+00
  0.00000000E+00  0.00000000E+00  0.00000000E+00
  0.00000000E+00  0.00000000E+00  0.00000000E+00
  0.00000000E+00  0.00000000E+00  0.00000000E+00
  0.00000000E+00  0.00000000E+00  0.00000000E+00
  0.00000000E+00  0.00000000E+00  0.00000000E+00
  0.00000000E+00  0.00000000E+00  0.00000000E+00
  0.00000000E+00  0.00000000E+00  0.00000000E+00
  0.00000000E+00  0.00000000E+00  0.00000000E+00
  0.00000000E+00  0.00000000E+00  0.00000000E+00
  0.00000000E+00  0.00000000E+00  0.00000000E+00
  0.00000000E+00  0.00000000E+00  0.00000000E+00
  0.00000000E+00  0.00000000E+00  0.00000000E+00
  0.00000000E+00  0.00000000E+00  0.00000000E+00
  0.00000000E+00  0.00000000E+00  0.00000000E+00
  0.00000000E+00  0.00000000E+00  0.00000000E+00
  0.00000000E+00  0.00000000E+00  0.00000000E+00
  0.00000000E+00  0.00000000E+00  0.00000000E+00
  0.00000000E+00  0.00000000E+00  0.00000000E+00
  0.00000000E+00  0.00000000E+00  0.00000000E+00
  0.00000000E+00  0.00000000E+00  0.00000000E+00
  0.00000000E+00  0.00000000E+00  0.00000000E+00
  0.00000000E+00  0.00000000E+00  0.00000000E+00
  0.00000000E+00  0.00000000E+00  0.00000000E+00
