Li56 P28 N28 O56
1.0
9.155868 0.000000 0.000000
0.000000 4.748969 0.000000
0.000000 0.000000 60.071286
Li P N O
56 28 28 56
Selective dynamics
direct
0.665671 0.501556 0.059951 F F F Li
0.334329 0.501556 0.059951 F F F Li
0.334329 0.001556 0.030958 T T T Li
0.665671 0.001556 0.030958 T T T Li
0.165671 0.501556 0.014497 T T T Li
0.834329 0.501556 0.014497 T T T Li
0.834329 0.001556 0.076412 F F F Li
0.165671 0.001556 0.076412 F F F Li
0.665671 0.501556 0.150860 F F F Li
0.334329 0.501556 0.150860 F F F Li
0.334329 0.001556 0.121867 F F F Li
0.665671 0.001556 0.121867 F F F Li
0.165671 0.501556 0.105406 F F F Li
0.834329 0.501556 0.105406 F F F Li
0.834329 0.001556 0.167321 F F F Li
0.165671 0.001556 0.167321 F F F Li
0.665671 0.501556 0.241769 F F F Li
0.334329 0.501556 0.241769 F F F Li
0.334329 0.001556 0.212776 F F F Li
0.665671 0.001556 0.212776 F F F Li
0.165671 0.501556 0.196315 F F F Li
0.834329 0.501556 0.196315 F F F Li
0.834329 0.001556 0.258230 F F F Li
0.165671 0.001556 0.258231 F F F Li
0.665671 0.501556 0.332679 F F F Li
0.334329 0.501556 0.332679 F F F Li
0.334329 0.001556 0.303685 F F F Li
0.665671 0.001556 0.303685 F F F Li
0.165671 0.501556 0.287224 F F F Li
0.834329 0.501556 0.287224 F F F Li
0.834329 0.001556 0.349140 F F F Li
0.165671 0.001556 0.349140 F F F Li
0.665671 0.501556 0.423588 F F F Li
0.334329 0.501556 0.423588 F F F Li
0.334329 0.001556 0.394594 F F F Li
0.665671 0.001556 0.394594 F F F Li
0.165671 0.501556 0.378133 F F F Li
0.834329 0.501556 0.378133 F F F Li
0.834329 0.001556 0.440049 F F F Li
0.165671 0.001556 0.440049 F F F Li
0.665671 0.501556 0.514497 F F F Li
0.334329 0.501556 0.514497 F F F Li
0.334329 0.001556 0.485503 F F F Li
0.665671 0.001556 0.485503 F F F Li
0.165671 0.501556 0.469042 F F F Li
0.834329 0.501556 0.469042 F F F Li
0.834329 0.001556 0.530958 F F F Li
0.165671 0.001556 0.530958 F F F Li
0.665671 0.501556 0.605406 T T T Li
0.334329 0.501556 0.605406 T T T Li
0.334329 0.001556 0.576412 F F F Li
0.665671 0.001556 0.576412 F F F Li
0.165671 0.501556 0.559951 F F F Li
0.834329 0.501556 0.559951 F F F Li
0.834329 0.001556 0.621867 T T T Li
0.165671 0.001556 0.621867 T T T Li
0.000000 0.498511 0.059432 F F F P
0.000000 0.998511 0.031477 T T T P
0.500000 0.498511 0.013977 T T T P
0.500000 0.998511 0.076932 F F F P
0.000000 0.498511 0.150341 F F F P
0.000000 0.998511 0.122386 F F F P
0.500000 0.498511 0.104886 F F F P
0.500000 0.998511 0.167841 F F F P
0.000000 0.498511 0.241250 F F F P
0.000000 0.998511 0.213295 F F F P
0.500000 0.498511 0.195795 F F F P
0.500000 0.998511 0.258750 F F F P
0.000000 0.498511 0.332159 F F F P
0.000000 0.998511 0.304205 F F F P
0.500000 0.498511 0.286705 F F F P
0.500000 0.998511 0.349659 F F F P
0.000000 0.498511 0.423068 F F F P
0.000000 0.998511 0.395114 F F F P
0.500000 0.498511 0.377614 F F F P
0.500000 0.998511 0.440568 F F F P
0.000000 0.498511 0.513977 F F F P
0.000000 0.998511 0.486023 F F F P
0.500000 0.498511 0.468523 F F F P
0.500000 0.998511 0.531477 F F F P
0.000000 0.498511 0.604886 T T T P
0.000000 0.998511 0.576932 F F F P
0.500000 0.498511 0.559432 F F F P
0.500000 0.998511 0.622386 T T T P
0.000000 0.341176 0.035182 T T T N
0.000000 0.841176 0.055727 F F F N
0.500000 0.341176 0.080636 F F F N
0.500000 0.841176 0.010273 T T T N
0.000000 0.341176 0.126091 F F F N
0.000000 0.841176 0.146636 F F F N
0.500000 0.341176 0.171545 F F F N
0.500000 0.841176 0.101182 F F F N
0.000000 0.341176 0.217000 F F F N
0.000000 0.841176 0.237545 F F F N
0.500000 0.341176 0.262455 F F F N
0.500000 0.841176 0.192091 F F F N
0.000000 0.341176 0.307909 F F F N
0.000000 0.841176 0.328455 F F F N
0.500000 0.341176 0.353364 F F F N
0.500000 0.841176 0.283000 F F F N
0.000000 0.341176 0.398818 F F F N
0.000000 0.841176 0.419364 F F F N
0.500000 0.341176 0.444273 F F F N
0.500000 0.841176 0.373909 F F F N
0.000000 0.341176 0.489727 F F F N
0.000000 0.841176 0.510273 F F F N
0.500000 0.341176 0.535182 F F F N
0.500000 0.841176 0.464818 F F F N
0.000000 0.341176 0.580636 F F F N
0.000000 0.841176 0.601182 T T T N
0.500000 0.341176 0.626091 T T T N
0.500000 0.841176 0.555727 F F F N
0.139047 0.419101 0.073223 F F F O
0.860953 0.419101 0.073223 F F F O
0.860953 0.919101 0.017686 T T T O
0.139047 0.919101 0.017686 T T T O
0.639047 0.419101 0.027768 T T T O
0.360953 0.419101 0.027768 T T T O
0.360953 0.919101 0.063141 F F F O
0.639047 0.919101 0.063141 F F F O
0.139047 0.419101 0.164132 F F F O
0.860953 0.419101 0.164132 F F F O
0.860953 0.919101 0.108595 F F F O
0.139047 0.919101 0.108595 F F F O
0.639047 0.419101 0.118677 F F F O
0.360953 0.419101 0.118677 F F F O
0.360953 0.919101 0.154050 F F F O
0.639047 0.919101 0.154050 F F F O
0.139047 0.419101 0.255041 F F F O
0.860953 0.419101 0.255041 F F F O
0.860953 0.919101 0.199505 F F F O
0.139047 0.919101 0.199505 F F F O
0.639047 0.419101 0.209586 F F F O
0.360953 0.419101 0.209586 F F F O
0.360953 0.919101 0.244959 F F F O
0.639047 0.919101 0.244959 F F F O
0.139047 0.419101 0.345950 F F F O
0.860953 0.419101 0.345950 F F F O
0.860953 0.919101 0.290414 F F F O
0.139047 0.919101 0.290414 F F F O
0.639047 0.419101 0.300495 F F F O
0.360953 0.419101 0.300495 F F F O
0.360953 0.919101 0.335868 F F F O
0.639047 0.919101 0.335868 F F F O
0.139047 0.419101 0.436859 F F F O
0.860953 0.419101 0.436859 F F F O
0.860953 0.919101 0.381323 F F F O
0.139047 0.919101 0.381323 F F F O
0.639047 0.419101 0.391405 F F F O
0.360953 0.419101 0.391405 F F F O
0.360953 0.919101 0.426777 F F F O
0.639047 0.919101 0.426777 F F F O
0.139047 0.419101 0.527768 F F F O
0.860953 0.419101 0.527768 F F F O
0.860953 0.919101 0.472232 F F F O
0.139047 0.919101 0.472232 F F F O
0.639047 0.419101 0.482314 F F F O
0.360953 0.419101 0.482314 F F F O
0.360953 0.919101 0.517686 F F F O
0.639047 0.919101 0.517686 F F F O
0.139047 0.419101 0.618677 T T T O
0.860953 0.419101 0.618677 T T T O
0.860953 0.919101 0.563141 F F F O
0.139047 0.919101 0.563141 F F F O
0.639047 0.419101 0.573223 F F F O
0.360953 0.419101 0.573223 F F F O
0.360953 0.919101 0.608595 T T T O
0.639047 0.919101 0.608595 T T T O
