Li56 P28 O98
1.0
4.907295 0.000000 -1.895193
-0.730671 8.419349 -9.115751
0.000000 0.000000 72.154804
Li P O
56 28 98
Selective dynamics
direct
0.744463 0.987971 0.045022 T T T Li
0.255537 0.012029 0.076423 F F F Li
0.395677 0.751653 0.077015 F F F Li
0.604323 0.248347 0.044430 F F F Li
0.027769 0.791276 0.007076 T T T Li
0.972231 0.208724 0.014369 T T T Li
0.056952 0.450796 0.081613 F F F Li
0.943048 0.549204 0.039831 T T T Li
0.744463 0.987971 0.145022 F F F Li
0.255537 0.012029 0.176423 F F F Li
0.395677 0.751653 0.177015 F F F Li
0.604323 0.248347 0.144430 F F F Li
0.027769 0.791276 0.107076 F F F Li
0.972231 0.208724 0.114369 F F F Li
0.056952 0.450796 0.181613 F F F Li
0.943048 0.549204 0.139831 F F F Li
0.744463 0.987971 0.245022 F F F Li
0.255537 0.012029 0.276423 F F F Li
0.395677 0.751653 0.277015 F F F Li
0.604323 0.248347 0.244430 F F F Li
0.027769 0.791276 0.207076 F F F Li
0.972231 0.208724 0.214369 F F F Li
0.056952 0.450796 0.281613 F F F Li
0.943048 0.549204 0.239831 F F F Li
0.744463 0.987971 0.345022 F F F Li
0.255537 0.012029 0.376423 F F F Li
0.395677 0.751653 0.377015 F F F Li
0.604323 0.248347 0.344430 F F F Li
0.027769 0.791276 0.307076 F F F Li
0.972231 0.208724 0.314369 F F F Li
0.056952 0.450796 0.381613 F F F Li
0.943048 0.549204 0.339831 F F F Li
0.744463 0.987971 0.445022 F F F Li
0.255537 0.012029 0.476423 F F F Li
0.395677 0.751653 0.477015 F F F Li
0.604323 0.248347 0.444430 F F F Li
0.027769 0.791276 0.407076 F F F Li
0.972231 0.208724 0.414369 F F F Li
0.056952 0.450796 0.481613 F F F Li
0.943048 0.549204 0.439831 F F F Li
0.744463 0.987971 0.545022 F F F Li
0.255537 0.012029 0.576423 F F F Li
0.395677 0.751653 0.577015 F F F Li
0.604323 0.248347 0.544430 F F F Li
0.027769 0.791276 0.507076 F F F Li
0.972231 0.208724 0.514369 F F F Li
0.056952 0.450796 0.581613 F F F Li
0.943048 0.549204 0.539831 F F F Li
0.744463 0.987971 0.645022 T T T Li
0.255537 0.012029 0.676423 T T T Li
0.395677 0.751653 0.677015 T T T Li
0.604323 0.248347 0.644430 F F F Li
0.027769 0.791276 0.607076 F F F Li
0.972231 0.208724 0.614369 F F F Li
0.056952 0.450796 0.681613 T T T Li
0.943048 0.549204 0.639831 T T T Li
0.573990 0.631956 0.002588 T T T P
0.426010 0.368044 0.018857 T T T P
0.784272 0.845502 0.067348 F F F P
0.215728 0.154498 0.054096 T T T P
0.573990 0.631956 0.102588 F F F P
0.426010 0.368044 0.118857 F F F P
0.784272 0.845502 0.167348 F F F P
0.215728 0.154498 0.154096 F F F P
0.573990 0.631956 0.202588 F F F P
0.426010 0.368044 0.218857 F F F P
0.784272 0.845502 0.267348 F F F P
0.215728 0.154498 0.254096 F F F P
0.573990 0.631956 0.302588 F F F P
0.426010 0.368044 0.318857 F F F P
0.784272 0.845502 0.367348 F F F P
0.215728 0.154498 0.354096 F F F P
0.573990 0.631956 0.402588 F F F P
0.426010 0.368044 0.418857 F F F P
0.784272 0.845502 0.467348 F F F P
0.215728 0.154498 0.454096 F F F P
0.573990 0.631956 0.502588 F F F P
0.426010 0.368044 0.518857 F F F P
0.784272 0.845502 0.567348 F F F P
0.215728 0.154498 0.554096 F F F P
0.573990 0.631956 0.602588 F F F P
0.426010 0.368044 0.618857 F F F P
0.784272 0.845502 0.667348 T T T P
0.215728 0.154498 0.654096 F F F P
0.519912 0.874340 0.073980 F F F O
0.006130 0.790684 0.079219 F F F O
0.993870 0.209316 0.042226 F F F O
0.882911 0.981976 0.074061 F F F O
0.732561 0.376455 0.024033 T T T O
0.267439 0.623545 0.097412 F F F O
0.314844 0.526190 0.040122 T T T O
0.685156 0.473810 0.081322 F F F O
0.338222 0.236504 0.014132 T T T O
0.661778 0.763496 0.007312 T T T O
0.733069 0.683894 0.032873 T T T O
0.266931 0.316106 0.088571 F F F O
0.117089 0.018024 0.047384 F F F O
0.480088 0.125660 0.047464 T T T O
0.519912 0.874340 0.173980 F F F O
0.006130 0.790684 0.179219 F F F O
0.993870 0.209316 0.142226 F F F O
0.882911 0.981976 0.174061 F F F O
0.732561 0.376455 0.124033 F F F O
0.267439 0.623545 0.197412 F F F O
0.314844 0.526190 0.140122 F F F O
0.685156 0.473810 0.181322 F F F O
0.338222 0.236504 0.114132 F F F O
0.661778 0.763496 0.107312 F F F O
0.733069 0.683894 0.132873 F F F O
0.266931 0.316106 0.188571 F F F O
0.117089 0.018024 0.147384 F F F O
0.480088 0.125660 0.147464 F F F O
0.519912 0.874340 0.273980 F F F O
0.006130 0.790684 0.279219 F F F O
0.993870 0.209316 0.242226 F F F O
0.882911 0.981976 0.274061 F F F O
0.732561 0.376455 0.224033 F F F O
0.267439 0.623545 0.297412 F F F O
0.314844 0.526190 0.240122 F F F O
0.685156 0.473810 0.281322 F F F O
0.338222 0.236504 0.214132 F F F O
0.661778 0.763496 0.207312 F F F O
0.733069 0.683894 0.232873 F F F O
0.266931 0.316106 0.288571 F F F O
0.117089 0.018024 0.247384 F F F O
0.480088 0.125660 0.247464 F F F O
0.519912 0.874340 0.373980 F F F O
0.006130 0.790684 0.379219 F F F O
0.993870 0.209316 0.342226 F F F O
0.882911 0.981976 0.374061 F F F O
0.732561 0.376455 0.324033 F F F O
0.267439 0.623545 0.397412 F F F O
0.314844 0.526190 0.340122 F F F O
0.685156 0.473810 0.381322 F F F O
0.338222 0.236504 0.314132 F F F O
0.661778 0.763496 0.307312 F F F O
0.733069 0.683894 0.332873 F F F O
0.266931 0.316106 0.388571 F F F O
0.117089 0.018024 0.347384 F F F O
0.480088 0.125660 0.347464 F F F O
0.519912 0.874340 0.473980 F F F O
0.006130 0.790684 0.479219 F F F O
0.993870 0.209316 0.442226 F F F O
0.882911 0.981976 0.474061 F F F O
0.732561 0.376455 0.424033 F F F O
0.267439 0.623545 0.497412 F F F O
0.314844 0.526190 0.440122 F F F O
0.685156 0.473810 0.481322 F F F O
0.338222 0.236504 0.414132 F F F O
0.661778 0.763496 0.407312 F F F O
0.733069 0.683894 0.432873 F F F O
0.266931 0.316106 0.488571 F F F O
0.117089 0.018024 0.447384 F F F O
0.480088 0.125660 0.447464 F F F O
0.519912 0.874340 0.573980 F F F O
0.006130 0.790684 0.579219 F F F O
0.993870 0.209316 0.542226 F F F O
0.882911 0.981976 0.574061 F F F O
0.732561 0.376455 0.524033 F F F O
0.267439 0.623545 0.597412 F F F O
0.314844 0.526190 0.540122 F F F O
0.685156 0.473810 0.581322 F F F O
0.338222 0.236504 0.514132 F F F O
0.661778 0.763496 0.507312 F F F O
0.733069 0.683894 0.532873 F F F O
0.266931 0.316106 0.588571 F F F O
0.117089 0.018024 0.547384 F F F O
0.480088 0.125660 0.547464 F F F O
0.519912 0.874340 0.673980 T T T O
0.006130 0.790684 0.679219 F F F O
0.993870 0.209316 0.642226 F F F O
0.882911 0.981976 0.674061 T T T O
0.732561 0.376455 0.624033 F F F O
0.267439 0.623545 0.697412 T T T O
0.314844 0.526190 0.640122 F F F O
0.685156 0.473810 0.681322 F F F O
0.338222 0.236504 0.614132 F F F O
0.661778 0.763496 0.607312 F F F O
0.733069 0.683894 0.632873 F F F O
0.266931 0.316106 0.688571 F F F O
0.117089 0.018024 0.647384 F F F O
0.480088 0.125660 0.647464 F F F O
