Li56 P28 O98
1.0
8.662005 0.000000 0.002996
-1.582033 6.542399 -7.860032
0.000000 0.000000 68.387046
Li P O
56 28 98
Selective dynamics
direct
0.987971 0.855023 0.007653 T T T Li+
0.012029 0.144977 0.069270 F F F Li+
0.751653 0.411273 0.023612 T T T Li+
0.248347 0.588727 0.053312 T T T Li+
0.791276 0.672262 0.015387 T T T Li+
0.208724 0.327738 0.061536 T T T Li+
0.450796 0.758114 0.024236 T T T Li+
0.549204 0.241886 0.052687 T T T Li+
0.987971 0.855023 0.084576 T T T Li+
0.012029 0.144977 0.146193 F F F Li+
0.751653 0.411273 0.100535 F F F Li+
0.248347 0.588727 0.130235 F F F Li+
0.791276 0.672262 0.092310 T T T Li+
0.208724 0.327738 0.138459 F F F Li+
0.450796 0.758114 0.101159 T T T Li+
0.549204 0.241886 0.129610 F F F Li+
0.987971 0.855023 0.161499 F F F Li+
0.012029 0.144977 0.223116 F F F Li+
0.751653 0.411273 0.177458 F F F Li+
0.248347 0.588727 0.207158 F F F Li+
0.791276 0.672262 0.169233 F F F Li+
0.208724 0.327738 0.215382 F F F Li+
0.450796 0.758114 0.178082 F F F Li+
0.549204 0.241886 0.206533 F F F Li+
0.987971 0.855023 0.238422 F F F Li+
0.012029 0.144977 0.300040 F F F Li+
0.751653 0.411273 0.254381 F F F Li+
0.248347 0.588727 0.284081 F F F Li+
0.791276 0.672262 0.246156 F F F Li+
0.208724 0.327738 0.292305 F F F Li+
0.450796 0.758114 0.255005 F F F Li+
0.549204 0.241886 0.283456 F F F Li+
0.987971 0.855023 0.315345 F F F Li+
0.012029 0.144977 0.376963 F F F Li+
0.751653 0.411273 0.331304 F F F Li+
0.248347 0.588727 0.361004 F F F Li+
0.791276 0.672262 0.323079 F F F Li+
0.208724 0.327738 0.369228 F F F Li+
0.450796 0.758114 0.331928 F F F Li+
0.549204 0.241886 0.360380 F F F Li+
0.987971 0.855023 0.392268 F F F Li+
0.012029 0.144977 0.453886 T T T Li+
0.751653 0.411273 0.408227 F F F Li+
0.248347 0.588727 0.437927 F F F Li+
0.791276 0.672262 0.400002 F F F Li+
0.208724 0.327738 0.446151 T T T Li+
0.450796 0.758114 0.408851 F F F Li+
0.549204 0.241886 0.437303 T T T Li+
0.987971 0.855023 0.469191 F F F Li+
0.012029 0.144977 0.530809 T T T Li+
0.751653 0.411273 0.485150 T T T Li+
0.248347 0.588727 0.514850 T T T Li+
0.791276 0.672262 0.476925 T T T Li+
0.208724 0.327738 0.523075 T T T Li+
0.450796 0.758114 0.485774 T T T Li+
0.549204 0.241886 0.514226 T T T Li+
0.631956 0.786702 0.066207 T T T P5+
0.368044 0.213298 0.010716 T T T P5+
0.845502 0.220759 0.038849 T T T P5+
0.154498 0.779241 0.038075 T T T P5+
0.631956 0.786702 0.143130 F F F P5+
0.368044 0.213298 0.087639 F F F P5+
0.845502 0.220759 0.115772 F F F P5+
0.154498 0.779241 0.114998 T T T P5+
0.631956 0.786702 0.220053 F F F P5+
0.368044 0.213298 0.164562 F F F P5+
0.845502 0.220759 0.192695 F F F P5+
0.154498 0.779241 0.191921 F F F P5+
0.631956 0.786702 0.296976 F F F P5+
0.368044 0.213298 0.241485 F F F P5+
0.845502 0.220759 0.269618 F F F P5+
0.154498 0.779241 0.268844 F F F P5+
0.631956 0.786702 0.373899 F F F P5+
0.368044 0.213298 0.318408 F F F P5+
0.845502 0.220759 0.346541 F F F P5+
0.154498 0.779241 0.345767 F F F P5+
0.631956 0.786702 0.450822 F F F P5+
0.368044 0.213298 0.395331 F F F P5+
0.845502 0.220759 0.423464 T T T P5+
0.154498 0.779241 0.422690 F F F P5+
0.631956 0.786702 0.527746 T T T P5+
0.368044 0.213298 0.472254 T T T P5+
0.845502 0.220759 0.500387 T T T P5+
0.154498 0.779241 0.499613 T T T P5+
0.874340 0.258241 0.021396 T T T O2-
0.790684 0.394280 0.069262 T T T O2-
0.209316 0.605720 0.007661 T T T O2-
0.981976 0.151409 0.041102 T T T O2-
0.376455 0.256650 0.037632 T T T O2-
0.623545 0.743350 0.039291 T T T O2-
0.526190 0.267811 0.006358 T T T O2-
0.473810 0.732189 0.070565 T T T O2-
0.236504 0.297597 0.010448 T T T O2-
0.763496 0.702403 0.066475 T T T O2-
0.683894 0.037616 0.020822 T T T O2-
0.316106 0.962384 0.056101 T T T O2-
0.018024 0.848591 0.035822 T T T O2-
0.125660 0.741759 0.055527 T T T O2-
0.874340 0.258241 0.098319 F F F O2-
0.790684 0.394280 0.146185 F F F O2-
0.209316 0.605720 0.084584 T T T O2-
0.981976 0.151409 0.118025 F F F O2-
0.376455 0.256650 0.114555 F F F O2-
0.623545 0.743350 0.116215 T T T O2-
0.526190 0.267811 0.083281 F F F O2-
0.473810 0.732189 0.147488 F F F O2-
0.236504 0.297597 0.087371 F F F O2-
0.763496 0.702403 0.143399 F F F O2-
0.683894 0.037616 0.097745 F F F O2-
0.316106 0.962384 0.133024 T T T O2-
0.018024 0.848591 0.112745 T T T O2-
0.125660 0.741759 0.132450 T T T O2-
0.874340 0.258241 0.175243 F F F O2-
0.790684 0.394280 0.223108 F F F O2-
0.209316 0.605720 0.161507 F F F O2-
0.981976 0.151409 0.194948 F F F O2-
0.376455 0.256650 0.191478 F F F O2-
0.623545 0.743350 0.193138 F F F O2-
0.526190 0.267811 0.160204 F F F O2-
0.473810 0.732189 0.224411 F F F O2-
0.236504 0.297597 0.164294 F F F O2-
0.763496 0.702403 0.220322 F F F O2-
0.683894 0.037616 0.174668 F F F O2-
0.316106 0.962384 0.209947 F F F O2-
0.018024 0.848591 0.189668 F F F O2-
0.125660 0.741759 0.209373 F F F O2-
0.874340 0.258241 0.252166 F F F O2-
0.790684 0.394280 0.300032 F F F O2-
0.209316 0.605720 0.238430 F F F O2-
0.981976 0.151409 0.271871 F F F O2-
0.376455 0.256650 0.268401 F F F O2-
0.623545 0.743350 0.270061 F F F O2-
0.526190 0.267811 0.237127 F F F O2-
0.473810 0.732189 0.301334 F F F O2-
0.236504 0.297597 0.241217 F F F O2-
0.763496 0.702403 0.297245 F F F O2-
0.683894 0.037616 0.251591 F F F O2-
0.316106 0.962384 0.286870 F F F O2-
0.018024 0.848591 0.266591 F F F O2-
0.125660 0.741759 0.286296 F F F O2-
0.874340 0.258241 0.329089 F F F O2-
0.790684 0.394280 0.376955 F F F O2-
0.209316 0.605720 0.315353 F F F O2-
0.981976 0.151409 0.348794 F F F O2-
0.376455 0.256650 0.345324 F F F O2-
0.623545 0.743350 0.346984 F F F O2-
0.526190 0.267811 0.314050 F F F O2-
0.473810 0.732189 0.378257 F F F O2-
0.236504 0.297597 0.318140 F F F O2-
0.763496 0.702403 0.374168 F F F O2-
0.683894 0.037616 0.328514 F F F O2-
0.316106 0.962384 0.363793 F F F O2-
0.018024 0.848591 0.343514 F F F O2-
0.125660 0.741759 0.363219 F F F O2-
0.874340 0.258241 0.406012 F F F O2-
0.790684 0.394280 0.453878 T T T O2-
0.209316 0.605720 0.392276 F F F O2-
0.981976 0.151409 0.425717 T T T O2-
0.376455 0.256650 0.422247 F F F O2-
0.623545 0.743350 0.423907 F F F O2-
0.526190 0.267811 0.390973 F F F O2-
0.473810 0.732189 0.455180 F F F O2-
0.236504 0.297597 0.395063 F F F O2-
0.763496 0.702403 0.451091 F F F O2-
0.683894 0.037616 0.405437 T T T O2-
0.316106 0.962384 0.440717 F F F O2-
0.018024 0.848591 0.420437 F F F O2-
0.125660 0.741759 0.440142 F F F O2-
0.874340 0.258241 0.482935 T T T O2-
0.790684 0.394280 0.530801 T T T O2-
0.209316 0.605720 0.469199 T T T O2-
0.981976 0.151409 0.502640 T T T O2-
0.376455 0.256650 0.499170 T T T O2-
0.623545 0.743350 0.500830 T T T O2-
0.526190 0.267811 0.467897 T T T O2-
0.473810 0.732189 0.532103 T T T O2-
0.236504 0.297597 0.471986 T T T O2-
0.763496 0.702403 0.528014 T T T O2-
0.683894 0.037616 0.482360 T T T O2-
0.316106 0.962384 0.517640 T T T O2-
0.018024 0.848591 0.497360 T T T O2-
0.125660 0.741759 0.517065 T T T O2-
