Li7 O56
1.0
5.111231 0.000000 0.106423
0.962040 5.098372 0.238916
0.000000 0.000000 50.719195
Li O
7 56
Selective dynamics
direct
0.079045 0.686457 0.976550 T T T Li
0.694430 0.301842 0.899627 F F F Li
0.309814 0.917226 0.822704 F F F Li
0.925199 0.532611 0.745781 F F F Li
0.540583 0.147995 0.668858 F F F Li
0.155968 0.763380 0.591935 F F F Li
0.771353 0.378765 0.515012 T T T Li
0.109966 0.263717 0.986072 T T T O
0.150572 0.083486 0.970038 T T T O
0.437538 0.370452 0.934167 F F F O
0.409680 0.563431 0.948607 F F F O
0.705928 0.217572 0.992350 T T T O
0.912410 0.394860 0.930727 F F F O
0.731982 0.037080 0.976906 T T T O
0.860580 0.590170 0.945075 F F F O
0.725350 0.879101 0.909149 F F F O
0.765957 0.698871 0.893115 F F F O
0.052923 0.985837 0.857244 F F F O
0.025064 0.178815 0.871684 F F F O
0.321312 0.832956 0.915427 F F F O
0.527794 0.010244 0.853804 F F F O
0.347367 0.652465 0.899983 F F F O
0.475965 0.205555 0.868152 F F F O
0.340735 0.494486 0.832226 F F F O
0.381341 0.314255 0.816192 F F F O
0.668307 0.601221 0.780321 F F F O
0.640449 0.794200 0.794761 F F F O
0.936697 0.448341 0.838504 F F F O
0.143179 0.625629 0.776881 F F F O
0.962751 0.267849 0.823060 F F F O
0.091349 0.820939 0.791229 F F F O
0.956119 0.109870 0.755302 F F F O
0.996726 0.929640 0.739269 F F F O
0.283692 0.216606 0.703398 F F F O
0.255833 0.409584 0.717838 F F F O
0.552082 0.063726 0.761581 F F F O
0.758564 0.241014 0.699958 F F F O
0.578136 0.883234 0.746137 F F F O
0.706734 0.436324 0.714306 F F F O
0.571504 0.725255 0.678379 F F F O
0.612110 0.545024 0.662345 F F F O
0.899077 0.831991 0.626475 F F F O
0.871218 0.024969 0.640915 F F F O
0.167466 0.679110 0.684658 F F F O
0.373948 0.856398 0.623035 F F F O
0.193520 0.498618 0.669214 F F F O
0.322119 0.051709 0.637383 F F F O
0.186889 0.340640 0.601456 F F F O
0.227495 0.160409 0.585422 F F F O
0.514461 0.447375 0.549552 F F F O
0.486603 0.640354 0.563992 F F F O
0.782851 0.294495 0.607735 F F F O
0.989333 0.471783 0.546112 F F F O
0.808905 0.114003 0.592291 F F F O
0.937503 0.667093 0.560460 F F F O
0.802273 0.956024 0.524533 F F F O
0.842880 0.775794 0.508499 F F F O
0.129846 0.062760 0.472629 T T T O
0.101987 0.255738 0.487069 T T T O
0.398235 0.909880 0.530811 F F F O
0.604717 0.087167 0.469189 T T T O
0.424290 0.729388 0.515368 F F F O
0.552888 0.282478 0.483537 T T T O
