Li12 P28                                
   1.00000000000000     
     7.6222047445739722    0.0000000000000000    0.0000000000000000
     0.0000000000000000    9.8493681635869041    0.0000000000000000
     0.0000000000000000    0.0000000000000000   10.5702379516416620
   Li   P 
    12    28
Direct
  0.8501849916071785  0.3073818581802533  0.8162120988491873
  0.3501849916071786  0.1926181418197467  0.1837879011508126
  0.1498150083928215  0.8073818581802533  0.6837879011508127
  0.6498150083928215  0.6926181418197467  0.3162120988491875
  0.5686975304397971  0.0262800187938743  0.0150391355294281
  0.0686975304397970  0.4737199812061259  0.9849608644705719
  0.4313024695602030  0.5262800187938746  0.4849608644705719
  0.9313024695602029  0.9737199812061254  0.5150391355294281
  0.4019182884906410  0.3011230397488974  0.6910241498199732
  0.9019182884906413  0.1988769602511027  0.3089758501800271
  0.5980817115093587  0.8011230397488974  0.8089758501800268
  0.0980817115093589  0.6988769602511026  0.1910241498199730
  0.2805671101398010  0.8750632615939087  0.3184311973782341
  0.7805671101398012  0.6249367384060913  0.6815688026217662
  0.7194328898601988  0.3750632615939085  0.1815688026217661
  0.2194328898601989  0.1249367384060915  0.8184311973782338
  0.6375345514829232  0.0479954146823574  0.3877096987905773
  0.1375345514829230  0.4520045853176425  0.6122903012094225
  0.3624654485170770  0.5479954146823572  0.1122903012094225
  0.8624654485170768  0.9520045853176428  0.8877096987905775
  0.5335348669445725  0.9426710185221855  0.5656418350079626
  0.0335348669445726  0.5573289814778145  0.4343581649920373
  0.4664651330554273  0.4426710185221855  0.9343581649920374
  0.9664651330554275  0.0573289814778145  0.0656418350079626
  0.4056247502256359  0.1338616644411421  0.4948598643212279
  0.9056247502256360  0.3661383355588580  0.5051401356787719
  0.5943752497743640  0.6338616644411420  0.0051401356787719
  0.0943752497743640  0.8661383355588580  0.9948598643212281
  0.3167203271587263  0.9275560998840557  0.8811742916876334
  0.8167203271587261  0.5724439001159443  0.1188257083123667
  0.6832796728412739  0.4275560998840555  0.6188257083123666
  0.1832796728412736  0.0724439001159445  0.3811742916876333
  0.1290464716584757  0.2187171701615969  0.9945852225911489
  0.6290464716584756  0.2812828298384032  0.0054147774088511
  0.8709535283415244  0.7187171701615969  0.5054147774088511
  0.3709535283415243  0.7812828298384031  0.4945852225911489
  0.9662521713577396  0.0709831627521319  0.7338879692503840
  0.4662521713577396  0.4290168372478681  0.2661120307496159
  0.0337478286422604  0.5709831627521320  0.7661120307496160
  0.5337478286422604  0.9290168372478680  0.2338879692503840
 
  0.00000000E+00  0.00000000E+00  0.00000000E+00
  0.00000000E+00  0.00000000E+00  0.00000000E+00
  0.00000000E+00  0.00000000E+00  0.00000000E+00
  0.00000000E+00  0.00000000E+00  0.00000000E+00
  0.00000000E+00  0.00000000E+00  0.00000000E+00
  0.00000000E+00  0.00000000E+00  0.00000000E+00
  0.00000000E+00  0.00000000E+00  0.00000000E+00
  0.00000000E+00  0.00000000E+00  0.00000000E+00
  0.00000000E+00  0.00000000E+00  0.00000000E+00
  0.00000000E+00  0.00000000E+00  0.00000000E+00
  0.00000000E+00  0.00000000E+00  0.00000000E+00
  0.00000000E+00  0.00000000E+00  0.00000000E+00
  0.00000000E+00  0.00000000E+00  0.00000000E+00
  0.00000000E+00  0.00000000E+00  0.00000000E+00
  0.00000000E+00  0.00000000E+00  0.00000000E+00
  0.00000000E+00  0.00000000E+00  0.00000000E+00
  0.00000000E+00  0.00000000E+00  0.00000000E+00
  0.00000000E+00  0.00000000E+00  0.00000000E+00
  0.00000000E+00  0.00000000E+00  0.00000000E+00
  0.00000000E+00  0.00000000E+00  0.00000000E+00
  0.00000000E+00  0.00000000E+00  0.00000000E+00
  0.00000000E+00  0.00000000E+00  0.00000000E+00
  0.00000000E+00  0.00000000E+00  0.00000000E+00
  0.00000000E+00  0.00000000E+00  0.00000000E+00
  0.00000000E+00  0.00000000E+00  0.00000000E+00
  0.00000000E+00  0.00000000E+00  0.00000000E+00
  0.00000000E+00  0.00000000E+00  0.00000000E+00
  0.00000000E+00  0.00000000E+00  0.00000000E+00
  0.00000000E+00  0.00000000E+00  0.00000000E+00
  0.00000000E+00  0.00000000E+00  0.00000000E+00
  0.00000000E+00  0.00000000E+00  0.00000000E+00
  0.00000000E+00  0.00000000E+00  0.00000000E+00
  0.00000000E+00  0.00000000E+00  0.00000000E+00
  0.00000000E+00  0.00000000E+00  0.00000000E+00
  0.00000000E+00  0.00000000E+00  0.00000000E+00
  0.00000000E+00  0.00000000E+00  0.00000000E+00
  0.00000000E+00  0.00000000E+00  0.00000000E+00
  0.00000000E+00  0.00000000E+00  0.00000000E+00
  0.00000000E+00  0.00000000E+00  0.00000000E+00
  0.00000000E+00  0.00000000E+00  0.00000000E+00
