Li71 P24 N1 O94                         
   1.00000000000000     
    14.7043388847487044   -0.0046457257212747   -0.0020460660603563
    -0.0033490041732699   10.5676324936433907   -0.0010060953408733
    -0.0017050406559455   -0.0011819446337027   12.3262868421538645
   Li   P    N    O 
    71    24     1    94
Direct
  0.1638734696179349  0.4295566424024824 -0.0194368494015579
  0.1687290063866304  0.4224132485434904  0.5046787756543361
  0.1696308686802342  0.9311481191949618  0.0060363360258287
  0.1705951196319728  0.9223766722365269  0.4993574094678509
  0.5055946975016380  0.4232976477266454 -0.0026480688974242
  0.5038147585350060  0.4221662146105430  0.5010130747932171
  0.5031773875355143  0.9232372899396711 -0.0001504114530133
  0.5028510821553172  0.9226794965935804  0.5000346701675138
  0.8355441482941587  0.4226918465782354 -0.0004160077801174
  0.8355114388961443  0.4218304623947667  0.5003132527082994
  0.8362522615149356  0.9202208273585470 -0.0001293617834487
  0.8367243475674190  0.9226834303534487  0.4998738932451728
  0.0074337075877782  0.0760383282929442  0.2508987680367629
  0.0035422777123967  0.0750889411720131  0.7489421757585434
 -0.0008165705824855  0.5854885425711263  0.2499039008039076
  0.0030879101634931  0.5775312623418872  0.7499447588444995
  0.3325189076425583  0.0770577157437603  0.2468245697145074
  0.3367656632927373  0.0772997978214006  0.7509787281804540
  0.3391614613963909  0.5805035666160232  0.2513616524953486
  0.3362874930941142  0.5773436252747046  0.7499569416272717
  0.6713331583380416  0.0767347548965087  0.2499336378314340
  0.6699512560345867  0.0766695082888742  0.7498780654059120
  0.6695201120183387  0.5792234995450600  0.2502530797425693
  0.6694504679058165  0.5780414798491554  0.7500114993348045
  0.1694430126768690  0.1620721569531423  0.6262607752478873
  0.1689107625432792  0.6669256271508066  0.1253858368898511
  0.1699390315640864  0.6636814489850912  0.6263218278811195
  0.5040635500098729  0.1593355007307874  0.1265570238968190
  0.5029265703185265  0.1628259305118777  0.6266699931652425
  0.5028756428974035  0.6641237218698051  0.1259772490102783
  0.5028271451309898  0.6635423961054772  0.6266137717225718
  0.8402009101840215  0.1628892101187845  0.1266079288498728
  0.8362132483711984  0.1628188129321478  0.6261855103756595
  0.8355542032492586  0.6644354655127335  0.1260932835821648
  0.8360049105868826  0.6629905583624438  0.6263476646999152
  0.0003472367603575  0.3433542837659121  0.1241215738112798
  0.0021237157397039  0.3351521921596363  0.6242773930553633
  0.0039055681815394  0.8413503889451498  0.1233795834245016
  0.0030325657716112  0.8359879601784369  0.6230981916650553
  0.3600609615465394  0.3323292122614892  0.1191791236364878
  0.3368984854321179  0.3356914032979932  0.6238791560390561
  0.3360732789014427  0.8385062097645128  0.1232632181106070
  0.3365039514873896  0.8370666094830150  0.6235662078892188
  0.6695013297545362  0.3360988668583861  0.1237563423420151
  0.6695353020140906  0.3365996421027693  0.6240729054590223
  0.6694707839938897  0.8371456964066224  0.1236750213383120
  0.6693666928124179  0.8367375137013485  0.6234665098561909
  0.0000511378539794  0.3341332776131807  0.3771079398103563
  0.0016982835796984  0.3334010865131781  0.8768608359420029
  0.0030422819656574  0.8368881629507682  0.3768357232214246
  0.0037392829626750  0.8374563214947159  0.8752440843995326
  0.3385442642714175  0.3356715160207935  0.3784223107996424
  0.3367125942737968  0.3337574518800571  0.8751079541025262
  0.3357811330649239  0.8372747133318698  0.3763731588587259
  0.3360361934172416  0.8381335800575482  0.8772420782741038
  0.6696382330185086  0.3365038124992851  0.3769188178924672
  0.6698708486700898  0.3365789130901921  0.8759173793383636
  0.6694973313405937  0.8370673025389972  0.3766322916622586
  0.6694750778985884  0.8368336340247231  0.8762153864050838
  0.1691254002627881  0.1593011036538689  0.3708692846112277
  0.1686242724047541  0.1608493548905408  0.8748336225339046
  0.1686664232261580  0.6658375250000146  0.3783552045918839
  0.1700219380848735  0.6664850870065434  0.8732088687752121
  0.5028776774898180  0.1620202646852457  0.3733810608106275
  0.5041054522968854  0.1628243676650590  0.8737603281455834
  0.5033587311236497  0.6641027447982401  0.3746029985046934
  0.5023255512226674  0.6638688743159312  0.8734705071078419
  0.8364191629984040  0.1627851242345517  0.3733757123321641
  0.8357240547635230  0.1632377112660599  0.8714587915283531
  0.8351779949831967  0.6637864398616445  0.3748868094072905
  0.8359629661819673  0.6634560256495997  0.8729566579969767
  0.1656772412846103  0.4180166658061378  0.2571587750489319
  0.1667715717975675  0.4118707205903380  0.7484338889874985
  0.1684496708993481  0.9103949011644108  0.2528302527542413
  0.1677533655222082  0.9114560237154526  0.7493368984475904
  0.5001737108547171  0.4128370889017842  0.2508730241047732
  0.5004644094132442  0.4124900461511389  0.7499663170770804
  0.5007404636848296  0.9118822432152464  0.2501719787028707
  0.5006015726603167  0.9118912297491159  0.7499834927660657
  0.8319251980933358  0.4138795686336776  0.2500493328087224
  0.8335071019562376  0.4125708465656034  0.7499197532877077
  0.8337971649565024  0.9116705600374267  0.2506079552082338
  0.8335941807199764  0.9113480025718094  0.7492889401534509
 -0.0005359697195377  0.0871588735997439 -0.0028834963506352
  0.0005043091347174  0.0878160629860744  0.5005835019427404
  0.0000802446448015  0.5897768514847812 -0.0003173663576846
 -0.0000313823243549  0.5864329935123094  0.5000993282567833
  0.3339939529782071  0.0877822757560861 -0.0013818121947705
  0.3338983385640930  0.0880886169043944  0.5000363346905133
  0.3332344531200808  0.5862897333066568  0.0005538801758669
  0.3342915689647270  0.5870116156480861  0.5006446828958927
  0.6681328394728436  0.0878174323468502 -0.0000538565223040
  0.6670951894680850  0.0879201227339941  0.5001614499267559
  0.6666319994518934  0.5880704485945226 -0.0001470331963348
  0.6667378524334925  0.5877462072774443  0.5004664823830922
  0.0225142074617070  0.1633382479671651  0.1078263310869970
  0.0360059787439755  0.1578957723480023  0.3975844399283384
  0.0348150904232263  0.1536677668695609  0.8912109144823415
  0.0352782234489252  0.6555206159791902  0.3962572739706082
  0.0359303129266386  0.6577516972933573  0.8958143975996227
  0.3695004117160021  0.1574681831031682  0.3964851234551903
  0.3723938014951194  0.1571952762819112  0.8957018109927846
  0.3696781330260950  0.6564847543819523  0.3971627214292653
  0.3676531824853470  0.6554267847409939  0.8966740805476053
  0.7024051794581870  0.1571062183683696  0.3963869397555104
  0.7026473457138154  0.1568682247843172  0.8956860052156375
  0.7018123062609697  0.6569469566236674  0.3966654982644970
  0.7022109210110522  0.6566964161557051  0.8960644067156454
  0.2035782005073198  0.0470913212700403  0.2579113024619624
  0.2011149625466059  0.0515204102379352  0.7486980016955046
  0.2032514737374747  0.5553450574918452  0.2510426396523446
  0.2004225036640673  0.5519320264695066  0.7498990325320234
  0.5353876159654510  0.0515336111707454  0.2502448608996980
  0.5347462321099062  0.0516894366237788  0.7499157709749653
  0.5338149159325564  0.5525905691170774  0.2500750257038790
  0.5338892512297009  0.5526518386475244  0.7500528326556329
  0.8667507775205883  0.0516271971369014  0.2515383063982778
  0.8671196590904742  0.0513578792076659  0.7487732142773096
  0.8656997560251869  0.5540233468868904  0.2506551974261932
  0.8676543797683096  0.5523552737343997  0.7497879367091985
  0.0604705521304568  0.4154169688057662  0.2519823070037797
  0.0609306059977542  0.4090281173209916  0.7498524609559443
  0.0623126924450238  0.9059422055153344  0.2518210169703728
  0.0618050542331503  0.9074924834914267  0.7485811985343587
  0.3938612426708246  0.4104646421166127  0.2515524985310545
  0.3945347572824431  0.4094330919881976  0.7501598346205197
  0.3949888985476850  0.9092062196612158  0.2500915877269709
  0.3947413356554557  0.9089643676407332  0.7500897707446629
  0.7260032411694308  0.4108493002912769  0.2505771601855100
  0.7275813172089182  0.4102406540068466  0.7499436787132773
  0.7277645721186750  0.9078231616078948  0.2502614062735862
  0.7276179909944207  0.9084561883087170  0.7497061358372142
  0.2297734653600590  0.0906573553040970 -0.0047115150880476
  0.2280682733286804  0.0911942843458317  0.5003204115411921
  0.2269679321906644  0.5867689583096983  0.0010604793762060
  0.2282192760109567  0.5883446295432150  0.5003976364002900
  0.5622254488317582  0.0907142994407386  0.0002407359856197
  0.5611719661495086  0.0907058879028672  0.5001360128004453
  0.5606385046578259  0.5913385382199913 -0.0002510290182259
  0.5608273384587368  0.5903925683530582  0.5005017447686539
  0.8926422421589068  0.0875920400484559 -0.0042413086891568
  0.8945195051533790  0.0908354281262134  0.5000819356810425
  0.8942591706127871  0.5913884023357494 -0.0003919454917857
  0.8941464756760431  0.5893865952824574  0.5003001299859496
  0.2021152204892355  0.3432195214930131  0.6447678576382573
  0.2034612901725155  0.8419975172023932  0.1479271812648804
  0.2031699883770468  0.8421021279126235  0.6454540066699392
  0.5326032289725946  0.3430927632053996  0.1457274671211239
  0.5357546664847342  0.3432550089305630  0.6462931869167715
  0.5360180179953359  0.8426611535969066  0.1463026868652410
  0.5357004852541897  0.8427443540778110  0.6460362044567990
  0.8667030915506483  0.3464034509744050  0.1455827617793158
  0.8685719780305975  0.3430256382733469  0.6462198039099315
  0.8693417724473509  0.8430020082026367  0.1466553357890750
  0.8688248350793493  0.8422084532442159  0.6454188743426476
  0.0354955564205396  0.1563782755369560  0.6048262567844940
  0.0351685123137484  0.6583822730429306  0.1037994200831263
  0.0358237749543974  0.6554245384593186  0.6036343043887994
  0.3706546515695401  0.1563293039248733  0.1029110427169991
  0.3694496836872976  0.1568634623144218  0.6041113482681734
  0.3684920050171889  0.6555437384566648  0.1040357531691629
  0.3688820073028871  0.6563243363017042  0.6045782996578551
  0.7037090670176994  0.1570295400820902  0.1036290095101093
  0.7023347406421382  0.1570810652238422  0.6040469007362619
  0.7019453470338014  0.6570515389819527  0.1036492848673443
  0.7021704983451702  0.6567884923463977  0.6041986098056089
  0.0344811404523484  0.4497558427744301 -0.0003597495772881
  0.0337676093020133  0.4463174964203079  0.4996968592117088
  0.0344490258017922  0.9470667315272192 -0.0031864395722843
  0.0341158220057167  0.9478291069926046  0.5001897434652792
  0.3671442526669277  0.4460725899937025  0.0002426620564453
  0.3684406951556798  0.4472423399802840  0.5006704151276072
  0.3692818512611175  0.9478385659281107 -0.0000482403760973
  0.3676713396678022  0.9480777869197829  0.4999328436243348
  0.6995571461305036  0.4477104251006279  0.0000858215665317
  0.7003398245027929  0.4477082958285590  0.5003766298097999
  0.7013412077928233  0.9475843466533900 -0.0001913729290727
  0.7008762673511515  0.9479973898171660  0.5001639188010114
  0.2029086052598533  0.3434061017721917  0.3561943269963692
  0.2026813737790913  0.3420627716432048  0.8516372991434535
  0.2024070541371525  0.8369433595972391  0.3561083674965437
  0.2030823930368572  0.8428805096446567  0.8532265373739764
  0.5357066188843518  0.3430994240168249  0.3537976364659027
  0.5361664717696566  0.3437139858058210  0.8537056047965580
  0.5359515190001384  0.8427268937881299  0.3540908425860831
  0.5359022705945161  0.8426200650368699  0.8537453457279531
  0.8676636520548939  0.3440660628141076  0.3533344133988401
  0.8684777513120199  0.3435126366650874  0.8538654371424561
  0.8689488513811383  0.8420536458859232  0.3543860154915757
  0.8690305299930238  0.8421345379498383  0.8528879817294049
 
  0.00000000E+00  0.00000000E+00  0.00000000E+00
  0.00000000E+00  0.00000000E+00  0.00000000E+00
  0.00000000E+00  0.00000000E+00  0.00000000E+00
  0.00000000E+00  0.00000000E+00  0.00000000E+00
  0.00000000E+00  0.00000000E+00  0.00000000E+00
  0.00000000E+00  0.00000000E+00  0.00000000E+00
  0.00000000E+00  0.00000000E+00  0.00000000E+00
  0.00000000E+00  0.00000000E+00  0.00000000E+00
  0.00000000E+00  0.00000000E+00  0.00000000E+00
  0.00000000E+00  0.00000000E+00  0.00000000E+00
  0.00000000E+00  0.00000000E+00  0.00000000E+00
  0.00000000E+00  0.00000000E+00  0.00000000E+00
  0.00000000E+00  0.00000000E+00  0.00000000E+00
  0.00000000E+00  0.00000000E+00  0.00000000E+00
  0.00000000E+00  0.00000000E+00  0.00000000E+00
  0.00000000E+00  0.00000000E+00  0.00000000E+00
  0.00000000E+00  0.00000000E+00  0.00000000E+00
  0.00000000E+00  0.00000000E+00  0.00000000E+00
  0.00000000E+00  0.00000000E+00  0.00000000E+00
  0.00000000E+00  0.00000000E+00  0.00000000E+00
  0.00000000E+00  0.00000000E+00  0.00000000E+00
  0.00000000E+00  0.00000000E+00  0.00000000E+00
  0.00000000E+00  0.00000000E+00  0.00000000E+00
  0.00000000E+00  0.00000000E+00  0.00000000E+00
  0.00000000E+00  0.00000000E+00  0.00000000E+00
  0.00000000E+00  0.00000000E+00  0.00000000E+00
  0.00000000E+00  0.00000000E+00  0.00000000E+00
  0.00000000E+00  0.00000000E+00  0.00000000E+00
  0.00000000E+00  0.00000000E+00  0.00000000E+00
  0.00000000E+00  0.00000000E+00  0.00000000E+00
  0.00000000E+00  0.00000000E+00  0.00000000E+00
  0.00000000E+00  0.00000000E+00  0.00000000E+00
  0.00000000E+00  0.00000000E+00  0.00000000E+00
  0.00000000E+00  0.00000000E+00  0.00000000E+00
  0.00000000E+00  0.00000000E+00  0.00000000E+00
  0.00000000E+00  0.00000000E+00  0.00000000E+00
  0.00000000E+00  0.00000000E+00  0.00000000E+00
  0.00000000E+00  0.00000000E+00  0.00000000E+00
  0.00000000E+00  0.00000000E+00  0.00000000E+00
  0.00000000E+00  0.00000000E+00  0.00000000E+00
  0.00000000E+00  0.00000000E+00  0.00000000E+00
  0.00000000E+00  0.00000000E+00  0.00000000E+00
  0.00000000E+00  0.00000000E+00  0.00000000E+00
  0.00000000E+00  0.00000000E+00  0.00000000E+00
  0.00000000E+00  0.00000000E+00  0.00000000E+00
  0.00000000E+00  0.00000000E+00  0.00000000E+00
  0.00000000E+00  0.00000000E+00  0.00000000E+00
  0.00000000E+00  0.00000000E+00  0.00000000E+00
  0.00000000E+00  0.00000000E+00  0.00000000E+00
  0.00000000E+00  0.00000000E+00  0.00000000E+00
  0.00000000E+00  0.00000000E+00  0.00000000E+00
  0.00000000E+00  0.00000000E+00  0.00000000E+00
  0.00000000E+00  0.00000000E+00  0.00000000E+00
  0.00000000E+00  0.00000000E+00  0.00000000E+00
  0.00000000E+00  0.00000000E+00  0.00000000E+00
  0.00000000E+00  0.00000000E+00  0.00000000E+00
  0.00000000E+00  0.00000000E+00  0.00000000E+00
  0.00000000E+00  0.00000000E+00  0.00000000E+00
  0.00000000E+00  0.00000000E+00  0.00000000E+00
  0.00000000E+00  0.00000000E+00  0.00000000E+00
  0.00000000E+00  0.00000000E+00  0.00000000E+00
  0.00000000E+00  0.00000000E+00  0.00000000E+00
  0.00000000E+00  0.00000000E+00  0.00000000E+00
  0.00000000E+00  0.00000000E+00  0.00000000E+00
  0.00000000E+00  0.00000000E+00  0.00000000E+00
  0.00000000E+00  0.00000000E+00  0.00000000E+00
  0.00000000E+00  0.00000000E+00  0.00000000E+00
  0.00000000E+00  0.00000000E+00  0.00000000E+00
  0.00000000E+00  0.00000000E+00  0.00000000E+00
  0.00000000E+00  0.00000000E+00  0.00000000E+00
  0.00000000E+00  0.00000000E+00  0.00000000E+00
  0.00000000E+00  0.00000000E+00  0.00000000E+00
  0.00000000E+00  0.00000000E+00  0.00000000E+00
  0.00000000E+00  0.00000000E+00  0.00000000E+00
  0.00000000E+00  0.00000000E+00  0.00000000E+00
  0.00000000E+00  0.00000000E+00  0.00000000E+00
  0.00000000E+00  0.00000000E+00  0.00000000E+00
  0.00000000E+00  0.00000000E+00  0.00000000E+00
  0.00000000E+00  0.00000000E+00  0.00000000E+00
  0.00000000E+00  0.00000000E+00  0.00000000E+00
  0.00000000E+00  0.00000000E+00  0.00000000E+00
  0.00000000E+00  0.00000000E+00  0.00000000E+00
  0.00000000E+00  0.00000000E+00  0.00000000E+00
  0.00000000E+00  0.00000000E+00  0.00000000E+00
  0.00000000E+00  0.00000000E+00  0.00000000E+00
  0.00000000E+00  0.00000000E+00  0.00000000E+00
  0.00000000E+00  0.00000000E+00  0.00000000E+00
  0.00000000E+00  0.00000000E+00  0.00000000E+00
  0.00000000E+00  0.00000000E+00  0.00000000E+00
  0.00000000E+00  0.00000000E+00  0.00000000E+00
  0.00000000E+00  0.00000000E+00  0.00000000E+00
  0.00000000E+00  0.00000000E+00  0.00000000E+00
  0.00000000E+00  0.00000000E+00  0.00000000E+00
  0.00000000E+00  0.00000000E+00  0.00000000E+00
  0.00000000E+00  0.00000000E+00  0.00000000E+00
  0.00000000E+00  0.00000000E+00  0.00000000E+00
  0.00000000E+00  0.00000000E+00  0.00000000E+00
  0.00000000E+00  0.00000000E+00  0.00000000E+00
  0.00000000E+00  0.00000000E+00  0.00000000E+00
  0.00000000E+00  0.00000000E+00  0.00000000E+00
  0.00000000E+00  0.00000000E+00  0.00000000E+00
  0.00000000E+00  0.00000000E+00  0.00000000E+00
  0.00000000E+00  0.00000000E+00  0.00000000E+00
  0.00000000E+00  0.00000000E+00  0.00000000E+00
  0.00000000E+00  0.00000000E+00  0.00000000E+00
  0.00000000E+00  0.00000000E+00  0.00000000E+00
  0.00000000E+00  0.00000000E+00  0.00000000E+00
  0.00000000E+00  0.00000000E+00  0.00000000E+00
  0.00000000E+00  0.00000000E+00  0.00000000E+00
  0.00000000E+00  0.00000000E+00  0.00000000E+00
  0.00000000E+00  0.00000000E+00  0.00000000E+00
  0.00000000E+00  0.00000000E+00  0.00000000E+00
  0.00000000E+00  0.00000000E+00  0.00000000E+00
  0.00000000E+00  0.00000000E+00  0.00000000E+00
  0.00000000E+00  0.00000000E+00  0.00000000E+00
  0.00000000E+00  0.00000000E+00  0.00000000E+00
  0.00000000E+00  0.00000000E+00  0.00000000E+00
  0.00000000E+00  0.00000000E+00  0.00000000E+00
  0.00000000E+00  0.00000000E+00  0.00000000E+00
  0.00000000E+00  0.00000000E+00  0.00000000E+00
  0.00000000E+00  0.00000000E+00  0.00000000E+00
  0.00000000E+00  0.00000000E+00  0.00000000E+00
  0.00000000E+00  0.00000000E+00  0.00000000E+00
  0.00000000E+00  0.00000000E+00  0.00000000E+00
  0.00000000E+00  0.00000000E+00  0.00000000E+00
  0.00000000E+00  0.00000000E+00  0.00000000E+00
  0.00000000E+00  0.00000000E+00  0.00000000E+00
  0.00000000E+00  0.00000000E+00  0.00000000E+00
  0.00000000E+00  0.00000000E+00  0.00000000E+00
  0.00000000E+00  0.00000000E+00  0.00000000E+00
  0.00000000E+00  0.00000000E+00  0.00000000E+00
  0.00000000E+00  0.00000000E+00  0.00000000E+00
  0.00000000E+00  0.00000000E+00  0.00000000E+00
  0.00000000E+00  0.00000000E+00  0.00000000E+00
  0.00000000E+00  0.00000000E+00  0.00000000E+00
  0.00000000E+00  0.00000000E+00  0.00000000E+00
  0.00000000E+00  0.00000000E+00  0.00000000E+00
  0.00000000E+00  0.00000000E+00  0.00000000E+00
  0.00000000E+00  0.00000000E+00  0.00000000E+00
  0.00000000E+00  0.00000000E+00  0.00000000E+00
  0.00000000E+00  0.00000000E+00  0.00000000E+00
  0.00000000E+00  0.00000000E+00  0.00000000E+00
  0.00000000E+00  0.00000000E+00  0.00000000E+00
  0.00000000E+00  0.00000000E+00  0.00000000E+00
  0.00000000E+00  0.00000000E+00  0.00000000E+00
  0.00000000E+00  0.00000000E+00  0.00000000E+00
  0.00000000E+00  0.00000000E+00  0.00000000E+00
  0.00000000E+00  0.00000000E+00  0.00000000E+00
  0.00000000E+00  0.00000000E+00  0.00000000E+00
  0.00000000E+00  0.00000000E+00  0.00000000E+00
  0.00000000E+00  0.00000000E+00  0.00000000E+00
  0.00000000E+00  0.00000000E+00  0.00000000E+00
  0.00000000E+00  0.00000000E+00  0.00000000E+00
  0.00000000E+00  0.00000000E+00  0.00000000E+00
  0.00000000E+00  0.00000000E+00  0.00000000E+00
  0.00000000E+00  0.00000000E+00  0.00000000E+00
  0.00000000E+00  0.00000000E+00  0.00000000E+00
  0.00000000E+00  0.00000000E+00  0.00000000E+00
  0.00000000E+00  0.00000000E+00  0.00000000E+00
  0.00000000E+00  0.00000000E+00  0.00000000E+00
  0.00000000E+00  0.00000000E+00  0.00000000E+00
  0.00000000E+00  0.00000000E+00  0.00000000E+00
  0.00000000E+00  0.00000000E+00  0.00000000E+00
  0.00000000E+00  0.00000000E+00  0.00000000E+00
  0.00000000E+00  0.00000000E+00  0.00000000E+00
  0.00000000E+00  0.00000000E+00  0.00000000E+00
  0.00000000E+00  0.00000000E+00  0.00000000E+00
  0.00000000E+00  0.00000000E+00  0.00000000E+00
  0.00000000E+00  0.00000000E+00  0.00000000E+00
  0.00000000E+00  0.00000000E+00  0.00000000E+00
  0.00000000E+00  0.00000000E+00  0.00000000E+00
  0.00000000E+00  0.00000000E+00  0.00000000E+00
  0.00000000E+00  0.00000000E+00  0.00000000E+00
  0.00000000E+00  0.00000000E+00  0.00000000E+00
  0.00000000E+00  0.00000000E+00  0.00000000E+00
  0.00000000E+00  0.00000000E+00  0.00000000E+00
  0.00000000E+00  0.00000000E+00  0.00000000E+00
  0.00000000E+00  0.00000000E+00  0.00000000E+00
  0.00000000E+00  0.00000000E+00  0.00000000E+00
  0.00000000E+00  0.00000000E+00  0.00000000E+00
  0.00000000E+00  0.00000000E+00  0.00000000E+00
  0.00000000E+00  0.00000000E+00  0.00000000E+00
  0.00000000E+00  0.00000000E+00  0.00000000E+00
  0.00000000E+00  0.00000000E+00  0.00000000E+00
  0.00000000E+00  0.00000000E+00  0.00000000E+00
  0.00000000E+00  0.00000000E+00  0.00000000E+00
  0.00000000E+00  0.00000000E+00  0.00000000E+00
  0.00000000E+00  0.00000000E+00  0.00000000E+00
  0.00000000E+00  0.00000000E+00  0.00000000E+00
  0.00000000E+00  0.00000000E+00  0.00000000E+00
