Li56 P56
1.0
5.593872 0.000000 -4.970385
0.756887 9.037780 0.000000
0.000000 0.000000 64.615005
Li P
56 56
direct
0.112292 0.670700 0.047611 Li+
0.387708 0.829300 0.030336 Li+
0.887708 0.329300 0.013143 Li+
0.612292 0.170700 0.030419 Li+
0.804018 0.970214 0.003124 Li+
0.695982 0.529786 0.033275 Li+
0.195982 0.029786 0.057631 Li+
0.304018 0.470214 0.027480 Li+
0.112292 0.670700 0.124535 Li+
0.387708 0.829300 0.107259 Li+
0.887708 0.329300 0.090066 Li+
0.612292 0.170700 0.107342 Li+
0.804018 0.970214 0.080047 Li+
0.695982 0.529786 0.110198 Li+
0.195982 0.029786 0.134554 Li+
0.304018 0.470214 0.104403 Li+
0.112292 0.670700 0.201458 Li+
0.387708 0.829300 0.184182 Li+
0.887708 0.329300 0.166989 Li+
0.612292 0.170700 0.184265 Li+
0.804018 0.970214 0.156970 Li+
0.695982 0.529786 0.187121 Li+
0.195982 0.029786 0.211477 Li+
0.304018 0.470214 0.181326 Li+
0.112292 0.670700 0.278381 Li+
0.387708 0.829300 0.261105 Li+
0.887708 0.329300 0.243912 Li+
0.612292 0.170700 0.261188 Li+
0.804018 0.970214 0.233893 Li+
0.695982 0.529786 0.264044 Li+
0.195982 0.029786 0.288400 Li+
0.304018 0.470214 0.258249 Li+
0.112292 0.670700 0.355304 Li+
0.387708 0.829300 0.338028 Li+
0.887708 0.329300 0.320835 Li+
0.612292 0.170700 0.338111 Li+
0.804018 0.970214 0.310816 Li+
0.695982 0.529786 0.340967 Li+
0.195982 0.029786 0.365323 Li+
0.304018 0.470214 0.335172 Li+
0.112292 0.670700 0.432227 Li+
0.387708 0.829300 0.414951 Li+
0.887708 0.329300 0.397758 Li+
0.612292 0.170700 0.415034 Li+
0.804018 0.970214 0.387739 Li+
0.695982 0.529786 0.417890 Li+
0.195982 0.029786 0.442246 Li+
0.304018 0.470214 0.412095 Li+
0.112292 0.670700 0.509150 Li+
0.387708 0.829300 0.491874 Li+
0.887708 0.329300 0.474681 Li+
0.612292 0.170700 0.491957 Li+
0.804018 0.970214 0.464662 Li+
0.695982 0.529786 0.494813 Li+
0.195982 0.029786 0.519169 Li+
0.304018 0.470214 0.489018 Li+
0.976271 0.707084 0.075098 P-
0.523729 0.792916 0.001825 P-
0.023729 0.292916 0.062580 P-
0.476271 0.207084 0.058929 P-
0.808560 0.888258 0.042111 P-
0.691440 0.611742 0.071563 P-
0.191440 0.111742 0.018644 P-
0.308560 0.388258 0.066115 P-
0.976271 0.707084 0.152021 P-
0.523729 0.792916 0.078748 P-
0.023729 0.292916 0.139503 P-
0.476271 0.207084 0.135852 P-
0.808560 0.888258 0.119034 P-
0.691440 0.611742 0.148486 P-
0.191440 0.111742 0.095567 P-
0.308560 0.388258 0.143038 P-
0.976271 0.707084 0.228944 P-
0.523729 0.792916 0.155671 P-
0.023729 0.292916 0.216426 P-
0.476271 0.207084 0.212775 P-
0.808560 0.888258 0.195957 P-
0.691440 0.611742 0.225409 P-
0.191440 0.111742 0.172490 P-
0.308560 0.388258 0.219961 P-
0.976271 0.707084 0.305867 P-
0.523729 0.792916 0.232595 P-
0.023729 0.292916 0.293349 P-
0.476271 0.207084 0.289698 P-
0.808560 0.888258 0.272880 P-
0.691440 0.611742 0.302332 P-
0.191440 0.111742 0.249413 P-
0.308560 0.388258 0.296884 P-
0.976271 0.707084 0.382790 P-
0.523729 0.792916 0.309518 P-
0.023729 0.292916 0.370272 P-
0.476271 0.207084 0.366621 P-
0.808560 0.888258 0.349803 P-
0.691440 0.611742 0.379255 P-
0.191440 0.111742 0.326336 P-
0.308560 0.388258 0.373807 P-
0.976271 0.707084 0.459713 P-
0.523729 0.792916 0.386441 P-
0.023729 0.292916 0.447195 P-
0.476271 0.207084 0.443545 P-
0.808560 0.888258 0.426726 P-
0.691440 0.611742 0.456178 P-
0.191440 0.111742 0.403259 P-
0.308560 0.388258 0.450730 P-
0.976271 0.707084 0.536636 P-
0.523729 0.792916 0.463364 P-
0.023729 0.292916 0.524118 P-
0.476271 0.207084 0.520468 P-
0.808560 0.888258 0.503649 P-
0.691440 0.611742 0.533101 P-
0.191440 0.111742 0.480182 P-
0.308560 0.388258 0.527653 P-
