Li61 P7 N32                             
   1.00000000000000     
    -0.0009640617919022    9.6930463683950894   -0.0008798105997378
    -0.0931326686383296   -0.0008757872633144    9.5960717364317354
     9.6497461922425511   -0.0009534043498849   -0.0931795981216216
   Li   P    N 
    61     7    32
Direct
  0.4933080060083520  0.0000507157865921  0.4999340798369618
  0.0154941972816965  0.5000309082000242 -0.0001243645037576
  0.5180215418347037  0.0000685569034640 -0.0000120318259068
 -0.0171587562327030 -0.0001650479278087  0.5000300912240673
  0.5122764817816510  0.5000019801568110 -0.0000453052269816
  0.0063547562528470  0.4998828516854340  0.5001263823733352
  0.7457076759486413 -0.0000916275649953  0.5000421590677758
  0.2326331886361257 -0.0003258296412969  0.5001905117563800
  0.7050471377032116  0.5002645636727947  0.4998710100756681
  0.2501470176221769  0.4997856285203751  0.4997586914172936
  0.2769644230272737  0.0002131544047683 -0.0000316451752583
  0.7538667670706057  0.0000866576058588  0.0001834352487003
  0.4795646887916046  0.5002691816438186  0.4999192599803869
  0.5115959897069140  0.2476436250348551  0.0063309877517364
  0.5116736837721771  0.7523393323537788 -0.0059455177326380
  0.0258959468546173  0.4946774568972177  0.2454170666903144
  0.0257328056938717  0.5049810722045547  0.7545020249071975
  0.2232123423066203  0.2420602648586972  0.2074947423587750
  0.2231444561265807  0.7582133619443922  0.7922588351574240
  0.1998637306514522  0.2964035548831851  0.7022994328835009
  0.2000454776870481  0.7040686094125854  0.2973163279929687
  0.6797298611748120  0.1839388257885320  0.3364138347346958
  0.6799760498897983  0.8162500616203693  0.6639747044059363
  0.6340789379868147  0.2158992538378993  0.8105193599060803
  0.6359285483426205  0.7846893879444917  0.1893557005688427
  0.9745065815839782  0.2409127070419642  0.2242284966586145
  0.9746382202942510  0.7586669208832588  0.7760959975027041
  0.2544496207256729  0.2482710854758959  0.4726268778103769
  0.2542577565064300  0.7512642880506561  0.5270485459153540
  0.7363697451760836  0.2356588665717394  0.5637342838809785
  0.7360456376903771  0.7638525117793442  0.4369659615424208
  0.8302856065872176  0.3607917739705082  0.3695022060325950
  0.8301870080558523  0.6391531372226560  0.6314007206886317
  0.2885850242125603  0.4999690497642791  0.2492886983583620
  0.2883183648374416  0.5005385665856383  0.7503390449952578
  0.4341558125975655  0.7876931468988243  0.3078799243202181
  0.4334141424172673  0.2117935593273769  0.6912607667614494
  0.2560959001133368 -0.0111442876298250  0.2394794288399475
  0.2558053439274219  0.0116134144822936  0.7604168508949154
  0.2941387499765897  0.2516192524529028  0.9381665949679893
  0.2937636826688864  0.7488783404351826  0.0611213229256674
  0.7793433755328398 -0.0031009868749977  0.7592813328960667
  0.7796226788154478  0.0036325770747369  0.2412014480458911
  0.8081731422661979  0.7520095746475302  0.0086933654642563
  0.8081142366907171  0.2480518812654512 -0.0094701488747087
 -0.0383091453068973  0.2264682308495172  0.7448729439553385
 -0.0388086004430919  0.7731153197184510  0.2554246563457752
  0.4663286135490775  0.2800793751661652  0.2417885517177438
  0.4662026787698575  0.7202536998095755  0.7582520732438294
  0.0507909173423707  0.2560692154435106 -0.0176393976045640
  0.0507094141070000  0.7439621906275760  0.0180035148881379
  0.4910973402660931  0.2751418098595110  0.4737531789807971
  0.4908924076899933  0.7254810671822669  0.5261795639936057
  0.5223346553397749  0.5320839506002898  0.2707239779171534
  0.5220557526030071  0.4681247137062107  0.7289853664834252
  0.0181076321437033  0.0043185164577201  0.2641811215738789
  0.0177739148959483 -0.0049375831056923  0.7358843807464889
  0.7782303083198782  0.4424945650326427  0.7467240307153402
  0.7781573796735771  0.5569073202301651  0.2532757186108168
  0.6807440983571137  0.3333846502142344  0.1688640891295666
  0.6802131807906244  0.6661111030172859  0.8311096110423286
  0.0146225689207956 -0.0000312657047042  0.0000992008863354
  0.7714366044253695  0.5000039950945587 -0.0000658120824652
  0.2609837864296017  0.5000582150649301 -0.0001135603736261
 -0.0036732090646685  0.7550199010551023  0.5052878884245744
 -0.0034924628111014  0.2446259427911497  0.4949695226643939
  0.5083937768608655  0.0134580429626005  0.2445462314137667
  0.5082885865510335 -0.0133949806457443  0.7554578209970010
  0.6271971007338881  0.6212107095767098  0.6398434658437393
  0.6274677086503586  0.3791521928913476  0.3599169832402266
  0.9138209273683147  0.9008518025365236  0.1013492820111413
  0.9139234260526269  0.0989859966299971  0.8988257884306790
  0.1144601193718997  0.8991103502278005  0.8967242942959345
  0.1144275970774705  0.1007810396586181  0.1035732609089377
  0.3652772225577632  0.6305626670080637  0.3891461442286909
  0.3653162113948148  0.3695392357601172  0.6106674224209502
  0.0859341044691307  0.3388963512718737  0.3811375225614533
  0.0859834649344843  0.6608865478692122  0.6190806847211165
  0.0958491169775317  0.1441582712360348  0.5952500771580979
  0.0956255778844847  0.8554444394877561  0.4048824177414074
  0.8796905236386152  0.1467021979966723  0.4002122603392222
  0.8797586691754032  0.8531106845401172  0.6001141680856175
  0.8689128335811167  0.4098463901561346  0.1129745349721177
  0.8687739751715579  0.5900722087244722  0.8866648124293002
  0.1627538255924841  0.5945448476587523  0.1119569853413608
  0.1627232900272346  0.4055612770369683  0.8878493646243597
  0.4203186665602435  0.8984833231406498  0.1420643661842222
  0.4204813287848776  0.1018469186799121  0.8578451065550706
  0.3957037831474630  0.1064691583432967  0.3426364764303012
  0.3953678584880080  0.8938358902705741  0.6573968017820381
  0.3603913132504615  0.3863248979192827  0.0897359605497559
  0.3604319306895963  0.6137952213988158  0.9101048358501844
  0.6138598621207422  0.0826945383274176  0.6531678025258905
  0.6138555638796634  0.9172450912827117  0.3468661252989675
  0.6707283723891817  0.6176054015240335  0.0833665302487113
  0.6705150173057554  0.3824945988247943  0.9165099265291438
  0.9019799114586825  0.3534914374315539  0.5994638389764735
  0.9016151887279910  0.6461225186326671  0.4009710600208569
  0.6103057144874744  0.1163401512320256  0.1480463423354833
  0.6100940080451066  0.8836737676459582  0.8520491901884175
 
  0.00000000E+00  0.00000000E+00  0.00000000E+00
  0.00000000E+00  0.00000000E+00  0.00000000E+00
  0.00000000E+00  0.00000000E+00  0.00000000E+00
  0.00000000E+00  0.00000000E+00  0.00000000E+00
  0.00000000E+00  0.00000000E+00  0.00000000E+00
  0.00000000E+00  0.00000000E+00  0.00000000E+00
  0.00000000E+00  0.00000000E+00  0.00000000E+00
  0.00000000E+00  0.00000000E+00  0.00000000E+00
  0.00000000E+00  0.00000000E+00  0.00000000E+00
  0.00000000E+00  0.00000000E+00  0.00000000E+00
  0.00000000E+00  0.00000000E+00  0.00000000E+00
  0.00000000E+00  0.00000000E+00  0.00000000E+00
  0.00000000E+00  0.00000000E+00  0.00000000E+00
  0.00000000E+00  0.00000000E+00  0.00000000E+00
  0.00000000E+00  0.00000000E+00  0.00000000E+00
  0.00000000E+00  0.00000000E+00  0.00000000E+00
  0.00000000E+00  0.00000000E+00  0.00000000E+00
  0.00000000E+00  0.00000000E+00  0.00000000E+00
  0.00000000E+00  0.00000000E+00  0.00000000E+00
  0.00000000E+00  0.00000000E+00  0.00000000E+00
  0.00000000E+00  0.00000000E+00  0.00000000E+00
  0.00000000E+00  0.00000000E+00  0.00000000E+00
  0.00000000E+00  0.00000000E+00  0.00000000E+00
  0.00000000E+00  0.00000000E+00  0.00000000E+00
  0.00000000E+00  0.00000000E+00  0.00000000E+00
  0.00000000E+00  0.00000000E+00  0.00000000E+00
  0.00000000E+00  0.00000000E+00  0.00000000E+00
  0.00000000E+00  0.00000000E+00  0.00000000E+00
  0.00000000E+00  0.00000000E+00  0.00000000E+00
  0.00000000E+00  0.00000000E+00  0.00000000E+00
  0.00000000E+00  0.00000000E+00  0.00000000E+00
  0.00000000E+00  0.00000000E+00  0.00000000E+00
  0.00000000E+00  0.00000000E+00  0.00000000E+00
  0.00000000E+00  0.00000000E+00  0.00000000E+00
  0.00000000E+00  0.00000000E+00  0.00000000E+00
  0.00000000E+00  0.00000000E+00  0.00000000E+00
  0.00000000E+00  0.00000000E+00  0.00000000E+00
  0.00000000E+00  0.00000000E+00  0.00000000E+00
  0.00000000E+00  0.00000000E+00  0.00000000E+00
  0.00000000E+00  0.00000000E+00  0.00000000E+00
  0.00000000E+00  0.00000000E+00  0.00000000E+00
  0.00000000E+00  0.00000000E+00  0.00000000E+00
  0.00000000E+00  0.00000000E+00  0.00000000E+00
  0.00000000E+00  0.00000000E+00  0.00000000E+00
  0.00000000E+00  0.00000000E+00  0.00000000E+00
  0.00000000E+00  0.00000000E+00  0.00000000E+00
  0.00000000E+00  0.00000000E+00  0.00000000E+00
  0.00000000E+00  0.00000000E+00  0.00000000E+00
  0.00000000E+00  0.00000000E+00  0.00000000E+00
  0.00000000E+00  0.00000000E+00  0.00000000E+00
  0.00000000E+00  0.00000000E+00  0.00000000E+00
  0.00000000E+00  0.00000000E+00  0.00000000E+00
  0.00000000E+00  0.00000000E+00  0.00000000E+00
  0.00000000E+00  0.00000000E+00  0.00000000E+00
  0.00000000E+00  0.00000000E+00  0.00000000E+00
  0.00000000E+00  0.00000000E+00  0.00000000E+00
  0.00000000E+00  0.00000000E+00  0.00000000E+00
  0.00000000E+00  0.00000000E+00  0.00000000E+00
  0.00000000E+00  0.00000000E+00  0.00000000E+00
  0.00000000E+00  0.00000000E+00  0.00000000E+00
  0.00000000E+00  0.00000000E+00  0.00000000E+00
  0.00000000E+00  0.00000000E+00  0.00000000E+00
  0.00000000E+00  0.00000000E+00  0.00000000E+00
  0.00000000E+00  0.00000000E+00  0.00000000E+00
  0.00000000E+00  0.00000000E+00  0.00000000E+00
  0.00000000E+00  0.00000000E+00  0.00000000E+00
  0.00000000E+00  0.00000000E+00  0.00000000E+00
  0.00000000E+00  0.00000000E+00  0.00000000E+00
  0.00000000E+00  0.00000000E+00  0.00000000E+00
  0.00000000E+00  0.00000000E+00  0.00000000E+00
  0.00000000E+00  0.00000000E+00  0.00000000E+00
  0.00000000E+00  0.00000000E+00  0.00000000E+00
  0.00000000E+00  0.00000000E+00  0.00000000E+00
  0.00000000E+00  0.00000000E+00  0.00000000E+00
  0.00000000E+00  0.00000000E+00  0.00000000E+00
  0.00000000E+00  0.00000000E+00  0.00000000E+00
  0.00000000E+00  0.00000000E+00  0.00000000E+00
  0.00000000E+00  0.00000000E+00  0.00000000E+00
  0.00000000E+00  0.00000000E+00  0.00000000E+00
  0.00000000E+00  0.00000000E+00  0.00000000E+00
  0.00000000E+00  0.00000000E+00  0.00000000E+00
  0.00000000E+00  0.00000000E+00  0.00000000E+00
  0.00000000E+00  0.00000000E+00  0.00000000E+00
  0.00000000E+00  0.00000000E+00  0.00000000E+00
  0.00000000E+00  0.00000000E+00  0.00000000E+00
  0.00000000E+00  0.00000000E+00  0.00000000E+00
  0.00000000E+00  0.00000000E+00  0.00000000E+00
  0.00000000E+00  0.00000000E+00  0.00000000E+00
  0.00000000E+00  0.00000000E+00  0.00000000E+00
  0.00000000E+00  0.00000000E+00  0.00000000E+00
  0.00000000E+00  0.00000000E+00  0.00000000E+00
  0.00000000E+00  0.00000000E+00  0.00000000E+00
  0.00000000E+00  0.00000000E+00  0.00000000E+00
  0.00000000E+00  0.00000000E+00  0.00000000E+00
  0.00000000E+00  0.00000000E+00  0.00000000E+00
  0.00000000E+00  0.00000000E+00  0.00000000E+00
  0.00000000E+00  0.00000000E+00  0.00000000E+00
  0.00000000E+00  0.00000000E+00  0.00000000E+00
  0.00000000E+00  0.00000000E+00  0.00000000E+00
  0.00000000E+00  0.00000000E+00  0.00000000E+00
