Li140 P140 O420
1.0
19.664632 0.000000 0.000000
7.200064 11.197969 5.521558
0.000000 0.000000 66.258696
Li P O
140 140 420
direct
0.181780 0.873522 0.025182 Li+
0.681780 0.873522 0.024283 Li+
0.065996 0.111170 0.006227 Li+
0.565996 0.111170 0.003630 Li+
0.950543 0.347043 0.068124 Li+
0.450543 0.347043 0.069088 Li+
0.835452 0.581703 0.048449 Li+
0.335452 0.581703 0.049653 Li+
0.758434 0.729106 0.079035 Li+
0.258434 0.729106 0.077832 Li+
0.681714 0.375737 0.064448 Li+
0.181714 0.375737 0.067981 Li+
0.566270 0.612275 0.048477 Li+
0.066270 0.612275 0.044529 Li+
0.449547 0.848182 0.024073 Li+
0.949547 0.848182 0.029615 Li+
0.332984 0.084520 0.009005 Li+
0.832984 0.084520 0.005294 Li+
0.256366 0.233171 0.039688 Li+
0.756366 0.233171 0.033169 Li+
0.181780 0.873522 0.108515 Li+
0.681780 0.873522 0.107616 Li+
0.065996 0.111170 0.089560 Li+
0.565996 0.111170 0.086963 Li+
0.950543 0.347043 0.151457 Li+
0.450543 0.347043 0.152421 Li+
0.835452 0.581703 0.131782 Li+
0.335452 0.581703 0.132986 Li+
0.758434 0.729106 0.162368 Li+
0.258434 0.729106 0.161166 Li+
0.681714 0.375737 0.147782 Li+
0.181714 0.375737 0.151314 Li+
0.566270 0.612275 0.131810 Li+
0.066270 0.612275 0.127862 Li+
0.449547 0.848182 0.107407 Li+
0.949547 0.848182 0.112948 Li+
0.332984 0.084520 0.092338 Li+
0.832984 0.084520 0.088627 Li+
0.256366 0.233171 0.123021 Li+
0.756366 0.233171 0.116502 Li+
0.181780 0.873522 0.191848 Li+
0.681780 0.873522 0.190950 Li+
0.065996 0.111170 0.172893 Li+
0.565996 0.111170 0.170297 Li+
0.950543 0.347043 0.234790 Li+
0.450543 0.347043 0.235754 Li+
0.835452 0.581703 0.215115 Li+
0.335452 0.581703 0.216319 Li+
0.758434 0.729106 0.245702 Li+
0.258434 0.729106 0.244499 Li+
0.681714 0.375737 0.231115 Li+
0.181714 0.375737 0.234647 Li+
0.566270 0.612275 0.215144 Li+
0.066270 0.612275 0.211196 Li+
0.449547 0.848182 0.190740 Li+
0.949547 0.848182 0.196282 Li+
0.332984 0.084520 0.175671 Li+
0.832984 0.084520 0.171961 Li+
0.256366 0.233171 0.206354 Li+
0.756366 0.233171 0.199836 Li+
0.181780 0.873522 0.275182 Li+
0.681780 0.873522 0.274283 Li+
0.065996 0.111170 0.256227 Li+
0.565996 0.111170 0.253630 Li+
0.950543 0.347043 0.318124 Li+
0.450543 0.347043 0.319088 Li+
0.835452 0.581703 0.298449 Li+
0.335452 0.581703 0.299653 Li+
0.758434 0.729106 0.329035 Li+
0.258434 0.729106 0.327832 Li+
0.681714 0.375737 0.314448 Li+
0.181714 0.375737 0.317981 Li+
0.566270 0.612275 0.298477 Li+
0.066270 0.612275 0.294529 Li+
0.449547 0.848182 0.274073 Li+
0.949547 0.848182 0.279615 Li+
0.332984 0.084520 0.259005 Li+
0.832984 0.084520 0.255294 Li+
0.256366 0.233171 0.289688 Li+
0.756366 0.233171 0.283169 Li+
0.181780 0.873522 0.358515 Li+
0.681780 0.873522 0.357616 Li+
0.065996 0.111170 0.339560 Li+
0.565996 0.111170 0.336963 Li+
0.950543 0.347043 0.401457 Li+
0.450543 0.347043 0.402421 Li+
0.835452 0.581703 0.381782 Li+
0.335452 0.581703 0.382986 Li+
0.758434 0.729106 0.412368 Li+
0.258434 0.729106 0.411166 Li+
0.681714 0.375737 0.397782 Li+
0.181714 0.375737 0.401314 Li+
0.566270 0.612275 0.381810 Li+
0.066270 0.612275 0.377862 Li+
0.449547 0.848182 0.357407 Li+
0.949547 0.848182 0.362948 Li+
0.332984 0.084520 0.342338 Li+
0.832984 0.084520 0.338627 Li+
0.256366 0.233171 0.373021 Li+
0.756366 0.233171 0.366502 Li+
0.181780 0.873522 0.441849 Li+
0.681780 0.873522 0.440950 Li+
0.065996 0.111170 0.422894 Li+
0.565996 0.111170 0.420297 Li+
0.950543 0.347043 0.484790 Li+
0.450543 0.347043 0.485754 Li+
0.835452 0.581703 0.465115 Li+
0.335452 0.581703 0.466319 Li+
0.758434 0.729106 0.495702 Li+
0.258434 0.729106 0.494499 Li+
0.681714 0.375737 0.481115 Li+
0.181714 0.375737 0.484647 Li+
0.566270 0.612275 0.465144 Li+
0.066270 0.612275 0.461196 Li+
0.449547 0.848182 0.440740 Li+
0.949547 0.848182 0.446282 Li+
0.332984 0.084520 0.425671 Li+
0.832984 0.084520 0.421961 Li+
0.256366 0.233171 0.456354 Li+
0.756366 0.233171 0.449836 Li+
0.181780 0.873522 0.525182 Li+
0.681780 0.873522 0.524283 Li+
0.065996 0.111170 0.506227 Li+
0.565996 0.111170 0.503630 Li+
0.950543 0.347043 0.568124 Li+
0.450543 0.347043 0.569088 Li+
0.835452 0.581703 0.548449 Li+
0.335452 0.581703 0.549653 Li+
0.758434 0.729106 0.579035 Li+
0.258434 0.729106 0.577832 Li+
0.681714 0.375737 0.564448 Li+
0.181714 0.375737 0.567981 Li+
0.566270 0.612275 0.548477 Li+
0.066270 0.612275 0.544529 Li+
0.449547 0.848182 0.524073 Li+
0.949547 0.848182 0.529615 Li+
0.332984 0.084520 0.509004 Li+
0.832984 0.084520 0.505294 Li+
0.256366 0.233171 0.539688 Li+
0.756366 0.233171 0.533169 Li+
0.999587 0.999221 0.040476 P5+
0.499587 0.999221 0.071372 P5+
0.906720 0.205613 0.051782 P5+
0.406720 0.205613 0.025668 P5+
0.802939 0.401137 0.006728 P5+
0.302939 0.401137 0.038135 P5+
0.691689 0.591605 0.020811 P5+
0.191689 0.591605 0.075640 P5+
0.591751 0.791599 0.059914 P5+
0.091751 0.791599 0.003204 P5+
0.425433 0.665080 0.013442 P5+
0.925433 0.665080 0.070763 P5+
0.325562 0.865452 0.052545 P5+
0.825562 0.865452 0.081598 P5+
0.213545 0.056323 0.066809 P5+
0.713545 0.056323 0.035522 P5+
0.110144 0.252134 0.022190 P5+
0.610144 0.252134 0.047507 P5+
0.017155 0.458420 0.033502 P5+
0.517155 0.458420 0.001813 P5+
0.999587 0.999221 0.123809 P5+
0.499587 0.999221 0.154706 P5+
0.906720 0.205613 0.135115 P5+
0.406720 0.205613 0.109001 P5+
0.802939 0.401137 0.090061 P5+
0.302939 0.401137 0.121468 P5+
0.691689 0.591605 0.104144 P5+
0.191689 0.591605 0.158974 P5+
0.591751 0.791599 0.143248 P5+
0.091751 0.791599 0.086538 P5+
0.425433 0.665080 0.096775 P5+
0.925433 0.665080 0.154097 P5+
0.325562 0.865452 0.135878 P5+
0.825562 0.865452 0.164932 P5+
0.213545 0.056323 0.150142 P5+
0.713545 0.056323 0.118856 P5+
0.110144 0.252134 0.105523 P5+
0.610144 0.252134 0.130840 P5+
0.017155 0.458420 0.116835 P5+
0.517155 0.458420 0.085147 P5+
0.999587 0.999221 0.207143 P5+
0.499587 0.999221 0.238039 P5+
0.906720 0.205613 0.218448 P5+
0.406720 0.205613 0.192335 P5+
0.802939 0.401137 0.173394 P5+
0.302939 0.401137 0.204801 P5+
0.691689 0.591605 0.187477 P5+
0.191689 0.591605 0.242307 P5+
0.591751 0.791599 0.226581 P5+
0.091751 0.791599 0.169871 P5+
0.425433 0.665080 0.180108 P5+
0.925433 0.665080 0.237430 P5+
0.325562 0.865452 0.219211 P5+
0.825562 0.865452 0.248265 P5+
0.213545 0.056323 0.233476 P5+
0.713545 0.056323 0.202189 P5+
0.110144 0.252134 0.188856 P5+
0.610144 0.252134 0.214173 P5+
0.017155 0.458420 0.200169 P5+
0.517155 0.458420 0.168480 P5+
0.999587 0.999221 0.290476 P5+
0.499587 0.999221 0.321372 P5+
0.906720 0.205613 0.301782 P5+
0.406720 0.205613 0.275668 P5+
0.802939 0.401137 0.256727 P5+
0.302939 0.401137 0.288135 P5+
0.691689 0.591605 0.270811 P5+
0.191689 0.591605 0.325640 P5+
0.591751 0.791599 0.309914 P5+
0.091751 0.791599 0.253204 P5+
0.425433 0.665080 0.263442 P5+
0.925433 0.665080 0.320763 P5+
0.325562 0.865452 0.302545 P5+
0.825562 0.865452 0.331598 P5+
0.213545 0.056323 0.316809 P5+
0.713545 0.056323 0.285522 P5+
0.110144 0.252134 0.272190 P5+
0.610144 0.252134 0.297507 P5+
0.017155 0.458420 0.283502 P5+
0.517155 0.458420 0.251813 P5+
0.999587 0.999221 0.373809 P5+
0.499587 0.999221 0.404706 P5+
0.906720 0.205613 0.385115 P5+
0.406720 0.205613 0.359001 P5+
0.802939 0.401137 0.340061 P5+
0.302939 0.401137 0.371468 P5+
0.691689 0.591605 0.354144 P5+
0.191689 0.591605 0.408974 P5+
0.591751 0.791599 0.393248 P5+
0.091751 0.791599 0.336538 P5+
0.425433 0.665080 0.346775 P5+
0.925433 0.665080 0.404097 P5+
0.325562 0.865452 0.385878 P5+
0.825562 0.865452 0.414932 P5+
0.213545 0.056323 0.400142 P5+
0.713545 0.056323 0.368856 P5+
0.110144 0.252134 0.355523 P5+
0.610144 0.252134 0.380840 P5+
0.017155 0.458420 0.366835 P5+
0.517155 0.458420 0.335147 P5+
0.999587 0.999221 0.457143 P5+
0.499587 0.999221 0.488039 P5+
0.906720 0.205613 0.468448 P5+
0.406720 0.205613 0.442335 P5+
0.802939 0.401137 0.423394 P5+
0.302939 0.401137 0.454802 P5+
0.691689 0.591605 0.437477 P5+
0.191689 0.591605 0.492307 P5+
0.591751 0.791599 0.476581 P5+
0.091751 0.791599 0.419871 P5+
0.425433 0.665080 0.430108 P5+
0.925433 0.665080 0.487430 P5+
0.325562 0.865452 0.469211 P5+
0.825562 0.865452 0.498265 P5+
0.213545 0.056323 0.483476 P5+
0.713545 0.056323 0.452189 P5+
0.110144 0.252134 0.438856 P5+
0.610144 0.252134 0.464173 P5+
0.017155 0.458420 0.450169 P5+
0.517155 0.458420 0.418480 P5+
0.999587 0.999221 0.540476 P5+
0.499587 0.999221 0.571372 P5+
0.906720 0.205613 0.551782 P5+
0.406720 0.205613 0.525668 P5+
0.802939 0.401137 0.506727 P5+
0.302939 0.401137 0.538135 P5+
0.691689 0.591605 0.520811 P5+
0.191689 0.591605 0.575640 P5+
0.591751 0.791599 0.559914 P5+
0.091751 0.791599 0.503204 P5+
0.425433 0.665080 0.513442 P5+
0.925433 0.665080 0.570763 P5+
0.325562 0.865452 0.552545 P5+
0.825562 0.865452 0.581598 P5+
0.213545 0.056323 0.566809 P5+
0.713545 0.056323 0.535522 P5+
0.110144 0.252134 0.522190 P5+
0.610144 0.252134 0.547507 P5+
0.017155 0.458420 0.533502 P5+
0.517155 0.458420 0.501813 P5+
0.964587 0.129985 0.039277 O2-
0.464587 0.129985 0.050777 O2-
0.859372 0.340179 0.031587 O2-
0.359372 0.340179 0.023435 O2-
0.724144 0.518650 0.005970 O2-
0.224144 0.518650 0.019307 O2-
0.607741 0.706904 0.003061 O2-
0.107741 0.706904 0.074174 O2-
0.021852 0.919848 0.067370 O2-
0.521852 0.919848 0.057707 O2-
0.409378 0.749936 0.070300 O2-
0.909378 0.749936 0.083096 O2-
0.290596 0.936774 0.067641 O2-
0.790596 0.936774 0.054615 O2-
0.156445 0.116799 0.042021 O2-
0.656445 0.116799 0.050231 O2-
0.056520 0.325432 0.035508 O2-
0.556520 0.325432 0.021972 O2-
0.495673 0.536371 0.015771 O2-
0.995673 0.536371 0.006553 O2-
0.073889 0.970827 0.031391 O2-
0.573889 0.970827 0.001857 O2-
0.933926 0.994909 0.030124 O2-
0.433926 0.994909 0.082443 O2-
0.958651 0.204625 0.068509 O2-
0.458651 0.204625 0.009105 O2-
0.846743 0.171056 0.058663 O2-
0.346743 0.171056 0.024547 O2-
0.845353 0.439658 0.073223 O2-
0.345353 0.439658 0.048552 O2-
0.775410 0.322583 0.005496 O2-
0.275410 0.322583 0.052459 O2-
0.747295 0.630670 0.024008 O2-
0.247295 0.630670 0.065932 O2-
0.669352 0.527520 0.040542 O2-
0.169352 0.527520 0.066590 O2-
0.667159 0.790584 0.055384 O2-
0.167159 0.790584 0.007904 O2-
0.553292 0.761105 0.046119 O2-
0.053292 0.761105 0.022082 O2-
0.463335 0.697609 0.026901 O2-
0.963335 0.697609 0.051883 O2-
0.350606 0.665087 0.018269 O2-
0.850606 0.665087 0.065935 O2-
0.348215 0.931406 0.033176 O2-
0.848215 0.931406 0.006642 O2-
0.271458 0.824688 0.048965 O2-
0.771458 0.824688 0.008639 O2-
0.241625 0.135280 0.067441 O2-
0.741625 0.135280 0.021730 O2-
0.171199 0.019880 0.000623 O2-
0.671199 0.019880 0.024448 O2-
0.170027 0.286380 0.014888 O2-
0.670027 0.286380 0.049100 O2-
0.055640 0.257004 0.005501 O2-
0.555640 0.257004 0.063384 O2-
0.080441 0.467181 0.043805 O2-
0.580441 0.467181 0.073383 O2-
0.942366 0.484690 0.042226 O2-
0.442366 0.484690 0.072045 O2-
0.964587 0.129985 0.122611 O2-
0.464587 0.129985 0.134110 O2-
0.859372 0.340179 0.114920 O2-
0.359372 0.340179 0.106768 O2-
0.724144 0.518650 0.089304 O2-
0.224144 0.518650 0.102640 O2-
0.607741 0.706904 0.086394 O2-
0.107741 0.706904 0.157507 O2-
0.021852 0.919848 0.150703 O2-
0.521852 0.919848 0.141040 O2-
0.409378 0.749936 0.153633 O2-
0.909378 0.749936 0.166430 O2-
0.290596 0.936774 0.150975 O2-
0.790596 0.936774 0.137948 O2-
0.156445 0.116799 0.125354 O2-
0.656445 0.116799 0.133565 O2-
0.056520 0.325432 0.118841 O2-
0.556520 0.325432 0.105306 O2-
0.495673 0.536371 0.099104 O2-
0.995673 0.536371 0.089886 O2-
0.073889 0.970827 0.114724 O2-
0.573889 0.970827 0.085190 O2-
0.933926 0.994909 0.113457 O2-
0.433926 0.994909 0.165777 O2-
0.958651 0.204625 0.151842 O2-
0.458651 0.204625 0.092438 O2-
0.846743 0.171056 0.141996 O2-
0.346743 0.171056 0.107880 O2-
0.845353 0.439658 0.156557 O2-
0.345353 0.439658 0.131886 O2-
0.775410 0.322583 0.088829 O2-
0.275410 0.322583 0.135792 O2-
0.747295 0.630670 0.107341 O2-
0.247295 0.630670 0.149266 O2-
0.669352 0.527520 0.123875 O2-
0.169352 0.527520 0.149923 O2-
0.667159 0.790584 0.138717 O2-
0.167159 0.790584 0.091237 O2-
0.553292 0.761105 0.129452 O2-
0.053292 0.761105 0.105415 O2-
0.463335 0.697609 0.110234 O2-
0.963335 0.697609 0.135216 O2-
0.350606 0.665087 0.101602 O2-
0.850606 0.665087 0.149268 O2-
0.348215 0.931406 0.116509 O2-
0.848215 0.931406 0.089975 O2-
0.271458 0.824688 0.132298 O2-
0.771458 0.824688 0.091972 O2-
0.241625 0.135280 0.150775 O2-
0.741625 0.135280 0.105064 O2-
0.171199 0.019880 0.083957 O2-
0.671199 0.019880 0.107782 O2-
0.170027 0.286380 0.098222 O2-
0.670027 0.286380 0.132434 O2-
0.055640 0.257004 0.088834 O2-
0.555640 0.257004 0.146717 O2-
0.080441 0.467181 0.127138 O2-
0.580441 0.467181 0.156717 O2-
0.942366 0.484690 0.125559 O2-
0.442366 0.484690 0.155378 O2-
0.964587 0.129985 0.205944 O2-
0.464587 0.129985 0.217444 O2-
0.859372 0.340179 0.198254 O2-
0.359372 0.340179 0.190102 O2-
0.724144 0.518650 0.172637 O2-
0.224144 0.518650 0.185973 O2-
0.607741 0.706904 0.169727 O2-
0.107741 0.706904 0.240841 O2-
0.021852 0.919848 0.234037 O2-
0.521852 0.919848 0.224374 O2-
0.409378 0.749936 0.236966 O2-
0.909378 0.749936 0.249763 O2-
0.290596 0.936774 0.234308 O2-
0.790596 0.936774 0.221281 O2-
0.156445 0.116799 0.208687 O2-
0.656445 0.116799 0.216898 O2-
0.056520 0.325432 0.202174 O2-
0.556520 0.325432 0.188639 O2-
0.495673 0.536371 0.182437 O2-
0.995673 0.536371 0.173219 O2-
0.073889 0.970827 0.198057 O2-
0.573889 0.970827 0.168523 O2-
0.933926 0.994909 0.196790 O2-
0.433926 0.994909 0.249110 O2-
0.958651 0.204625 0.235176 O2-
0.458651 0.204625 0.175772 O2-
0.846743 0.171056 0.225329 O2-
0.346743 0.171056 0.191213 O2-
0.845353 0.439658 0.239890 O2-
0.345353 0.439658 0.215219 O2-
0.775410 0.322583 0.172162 O2-
0.275410 0.322583 0.219126 O2-
0.747295 0.630670 0.190675 O2-
0.247295 0.630670 0.232599 O2-
0.669352 0.527520 0.207208 O2-
0.169352 0.527520 0.233257 O2-
0.667159 0.790584 0.222050 O2-
0.167159 0.790584 0.174571 O2-
0.553292 0.761105 0.212786 O2-
0.053292 0.761105 0.188749 O2-
0.463335 0.697609 0.193568 O2-
0.963335 0.697609 0.218549 O2-
0.350606 0.665087 0.184936 O2-
0.850606 0.665087 0.232602 O2-
0.348215 0.931406 0.199843 O2-
0.848215 0.931406 0.173308 O2-
0.271458 0.824688 0.215632 O2-
0.771458 0.824688 0.175306 O2-
0.241625 0.135280 0.234108 O2-
0.741625 0.135280 0.188397 O2-
0.171199 0.019880 0.167290 O2-
0.671199 0.019880 0.191115 O2-
0.170027 0.286380 0.181555 O2-
0.670027 0.286380 0.215767 O2-
0.055640 0.257004 0.172168 O2-
0.555640 0.257004 0.230050 O2-
0.080441 0.467181 0.210472 O2-
0.580441 0.467181 0.240050 O2-
0.942366 0.484690 0.208892 O2-
0.442366 0.484690 0.238711 O2-
0.964587 0.129985 0.289277 O2-
0.464587 0.129985 0.300777 O2-
0.859372 0.340179 0.281587 O2-
0.359372 0.340179 0.273435 O2-
0.724144 0.518650 0.255970 O2-
0.224144 0.518650 0.269307 O2-
0.607741 0.706904 0.253061 O2-
0.107741 0.706904 0.324174 O2-
0.021852 0.919848 0.317370 O2-
0.521852 0.919848 0.307707 O2-
0.409378 0.749936 0.320300 O2-
0.909378 0.749936 0.333096 O2-
0.290596 0.936774 0.317641 O2-
0.790596 0.936774 0.304615 O2-
0.156445 0.116799 0.292021 O2-
0.656445 0.116799 0.300231 O2-
0.056520 0.325432 0.285508 O2-
0.556520 0.325432 0.271972 O2-
0.495673 0.536371 0.265771 O2-
0.995673 0.536371 0.256553 O2-
0.073889 0.970827 0.281391 O2-
0.573889 0.970827 0.251857 O2-
0.933926 0.994909 0.280124 O2-
0.433926 0.994909 0.332443 O2-
0.958651 0.204625 0.318509 O2-
0.458651 0.204625 0.259105 O2-
0.846743 0.171056 0.308663 O2-
0.346743 0.171056 0.274547 O2-
0.845353 0.439658 0.323223 O2-
0.345353 0.439658 0.298552 O2-
0.775410 0.322583 0.255496 O2-
0.275410 0.322583 0.302459 O2-
0.747295 0.630670 0.274008 O2-
0.247295 0.630670 0.315932 O2-
0.669352 0.527520 0.290542 O2-
0.169352 0.527520 0.316590 O2-
0.667159 0.790584 0.305384 O2-
0.167159 0.790584 0.257904 O2-
0.553292 0.761105 0.296119 O2-
0.053292 0.761105 0.272082 O2-
0.463335 0.697609 0.276901 O2-
0.963335 0.697609 0.301883 O2-
0.350606 0.665087 0.268269 O2-
0.850606 0.665087 0.315935 O2-
0.348215 0.931406 0.283176 O2-
0.848215 0.931406 0.256642 O2-
0.271458 0.824688 0.298965 O2-
0.771458 0.824688 0.258639 O2-
0.241625 0.135280 0.317441 O2-
0.741625 0.135280 0.271730 O2-
0.171199 0.019880 0.250623 O2-
0.671199 0.019880 0.274448 O2-
0.170027 0.286380 0.264888 O2-
0.670027 0.286380 0.299100 O2-
0.055640 0.257004 0.255501 O2-
0.555640 0.257004 0.313384 O2-
0.080441 0.467181 0.293805 O2-
0.580441 0.467181 0.323383 O2-
0.942366 0.484690 0.292226 O2-
0.442366 0.484690 0.322045 O2-
0.964587 0.129985 0.372611 O2-
0.464587 0.129985 0.384110 O2-
0.859372 0.340179 0.364920 O2-
0.359372 0.340179 0.356768 O2-
0.724144 0.518650 0.339304 O2-
0.224144 0.518650 0.352640 O2-
0.607741 0.706904 0.336394 O2-
0.107741 0.706904 0.407507 O2-
0.021852 0.919848 0.400703 O2-
0.521852 0.919848 0.391040 O2-
0.409378 0.749936 0.403633 O2-
0.909378 0.749936 0.416430 O2-
0.290596 0.936774 0.400975 O2-
0.790596 0.936774 0.387948 O2-
0.156445 0.116799 0.375354 O2-
0.656445 0.116799 0.383565 O2-
0.056520 0.325432 0.368841 O2-
0.556520 0.325432 0.355305 O2-
0.495673 0.536371 0.349104 O2-
0.995673 0.536371 0.339886 O2-
0.073889 0.970827 0.364724 O2-
0.573889 0.970827 0.335190 O2-
0.933926 0.994909 0.363457 O2-
0.433926 0.994909 0.415777 O2-
0.958651 0.204625 0.401842 O2-
0.458651 0.204625 0.342438 O2-
0.846743 0.171056 0.391996 O2-
0.346743 0.171056 0.357880 O2-
0.845353 0.439658 0.406557 O2-
0.345353 0.439658 0.381886 O2-
0.775410 0.322583 0.338829 O2-
0.275410 0.322583 0.385792 O2-
0.747295 0.630670 0.357341 O2-
0.247295 0.630670 0.399266 O2-
0.669352 0.527520 0.373875 O2-
0.169352 0.527520 0.399923 O2-
0.667159 0.790584 0.388717 O2-
0.167159 0.790584 0.341237 O2-
0.553292 0.761105 0.379452 O2-
0.053292 0.761105 0.355415 O2-
0.463335 0.697609 0.360234 O2-
0.963335 0.697609 0.385216 O2-
0.350606 0.665087 0.351602 O2-
0.850606 0.665087 0.399268 O2-
0.348215 0.931406 0.366509 O2-
0.848215 0.931406 0.339975 O2-
0.271458 0.824688 0.382298 O2-
0.771458 0.824688 0.341972 O2-
0.241625 0.135280 0.400775 O2-
0.741625 0.135280 0.355064 O2-
0.171199 0.019880 0.333957 O2-
0.671199 0.019880 0.357782 O2-
0.170027 0.286380 0.348222 O2-
0.670027 0.286380 0.382434 O2-
0.055640 0.257004 0.338834 O2-
0.555640 0.257004 0.396717 O2-
0.080441 0.467181 0.377138 O2-
0.580441 0.467181 0.406717 O2-
0.942366 0.484690 0.375559 O2-
0.442366 0.484690 0.405378 O2-
0.964587 0.129985 0.455944 O2-
0.464587 0.129985 0.467444 O2-
0.859372 0.340179 0.448254 O2-
0.359372 0.340179 0.440102 O2-
0.724144 0.518650 0.422637 O2-
0.224144 0.518650 0.435973 O2-
0.607741 0.706904 0.419727 O2-
0.107741 0.706904 0.490841 O2-
0.021852 0.919848 0.484037 O2-
0.521852 0.919848 0.474374 O2-
0.409378 0.749936 0.486966 O2-
0.909378 0.749936 0.499763 O2-
0.290596 0.936774 0.484308 O2-
0.790596 0.936774 0.471282 O2-
0.156445 0.116799 0.458687 O2-
0.656445 0.116799 0.466898 O2-
0.056520 0.325432 0.452174 O2-
0.556520 0.325432 0.438639 O2-
0.495673 0.536371 0.432437 O2-
0.995673 0.536371 0.423219 O2-
0.073889 0.970827 0.448057 O2-
0.573889 0.970827 0.418523 O2-
0.933926 0.994909 0.446790 O2-
0.433926 0.994909 0.499110 O2-
0.958651 0.204625 0.485176 O2-
0.458651 0.204625 0.425772 O2-
0.846743 0.171056 0.475329 O2-
0.346743 0.171056 0.441213 O2-
0.845353 0.439658 0.489890 O2-
0.345353 0.439658 0.465219 O2-
0.775410 0.322583 0.422162 O2-
0.275410 0.322583 0.469126 O2-
0.747295 0.630670 0.440675 O2-
0.247295 0.630670 0.482599 O2-
0.669352 0.527520 0.457208 O2-
0.169352 0.527520 0.483257 O2-
0.667159 0.790584 0.472051 O2-
0.167159 0.790584 0.424571 O2-
0.553292 0.761105 0.462786 O2-
0.053292 0.761105 0.438749 O2-
0.463335 0.697609 0.443568 O2-
0.963335 0.697609 0.468549 O2-
0.350606 0.665087 0.434936 O2-
0.850606 0.665087 0.482602 O2-
0.348215 0.931406 0.449843 O2-
0.848215 0.931406 0.423308 O2-
0.271458 0.824688 0.465632 O2-
0.771458 0.824688 0.425306 O2-
0.241625 0.135280 0.484108 O2-
0.741625 0.135280 0.438397 O2-
0.171199 0.019880 0.417290 O2-
0.671199 0.019880 0.441115 O2-
0.170027 0.286380 0.431555 O2-
0.670027 0.286380 0.465767 O2-
0.055640 0.257004 0.422168 O2-
0.555640 0.257004 0.480050 O2-
0.080441 0.467181 0.460472 O2-
0.580441 0.467181 0.490050 O2-
0.942366 0.484690 0.458892 O2-
0.442366 0.484690 0.488711 O2-
0.964587 0.129985 0.539277 O2-
0.464587 0.129985 0.550777 O2-
0.859372 0.340179 0.531587 O2-
0.359372 0.340179 0.523435 O2-
0.724144 0.518650 0.505970 O2-
0.224144 0.518650 0.519307 O2-
0.607741 0.706904 0.503061 O2-
0.107741 0.706904 0.574174 O2-
0.021852 0.919848 0.567370 O2-
0.521852 0.919848 0.557707 O2-
0.409378 0.749936 0.570299 O2-
0.909378 0.749936 0.583096 O2-
0.290596 0.936774 0.567641 O2-
0.790596 0.936774 0.554615 O2-
0.156445 0.116799 0.542021 O2-
0.656445 0.116799 0.550231 O2-
0.056520 0.325432 0.535508 O2-
0.556520 0.325432 0.521972 O2-
0.495673 0.536371 0.515771 O2-
0.995673 0.536371 0.506553 O2-
0.073889 0.970827 0.531391 O2-
0.573889 0.970827 0.501857 O2-
0.933926 0.994909 0.530124 O2-
0.433926 0.994909 0.582443 O2-
0.958651 0.204625 0.568509 O2-
0.458651 0.204625 0.509105 O2-
0.846743 0.171056 0.558663 O2-
0.346743 0.171056 0.524547 O2-
0.845353 0.439658 0.573223 O2-
0.345353 0.439658 0.548552 O2-
0.775410 0.322583 0.505496 O2-
0.275410 0.322583 0.552459 O2-
0.747295 0.630670 0.524008 O2-
0.247295 0.630670 0.565932 O2-
0.669352 0.527520 0.540542 O2-
0.169352 0.527520 0.566590 O2-
0.667159 0.790584 0.555384 O2-
0.167159 0.790584 0.507904 O2-
0.553292 0.761105 0.546119 O2-
0.053292 0.761105 0.522082 O2-
0.463335 0.697609 0.526901 O2-
0.963335 0.697609 0.551883 O2-
0.350606 0.665087 0.518269 O2-
0.850606 0.665087 0.565935 O2-
0.348215 0.931406 0.533176 O2-
0.848215 0.931406 0.506642 O2-
0.271458 0.824688 0.548965 O2-
0.771458 0.824688 0.508639 O2-
0.241625 0.135280 0.567441 O2-
0.741625 0.135280 0.521730 O2-
0.171199 0.019880 0.500623 O2-
0.671199 0.019880 0.524448 O2-
0.170027 0.286380 0.514888 O2-
0.670027 0.286380 0.549100 O2-
0.055640 0.257004 0.505501 O2-
0.555640 0.257004 0.563384 O2-
0.080441 0.467181 0.543805 O2-
0.580441 0.467181 0.573383 O2-
0.942366 0.484690 0.542226 O2-
0.442366 0.484690 0.572045 O2-
