Li2 O1                                  
   1.00000000000000     
     0.0000000000000000    2.3205930000000001    2.3205930000000001
     2.3205930000000001    0.0000000000000000    2.3205930000000001
     2.3205930000000001    2.3205930000000001    0.0000000000000000
   Li   O 
     2     1
Direct
  0.7500000000000000  0.7500000000000000  0.7500000000000000
  0.2500000000000000  0.2500000000000000  0.2500000000000000
  0.0000000000000000  0.0000000000000000  0.0000000000000000
 
  0.00000000E+00  0.00000000E+00  0.00000000E+00
  0.00000000E+00  0.00000000E+00  0.00000000E+00
  0.00000000E+00  0.00000000E+00  0.00000000E+00
