Li42 P14
1.0
3.668361 0.000000 -2.117929
-0.000000 7.570718 -4.235858
0.000000 0.000000 59.302014
Li P
42 14
Selective dynamics
direct
0.000000 0.750000 0.017857 T T T Li+
0.000000 0.250000 0.053571 T T T Li+
0.333333 0.084119 0.017913 T T T Li+
0.666667 0.584119 0.029818 T T T Li+
0.666667 0.915881 0.053515 T T T Li+
0.333333 0.415881 0.041611 T T T Li+
0.000000 0.750000 0.089286 F F F Li+
0.000000 0.250000 0.125000 F F F Li+
0.333333 0.084119 0.089342 F F F Li+
0.666667 0.584119 0.101247 F F F Li+
0.666667 0.915881 0.124944 F F F Li+
0.333333 0.415881 0.113039 F F F Li+
0.000000 0.750000 0.160714 F F F Li+
0.000000 0.250000 0.196429 F F F Li+
0.333333 0.084119 0.160770 F F F Li+
0.666667 0.584119 0.172675 F F F Li+
0.666667 0.915881 0.196372 F F F Li+
0.333333 0.415881 0.184468 F F F Li+
0.000000 0.750000 0.232143 F F F Li+
0.000000 0.250000 0.267857 F F F Li+
0.333333 0.084119 0.232199 F F F Li+
0.666667 0.584119 0.244104 F F F Li+
0.666667 0.915881 0.267801 F F F Li+
0.333333 0.415881 0.255896 F F F Li+
0.000000 0.750000 0.303571 F F F Li+
0.000000 0.250000 0.339286 F F F Li+
0.333333 0.084119 0.303628 F F F Li+
0.666667 0.584119 0.315532 F F F Li+
0.666667 0.915881 0.339230 F F F Li+
0.333333 0.415881 0.327325 F F F Li+
0.000000 0.750000 0.375000 F F F Li+
0.000000 0.250000 0.410714 F F F Li+
0.333333 0.084119 0.375056 F F F Li+
0.666667 0.584119 0.386961 F F F Li+
0.666667 0.915881 0.410658 F F F Li+
0.333333 0.415881 0.398753 F F F Li+
0.000000 0.750000 0.446429 T T T Li+
0.000000 0.250000 0.482143 T T T Li+
0.333333 0.084119 0.446485 T T T Li+
0.666667 0.584119 0.458389 T T T Li+
0.666667 0.915881 0.482087 T T T Li+
0.333333 0.415881 0.470182 T T T Li+
0.333333 0.750000 0.065476 T T T P3-
0.666667 0.250000 0.005952 T T T P3-
0.333333 0.750000 0.136905 F F F P3-
0.666667 0.250000 0.077381 F F F P3-
0.333333 0.750000 0.208333 F F F P3-
0.666667 0.250000 0.148810 F F F P3-
0.333333 0.750000 0.279762 F F F P3-
0.666667 0.250000 0.220238 F F F P3-
0.333333 0.750000 0.351190 F F F P3-
0.666667 0.250000 0.291667 F F F P3-
0.333333 0.750000 0.422619 F F F P3-
0.666667 0.250000 0.363095 F F F P3-
0.333333 0.750000 0.494048 T T T P3-
0.666667 0.250000 0.434524 T T T P3-
