Li28 O28
1.0
2.754274 0.000000 -1.590181
-0.000000 7.703522 -3.180362
0.000000 0.000000 47.705428
Li O
28 28
direct
0.000000 0.500000 0.002778 Li+
0.000000 0.000000 0.036111 Li+
0.333333 0.750000 0.063889 Li+
0.666667 0.250000 0.008333 Li+
0.000000 0.500000 0.069444 Li+
0.000000 0.000000 0.102778 Li+
0.333333 0.750000 0.130556 Li+
0.666667 0.250000 0.075000 Li+
0.000000 0.500000 0.136111 Li+
0.000000 0.000000 0.169444 Li+
0.333333 0.750000 0.197222 Li+
0.666667 0.250000 0.141667 Li+
0.000000 0.500000 0.202778 Li+
0.000000 0.000000 0.236111 Li+
0.333333 0.750000 0.263889 Li+
0.666667 0.250000 0.208333 Li+
0.000000 0.500000 0.269444 Li+
0.000000 0.000000 0.302778 Li+
0.333333 0.750000 0.330556 Li+
0.666667 0.250000 0.275000 Li+
0.000000 0.500000 0.336111 Li+
0.000000 0.000000 0.369444 Li+
0.333333 0.750000 0.397222 Li+
0.666667 0.250000 0.341667 Li+
0.000000 0.500000 0.402778 Li+
0.000000 0.000000 0.436111 Li+
0.333333 0.750000 0.463889 Li+
0.666667 0.250000 0.408333 Li+
0.333333 0.149310 0.023843 O-
0.666667 0.649310 0.034954 O-
0.666667 0.850690 0.048379 O-
0.333333 0.350690 0.037268 O-
0.333333 0.149310 0.090510 O-
0.666667 0.649310 0.101621 O-
0.666667 0.850690 0.115046 O-
0.333333 0.350690 0.103935 O-
0.333333 0.149310 0.157176 O-
0.666667 0.649310 0.168287 O-
0.666667 0.850690 0.181713 O-
0.333333 0.350690 0.170602 O-
0.333333 0.149310 0.223843 O-
0.666667 0.649310 0.234954 O-
0.666667 0.850690 0.248379 O-
0.333333 0.350690 0.237268 O-
0.333333 0.149310 0.290510 O-
0.666667 0.649310 0.301621 O-
0.666667 0.850690 0.315046 O-
0.333333 0.350690 0.303935 O-
0.333333 0.149310 0.357176 O-
0.666667 0.649310 0.368287 O-
0.666667 0.850690 0.381713 O-
0.333333 0.350690 0.370602 O-
0.333333 0.149310 0.423843 O-
0.666667 0.649310 0.434954 O-
0.666667 0.850690 0.448379 O-
0.333333 0.350690 0.437268 O-
