(2, 1, 1)                               
   1.00000000000000     
     8.6611291552610989    0.0759716821966732    0.1034838610498823
     3.5773804383464198    9.9023657440734638    0.9289067085247290
     0.0567568777996514    0.0515260484136454   32.7920667520346427
   Li   P 
    48    16
Selective dynamics
Direct
  0.9033796013300575  0.8336499653293780  0.0095672069970311   T   T   T
  0.0022145974160648  0.3242011590893278  0.9481997443611836   T   T   T
  0.6343062486012425  0.1523552768043586  0.9241633778213192   T   T   T
  0.2772852634399425  0.5072702444840045  0.9678793455119050   T   T   T
  0.9433570562796705  0.0266562207104435  0.9527149018121472   T   T   T
  0.6712094173371996  0.2611228766289437  0.9896204928309900   T   T   T
  0.8572354309586965  0.6346189562737244  0.9360612047005792   T   T   T
  0.4940953297975878  0.9298774381822198  0.9794493858646554   T   T   T
  0.6567409999999967  0.5002619999999993  0.9271159999999981   F   F   F
  0.2549928001331109  0.8460470182930372  0.9620848882274149   T   T   T
  0.7609080000000006  0.8891509999999982  0.9340609999999998   F   F   F
  0.3944812454919118  0.1862264738034664  0.9782008857930703   T   T   T
  0.3437500000000000  0.0000000000000000  0.9062500000000000   F   F   F
  0.7187500000000000  0.6666669999999968  0.8645830000000032   F   F   F
  0.4062500000000000  0.5000000000000000  0.8437500000000000   F   F   F
  0.0312500000000000  0.8333330000000032  0.8854169999999968   F   F   F
  0.7182590000000033  0.3330709999999968  0.8645509999999987   F   F   F
  0.3432590000000033  0.6664049999999975  0.9062169999999981   F   F   F
  0.6140919999999994  0.9441830000000024  0.8576059999999970   F   F   F
  0.2390919999999994  0.2775159999999985  0.8992730000000009   F   F   F
  0.4067409999999967  0.8335950000000025  0.8437830000000019   F   F   F
  0.0317409999999967  0.1669290000000032  0.8854490000000013   F   F   F
  0.5109080000000006  0.2224840000000015  0.8507269999999991   F   F   F
  0.1359080000000006  0.5558169999999976  0.8923940000000030   F   F   F
  0.0937500000000000  0.3333330000000032  0.8229169999999968   F   F   F
  0.4687500000000000  0.0000000000000000  0.7812500000000000   F   F   F
  0.1562500000000000  0.8333330000000032  0.7604169999999968   F   F   F
  0.7812500000000000  0.1666669999999968  0.8020830000000032   F   F   F
  0.4682590000000033  0.6664049999999975  0.7812169999999981   F   F   F
  0.0932590000000033  0.9997380000000007  0.8228840000000019   F   F   F
  0.3640919999999994  0.2775159999999985  0.7742730000000009   F   F   F
  0.9890919999999994  0.6108490000000018  0.8159390000000002   F   F   F
  0.1567409999999967  0.1669290000000032  0.7604490000000013   F   F   F
  0.7817409999999967  0.5002619999999993  0.8021159999999981   F   F   F
  0.2609080000000006  0.5558169999999976  0.7673940000000030   F   F   F
  0.8859080000000006  0.8891509999999982  0.8090609999999998   F   F   F
  0.8663824966582215  0.6814735129424443  0.7425805536665819   T   T   T
  0.2227932677323849  0.3262097381057402  0.6987138334660772   T   T   T
  0.5968243556980856 -0.0004462806349432  0.6570890823814870   T   T   T
  0.4980145892703864  0.5091763629778503  0.7184486234778064   T   T   T
  0.2451308762442719  0.9871199985198460  0.7046316803960126   T   T   T
  0.8432590000000033  0.3330709999999968  0.7395509999999987   F   F   F
  0.1057439223298465  0.6474088846025450  0.6883617278842658   T   T   T
  0.7390919999999994  0.9441830000000024  0.7326059999999970   F   F   F
  0.8315217266166719  0.5710307279373938  0.6777189080183667   T   T   T
  0.5569695871347706  0.8061251469875625  0.7139050362728863   T   T   T
  0.0057049501395738  0.9036314584781214  0.6872267612305419   T   T   T
  0.6427649771278117  0.1986979926211229  0.7306421655378272   T   T   T
  0.5520830000000032  0.7777779999999979  0.9201389999999989   F   F   F
  0.1795784791349230  0.1034627738432325  0.9605279881170681   T   T   T
  0.0694292274756446  0.7192298714046720  0.9539227210806063   T   T   T
  0.6829101925988608  0.0408838684472441  0.9929692599656620   T   T   T
  0.3020830000000032  0.1111110000000011  0.8368060000000028   F   F   F
  0.9270830000000032  0.4444439999999972  0.8784720000000021   F   F   F
  0.8229169999999968  0.0555560000000028  0.8715279999999979   F   F   F
  0.4479169999999968  0.3888889999999989  0.9131939999999972   F   F   F
  0.0520830000000032  0.4444439999999972  0.7534720000000021   F   F   F
  0.6770830000000032  0.7777779999999979  0.7951389999999989   F   F   F
  0.5729169999999968  0.3888889999999989  0.7881939999999972   F   F   F
  0.1979169999999968  0.7222220000000021  0.8298610000000011   F   F   F
  0.8172717153716248  0.7921227115918148  0.6736962434770783   T   T   T
  0.4305742218891391  0.1139453564191531  0.7127209824616459   T   T   T
  0.3203973687947114  0.7298848658303965  0.7062036281676243   T   T   T
  0.9479169999999968  0.0555560000000028  0.7465279999999979   F   F   F
 
  0.00000000E+00  0.00000000E+00  0.00000000E+00
  0.00000000E+00  0.00000000E+00  0.00000000E+00
  0.00000000E+00  0.00000000E+00  0.00000000E+00
  0.00000000E+00  0.00000000E+00  0.00000000E+00
  0.00000000E+00  0.00000000E+00  0.00000000E+00
  0.00000000E+00  0.00000000E+00  0.00000000E+00
  0.00000000E+00  0.00000000E+00  0.00000000E+00
  0.00000000E+00  0.00000000E+00  0.00000000E+00
  0.00000000E+00  0.00000000E+00  0.00000000E+00
  0.00000000E+00  0.00000000E+00  0.00000000E+00
  0.00000000E+00  0.00000000E+00  0.00000000E+00
  0.00000000E+00  0.00000000E+00  0.00000000E+00
  0.00000000E+00  0.00000000E+00  0.00000000E+00
  0.00000000E+00  0.00000000E+00  0.00000000E+00
  0.00000000E+00  0.00000000E+00  0.00000000E+00
  0.00000000E+00  0.00000000E+00  0.00000000E+00
  0.00000000E+00  0.00000000E+00  0.00000000E+00
  0.00000000E+00  0.00000000E+00  0.00000000E+00
  0.00000000E+00  0.00000000E+00  0.00000000E+00
  0.00000000E+00  0.00000000E+00  0.00000000E+00
  0.00000000E+00  0.00000000E+00  0.00000000E+00
  0.00000000E+00  0.00000000E+00  0.00000000E+00
  0.00000000E+00  0.00000000E+00  0.00000000E+00
  0.00000000E+00  0.00000000E+00  0.00000000E+00
  0.00000000E+00  0.00000000E+00  0.00000000E+00
  0.00000000E+00  0.00000000E+00  0.00000000E+00
  0.00000000E+00  0.00000000E+00  0.00000000E+00
  0.00000000E+00  0.00000000E+00  0.00000000E+00
  0.00000000E+00  0.00000000E+00  0.00000000E+00
  0.00000000E+00  0.00000000E+00  0.00000000E+00
  0.00000000E+00  0.00000000E+00  0.00000000E+00
  0.00000000E+00  0.00000000E+00  0.00000000E+00
  0.00000000E+00  0.00000000E+00  0.00000000E+00
  0.00000000E+00  0.00000000E+00  0.00000000E+00
  0.00000000E+00  0.00000000E+00  0.00000000E+00
  0.00000000E+00  0.00000000E+00  0.00000000E+00
  0.00000000E+00  0.00000000E+00  0.00000000E+00
  0.00000000E+00  0.00000000E+00  0.00000000E+00
  0.00000000E+00  0.00000000E+00  0.00000000E+00
  0.00000000E+00  0.00000000E+00  0.00000000E+00
  0.00000000E+00  0.00000000E+00  0.00000000E+00
  0.00000000E+00  0.00000000E+00  0.00000000E+00
  0.00000000E+00  0.00000000E+00  0.00000000E+00
  0.00000000E+00  0.00000000E+00  0.00000000E+00
  0.00000000E+00  0.00000000E+00  0.00000000E+00
  0.00000000E+00  0.00000000E+00  0.00000000E+00
  0.00000000E+00  0.00000000E+00  0.00000000E+00
  0.00000000E+00  0.00000000E+00  0.00000000E+00
  0.00000000E+00  0.00000000E+00  0.00000000E+00
  0.00000000E+00  0.00000000E+00  0.00000000E+00
  0.00000000E+00  0.00000000E+00  0.00000000E+00
  0.00000000E+00  0.00000000E+00  0.00000000E+00
  0.00000000E+00  0.00000000E+00  0.00000000E+00
  0.00000000E+00  0.00000000E+00  0.00000000E+00
  0.00000000E+00  0.00000000E+00  0.00000000E+00
  0.00000000E+00  0.00000000E+00  0.00000000E+00
  0.00000000E+00  0.00000000E+00  0.00000000E+00
  0.00000000E+00  0.00000000E+00  0.00000000E+00
  0.00000000E+00  0.00000000E+00  0.00000000E+00
  0.00000000E+00  0.00000000E+00  0.00000000E+00
  0.00000000E+00  0.00000000E+00  0.00000000E+00
  0.00000000E+00  0.00000000E+00  0.00000000E+00
  0.00000000E+00  0.00000000E+00  0.00000000E+00
  0.00000000E+00  0.00000000E+00  0.00000000E+00
