(2, 1, 1)
1.0
8.674503 0.000000 0.106143
3.493438 9.903704 0.925088
0.000000 0.000000 32.863931
Li P
48 16
Selective dynamics
direct
0.593750 0.666667 0.989583 T T T Li+
0.968750 0.333333 0.947917 T T T Li+
0.656250 0.166667 0.927083 T T T Li+
0.281250 0.500000 0.968750 T T T Li+
0.968259 0.999738 0.947884 T T T Li+
0.593259 0.333071 0.989551 T T T Li+
0.864092 0.610849 0.940939 T T T Li+
0.489092 0.944183 0.982606 T T T Li+
0.656741 0.500262 0.927116 F F F Li+
0.281741 0.833595 0.968783 T T T Li+
0.760908 0.889151 0.934061 F F F Li+
0.385908 0.222484 0.975727 T T T Li+
0.343750 1.000000 0.906250 F F F Li+
0.718750 0.666667 0.864583 F F F Li+
0.406250 0.500000 0.843750 F F F Li+
0.031250 0.833333 0.885417 F F F Li+
0.718259 0.333071 0.864551 F F F Li+
0.343259 0.666405 0.906217 F F F Li+
0.614092 0.944183 0.857606 F F F Li+
0.239092 0.277516 0.899273 F F F Li+
0.406741 0.833595 0.843783 F F F Li+
0.031741 0.166929 0.885449 F F F Li+
0.510908 0.222484 0.850727 F F F Li+
0.135908 0.555817 0.892394 F F F Li+
0.093750 0.333333 0.822917 F F F Li+
0.468750 1.000000 0.781250 F F F Li+
0.156250 0.833333 0.760417 F F F Li+
0.781250 0.166667 0.802083 F F F Li+
0.468259 0.666405 0.781217 F F F Li+
0.093259 0.999738 0.822884 F F F Li+
0.364092 0.277516 0.774273 F F F Li+
0.989092 0.610849 0.815939 F F F Li+
0.156741 0.166929 0.760449 F F F Li+
0.781741 0.500262 0.802116 F F F Li+
0.260908 0.555817 0.767394 F F F Li+
0.885908 0.889151 0.809061 F F F Li+
0.843750 0.666667 0.739583 T T T Li+
0.218750 0.333333 0.697917 T T T Li+
0.906250 0.166667 0.677083 T T T Li+
0.531250 0.500000 0.718750 T T T Li+
0.218259 0.999738 0.697884 T T T Li+
0.843259 0.333071 0.739551 F F F Li+
0.114092 0.610849 0.690939 T T T Li+
0.739092 0.944183 0.732606 F F F Li+
0.906741 0.500262 0.677116 T T T Li+
0.531741 0.833595 0.718783 T T T Li+
0.010908 0.889151 0.684061 T T T Li+
0.635908 0.222484 0.725727 T T T Li+
0.552083 0.777778 0.920139 F F F P3+
0.177083 0.111111 0.961806 T T T P3+
0.072917 0.722222 0.954861 T T T P3+
0.697917 0.055556 0.996528 T T T P3+
0.302083 0.111111 0.836806 F F F P3+
0.927083 0.444444 0.878472 F F F P3+
0.822917 0.055556 0.871528 F F F P3+
0.447917 0.388889 0.913194 F F F P3+
0.052083 0.444444 0.753472 F F F P3+
0.677083 0.777778 0.795139 F F F P3+
0.572917 0.388889 0.788194 F F F P3+
0.197917 0.722222 0.829861 F F F P3+
0.802083 0.777778 0.670139 T T T P3+
0.427083 0.111111 0.711806 T T T P3+
0.322917 0.722222 0.704861 T T T P3+
0.947917 0.055556 0.746528 F F F P3+
