Li140 P140 O420
1.0
5.521558 0.000000 0.000000
0.000000 16.540545 2.677750
0.000000 0.000000 119.816820
Li P O
140 140 420
direct
0.494607 0.818220 0.005339 Li+
0.505393 0.318220 0.060895 Li+
0.484419 0.934004 0.018880 Li+
0.515581 0.434004 0.074435 Li+
0.505784 0.049457 0.032260 Li+
0.494216 0.549457 0.087815 Li+
0.507224 0.164548 0.045545 Li+
0.492776 0.664548 0.101101 Li+
0.992783 0.241566 0.053366 Li+
0.007217 0.741566 0.108921 Li+
0.521194 0.318286 0.005578 Li+
0.478806 0.818286 0.061133 Li+
0.476313 0.433730 0.019033 Li+
0.523687 0.933730 0.074588 Li+
0.533250 0.550453 0.032275 Li+
0.466750 0.050453 0.087831 Li+
0.477737 0.667016 0.045584 Li+
0.522263 0.167016 0.101139 Li+
0.960889 0.743634 0.053587 Li+
0.039111 0.243634 0.109143 Li+
0.494607 0.818220 0.116450 Li+
0.505393 0.318220 0.172006 Li+
0.484419 0.934004 0.129991 Li+
0.515581 0.434004 0.185546 Li+
0.505784 0.049457 0.143371 Li+
0.494216 0.549457 0.198926 Li+
0.507224 0.164548 0.156656 Li+
0.492776 0.664548 0.212212 Li+
0.992783 0.241566 0.164477 Li+
0.007217 0.741566 0.220032 Li+
0.521194 0.318286 0.116689 Li+
0.478806 0.818286 0.172244 Li+
0.476313 0.433730 0.130144 Li+
0.523687 0.933730 0.185699 Li+
0.533250 0.550453 0.143387 Li+
0.466750 0.050453 0.198942 Li+
0.477737 0.667016 0.156695 Li+
0.522263 0.167016 0.212250 Li+
0.960889 0.743634 0.164698 Li+
0.039111 0.243634 0.220254 Li+
0.494607 0.818220 0.227561 Li+
0.505393 0.318220 0.283117 Li+
0.484419 0.934004 0.241102 Li+
0.515581 0.434004 0.296657 Li+
0.505784 0.049457 0.254482 Li+
0.494216 0.549457 0.310037 Li+
0.507224 0.164548 0.267767 Li+
0.492776 0.664548 0.323323 Li+
0.992783 0.241566 0.275588 Li+
0.007217 0.741566 0.331143 Li+
0.521194 0.318286 0.227800 Li+
0.478806 0.818286 0.283356 Li+
0.476313 0.433730 0.241255 Li+
0.523687 0.933730 0.296811 Li+
0.533250 0.550453 0.254498 Li+
0.466750 0.050453 0.310053 Li+
0.477737 0.667016 0.267806 Li+
0.522263 0.167016 0.323361 Li+
0.960889 0.743634 0.275810 Li+
0.039111 0.243634 0.331365 Li+
0.494607 0.818220 0.338672 Li+
0.505393 0.318220 0.394228 Li+
0.484419 0.934004 0.352213 Li+
0.515581 0.434004 0.407768 Li+
0.505784 0.049457 0.365593 Li+
0.494216 0.549457 0.421148 Li+
0.507224 0.164548 0.378878 Li+
0.492776 0.664548 0.434434 Li+
0.992783 0.241566 0.386699 Li+
0.007217 0.741566 0.442254 Li+
0.521194 0.318286 0.338911 Li+
0.478806 0.818286 0.394467 Li+
0.476313 0.433730 0.352366 Li+
0.523687 0.933730 0.407922 Li+
0.533250 0.550453 0.365609 Li+
0.466750 0.050453 0.421164 Li+
0.477737 0.667016 0.378917 Li+
0.522263 0.167016 0.434473 Li+
0.960889 0.743634 0.386921 Li+
0.039111 0.243634 0.442476 Li+
0.494607 0.818220 0.449784 Li+
0.505393 0.318220 0.505339 Li+
0.484419 0.934004 0.463324 Li+
0.515581 0.434004 0.518879 Li+
0.505784 0.049457 0.476704 Li+
0.494216 0.549457 0.532259 Li+
0.507224 0.164548 0.489989 Li+
0.492776 0.664548 0.545545 Li+
0.992783 0.241566 0.497810 Li+
0.007217 0.741566 0.553365 Li+
0.521194 0.318286 0.450022 Li+
0.478806 0.818286 0.505578 Li+
0.476313 0.433730 0.463477 Li+
0.523687 0.933730 0.519033 Li+
0.533250 0.550453 0.476720 Li+
0.466750 0.050453 0.532275 Li+
0.477737 0.667016 0.490028 Li+
0.522263 0.167016 0.545584 Li+
0.960889 0.743634 0.498032 Li+
0.039111 0.243634 0.553587 Li+
0.494607 0.818220 0.560895 Li+
0.505393 0.318220 0.616450 Li+
0.484419 0.934004 0.574435 Li+
0.515581 0.434004 0.629991 Li+
0.505784 0.049457 0.587815 Li+
0.494216 0.549457 0.643371 Li+
0.507224 0.164548 0.601101 Li+
0.492776 0.664548 0.656656 Li+
0.992783 0.241566 0.608921 Li+
0.007217 0.741566 0.664477 Li+
0.521194 0.318286 0.561133 Li+
0.478806 0.818286 0.616689 Li+
0.476313 0.433730 0.574588 Li+
0.523687 0.933730 0.630144 Li+
0.533250 0.550453 0.587831 Li+
0.466750 0.050453 0.643387 Li+
0.477737 0.667016 0.601139 Li+
0.522263 0.167016 0.656695 Li+
0.960889 0.743634 0.609143 Li+
0.039111 0.243634 0.664699 Li+
0.494607 0.818220 0.672006 Li+
0.505393 0.318220 0.727561 Li+
0.484419 0.934004 0.685546 Li+
0.515581 0.434004 0.741102 Li+
0.505784 0.049457 0.698926 Li+
0.494216 0.549457 0.754482 Li+
0.507224 0.164548 0.712212 Li+
0.492776 0.664548 0.767767 Li+
0.992783 0.241566 0.720032 Li+
0.007217 0.741566 0.775588 Li+
0.521194 0.318286 0.672245 Li+
0.478806 0.818286 0.727800 Li+
0.476313 0.433730 0.685699 Li+
0.523687 0.933730 0.741255 Li+
0.533250 0.550453 0.698942 Li+
0.466750 0.050453 0.754498 Li+
0.477737 0.667016 0.712250 Li+
0.522263 0.167016 0.767806 Li+
0.960889 0.743634 0.720254 Li+
0.039111 0.243634 0.775810 Li+
0.185377 0.000413 0.110173 P5+
0.814623 0.500413 0.054617 P5+
0.843317 0.093280 0.011676 P5+
0.156683 0.593280 0.067231 P5+
0.188444 0.197061 0.021870 P5+
0.811556 0.697061 0.077425 P5+
0.828977 0.308311 0.030672 P5+
0.171023 0.808311 0.086227 P5+
0.159739 0.408249 0.041789 P5+
0.840261 0.908249 0.097344 P5+
0.843930 0.574567 0.009251 P5+
0.156070 0.074567 0.064807 P5+
0.174322 0.674438 0.020418 P5+
0.825678 0.174438 0.075974 P5+
0.812278 0.786455 0.029180 P5+
0.187722 0.286455 0.084735 P5+
0.151901 0.889856 0.039447 P5+
0.848099 0.389856 0.095003 P5+
0.809867 0.982845 0.052036 P5+
0.190133 0.482845 0.107592 P5+
0.185377 0.000413 0.221284 P5+
0.814623 0.500413 0.165729 P5+
0.843317 0.093280 0.122787 P5+
0.156683 0.593280 0.178343 P5+
0.188444 0.197061 0.132981 P5+
0.811556 0.697061 0.188536 P5+
0.828977 0.308311 0.141783 P5+
0.171023 0.808311 0.197338 P5+
0.159739 0.408249 0.152900 P5+
0.840261 0.908249 0.208456 P5+
0.843930 0.574567 0.120362 P5+
0.156070 0.074567 0.175918 P5+
0.174322 0.674438 0.131529 P5+
0.825678 0.174438 0.187085 P5+
0.812278 0.786455 0.140291 P5+
0.187722 0.286455 0.195846 P5+
0.151901 0.889856 0.150559 P5+
0.848099 0.389856 0.206114 P5+
0.809867 0.982845 0.163147 P5+
0.190133 0.482845 0.218703 P5+
0.185377 0.000413 0.332395 P5+
0.814623 0.500413 0.276840 P5+
0.843317 0.093280 0.233898 P5+
0.156683 0.593280 0.289454 P5+
0.188444 0.197061 0.244092 P5+
0.811556 0.697061 0.299647 P5+
0.828977 0.308311 0.252894 P5+
0.171023 0.808311 0.308449 P5+
0.159739 0.408249 0.264011 P5+
0.840261 0.908249 0.319567 P5+
0.843930 0.574567 0.231474 P5+
0.156070 0.074567 0.287029 P5+
0.174322 0.674438 0.242640 P5+
0.825678 0.174438 0.298196 P5+
0.812278 0.786455 0.251402 P5+
0.187722 0.286455 0.306957 P5+
0.151901 0.889856 0.261670 P5+
0.848099 0.389856 0.317225 P5+
0.809867 0.982845 0.274258 P5+
0.190133 0.482845 0.329814 P5+
0.185377 0.000413 0.443506 P5+
0.814623 0.500413 0.387951 P5+
0.843317 0.093280 0.345009 P5+
0.156683 0.593280 0.400565 P5+
0.188444 0.197061 0.355203 P5+
0.811556 0.697061 0.410758 P5+
0.828977 0.308311 0.364005 P5+
0.171023 0.808311 0.419560 P5+
0.159739 0.408249 0.375122 P5+
0.840261 0.908249 0.430678 P5+
0.843930 0.574567 0.342585 P5+
0.156070 0.074567 0.398140 P5+
0.174322 0.674438 0.353751 P5+
0.825678 0.174438 0.409307 P5+
0.812278 0.786455 0.362513 P5+
0.187722 0.286455 0.418069 P5+
0.151901 0.889856 0.372781 P5+
0.848099 0.389856 0.428336 P5+
0.809867 0.982845 0.385369 P5+
0.190133 0.482845 0.440925 P5+
0.185377 0.000413 0.554617 P5+
0.814623 0.500413 0.499062 P5+
0.843317 0.093280 0.456120 P5+
0.156683 0.593280 0.511676 P5+
0.188444 0.197061 0.466314 P5+
0.811556 0.697061 0.521869 P5+
0.828977 0.308311 0.475116 P5+
0.171023 0.808311 0.530671 P5+
0.159739 0.408249 0.486233 P5+
0.840261 0.908249 0.541789 P5+
0.843930 0.574567 0.453696 P5+
0.156070 0.074567 0.509251 P5+
0.174322 0.674438 0.464863 P5+
0.825678 0.174438 0.520418 P5+
0.812278 0.786455 0.473624 P5+
0.187722 0.286455 0.529180 P5+
0.151901 0.889856 0.483892 P5+
0.848099 0.389856 0.539447 P5+
0.809867 0.982845 0.496480 P5+
0.190133 0.482845 0.552036 P5+
0.185377 0.000413 0.665729 P5+
0.814623 0.500413 0.610173 P5+
0.843317 0.093280 0.567231 P5+
0.156683 0.593280 0.622787 P5+
0.188444 0.197061 0.577425 P5+
0.811556 0.697061 0.632981 P5+
0.828977 0.308311 0.586227 P5+
0.171023 0.808311 0.641783 P5+
0.159739 0.408249 0.597344 P5+
0.840261 0.908249 0.652900 P5+
0.843930 0.574567 0.564807 P5+
0.156070 0.074567 0.620363 P5+
0.174322 0.674438 0.575974 P5+
0.825678 0.174438 0.631529 P5+
0.812278 0.786455 0.584735 P5+
0.187722 0.286455 0.640291 P5+
0.151901 0.889856 0.595003 P5+
0.848099 0.389856 0.650559 P5+
0.809867 0.982845 0.607592 P5+
0.190133 0.482845 0.663147 P5+
0.185377 0.000413 0.776840 P5+
0.814623 0.500413 0.721284 P5+
0.843317 0.093280 0.678342 P5+
0.156683 0.593280 0.733898 P5+
0.188444 0.197061 0.688536 P5+
0.811556 0.697061 0.744092 P5+
0.828977 0.308311 0.697338 P5+
0.171023 0.808311 0.752894 P5+
0.159739 0.408249 0.708456 P5+
0.840261 0.908249 0.764011 P5+
0.843930 0.574567 0.675918 P5+
0.156070 0.074567 0.731474 P5+
0.174322 0.674438 0.687085 P5+
0.825678 0.174438 0.742640 P5+
0.812278 0.786455 0.695846 P5+
0.187722 0.286455 0.751402 P5+
0.151901 0.889856 0.706114 P5+
0.848099 0.389856 0.761670 P5+
0.809867 0.982845 0.718703 P5+
0.190133 0.482845 0.774258 P5+
0.069000 0.035413 0.009702 O2-
0.931000 0.535413 0.065258 O2-
0.951087 0.140628 0.021367 O2-
0.048913 0.640628 0.076922 O2-
0.080018 0.275856 0.026172 O2-
0.919982 0.775856 0.081727 O2-
0.926681 0.392259 0.034155 O2-
0.073319 0.892259 0.089711 O2-
0.942022 0.978148 0.103828 O2-
0.057978 0.478148 0.048272 O2-
0.076781 0.590622 0.016896 O2-
0.923219 0.090622 0.072452 O2-
0.921841 0.709404 0.024458 O2-
0.078159 0.209404 0.080013 O2-
0.049265 0.843555 0.029555 O2-
0.950735 0.343555 0.085110 O2-
0.918787 0.943480 0.041633 O2-
0.081213 0.443480 0.097189 O2-
0.944691 0.504327 0.002755 O2-
0.055309 0.004327 0.058310 O2-
0.322795 0.926111 0.004163 O2-
0.677205 0.426111 0.059718 O2-
0.313918 0.066074 0.102398 O2-
0.686082 0.566074 0.046843 O2-
0.643576 0.041349 0.017336 O2-
0.356424 0.541349 0.072892 O2-
0.795305 0.153257 0.001172 O2-
0.204695 0.653257 0.056728 O2-
0.351974 0.154647 0.030862 O2-
0.648026 0.654647 0.086418 O2-
0.281781 0.224590 0.010083 O2-
0.718219 0.724590 0.065638 O2-
0.751546 0.252705 0.041191 O2-
0.248454 0.752705 0.096746 O2-
0.656290 0.330648 0.021069 O2-
0.343710 0.830648 0.076625 O2-
0.215121 0.332841 0.050055 O2-
0.784879 0.832841 0.105610 O2-
0.355777 0.446708 0.034127 O2-
0.644223 0.946708 0.089683 O2-
0.649890 0.536665 0.017077 O2-
0.350110 0.036665 0.072633 O2-
0.785996 0.649394 0.000938 O2-
0.214004 0.149394 0.056494 O2-
0.340793 0.651785 0.030263 O2-
0.659207 0.151785 0.085819 O2-
0.258044 0.728542 0.009877 O2-
0.741956 0.228542 0.065433 O2-
0.725734 0.758375 0.041073 O2-
0.274266 0.258375 0.096628 O2-
0.642950 0.828801 0.020425 O2-
0.357050 0.328801 0.075981 O2-
0.205272 0.829973 0.049906 O2-
0.794728 0.329973 0.105462 O2-
0.347295 0.944360 0.033933 O2-
0.652705 0.444360 0.089488 O2-
0.677470 0.919559 0.060041 O2-
0.322530 0.419559 0.004486 O2-
0.678914 0.057634 0.046645 O2-
0.321086 0.557634 0.102201 O2-
0.069000 0.035413 0.120814 O2-
0.931000 0.535413 0.176369 O2-
0.951087 0.140628 0.132478 O2-
0.048913 0.640628 0.188033 O2-
0.080018 0.275856 0.137283 O2-
0.919982 0.775856 0.192838 O2-
0.926681 0.392259 0.145266 O2-
0.073319 0.892259 0.200822 O2-
0.942022 0.978148 0.214939 O2-
0.057978 0.478148 0.159383 O2-
0.076781 0.590622 0.128007 O2-
0.923219 0.090622 0.183563 O2-
0.921841 0.709404 0.135569 O2-
0.078159 0.209404 0.191124 O2-
0.049265 0.843555 0.140666 O2-
0.950735 0.343555 0.196221 O2-
0.918787 0.943480 0.152745 O2-
0.081213 0.443480 0.208300 O2-
0.944691 0.504327 0.113866 O2-
0.055309 0.004327 0.169422 O2-
0.322795 0.926111 0.115274 O2-
0.677205 0.426111 0.170830 O2-
0.313918 0.066074 0.213509 O2-
0.686082 0.566074 0.157954 O2-
0.643576 0.041349 0.128447 O2-
0.356424 0.541349 0.184003 O2-
0.795305 0.153257 0.112283 O2-
0.204695 0.653257 0.167839 O2-
0.351974 0.154647 0.141973 O2-
0.648026 0.654647 0.197529 O2-
0.281781 0.224590 0.121194 O2-
0.718219 0.724590 0.176749 O2-
0.751546 0.252705 0.152302 O2-
0.248454 0.752705 0.207857 O2-
0.656290 0.330648 0.132180 O2-
0.343710 0.830648 0.187736 O2-
0.215121 0.332841 0.161166 O2-
0.784879 0.832841 0.216721 O2-
0.355777 0.446708 0.145239 O2-
0.644223 0.946708 0.200794 O2-
0.649890 0.536665 0.128188 O2-
0.350110 0.036665 0.183744 O2-
0.785996 0.649394 0.112049 O2-
0.214004 0.149394 0.167605 O2-
0.340793 0.651785 0.141374 O2-
0.659207 0.151785 0.196930 O2-
0.258044 0.728542 0.120988 O2-
0.741956 0.228542 0.176544 O2-
0.725734 0.758375 0.152184 O2-
0.274266 0.258375 0.207739 O2-
0.642950 0.828801 0.131537 O2-
0.357050 0.328801 0.187092 O2-
0.205272 0.829973 0.161017 O2-
0.794728 0.329973 0.216573 O2-
0.347295 0.944360 0.145044 O2-
0.652705 0.444360 0.200599 O2-
0.677470 0.919559 0.171152 O2-
0.322530 0.419559 0.115597 O2-
0.678914 0.057634 0.157756 O2-
0.321086 0.557634 0.213312 O2-
0.069000 0.035413 0.231925 O2-
0.931000 0.535413 0.287480 O2-
0.951087 0.140628 0.243589 O2-
0.048913 0.640628 0.299145 O2-
0.080018 0.275856 0.248394 O2-
0.919982 0.775856 0.303949 O2-
0.926681 0.392259 0.256377 O2-
0.073319 0.892259 0.311933 O2-
0.942022 0.978148 0.326050 O2-
0.057978 0.478148 0.270494 O2-
0.076781 0.590622 0.239118 O2-
0.923219 0.090622 0.294674 O2-
0.921841 0.709404 0.246680 O2-
0.078159 0.209404 0.302235 O2-
0.049265 0.843555 0.251777 O2-
0.950735 0.343555 0.307333 O2-
0.918787 0.943480 0.263856 O2-
0.081213 0.443480 0.319411 O2-
0.944691 0.504327 0.224977 O2-
0.055309 0.004327 0.280533 O2-
0.322795 0.926111 0.226385 O2-
0.677205 0.426111 0.281941 O2-
0.313918 0.066074 0.324620 O2-
0.686082 0.566074 0.269065 O2-
0.643576 0.041349 0.239558 O2-
0.356424 0.541349 0.295114 O2-
0.795305 0.153257 0.223394 O2-
0.204695 0.653257 0.278950 O2-
0.351974 0.154647 0.253084 O2-
0.648026 0.654647 0.308640 O2-
0.281781 0.224590 0.232305 O2-
0.718219 0.724590 0.287860 O2-
0.751546 0.252705 0.263413 O2-
0.248454 0.752705 0.318968 O2-
0.656290 0.330648 0.243291 O2-
0.343710 0.830648 0.298847 O2-
0.215121 0.332841 0.272277 O2-
0.784879 0.832841 0.327832 O2-
0.355777 0.446708 0.256350 O2-
0.644223 0.946708 0.311905 O2-
0.649890 0.536665 0.239299 O2-
0.350110 0.036665 0.294855 O2-
0.785996 0.649394 0.223160 O2-
0.214004 0.149394 0.278716 O2-
0.340793 0.651785 0.252486 O2-
0.659207 0.151785 0.308041 O2-
0.258044 0.728542 0.232100 O2-
0.741956 0.228542 0.287655 O2-
0.725734 0.758375 0.263295 O2-
0.274266 0.258375 0.318850 O2-
0.642950 0.828801 0.242648 O2-
0.357050 0.328801 0.298203 O2-
0.205272 0.829973 0.272128 O2-
0.794728 0.329973 0.327684 O2-
0.347295 0.944360 0.256155 O2-
0.652705 0.444360 0.311710 O2-
0.677470 0.919559 0.282264 O2-
0.322530 0.419559 0.226708 O2-
0.678914 0.057634 0.268867 O2-
0.321086 0.557634 0.324423 O2-
0.069000 0.035413 0.343036 O2-
0.931000 0.535413 0.398591 O2-
0.951087 0.140628 0.354700 O2-
0.048913 0.640628 0.410256 O2-
0.080018 0.275856 0.359505 O2-
0.919982 0.775856 0.415060 O2-
0.926681 0.392259 0.367488 O2-
0.073319 0.892259 0.423044 O2-
0.942022 0.978148 0.437161 O2-
0.057978 0.478148 0.381605 O2-
0.076781 0.590622 0.350229 O2-
0.923219 0.090622 0.405785 O2-
0.921841 0.709404 0.357791 O2-
0.078159 0.209404 0.413347 O2-
0.049265 0.843555 0.362888 O2-
0.950735 0.343555 0.418444 O2-
0.918787 0.943480 0.374967 O2-
0.081213 0.443480 0.430522 O2-
0.944691 0.504327 0.336088 O2-
0.055309 0.004327 0.391644 O2-
0.322795 0.926111 0.337496 O2-
0.677205 0.426111 0.393052 O2-
0.313918 0.066074 0.435732 O2-
0.686082 0.566074 0.380176 O2-
0.643576 0.041349 0.350670 O2-
0.356424 0.541349 0.406225 O2-
0.795305 0.153257 0.334505 O2-
0.204695 0.653257 0.390061 O2-
0.351974 0.154647 0.364196 O2-
0.648026 0.654647 0.419751 O2-
0.281781 0.224590 0.343416 O2-
0.718219 0.724590 0.398971 O2-
0.751546 0.252705 0.374524 O2-
0.248454 0.752705 0.430079 O2-
0.656290 0.330648 0.354402 O2-
0.343710 0.830648 0.409958 O2-
0.215121 0.332841 0.383388 O2-
0.784879 0.832841 0.438944 O2-
0.355777 0.446708 0.367461 O2-
0.644223 0.946708 0.423016 O2-
0.649890 0.536665 0.350410 O2-
0.350110 0.036665 0.405966 O2-
0.785996 0.649394 0.334271 O2-
0.214004 0.149394 0.389827 O2-
0.340793 0.651785 0.363597 O2-
0.659207 0.151785 0.419152 O2-
0.258044 0.728542 0.343211 O2-
0.741956 0.228542 0.398766 O2-
0.725734 0.758375 0.374406 O2-
0.274266 0.258375 0.429962 O2-
0.642950 0.828801 0.353759 O2-
0.357050 0.328801 0.409314 O2-
0.205272 0.829973 0.383240 O2-
0.794728 0.329973 0.438795 O2-
0.347295 0.944360 0.367266 O2-
0.652705 0.444360 0.422821 O2-
0.677470 0.919559 0.393375 O2-
0.322530 0.419559 0.337819 O2-
0.678914 0.057634 0.379978 O2-
0.321086 0.557634 0.435534 O2-
0.069000 0.035413 0.454147 O2-
0.931000 0.535413 0.509702 O2-
0.951087 0.140628 0.465811 O2-
0.048913 0.640628 0.521367 O2-
0.080018 0.275856 0.470616 O2-
0.919982 0.775856 0.526172 O2-
0.926681 0.392259 0.478599 O2-
0.073319 0.892259 0.534155 O2-
0.942022 0.978148 0.548272 O2-
0.057978 0.478148 0.492717 O2-
0.076781 0.590622 0.461340 O2-
0.923219 0.090622 0.516896 O2-
0.921841 0.709404 0.468902 O2-
0.078159 0.209404 0.524458 O2-
0.049265 0.843555 0.473999 O2-
0.950735 0.343555 0.529555 O2-
0.918787 0.943480 0.486078 O2-
0.081213 0.443480 0.541633 O2-
0.944691 0.504327 0.447199 O2-
0.055309 0.004327 0.502755 O2-
0.322795 0.926111 0.448607 O2-
0.677205 0.426111 0.504163 O2-
0.313918 0.066074 0.546843 O2-
0.686082 0.566074 0.491287 O2-
0.643576 0.041349 0.461781 O2-
0.356424 0.541349 0.517336 O2-
0.795305 0.153257 0.445616 O2-
0.204695 0.653257 0.501172 O2-
0.351974 0.154647 0.475307 O2-
0.648026 0.654647 0.530862 O2-
0.281781 0.224590 0.454527 O2-
0.718219 0.724590 0.510082 O2-
0.751546 0.252705 0.485635 O2-
0.248454 0.752705 0.541191 O2-
0.656290 0.330648 0.465514 O2-
0.343710 0.830648 0.521069 O2-
0.215121 0.332841 0.494499 O2-
0.784879 0.832841 0.550055 O2-
0.355777 0.446708 0.478572 O2-
0.644223 0.946708 0.534127 O2-
0.649890 0.536665 0.461522 O2-
0.350110 0.036665 0.517077 O2-
0.785996 0.649394 0.445382 O2-
0.214004 0.149394 0.500938 O2-
0.340793 0.651785 0.474708 O2-
0.659207 0.151785 0.530263 O2-
0.258044 0.728542 0.454322 O2-
0.741956 0.228542 0.509877 O2-
0.725734 0.758375 0.485517 O2-
0.274266 0.258375 0.541073 O2-
0.642950 0.828801 0.464870 O2-
0.357050 0.328801 0.520425 O2-
0.205272 0.829973 0.494351 O2-
0.794728 0.329973 0.549906 O2-
0.347295 0.944360 0.478377 O2-
0.652705 0.444360 0.533933 O2-
0.677470 0.919559 0.504486 O2-
0.322530 0.419559 0.448930 O2-
0.678914 0.057634 0.491089 O2-
0.321086 0.557634 0.546645 O2-
0.069000 0.035413 0.565258 O2-
0.931000 0.535413 0.620814 O2-
0.951087 0.140628 0.576922 O2-
0.048913 0.640628 0.632478 O2-
0.080018 0.275856 0.581727 O2-
0.919982 0.775856 0.637283 O2-
0.926681 0.392259 0.589711 O2-
0.073319 0.892259 0.645266 O2-
0.942022 0.978148 0.659383 O2-
0.057978 0.478148 0.603828 O2-
0.076781 0.590622 0.572452 O2-
0.923219 0.090622 0.628007 O2-
0.921841 0.709404 0.580013 O2-
0.078159 0.209404 0.635569 O2-
0.049265 0.843555 0.585110 O2-
0.950735 0.343555 0.640666 O2-
0.918787 0.943480 0.597189 O2-
0.081213 0.443480 0.652745 O2-
0.944691 0.504327 0.558310 O2-
0.055309 0.004327 0.613866 O2-
0.322795 0.926111 0.559718 O2-
0.677205 0.426111 0.615274 O2-
0.313918 0.066074 0.657954 O2-
0.686082 0.566074 0.602398 O2-
0.643576 0.041349 0.572892 O2-
0.356424 0.541349 0.628447 O2-
0.795305 0.153257 0.556728 O2-
0.204695 0.653257 0.612283 O2-
0.351974 0.154647 0.586418 O2-
0.648026 0.654647 0.641973 O2-
0.281781 0.224590 0.565638 O2-
0.718219 0.724590 0.621194 O2-
0.751546 0.252705 0.596746 O2-
0.248454 0.752705 0.652302 O2-
0.656290 0.330648 0.576625 O2-
0.343710 0.830648 0.632180 O2-
0.215121 0.332841 0.605610 O2-
0.784879 0.832841 0.661166 O2-
0.355777 0.446708 0.589683 O2-
0.644223 0.946708 0.645239 O2-
0.649890 0.536665 0.572633 O2-
0.350110 0.036665 0.628188 O2-
0.785996 0.649394 0.556494 O2-
0.214004 0.149394 0.612049 O2-
0.340793 0.651785 0.585819 O2-
0.659207 0.151785 0.641374 O2-
0.258044 0.728542 0.565433 O2-
0.741956 0.228542 0.620988 O2-
0.725734 0.758375 0.596628 O2-
0.274266 0.258375 0.652184 O2-
0.642950 0.828801 0.575981 O2-
0.357050 0.328801 0.631537 O2-
0.205272 0.829973 0.605462 O2-
0.794728 0.329973 0.661017 O2-
0.347295 0.944360 0.589488 O2-
0.652705 0.444360 0.645044 O2-
0.677470 0.919559 0.615597 O2-
0.322530 0.419559 0.560041 O2-
0.678914 0.057634 0.602201 O2-
0.321086 0.557634 0.657756 O2-
0.069000 0.035413 0.676369 O2-
0.931000 0.535413 0.731925 O2-
0.951087 0.140628 0.688033 O2-
0.048913 0.640628 0.743589 O2-
0.080018 0.275856 0.692838 O2-
0.919982 0.775856 0.748394 O2-
0.926681 0.392259 0.700822 O2-
0.073319 0.892259 0.756377 O2-
0.942022 0.978148 0.770494 O2-
0.057978 0.478148 0.714939 O2-
0.076781 0.590622 0.683563 O2-
0.923219 0.090622 0.739118 O2-
0.921841 0.709404 0.691124 O2-
0.078159 0.209404 0.746680 O2-
0.049265 0.843555 0.696221 O2-
0.950735 0.343555 0.751777 O2-
0.918787 0.943480 0.708300 O2-
0.081213 0.443480 0.763856 O2-
0.944691 0.504327 0.669422 O2-
0.055309 0.004327 0.724977 O2-
0.322795 0.926111 0.670829 O2-
0.677205 0.426111 0.726385 O2-
0.313918 0.066074 0.769065 O2-
0.686082 0.566074 0.713509 O2-
0.643576 0.041349 0.684003 O2-
0.356424 0.541349 0.739558 O2-
0.795305 0.153257 0.667839 O2-
0.204695 0.653257 0.723394 O2-
0.351974 0.154647 0.697529 O2-
0.648026 0.654647 0.753084 O2-
0.281781 0.224590 0.676749 O2-
0.718219 0.724590 0.732305 O2-
0.751546 0.252705 0.707857 O2-
0.248454 0.752705 0.763413 O2-
0.656290 0.330648 0.687736 O2-
0.343710 0.830648 0.743291 O2-
0.215121 0.332841 0.716721 O2-
0.784879 0.832841 0.772277 O2-
0.355777 0.446708 0.700794 O2-
0.644223 0.946708 0.756350 O2-
0.649890 0.536665 0.683744 O2-
0.350110 0.036665 0.739299 O2-
0.785996 0.649394 0.667605 O2-
0.214004 0.149394 0.723160 O2-
0.340793 0.651785 0.696930 O2-
0.659207 0.151785 0.752486 O2-
0.258044 0.728542 0.676544 O2-
0.741956 0.228542 0.732100 O2-
0.725734 0.758375 0.707739 O2-
0.274266 0.258375 0.763295 O2-
0.642950 0.828801 0.687092 O2-
0.357050 0.328801 0.742648 O2-
0.205272 0.829973 0.716573 O2-
0.794728 0.329973 0.772128 O2-
0.347295 0.944360 0.700599 O2-
0.652705 0.444360 0.756155 O2-
0.677470 0.919559 0.726708 O2-
0.322530 0.419559 0.671152 O2-
0.678914 0.057634 0.713312 O2-
0.321086 0.557634 0.768867 O2-
