Li2 P2 N4                               
   1.00000000000000     
    -2.2948840000000001    2.2948840000000001    3.6689539999999998
     2.2948840000000001   -2.2948840000000001    3.6689539999999998
     2.2948840000000001    2.2948840000000001   -3.6689539999999998
   Li   P    N 
     2     2     4
Direct
  0.5000000000000000  0.5000000000000000  0.0000000000000000
  0.2500000000000000  0.7500000000000000  0.5000000000000000
  0.0000000000000000  0.0000000000000000  0.0000000000000000
  0.7500000000000000  0.2500000000000000  0.5000000000000000
  0.3750000000000000  0.2936339999999973  0.4186339999999973
  0.8750000000000000  0.9563660000000027  0.5813660000000027
  0.7063660000000027  0.1250000000000000  0.0813660000000027
  0.0436339999999973  0.6250000000000000  0.9186339999999973
 
  0.00000000E+00  0.00000000E+00  0.00000000E+00
  0.00000000E+00  0.00000000E+00  0.00000000E+00
  0.00000000E+00  0.00000000E+00  0.00000000E+00
  0.00000000E+00  0.00000000E+00  0.00000000E+00
  0.00000000E+00  0.00000000E+00  0.00000000E+00
  0.00000000E+00  0.00000000E+00  0.00000000E+00
  0.00000000E+00  0.00000000E+00  0.00000000E+00
  0.00000000E+00  0.00000000E+00  0.00000000E+00
