Li7 P2 N1 O7                            
   1.00000000000000     
     5.3285758185557865    0.0000000000000000    0.0689014476250967
     0.0000000000000000    6.1878842561653009    0.0000000000000000
     0.0695948892619610    0.0000000000000000    5.2944446656514801
   Li   P    N    O 
     7     2     1     7
Direct
  0.2110873735033994  0.5000000000000000  0.2817046422712738
  0.5034509904840414  0.7826564814865115  0.3044897516466902
  0.5034509904840414  0.2173435185134881  0.3044897516466901
  0.0467124242990717  0.7809728664391790  0.6515300268253807
  0.0467124242990717  0.2190271335608208  0.6515300268253807
  0.5008136991649719 -0.0000000000000000  0.8417000638263133
  0.8648994479223023  0.5000000000000000  0.0405081845495294
  0.4326862552481368  0.5000000000000000  0.7951240574779675
 -0.0062551575593429 -0.0000000000000000  0.1507726040765338
  0.7004971364524395 -0.0000000000000000  0.1486929505333816
  0.1118013089607184  0.2076909247876358  0.2925613270689475
  0.1118013089607184  0.7923090752123636  0.2925613270689475
  0.5152438559321535  0.5000000000000000  0.0788398177350731
  0.1362789054147020  0.5000000000000000  0.7908909366936155
  0.5340023630498373  0.7048481869862500  0.6601676545660589
  0.5340023630498373  0.2951518130137498  0.6601676545660589
  0.1285543103339279 -0.0000000000000000  0.8814692226221545
 
  0.00000000E+00  0.00000000E+00  0.00000000E+00
  0.00000000E+00  0.00000000E+00  0.00000000E+00
  0.00000000E+00  0.00000000E+00  0.00000000E+00
  0.00000000E+00  0.00000000E+00  0.00000000E+00
  0.00000000E+00  0.00000000E+00  0.00000000E+00
  0.00000000E+00  0.00000000E+00  0.00000000E+00
  0.00000000E+00  0.00000000E+00  0.00000000E+00
  0.00000000E+00  0.00000000E+00  0.00000000E+00
  0.00000000E+00  0.00000000E+00  0.00000000E+00
  0.00000000E+00  0.00000000E+00  0.00000000E+00
  0.00000000E+00  0.00000000E+00  0.00000000E+00
  0.00000000E+00  0.00000000E+00  0.00000000E+00
  0.00000000E+00  0.00000000E+00  0.00000000E+00
  0.00000000E+00  0.00000000E+00  0.00000000E+00
  0.00000000E+00  0.00000000E+00  0.00000000E+00
  0.00000000E+00  0.00000000E+00  0.00000000E+00
  0.00000000E+00  0.00000000E+00  0.00000000E+00
