Li8 P8                                  
   1.00000000000000     
     4.9574302221091031    0.0000000000000000    0.0000000000000000
     0.0000000000000000    5.5885560333630862    0.0007811174429935
     0.0000000000000000    4.8336504515272178    9.0304902558795561
   Li   P 
     8     8
Direct
  0.6119309187333076  0.2169716430309622  0.6708942831045912
  0.1119309187333075  0.7830283569690378  0.8291057168954088
  0.3880690812666924  0.7830283569690378  0.3291057168954087
  0.8880690812666924  0.2169716430309622  0.1708942831045912
  0.3416095824163257  0.2260629890565358  0.9699155762826238
  0.8416095824163257  0.7739370109434645  0.5300844237173762
  0.6583904175836743  0.7739370109434645  0.0300844237173762
  0.1583904175836743  0.2260629890565358  0.4699155762826238
  0.1047588918190882  0.3163068688612014  0.7069569478009943
  0.6047588918190883  0.6836931311387986  0.7930430521990057
  0.8952411081809117  0.6836931311387986  0.2930430521990057
  0.3952411081809118  0.3163068688612014  0.2069569478009943
  0.8439821618945432  0.3027819988598470  0.8886527699239679
  0.3439821618945432  0.6972180011401530  0.6113472300760321
  0.1560178381054568  0.6972180011401530  0.1113472300760321
  0.6560178381054568  0.3027819988598470  0.3886527699239679
 
  0.00000000E+00  0.00000000E+00  0.00000000E+00
  0.00000000E+00  0.00000000E+00  0.00000000E+00
  0.00000000E+00  0.00000000E+00  0.00000000E+00
  0.00000000E+00  0.00000000E+00  0.00000000E+00
  0.00000000E+00  0.00000000E+00  0.00000000E+00
  0.00000000E+00  0.00000000E+00  0.00000000E+00
  0.00000000E+00  0.00000000E+00  0.00000000E+00
  0.00000000E+00  0.00000000E+00  0.00000000E+00
  0.00000000E+00  0.00000000E+00  0.00000000E+00
  0.00000000E+00  0.00000000E+00  0.00000000E+00
  0.00000000E+00  0.00000000E+00  0.00000000E+00
  0.00000000E+00  0.00000000E+00  0.00000000E+00
  0.00000000E+00  0.00000000E+00  0.00000000E+00
  0.00000000E+00  0.00000000E+00  0.00000000E+00
  0.00000000E+00  0.00000000E+00  0.00000000E+00
  0.00000000E+00  0.00000000E+00  0.00000000E+00
