Li7 P2 N1 O7                            
   1.00000000000000     
     5.0366001558730948    0.0000000023135917   -0.0333782413248316
     0.0000000071376616    6.1711750062560116    0.0000001878243695
    -0.0351632995075710    0.0000001573257616    5.3263653511779516
   Li   P    N    O 
     7     2     1     7
Direct
  0.0139245786965504  0.4999999824757257  0.1453580460316442
  0.4971863260443489  0.7381064424350184  0.3145412876355343
  0.4971862665562994  0.2618935951067363  0.3145409804657027
  0.0616283013701887  0.7390602877423580  0.6682765206213915
  0.0616285604587664  0.2609396674709353  0.6682761522932724
  0.4610986653056628 -0.0000000240022890  0.9079417908727990
  0.7685077156811994  0.0000000382678883  0.5946123858013922
  0.5193928621533003  0.4999999780624437  0.8167141222273082
 -0.0016633199259884  0.0000000045966487  0.1575940588696892
  0.0661439398737814  0.0000000458093369  0.8710339194810774
  0.1067912096671411  0.2069869128976381  0.3096110985251173
  0.1067911793729746  0.7930130962696357  0.3096111724666797
  0.6237687303116265  0.4999999902926673  0.0928094963491665
  0.2112835779603375  0.4999999912169304  0.8215376741780726
  0.6841372132579020 -0.0000000018619897  0.2202189447337227
  0.6133571211563099  0.7079649846746566  0.6750061708647367
  0.6133570720596264  0.2920350085456594  0.6750061785826960
 
  0.00000000E+00  0.00000000E+00  0.00000000E+00
  0.00000000E+00  0.00000000E+00  0.00000000E+00
  0.00000000E+00  0.00000000E+00  0.00000000E+00
  0.00000000E+00  0.00000000E+00  0.00000000E+00
  0.00000000E+00  0.00000000E+00  0.00000000E+00
  0.00000000E+00  0.00000000E+00  0.00000000E+00
  0.00000000E+00  0.00000000E+00  0.00000000E+00
  0.00000000E+00  0.00000000E+00  0.00000000E+00
  0.00000000E+00  0.00000000E+00  0.00000000E+00
  0.00000000E+00  0.00000000E+00  0.00000000E+00
  0.00000000E+00  0.00000000E+00  0.00000000E+00
  0.00000000E+00  0.00000000E+00  0.00000000E+00
  0.00000000E+00  0.00000000E+00  0.00000000E+00
  0.00000000E+00  0.00000000E+00  0.00000000E+00
  0.00000000E+00  0.00000000E+00  0.00000000E+00
  0.00000000E+00  0.00000000E+00  0.00000000E+00
  0.00000000E+00  0.00000000E+00  0.00000000E+00
