(1, 1, 0)                               
   1.00000000000000     
     3.8469595327257982   -0.0000003788202934   -0.0000001534088268
    -0.0000000838003190    3.1558888448696876   -5.4671502075640319
    -0.0000020376272463    0.0060118055357096   45.6417270247709865
   Li   N 
    21     7
Selective dynamics
Direct
  0.5000003691085697 -0.0410058949799674  0.0333881399227864   T   T   T
 -0.0000003020820911  0.6870918161580010  0.0375639947893875   T   T   T
  0.0000011285255525  0.2835725403520238  0.0376544776873264   T   T   T
  0.5000006428991171  0.0000000000000000  0.1197926130269451   F   F   F
  0.0000000000000000  0.6666677209884924  0.1197927393274867   F   F   F
  0.0000000000000000  0.3333322790115076  0.1197925961058743   F   F   F
  0.5000006428991171  0.0000000000000000  0.1996553759199529   F   F   F
  0.0000000000000000  0.6666677209884924  0.1996555022204944   F   F   F
  0.0000000000000000  0.3333322790115076  0.1996553589988750   F   F   F
  0.5000006428991171  0.0000000000000000  0.2795168262593322   F   F   F
  0.0000000000000000  0.6666677209884924  0.2795167338009392   F   F   F
  0.0000000000000000  0.3333322790115076  0.2795165905793198   F   F   F
  0.5000006428991171  0.0000000000000000  0.3593793703933983   F   F   F
  0.0000000000000000  0.6666677209884924  0.3593794966939470   F   F   F
  0.0000000000000000  0.3333322790115076  0.3593793534723275   F   F   F
  0.5000006428991171  0.0000000000000000  0.4392421332864060   F   F   F
  0.0000000000000000  0.6666677209884924  0.4392422595869476   F   F   F
  0.0000000000000000  0.3333322790115076  0.4392421163653353   F   F   F
  0.5000003383041896  0.0402609476911003  0.5255223534570728   T   T   T
  0.0000006857328495  0.7157613300641102  0.5213602735932394   T   T   T
  0.0000021003756873  0.3123143570371688  0.5214117478875857   T   T   T
  0.0000004338267060  0.0414859772975956  0.0465770461747313   T   T   T
  0.0000000000000000  0.0000000000000000  0.1197926130269451   F   F   F
  0.0000000000000000  0.0000000000000000  0.1996553759199529   F   F   F
  0.0000000000000000  0.0000000000000000  0.2795168262593322   F   F   F
  0.0000000000000000  0.0000000000000000  0.3593793703933983   F   F   F
  0.0000000000000000  0.0000000000000000  0.4392421332864060   F   F   F
  0.0000011039833621 -0.0417076756097185  0.5124239111530585   T   T   T
 
  0.00000000E+00  0.00000000E+00  0.00000000E+00
  0.00000000E+00  0.00000000E+00  0.00000000E+00
  0.00000000E+00  0.00000000E+00  0.00000000E+00
  0.00000000E+00  0.00000000E+00  0.00000000E+00
  0.00000000E+00  0.00000000E+00  0.00000000E+00
  0.00000000E+00  0.00000000E+00  0.00000000E+00
  0.00000000E+00  0.00000000E+00  0.00000000E+00
  0.00000000E+00  0.00000000E+00  0.00000000E+00
  0.00000000E+00  0.00000000E+00  0.00000000E+00
  0.00000000E+00  0.00000000E+00  0.00000000E+00
  0.00000000E+00  0.00000000E+00  0.00000000E+00
  0.00000000E+00  0.00000000E+00  0.00000000E+00
  0.00000000E+00  0.00000000E+00  0.00000000E+00
  0.00000000E+00  0.00000000E+00  0.00000000E+00
  0.00000000E+00  0.00000000E+00  0.00000000E+00
  0.00000000E+00  0.00000000E+00  0.00000000E+00
  0.00000000E+00  0.00000000E+00  0.00000000E+00
  0.00000000E+00  0.00000000E+00  0.00000000E+00
  0.00000000E+00  0.00000000E+00  0.00000000E+00
  0.00000000E+00  0.00000000E+00  0.00000000E+00
  0.00000000E+00  0.00000000E+00  0.00000000E+00
  0.00000000E+00  0.00000000E+00  0.00000000E+00
  0.00000000E+00  0.00000000E+00  0.00000000E+00
  0.00000000E+00  0.00000000E+00  0.00000000E+00
  0.00000000E+00  0.00000000E+00  0.00000000E+00
  0.00000000E+00  0.00000000E+00  0.00000000E+00
  0.00000000E+00  0.00000000E+00  0.00000000E+00
  0.00000000E+00  0.00000000E+00  0.00000000E+00
