(1, 1, 0)
1.0
3.888635 0.000000 0.000000
0.000000 3.161590 -5.476035
0.000000 0.000000 45.712418
Li N
21 7
Selective dynamics
Cartesian
1.94432 0.00000 1.82536 T T T Li+ 
0.00000 2.10773 -1.82533 T T T Li+ 
0.00000 1.05386 0.00002 T T T Li+ 
1.94432 0.00000 5.47601 F F F Li+ 
0.00000 2.10773 1.82532 F F F Li+ 
0.00000 1.05386 3.65067 F F F Li+ 
1.94432 0.00000 9.12673 F F F Li+ 
0.00000 2.10773 5.47604 F F F Li+ 
0.00000 1.05386 7.30139 F F F Li+ 
1.94432 0.00000 12.77739 F F F Li+ 
0.00000 2.10773 9.12669 F F F Li+ 
0.00000 1.05386 10.95204 F F F Li+ 
1.94432 0.00000 16.42810 F F F Li+ 
0.00000 2.10773 12.77741 F F F Li+ 
0.00000 1.05386 14.60276 F F F Li+ 
1.94432 0.00000 20.07882 F F F Li+ 
0.00000 2.10773 16.42813 F F F Li+ 
0.00000 1.05386 18.25348 F F F Li+ 
1.94432 0.00000 23.72948 T T T Li+ 
0.00000 2.10773 20.07879 T T T Li+ 
0.00000 1.05386 21.90413 T T T Li+ 
0.00000 0.00000 1.82536 T T T N3- 
0.00000 0.00000 5.47601 F F F N3- 
0.00000 0.00000 9.12673 F F F N3- 
0.00000 0.00000 12.77739 F F F N3- 
0.00000 0.00000 16.42810 F F F N3- 
0.00000 0.00000 20.07882 F F F N3- 
0.00000 0.00000 23.72948 T T T N3- 
