Li71 P24 N1 O94                         
   1.00000000000000     
    14.7088675610423625    0.0070886846504045    0.0140811930955858
     0.0050766845014523   10.5580221675741566    0.0084026335931311
     0.0117402487297735    0.0097580039071972   12.3419716173505254
   Li   P    N    O 
    71    24     1    94
Direct
  0.1677230105582448  0.4230007640686637  0.0027719666733623
  0.1685326311141259  0.4220245235702872  0.4995586337343192
  0.1574334816827436  0.8905031854442771  0.0023325809513479
  0.1699538158641109  0.9219113161202849  0.4981686279636847
  0.5038280407685242  0.4228071478674639  0.0000507472865806
  0.5036343390587259  0.4216993947443172  0.5000650484063601
  0.5095115309374997  0.9189723842965040  0.0001580248060706
  0.5039722657612909  0.9227462897982137  0.4998507720799765
  0.8367705939363479  0.4232927177167389  0.0008263254861148
  0.8373670695657351  0.4224447639324183  0.4995421380778376
  0.8355704611754800  0.9216789496650590  0.0009914186234259
  0.8371823020098887  0.9249378423819958  0.4982044390064641
 -0.0019843008379509  0.0709232991800166  0.7453048128822765
  0.0028321888589946  0.5824242098014105  0.2508241740533677
  0.0020241961850247  0.5781734632397848  0.7492427292399270
  0.3363693912359144  0.0746844897929299  0.2554854811297534
  0.3363908149346859  0.0759757377330270  0.7461257161844999
  0.3374168926581946  0.5792758592417457  0.2516158565886649
  0.3369794203299244  0.5778961227471823  0.7490242671699173
  0.6781515184670529  0.0748016828341119  0.2508635509257732
  0.6704652536264338  0.0765791571913889  0.7486131740593259
  0.6708088197531421  0.5791518059093346  0.2505689387185674
  0.6697160116298759  0.5774889449387764  0.7496336672392068
  0.1673521487655649  0.1736930380211225  0.1502276288371301
  0.1677575721170493  0.1617179619306312  0.6253500352862584
  0.1697185173473071  0.6635777329242103  0.1291549474607750
  0.1691263494528002  0.6628781842010611  0.6259543598645632
  0.5091891585692450  0.1638573829670892  0.1296373600860002
  0.5035840281907631  0.1634399620058581  0.6256601477163450
  0.5037723687708217  0.6624859128599234  0.1265538345249890
  0.5031189290918243  0.6628318526303305  0.6260041350223792
  0.8396301310360815  0.1631015797619805  0.1267355434368778
  0.8361827296715674  0.1635501727898251  0.6255526520340237
  0.8355964294267069  0.6649091730729060  0.1263901371863729
  0.8358520067849596  0.6632869688646454  0.6261872281014813
  0.0023307634390028  0.3394821187590680  0.1260078695187634
  0.0027791447152546  0.3354755799595490  0.6240868803882060
 -0.0018489786272495  0.8427853409256835  0.1275671531987767
  0.0027321692448750  0.8372518738672027  0.6214152113070788
  0.3371858882352863  0.3421311924554298  0.1249753360803134
  0.3361202007301578  0.3363308948316520  0.6235849481326634
  0.3381906258991818  0.8346198556275252  0.1261195211493477
  0.3373516658074444  0.8359077252454646  0.6233754555778614
  0.6708278748227412  0.3373336572475814  0.1242886085715284
  0.6699557567645492  0.3361539226724976  0.6238815569210182
  0.6689580812721525  0.8341414260572733  0.1232044836623090
  0.6692876573751898  0.8357090794001193  0.6225369707862360
  0.0034328391584705  0.3364362874446391  0.3748605496819781
  0.0005587490467966  0.3371603951014622  0.8766331169101429
  0.0014021875513625  0.8469042002129682  0.3734929870660158
 -0.0013871273928089  0.8330994273934126  0.8726457618401833
  0.3366990126296104  0.3367276898548152  0.3770382286366616
  0.3352424469552585  0.3412015233084101  0.8758461963332101
  0.3380829321606962  0.8361799951635205  0.3768512794328104
  0.3361761654501710  0.8342169019600792  0.8746136143345857
  0.6711094422742101  0.3364704659637064  0.3764437307909619
  0.6697861709566970  0.3369221005297507  0.8760710134155879
  0.6686739959461834  0.8346573736520456  0.3784451952937051
  0.6697576002142398  0.8354724980144431  0.8757121153855275
  0.1670253816878680  0.1616061319172220  0.3755793545937576
  0.1602858855894908  0.1696530941132693  0.8586592130333569
  0.1688760492353891  0.6658608929622111  0.3751629341504920
  0.1691419429941921  0.6601280693124991  0.8726362973649404
  0.5048518192267359  0.1628608631196910  0.3736683422376605
  0.5075294420338965  0.1641755808763115  0.8711411259883485
  0.5038280970384023  0.6625600055312261  0.3743501310791063
  0.5030400249814443  0.6626435360292803  0.8732242150259295
  0.8413984333736865  0.1626347073002214  0.3716187396593525
  0.8350746033284950  0.1629620002567823  0.8731467812093774
  0.8366955661695546  0.6655856683629293  0.3738895234403326
  0.8350809548881565  0.6624588283543941  0.8735366492554161
  0.1687266851026210  0.4163381050748556  0.2518343302527333
  0.1666277237806426  0.4121453486680287  0.7501120855472022
  0.1686998829157527  0.9099534968892491  0.2493977952213221
  0.1671581275540067  0.9104468001638699  0.7513611047610983
  0.5011050429532968  0.4127763293724422  0.2504896136139498
  0.5002135886507443  0.4122572816755158  0.7498339984246205
  0.5016413199205373  0.9120058303202484  0.2502627200902277
  0.5004147615416027  0.9119448729256447  0.7499517455749735
  0.8337666782506259  0.4140378497557577  0.2500950309500251
  0.8331307485913494  0.4123157604630373  0.7501295738608745
  0.8287080434674273  0.9123828307653123  0.2499008820515701
  0.8314802365586219  0.9109224327336589  0.7491199758848822
  0.0012817228417279  0.0846991168652598 -0.0092060970408938
  0.0021886698481429  0.0912194821148279  0.5039697956846138
  0.0002576139476089  0.5899197721371016 -0.0004731864769249
  0.0001404037102549  0.5894286110266689  0.5003706893110683
  0.3390935278358462  0.0866924319246682  0.0001569209292644
  0.3346826268382830  0.0872843848675551  0.5006380580452892
  0.3337627357710514  0.5882061565023163 -0.0000080174557520
  0.3342401395268298  0.5872212758777235  0.5004262915307706
  0.6659846864339908  0.0878973399038299 -0.0007619251305329
  0.6673729049456333  0.0880165608439199  0.5003353147233465
  0.6666346223732517  0.5869187524717931 -0.0006877342073541
  0.6672400727054485  0.5865489081250087  0.5006739151507956
  0.0520171826805651  0.1705655009306136  0.0806040614867562
  0.0411652526737424  0.1687519981436427  0.4094109169488677
  0.0321973252953337  0.1507675808066097  0.8825407209843703
  0.0352468202547633  0.6599463013197476  0.3973301887948543
  0.0356790850628037  0.6577315355960753  0.8948239289416915
  0.3700801934195609  0.1566623232718894  0.3969618996609093
  0.3671272518340690  0.1582909116013315  0.8951409092491525
  0.3703077347247372  0.6562305843189218  0.3970086120665663
  0.3688450395825138  0.6568695219225608  0.8957778086599532
  0.7028919479341720  0.1576711468975902  0.3974129321928400
  0.7004674009573908  0.1560487706649789  0.8945819461156542
  0.7024536258013058  0.6558130362652358  0.3971714180064285
  0.7016143814541040  0.6559509526065418  0.8953276392477867
  0.2034067479683614  0.0502134553421879  0.2509189649061893
  0.2014944797527258  0.0507407900619872  0.7531002920203452
  0.2029494196814456  0.5560205420773612  0.2523296130366746
  0.2016788539448040  0.5513959108045539  0.7501276497008483
  0.5360695422737625  0.0516334944354680  0.2501010602162169
  0.5337770670645887  0.0521608942104167  0.7498933486021653
  0.5348112583575053  0.5527154615284162  0.2500593399433300
  0.5336974905631294  0.5522879926084694  0.7499940777207044
  0.8508036101868578  0.0546723581975861  0.2486869066764244
  0.8639179594028421  0.0513657852499974  0.7498326694724813
  0.8671742867649929  0.5544183405495975  0.2497650478723121
  0.8668596755624571  0.5523926026095829  0.7502841097603250
  0.0631434629173249  0.4147693968113413  0.2501664743020715
  0.0609774219503597  0.4103581878521567  0.7507617733124813
  0.0649588885769275  0.8994419588794776  0.2481216581177779
  0.0616533829795406  0.9062027951198264  0.7498023244953193
  0.3951686635389228  0.4103934253718478  0.2508177748441751
  0.3942346272275751  0.4093203204114136  0.7498727596239988
  0.3956335443498348  0.9103186914607582  0.2500277400834111
  0.3943912703884874  0.9093757562941988  0.7505412225692738
  0.7277532134977442  0.4110514900145871  0.2501703257076259
  0.7272225104654666  0.4094863266173075  0.7499541270522982
  0.7228681771745571  0.8977635447979935  0.2505846772978315
  0.7256703341803697  0.9070225605970751  0.7488630599920677
  0.2289482296655839  0.0895490654547614  0.5012234172035467
  0.2278302634144866  0.5916940616237354  0.0006121096032804
  0.2283704715906718  0.5903720556199635  0.5005627946558808
  0.5595563780774557  0.0909466943853220 -0.0003682908176440
  0.5612780202603921  0.0906256352691519  0.5003342934306180
  0.5606242958430964  0.5903563058330111 -0.0005155539052236
  0.5612323358906082  0.5895363781920016  0.5005960599542797
  0.8954241567214546  0.0881169291226396 -0.0020608909483028
  0.8960462342120130  0.0919456639972731  0.5010846989842663
  0.8943610224276799  0.5927219195946046 -0.0002782138424550
  0.8941966251029827  0.5916982135156100  0.5006071248772416
  0.2058959126033301  0.3480949412802930  0.1481994074771582
  0.2019612443403322  0.3416157798297757  0.6472639726217542
  0.2069792058050745  0.8445226313307398  0.1439214915535416
  0.2043657646163412  0.8421935518215341  0.6485375122490350
  0.5356991718738149  0.3435646635451232  0.1462989035863708
  0.5356812438786078  0.3429031829604484  0.6465334665839625
  0.5355826258719267  0.8422842405390621  0.1460930476626630
  0.5352921549350841  0.8428542946636863  0.6463044196522791
  0.8686934943755802  0.3453955825789588  0.1460007984254098
  0.8687825459875208  0.3433167924906795  0.6467563642271974
  0.8662063443287792  0.8445747352597078  0.1461400483298493
  0.8683344929342639  0.8430162492955807  0.6457716026004904
  0.0338565066208861  0.1535122004034606  0.6131443288235997
  0.0361071062209945  0.6602443753188801  0.1020919786250852
  0.0353614482048655  0.6578390842840387  0.6046100249986878
  0.3672640549453036  0.1578358202201084  0.1048837530253249
  0.3697217701736161  0.1566089982375128  0.6043192469159258
  0.3699025739843408  0.6564926955965431  0.1033134643892450
  0.3694344539763404  0.6562570998581690  0.6041651498427490
  0.7012605766262842  0.1576239185878775  0.1018349217331184
  0.7019003318042516  0.1564305893690696  0.6046632521565701
  0.7018528406682245  0.6557305064030969  0.1026463824994416
  0.7019171839255937  0.6558569754497213  0.6044262515889627
  0.0338366302578507  0.4498134951682181 -0.0004086841859888
  0.0341008443975361  0.4494333472813725  0.5006047224599663
  0.0316587194037948  0.9424818199815248 -0.0058078560349106
  0.0360245118689303  0.9505544562637993  0.5008936838581848
  0.3674038914496859  0.4479047571116979 -0.0005060011816978
  0.3679043153733202  0.4469848050046460  0.5006745846238129
  0.3696324038246712  0.9461636161706787 -0.0004539194801234
  0.3689293314248466  0.9474108437703600  0.5007177998905659
  0.7001142387543239  0.4467560170275021 -0.0007062033741017
  0.7009582288837214  0.4465311081437249  0.5008352852228248
  0.6985736700456678  0.9472484970656113 -0.0005698169086695
  0.7006918282493981  0.9476672988288886  0.5003815186385487
  0.2034211493528973  0.3445997360664991  0.3544059297795985
  0.2014392884701284  0.3422163861848190  0.8545381587193619
  0.2068081813867470  0.8420249586489644  0.3528270659393029
  0.2021289018715245  0.8425608333055876  0.8564662336695952
  0.5363448939603696  0.3431572081468614  0.3537980080388997
  0.5351307336514636  0.3431606274765312  0.8538819205841192
  0.5354579850784067  0.8422747385328850  0.3541808119817359
  0.5355222787247687  0.8427370569039255  0.8537527948526906
  0.8691305998983169  0.3454367723457745  0.3537424014445336
  0.8678063168772246  0.3433165571866214  0.8543519556191451
  0.8675513375853784  0.8457391538701982  0.3532922955017450
  0.8664473571149286  0.8418952218337138  0.8530489183000047
 
  0.00000000E+00  0.00000000E+00  0.00000000E+00
  0.00000000E+00  0.00000000E+00  0.00000000E+00
  0.00000000E+00  0.00000000E+00  0.00000000E+00
  0.00000000E+00  0.00000000E+00  0.00000000E+00
  0.00000000E+00  0.00000000E+00  0.00000000E+00
  0.00000000E+00  0.00000000E+00  0.00000000E+00
  0.00000000E+00  0.00000000E+00  0.00000000E+00
  0.00000000E+00  0.00000000E+00  0.00000000E+00
  0.00000000E+00  0.00000000E+00  0.00000000E+00
  0.00000000E+00  0.00000000E+00  0.00000000E+00
  0.00000000E+00  0.00000000E+00  0.00000000E+00
  0.00000000E+00  0.00000000E+00  0.00000000E+00
  0.00000000E+00  0.00000000E+00  0.00000000E+00
  0.00000000E+00  0.00000000E+00  0.00000000E+00
  0.00000000E+00  0.00000000E+00  0.00000000E+00
  0.00000000E+00  0.00000000E+00  0.00000000E+00
  0.00000000E+00  0.00000000E+00  0.00000000E+00
  0.00000000E+00  0.00000000E+00  0.00000000E+00
  0.00000000E+00  0.00000000E+00  0.00000000E+00
  0.00000000E+00  0.00000000E+00  0.00000000E+00
  0.00000000E+00  0.00000000E+00  0.00000000E+00
  0.00000000E+00  0.00000000E+00  0.00000000E+00
  0.00000000E+00  0.00000000E+00  0.00000000E+00
  0.00000000E+00  0.00000000E+00  0.00000000E+00
  0.00000000E+00  0.00000000E+00  0.00000000E+00
  0.00000000E+00  0.00000000E+00  0.00000000E+00
  0.00000000E+00  0.00000000E+00  0.00000000E+00
  0.00000000E+00  0.00000000E+00  0.00000000E+00
  0.00000000E+00  0.00000000E+00  0.00000000E+00
  0.00000000E+00  0.00000000E+00  0.00000000E+00
  0.00000000E+00  0.00000000E+00  0.00000000E+00
  0.00000000E+00  0.00000000E+00  0.00000000E+00
  0.00000000E+00  0.00000000E+00  0.00000000E+00
  0.00000000E+00  0.00000000E+00  0.00000000E+00
  0.00000000E+00  0.00000000E+00  0.00000000E+00
  0.00000000E+00  0.00000000E+00  0.00000000E+00
  0.00000000E+00  0.00000000E+00  0.00000000E+00
  0.00000000E+00  0.00000000E+00  0.00000000E+00
  0.00000000E+00  0.00000000E+00  0.00000000E+00
  0.00000000E+00  0.00000000E+00  0.00000000E+00
  0.00000000E+00  0.00000000E+00  0.00000000E+00
  0.00000000E+00  0.00000000E+00  0.00000000E+00
  0.00000000E+00  0.00000000E+00  0.00000000E+00
  0.00000000E+00  0.00000000E+00  0.00000000E+00
  0.00000000E+00  0.00000000E+00  0.00000000E+00
  0.00000000E+00  0.00000000E+00  0.00000000E+00
  0.00000000E+00  0.00000000E+00  0.00000000E+00
  0.00000000E+00  0.00000000E+00  0.00000000E+00
  0.00000000E+00  0.00000000E+00  0.00000000E+00
  0.00000000E+00  0.00000000E+00  0.00000000E+00
  0.00000000E+00  0.00000000E+00  0.00000000E+00
  0.00000000E+00  0.00000000E+00  0.00000000E+00
  0.00000000E+00  0.00000000E+00  0.00000000E+00
  0.00000000E+00  0.00000000E+00  0.00000000E+00
  0.00000000E+00  0.00000000E+00  0.00000000E+00
  0.00000000E+00  0.00000000E+00  0.00000000E+00
  0.00000000E+00  0.00000000E+00  0.00000000E+00
  0.00000000E+00  0.00000000E+00  0.00000000E+00
  0.00000000E+00  0.00000000E+00  0.00000000E+00
  0.00000000E+00  0.00000000E+00  0.00000000E+00
  0.00000000E+00  0.00000000E+00  0.00000000E+00
  0.00000000E+00  0.00000000E+00  0.00000000E+00
  0.00000000E+00  0.00000000E+00  0.00000000E+00
  0.00000000E+00  0.00000000E+00  0.00000000E+00
  0.00000000E+00  0.00000000E+00  0.00000000E+00
  0.00000000E+00  0.00000000E+00  0.00000000E+00
  0.00000000E+00  0.00000000E+00  0.00000000E+00
  0.00000000E+00  0.00000000E+00  0.00000000E+00
  0.00000000E+00  0.00000000E+00  0.00000000E+00
  0.00000000E+00  0.00000000E+00  0.00000000E+00
  0.00000000E+00  0.00000000E+00  0.00000000E+00
  0.00000000E+00  0.00000000E+00  0.00000000E+00
  0.00000000E+00  0.00000000E+00  0.00000000E+00
  0.00000000E+00  0.00000000E+00  0.00000000E+00
  0.00000000E+00  0.00000000E+00  0.00000000E+00
  0.00000000E+00  0.00000000E+00  0.00000000E+00
  0.00000000E+00  0.00000000E+00  0.00000000E+00
  0.00000000E+00  0.00000000E+00  0.00000000E+00
  0.00000000E+00  0.00000000E+00  0.00000000E+00
  0.00000000E+00  0.00000000E+00  0.00000000E+00
  0.00000000E+00  0.00000000E+00  0.00000000E+00
  0.00000000E+00  0.00000000E+00  0.00000000E+00
  0.00000000E+00  0.00000000E+00  0.00000000E+00
  0.00000000E+00  0.00000000E+00  0.00000000E+00
  0.00000000E+00  0.00000000E+00  0.00000000E+00
  0.00000000E+00  0.00000000E+00  0.00000000E+00
  0.00000000E+00  0.00000000E+00  0.00000000E+00
  0.00000000E+00  0.00000000E+00  0.00000000E+00
  0.00000000E+00  0.00000000E+00  0.00000000E+00
  0.00000000E+00  0.00000000E+00  0.00000000E+00
  0.00000000E+00  0.00000000E+00  0.00000000E+00
  0.00000000E+00  0.00000000E+00  0.00000000E+00
  0.00000000E+00  0.00000000E+00  0.00000000E+00
  0.00000000E+00  0.00000000E+00  0.00000000E+00
  0.00000000E+00  0.00000000E+00  0.00000000E+00
  0.00000000E+00  0.00000000E+00  0.00000000E+00
  0.00000000E+00  0.00000000E+00  0.00000000E+00
  0.00000000E+00  0.00000000E+00  0.00000000E+00
  0.00000000E+00  0.00000000E+00  0.00000000E+00
  0.00000000E+00  0.00000000E+00  0.00000000E+00
  0.00000000E+00  0.00000000E+00  0.00000000E+00
  0.00000000E+00  0.00000000E+00  0.00000000E+00
  0.00000000E+00  0.00000000E+00  0.00000000E+00
  0.00000000E+00  0.00000000E+00  0.00000000E+00
  0.00000000E+00  0.00000000E+00  0.00000000E+00
  0.00000000E+00  0.00000000E+00  0.00000000E+00
  0.00000000E+00  0.00000000E+00  0.00000000E+00
  0.00000000E+00  0.00000000E+00  0.00000000E+00
  0.00000000E+00  0.00000000E+00  0.00000000E+00
  0.00000000E+00  0.00000000E+00  0.00000000E+00
  0.00000000E+00  0.00000000E+00  0.00000000E+00
  0.00000000E+00  0.00000000E+00  0.00000000E+00
  0.00000000E+00  0.00000000E+00  0.00000000E+00
  0.00000000E+00  0.00000000E+00  0.00000000E+00
  0.00000000E+00  0.00000000E+00  0.00000000E+00
  0.00000000E+00  0.00000000E+00  0.00000000E+00
  0.00000000E+00  0.00000000E+00  0.00000000E+00
  0.00000000E+00  0.00000000E+00  0.00000000E+00
  0.00000000E+00  0.00000000E+00  0.00000000E+00
  0.00000000E+00  0.00000000E+00  0.00000000E+00
  0.00000000E+00  0.00000000E+00  0.00000000E+00
  0.00000000E+00  0.00000000E+00  0.00000000E+00
  0.00000000E+00  0.00000000E+00  0.00000000E+00
  0.00000000E+00  0.00000000E+00  0.00000000E+00
  0.00000000E+00  0.00000000E+00  0.00000000E+00
  0.00000000E+00  0.00000000E+00  0.00000000E+00
  0.00000000E+00  0.00000000E+00  0.00000000E+00
  0.00000000E+00  0.00000000E+00  0.00000000E+00
  0.00000000E+00  0.00000000E+00  0.00000000E+00
  0.00000000E+00  0.00000000E+00  0.00000000E+00
  0.00000000E+00  0.00000000E+00  0.00000000E+00
  0.00000000E+00  0.00000000E+00  0.00000000E+00
  0.00000000E+00  0.00000000E+00  0.00000000E+00
  0.00000000E+00  0.00000000E+00  0.00000000E+00
  0.00000000E+00  0.00000000E+00  0.00000000E+00
  0.00000000E+00  0.00000000E+00  0.00000000E+00
  0.00000000E+00  0.00000000E+00  0.00000000E+00
  0.00000000E+00  0.00000000E+00  0.00000000E+00
  0.00000000E+00  0.00000000E+00  0.00000000E+00
  0.00000000E+00  0.00000000E+00  0.00000000E+00
  0.00000000E+00  0.00000000E+00  0.00000000E+00
  0.00000000E+00  0.00000000E+00  0.00000000E+00
  0.00000000E+00  0.00000000E+00  0.00000000E+00
  0.00000000E+00  0.00000000E+00  0.00000000E+00
  0.00000000E+00  0.00000000E+00  0.00000000E+00
  0.00000000E+00  0.00000000E+00  0.00000000E+00
  0.00000000E+00  0.00000000E+00  0.00000000E+00
  0.00000000E+00  0.00000000E+00  0.00000000E+00
  0.00000000E+00  0.00000000E+00  0.00000000E+00
  0.00000000E+00  0.00000000E+00  0.00000000E+00
  0.00000000E+00  0.00000000E+00  0.00000000E+00
  0.00000000E+00  0.00000000E+00  0.00000000E+00
  0.00000000E+00  0.00000000E+00  0.00000000E+00
  0.00000000E+00  0.00000000E+00  0.00000000E+00
  0.00000000E+00  0.00000000E+00  0.00000000E+00
  0.00000000E+00  0.00000000E+00  0.00000000E+00
  0.00000000E+00  0.00000000E+00  0.00000000E+00
  0.00000000E+00  0.00000000E+00  0.00000000E+00
  0.00000000E+00  0.00000000E+00  0.00000000E+00
  0.00000000E+00  0.00000000E+00  0.00000000E+00
  0.00000000E+00  0.00000000E+00  0.00000000E+00
  0.00000000E+00  0.00000000E+00  0.00000000E+00
  0.00000000E+00  0.00000000E+00  0.00000000E+00
  0.00000000E+00  0.00000000E+00  0.00000000E+00
  0.00000000E+00  0.00000000E+00  0.00000000E+00
  0.00000000E+00  0.00000000E+00  0.00000000E+00
  0.00000000E+00  0.00000000E+00  0.00000000E+00
  0.00000000E+00  0.00000000E+00  0.00000000E+00
  0.00000000E+00  0.00000000E+00  0.00000000E+00
  0.00000000E+00  0.00000000E+00  0.00000000E+00
  0.00000000E+00  0.00000000E+00  0.00000000E+00
  0.00000000E+00  0.00000000E+00  0.00000000E+00
  0.00000000E+00  0.00000000E+00  0.00000000E+00
  0.00000000E+00  0.00000000E+00  0.00000000E+00
  0.00000000E+00  0.00000000E+00  0.00000000E+00
  0.00000000E+00  0.00000000E+00  0.00000000E+00
  0.00000000E+00  0.00000000E+00  0.00000000E+00
  0.00000000E+00  0.00000000E+00  0.00000000E+00
  0.00000000E+00  0.00000000E+00  0.00000000E+00
  0.00000000E+00  0.00000000E+00  0.00000000E+00
  0.00000000E+00  0.00000000E+00  0.00000000E+00
  0.00000000E+00  0.00000000E+00  0.00000000E+00
  0.00000000E+00  0.00000000E+00  0.00000000E+00
  0.00000000E+00  0.00000000E+00  0.00000000E+00
  0.00000000E+00  0.00000000E+00  0.00000000E+00
  0.00000000E+00  0.00000000E+00  0.00000000E+00
  0.00000000E+00  0.00000000E+00  0.00000000E+00
  0.00000000E+00  0.00000000E+00  0.00000000E+00
  0.00000000E+00  0.00000000E+00  0.00000000E+00
  0.00000000E+00  0.00000000E+00  0.00000000E+00
