Li71 P24 N1 O94                         
   1.00000000000000     
    14.7262528824089802    0.0107700402129424    0.0163700108191326
     0.0077161947530565   10.5716146625237091   -0.0011733364265698
     0.0136999807293447   -0.0014074976350698   12.2875695454684628
   Li   P    N    O 
    71    24     1    94
Direct
  0.1683099480282668  0.4235138385887829  0.0037889995469754
  0.1709975186545087  0.4225324059930137  0.4984081739036887
  0.1591339434614968  0.8973562945391984  0.0053633859128392
  0.1700852366625998  0.9231390228011517  0.4982983177221754
  0.5033917455631920  0.4235581733932640  0.0005525525066503
  0.5040860790174169  0.4230859404536721  0.5000851489754220
  0.5085494687147786  0.9191900295519483  0.0005255734004494
  0.5025553603722185  0.9226015108345231  0.4994968456966816
  0.8365787338893704  0.4238323011395755  0.0002017827019583
  0.8361426367154369  0.4222167402397258  0.4993643559285242
  0.8347510007299795  0.9202693859882399 -0.0009678341081911
  0.8370185874109189  0.9222685072876675  0.4994433072217715
  0.0097940803729719  0.0806016645293146  0.2467743166260383
  0.0007200954170269  0.0767632216073491  0.7496848178838150
  0.0000774144579867  0.5812946222420986  0.2470845167089514
  0.0025686350871418  0.5767702600775767  0.7494155920663966
  0.3328922976171418  0.0781772108165741  0.2513466226281585
  0.3357988900544742  0.0766217906015068  0.7468573523896269
  0.3394142187939072  0.5790489455387391  0.2521963534381044
  0.3368720884140207  0.5776096165492282  0.7497112630869227
  0.6711910526164467  0.0774002752765643  0.2502901206814775
  0.6698641661077992  0.0768393095175924  0.7488098636325460
  0.6701034538574887  0.5780143158852287  0.2502796197290452
  0.6698759712285637  0.5772752796322782  0.7497771537112413
  0.1690790166630474  0.1635014207848067  0.6243746783161795
  0.1703226570521377  0.6602802916067608  0.1313394057964463
  0.1694435270872138  0.6636255273883553  0.6265294735448425
  0.5073707961322466  0.1645465653850657  0.1288474585946403
  0.5024669521414892  0.1633502262526877  0.6256207038017674
  0.5036061394071304  0.6633009642491456  0.1266589032728205
  0.5030099924979502  0.6634206346488412  0.6266098448237278
  0.8392265216682460  0.1619032814372075  0.1245666326088210
  0.8360600659002849  0.1631177037852897  0.6253049140537531
  0.8352546750705392  0.6637639115737748  0.1263163917810263
  0.8361049990337266  0.6626254970782719  0.6260482311133241
  0.0002816546349348  0.3329099829021590  0.1236025532014091
  0.0031018133491659  0.3360511126612195  0.6228351962139158
  0.0012043780334640  0.8386156789063540  0.1256490603920060
  0.0029456605089683  0.8353873569204557  0.6236027566934255
  0.3345529186913029  0.3390802879114316  0.1245086942563755
  0.3365731333773506  0.3368377220816227  0.6231956966929706
  0.3357527059471586  0.8345351273129501  0.1267068141355456
  0.3366436445577885  0.8367382555939631  0.6236167127242178
  0.6709387249213998  0.3368731846859724  0.1232094683460662
  0.6696285839385187  0.3365070348282491  0.6235721833151621
  0.6701322846236231  0.8367030500714099  0.1246013081577454
  0.6693545627831138  0.8363314985083271  0.6229713137150709
 -0.0006250931688096  0.3306280854145034  0.3750404522260468
  0.0014753877891793  0.3371770448921639  0.8775577942000212
  0.0036731720169893  0.8372942006716351  0.3759887243569272
  0.0001343291278824  0.8365617503271590  0.8760229923356845
  0.3393556302373871  0.3377801347489425  0.3772890411571522
  0.3355358263594973  0.3407546706415723  0.8764407547076872
  0.3353460859601657  0.8364571199999103  0.3763380980386899
  0.3357639343303156  0.8344338798357659  0.8750774450579151
  0.6698900207349939  0.3364849184913316  0.3766569392036658
  0.6697345542156077  0.3373011994039151  0.8763468681391993
  0.6698532214674162  0.8369413453678610  0.3766253795512900
  0.6696844963078464  0.8359398376517817  0.8752201399089806
  0.1704623836284622  0.1665157242673989  0.3664344434678800
  0.1615387995480560  0.1712732477619646  0.8646316833311749
  0.1696552464526746  0.6628058517703110  0.3756559892157708
  0.1691358926531670  0.6618492476885605  0.8736339792935915
  0.5033694936757979  0.1631643473505804  0.3738574488079545
  0.5071305021382754  0.1643705409418779  0.8718102031948978
  0.5037603624693027  0.6637419879623631  0.3743362169780414
  0.5027889291863514  0.6629391792741381  0.8733667502042806
  0.8367185904204910  0.1623142305632316  0.3728802470099312
  0.8342828254664405  0.1627963420205688  0.8716204384108569
  0.8362782539263491  0.6634282659299210  0.3739365941286918
  0.8358214560946261  0.6628460490889347  0.8730608366756074
  0.1726215462627882  0.4176174593198522  0.2516849100474159
  0.1669749239590852  0.4123716937962496  0.7500280614664355
  0.1684291043383602  0.9113936936694959  0.2515263069364343
  0.1663771956797914  0.9130272969550869  0.7525547350179540
  0.5016078687066275  0.4124508870829479  0.2499638736992467
  0.5004421693196720  0.4121120611484533  0.7499858565555086
  0.5009538471777765  0.9125159398630226  0.2502464157801213
  0.5002656268539001  0.9122830578401097  0.7499591011061278
  0.8320054462067892  0.4125763218163613  0.2496546897197597
  0.8335841984864345  0.4118037213725555  0.7497165530089612
  0.8339650148054464  0.9124080049345250  0.2500988210776808
  0.8329723233883546  0.9114128074224861  0.7488305418784886
 -0.0027802856367712  0.0871352037977045 -0.0002304305073155
  0.0009309027878929  0.0866870012453344  0.5004007810164292
  0.0001145862437157  0.5893207375061239 -0.0003866090061148
  0.0002723387197439  0.5867438417751966  0.4991477336712781
  0.3392240258597909  0.0872740161997565  0.0004705625018877
  0.3336167539595038  0.0880479757496753  0.4996724205047705
  0.3340045403937601  0.5887540946523550  0.0000442478902168
  0.3350206050679549  0.5885031869321797  0.5014837991725011
  0.6663823159779398  0.0874119450308405 -0.0004579432752170
  0.6671921562161377  0.0874851364590792  0.4999987365397049
  0.6669792162137386  0.5882203987185471 -0.0004393636133393
  0.6672941369858525  0.5879605448189122  0.5003856733150842
  0.0624699737915433  0.4133172251311880  0.2511942995074329
  0.0367083467683971  0.1555281207410802  0.3969206598272790
  0.0348547341878286  0.1559814241277226  0.8956878892431830
  0.0350451582089951  0.6571066927825884  0.3956847150105376
  0.0354154047509661  0.6573538808937813  0.8946331521614497
  0.3702942671721007  0.1571635767311788  0.3964307354835475
  0.3675017751538133  0.1576904911113138  0.8943345919366315
  0.3710870314199953  0.6581245019805522  0.3981223969083013
  0.3690938449826721  0.6572634446668445  0.8952399379341706
  0.7024795022390721  0.1565880280645172  0.3959863137200262
  0.7005250572794938  0.1564297786323032  0.8948699457683149
  0.7025356096594264  0.6573970528693797  0.3964971845574681
  0.7022049589176353  0.6571039623091761  0.8952804433969438
  0.2045929004196821  0.0474810968622755  0.2541640782476422
  0.2001194005796448  0.0533982405400902  0.7540171282173542
  0.2082469013438439  0.5577001935665848  0.2560280922130782
  0.2008092697388428  0.5519671353179423  0.7504076403326466
  0.5352207944125235  0.0521358415783607  0.2500994751174370
  0.5338689492422894  0.0522040116991104  0.7499229809323807
  0.5349687058397723  0.5524712142320088  0.2502139378042777
  0.5342295505336899  0.5518135074425969  0.7499917317403669
  0.8676477862813284  0.0518517345374981  0.2497112137247251
  0.8663884985518076  0.0513145785842971  0.7484725749191617
  0.8648789502751946  0.5528044187142264  0.2498337941361937
  0.8673656582818824  0.5515963773349257  0.7498029839982329
  0.0612829129294822  0.4087184733813071  0.7502858142696777
  0.0624606785115095  0.9087784726481729  0.2501215992174067
  0.0608700072249203  0.9095160525269604  0.7511013683097233
  0.3960560913383411  0.4096562311282210  0.2495821276374826
  0.3946678021440551  0.4093395600211117  0.7501210284628896
  0.3952758157294169  0.9102332098219679  0.2500233576185873
  0.3944218915204910  0.9099454463286287  0.7506271599996154
  0.7261286361478617  0.4099713226215224  0.2501818294493775
  0.7278027160667119  0.4092358101426049  0.7496947034101599
  0.7280523342397195  0.9094263105361624  0.2504687070049692
  0.7272107797201089  0.9088754931259843  0.7490021271666353
  0.2280051610137020  0.0914433561940000  0.4994020860309313
  0.2283016965309931  0.5930402190493574  0.0004003806735447
  0.2293356377379538  0.5908997642578667  0.5020952819563193
  0.5602294635735379  0.0905809435194715  0.0001410925480387
  0.5613846187988898  0.0900684076718967  0.5001773375870526
  0.5612004213566276  0.5910900664269203 -0.0003880332885893
  0.5615494444891316  0.5908851755415786  0.5005473468774145
  0.8912839155946861  0.0852743097737445 -0.0064222411570407
  0.8950731675084378  0.0899670652554045  0.4999390167966239
  0.8942885647856135  0.5924035380020337 -0.0001808399580322
  0.8944695119894299  0.5894035754168339  0.5001337917857444
  0.2051997130005815  0.3558686080427143  0.1443608039577091
  0.2026541613402565  0.3427025476351688  0.6464124702477958
  0.2031834587095895  0.8415834386059383  0.1461202400863319
  0.2032005766122706  0.8442622224829256  0.6492499645312140
  0.5371507079601032  0.3434507173528148  0.1456729276541582
  0.5358682802470921  0.3425339465548395  0.6461522704133071
  0.5363781348164726  0.8430162745592038  0.1461130464315227
  0.5353645466297977  0.8432568230611340  0.6458225704474260
  0.8663259118884575  0.3438318159424275  0.1449503870593740
  0.8691055869151072  0.3425328614067452  0.6457234201297360
  0.8684136026445908  0.8427026037665883  0.1456587707684993
  0.8688216947133225  0.8420619995232314  0.6450801544003399
  0.0254127743438788  0.1573462560517178  0.1035479106239157
  0.0355418110988832  0.1557991605429886  0.6050499197607768
  0.0358759835527833  0.6604805332371233  0.1021791372966477
  0.0357972104454831  0.6551588954249665  0.6037082034443257
  0.3703889286810538  0.1581008861747606  0.1041661373238568
  0.3686384042286203  0.1566845116713031  0.6043722488000407
  0.3704456063846045  0.6576475672830964  0.1034315475881161
  0.3697060156645742  0.6575957420580535  0.6059587436512311
  0.7020432053852201  0.1562002088213372  0.1031940000859009
  0.7021943790805708  0.1568611613018983  0.6040364697013836
  0.7019584155780840  0.6574886628780214  0.1035037586223865
  0.7023841598806908  0.6568664412644483  0.6045875919246664
  0.0332163690176573  0.4491597938845029  0.0001713402899155
  0.0342900718208923  0.4467085416178290  0.4982008882156488
  0.0333219250672263  0.9474623698613518 -0.0004115889256379
  0.0345233213718857  0.9466430563771927  0.5012546432243681
  0.3677801764627199  0.4487615370565908 -0.0003924692517346
  0.3694314161997785  0.4488488055014228  0.5014139275405214
  0.3684959892192049  0.9460644697192524 -0.0000037094820967
  0.3672144838957334  0.9478845321647220  0.5001091059186690
  0.7008422052462187  0.4483931771504577  0.9994175588507385
  0.7008673420636726  0.4479738885319623  0.5003248202776970
  0.6989476301425684  0.9469707108427508  0.9992087934715665
  0.7011550702406050  0.9476802929893179  0.5001782951083328
  0.2088975413784251  0.3464075266615337  0.3550044333881211
  0.2021362614159931  0.3431134007520266  0.8545779275443680
  0.2019236465696452  0.8381564612303639  0.3549724819041548
  0.2013903781632646  0.8452503919588531  0.8578795701183632
  0.5364421953140248  0.3429729359065453  0.3540349740223913
  0.5354933840836100  0.3431165822339799  0.8543166948738620
  0.5361661598777602  0.8433250233513111  0.3541531071238784
  0.5356074278700372  0.8429321028030542  0.8538635511281075
  0.8666711830064604  0.3427311010975067  0.3536366664356572
  0.8683935825529973  0.3426980800636267  0.8539936659239903
  0.8693146439997276  0.8428032501126376  0.3538814635799963
  0.8678261359551618  0.8420165388121144  0.8528696928826307
 
  0.00000000E+00  0.00000000E+00  0.00000000E+00
  0.00000000E+00  0.00000000E+00  0.00000000E+00
  0.00000000E+00  0.00000000E+00  0.00000000E+00
  0.00000000E+00  0.00000000E+00  0.00000000E+00
  0.00000000E+00  0.00000000E+00  0.00000000E+00
  0.00000000E+00  0.00000000E+00  0.00000000E+00
  0.00000000E+00  0.00000000E+00  0.00000000E+00
  0.00000000E+00  0.00000000E+00  0.00000000E+00
  0.00000000E+00  0.00000000E+00  0.00000000E+00
  0.00000000E+00  0.00000000E+00  0.00000000E+00
  0.00000000E+00  0.00000000E+00  0.00000000E+00
  0.00000000E+00  0.00000000E+00  0.00000000E+00
  0.00000000E+00  0.00000000E+00  0.00000000E+00
  0.00000000E+00  0.00000000E+00  0.00000000E+00
  0.00000000E+00  0.00000000E+00  0.00000000E+00
  0.00000000E+00  0.00000000E+00  0.00000000E+00
  0.00000000E+00  0.00000000E+00  0.00000000E+00
  0.00000000E+00  0.00000000E+00  0.00000000E+00
  0.00000000E+00  0.00000000E+00  0.00000000E+00
  0.00000000E+00  0.00000000E+00  0.00000000E+00
  0.00000000E+00  0.00000000E+00  0.00000000E+00
  0.00000000E+00  0.00000000E+00  0.00000000E+00
  0.00000000E+00  0.00000000E+00  0.00000000E+00
  0.00000000E+00  0.00000000E+00  0.00000000E+00
  0.00000000E+00  0.00000000E+00  0.00000000E+00
  0.00000000E+00  0.00000000E+00  0.00000000E+00
  0.00000000E+00  0.00000000E+00  0.00000000E+00
  0.00000000E+00  0.00000000E+00  0.00000000E+00
  0.00000000E+00  0.00000000E+00  0.00000000E+00
  0.00000000E+00  0.00000000E+00  0.00000000E+00
  0.00000000E+00  0.00000000E+00  0.00000000E+00
  0.00000000E+00  0.00000000E+00  0.00000000E+00
  0.00000000E+00  0.00000000E+00  0.00000000E+00
  0.00000000E+00  0.00000000E+00  0.00000000E+00
  0.00000000E+00  0.00000000E+00  0.00000000E+00
  0.00000000E+00  0.00000000E+00  0.00000000E+00
  0.00000000E+00  0.00000000E+00  0.00000000E+00
  0.00000000E+00  0.00000000E+00  0.00000000E+00
  0.00000000E+00  0.00000000E+00  0.00000000E+00
  0.00000000E+00  0.00000000E+00  0.00000000E+00
  0.00000000E+00  0.00000000E+00  0.00000000E+00
  0.00000000E+00  0.00000000E+00  0.00000000E+00
  0.00000000E+00  0.00000000E+00  0.00000000E+00
  0.00000000E+00  0.00000000E+00  0.00000000E+00
  0.00000000E+00  0.00000000E+00  0.00000000E+00
  0.00000000E+00  0.00000000E+00  0.00000000E+00
  0.00000000E+00  0.00000000E+00  0.00000000E+00
  0.00000000E+00  0.00000000E+00  0.00000000E+00
  0.00000000E+00  0.00000000E+00  0.00000000E+00
  0.00000000E+00  0.00000000E+00  0.00000000E+00
  0.00000000E+00  0.00000000E+00  0.00000000E+00
  0.00000000E+00  0.00000000E+00  0.00000000E+00
  0.00000000E+00  0.00000000E+00  0.00000000E+00
  0.00000000E+00  0.00000000E+00  0.00000000E+00
  0.00000000E+00  0.00000000E+00  0.00000000E+00
  0.00000000E+00  0.00000000E+00  0.00000000E+00
  0.00000000E+00  0.00000000E+00  0.00000000E+00
  0.00000000E+00  0.00000000E+00  0.00000000E+00
  0.00000000E+00  0.00000000E+00  0.00000000E+00
  0.00000000E+00  0.00000000E+00  0.00000000E+00
  0.00000000E+00  0.00000000E+00  0.00000000E+00
  0.00000000E+00  0.00000000E+00  0.00000000E+00
  0.00000000E+00  0.00000000E+00  0.00000000E+00
  0.00000000E+00  0.00000000E+00  0.00000000E+00
  0.00000000E+00  0.00000000E+00  0.00000000E+00
  0.00000000E+00  0.00000000E+00  0.00000000E+00
  0.00000000E+00  0.00000000E+00  0.00000000E+00
  0.00000000E+00  0.00000000E+00  0.00000000E+00
  0.00000000E+00  0.00000000E+00  0.00000000E+00
  0.00000000E+00  0.00000000E+00  0.00000000E+00
  0.00000000E+00  0.00000000E+00  0.00000000E+00
  0.00000000E+00  0.00000000E+00  0.00000000E+00
  0.00000000E+00  0.00000000E+00  0.00000000E+00
  0.00000000E+00  0.00000000E+00  0.00000000E+00
  0.00000000E+00  0.00000000E+00  0.00000000E+00
  0.00000000E+00  0.00000000E+00  0.00000000E+00
  0.00000000E+00  0.00000000E+00  0.00000000E+00
  0.00000000E+00  0.00000000E+00  0.00000000E+00
  0.00000000E+00  0.00000000E+00  0.00000000E+00
  0.00000000E+00  0.00000000E+00  0.00000000E+00
  0.00000000E+00  0.00000000E+00  0.00000000E+00
  0.00000000E+00  0.00000000E+00  0.00000000E+00
  0.00000000E+00  0.00000000E+00  0.00000000E+00
  0.00000000E+00  0.00000000E+00  0.00000000E+00
  0.00000000E+00  0.00000000E+00  0.00000000E+00
  0.00000000E+00  0.00000000E+00  0.00000000E+00
  0.00000000E+00  0.00000000E+00  0.00000000E+00
  0.00000000E+00  0.00000000E+00  0.00000000E+00
  0.00000000E+00  0.00000000E+00  0.00000000E+00
  0.00000000E+00  0.00000000E+00  0.00000000E+00
  0.00000000E+00  0.00000000E+00  0.00000000E+00
  0.00000000E+00  0.00000000E+00  0.00000000E+00
  0.00000000E+00  0.00000000E+00  0.00000000E+00
  0.00000000E+00  0.00000000E+00  0.00000000E+00
  0.00000000E+00  0.00000000E+00  0.00000000E+00
  0.00000000E+00  0.00000000E+00  0.00000000E+00
  0.00000000E+00  0.00000000E+00  0.00000000E+00
  0.00000000E+00  0.00000000E+00  0.00000000E+00
  0.00000000E+00  0.00000000E+00  0.00000000E+00
  0.00000000E+00  0.00000000E+00  0.00000000E+00
  0.00000000E+00  0.00000000E+00  0.00000000E+00
  0.00000000E+00  0.00000000E+00  0.00000000E+00
  0.00000000E+00  0.00000000E+00  0.00000000E+00
  0.00000000E+00  0.00000000E+00  0.00000000E+00
  0.00000000E+00  0.00000000E+00  0.00000000E+00
  0.00000000E+00  0.00000000E+00  0.00000000E+00
  0.00000000E+00  0.00000000E+00  0.00000000E+00
  0.00000000E+00  0.00000000E+00  0.00000000E+00
  0.00000000E+00  0.00000000E+00  0.00000000E+00
  0.00000000E+00  0.00000000E+00  0.00000000E+00
  0.00000000E+00  0.00000000E+00  0.00000000E+00
  0.00000000E+00  0.00000000E+00  0.00000000E+00
  0.00000000E+00  0.00000000E+00  0.00000000E+00
  0.00000000E+00  0.00000000E+00  0.00000000E+00
  0.00000000E+00  0.00000000E+00  0.00000000E+00
  0.00000000E+00  0.00000000E+00  0.00000000E+00
  0.00000000E+00  0.00000000E+00  0.00000000E+00
  0.00000000E+00  0.00000000E+00  0.00000000E+00
  0.00000000E+00  0.00000000E+00  0.00000000E+00
  0.00000000E+00  0.00000000E+00  0.00000000E+00
  0.00000000E+00  0.00000000E+00  0.00000000E+00
  0.00000000E+00  0.00000000E+00  0.00000000E+00
  0.00000000E+00  0.00000000E+00  0.00000000E+00
  0.00000000E+00  0.00000000E+00  0.00000000E+00
  0.00000000E+00  0.00000000E+00  0.00000000E+00
  0.00000000E+00  0.00000000E+00  0.00000000E+00
  0.00000000E+00  0.00000000E+00  0.00000000E+00
  0.00000000E+00  0.00000000E+00  0.00000000E+00
  0.00000000E+00  0.00000000E+00  0.00000000E+00
  0.00000000E+00  0.00000000E+00  0.00000000E+00
  0.00000000E+00  0.00000000E+00  0.00000000E+00
  0.00000000E+00  0.00000000E+00  0.00000000E+00
  0.00000000E+00  0.00000000E+00  0.00000000E+00
  0.00000000E+00  0.00000000E+00  0.00000000E+00
  0.00000000E+00  0.00000000E+00  0.00000000E+00
  0.00000000E+00  0.00000000E+00  0.00000000E+00
  0.00000000E+00  0.00000000E+00  0.00000000E+00
  0.00000000E+00  0.00000000E+00  0.00000000E+00
  0.00000000E+00  0.00000000E+00  0.00000000E+00
  0.00000000E+00  0.00000000E+00  0.00000000E+00
  0.00000000E+00  0.00000000E+00  0.00000000E+00
  0.00000000E+00  0.00000000E+00  0.00000000E+00
  0.00000000E+00  0.00000000E+00  0.00000000E+00
  0.00000000E+00  0.00000000E+00  0.00000000E+00
  0.00000000E+00  0.00000000E+00  0.00000000E+00
  0.00000000E+00  0.00000000E+00  0.00000000E+00
  0.00000000E+00  0.00000000E+00  0.00000000E+00
  0.00000000E+00  0.00000000E+00  0.00000000E+00
  0.00000000E+00  0.00000000E+00  0.00000000E+00
  0.00000000E+00  0.00000000E+00  0.00000000E+00
  0.00000000E+00  0.00000000E+00  0.00000000E+00
  0.00000000E+00  0.00000000E+00  0.00000000E+00
  0.00000000E+00  0.00000000E+00  0.00000000E+00
  0.00000000E+00  0.00000000E+00  0.00000000E+00
  0.00000000E+00  0.00000000E+00  0.00000000E+00
  0.00000000E+00  0.00000000E+00  0.00000000E+00
  0.00000000E+00  0.00000000E+00  0.00000000E+00
  0.00000000E+00  0.00000000E+00  0.00000000E+00
  0.00000000E+00  0.00000000E+00  0.00000000E+00
  0.00000000E+00  0.00000000E+00  0.00000000E+00
  0.00000000E+00  0.00000000E+00  0.00000000E+00
  0.00000000E+00  0.00000000E+00  0.00000000E+00
  0.00000000E+00  0.00000000E+00  0.00000000E+00
  0.00000000E+00  0.00000000E+00  0.00000000E+00
  0.00000000E+00  0.00000000E+00  0.00000000E+00
  0.00000000E+00  0.00000000E+00  0.00000000E+00
  0.00000000E+00  0.00000000E+00  0.00000000E+00
  0.00000000E+00  0.00000000E+00  0.00000000E+00
  0.00000000E+00  0.00000000E+00  0.00000000E+00
  0.00000000E+00  0.00000000E+00  0.00000000E+00
  0.00000000E+00  0.00000000E+00  0.00000000E+00
  0.00000000E+00  0.00000000E+00  0.00000000E+00
  0.00000000E+00  0.00000000E+00  0.00000000E+00
  0.00000000E+00  0.00000000E+00  0.00000000E+00
  0.00000000E+00  0.00000000E+00  0.00000000E+00
  0.00000000E+00  0.00000000E+00  0.00000000E+00
  0.00000000E+00  0.00000000E+00  0.00000000E+00
  0.00000000E+00  0.00000000E+00  0.00000000E+00
  0.00000000E+00  0.00000000E+00  0.00000000E+00
  0.00000000E+00  0.00000000E+00  0.00000000E+00
  0.00000000E+00  0.00000000E+00  0.00000000E+00
  0.00000000E+00  0.00000000E+00  0.00000000E+00
  0.00000000E+00  0.00000000E+00  0.00000000E+00
  0.00000000E+00  0.00000000E+00  0.00000000E+00
  0.00000000E+00  0.00000000E+00  0.00000000E+00
  0.00000000E+00  0.00000000E+00  0.00000000E+00
  0.00000000E+00  0.00000000E+00  0.00000000E+00
  0.00000000E+00  0.00000000E+00  0.00000000E+00
  0.00000000E+00  0.00000000E+00  0.00000000E+00
  0.00000000E+00  0.00000000E+00  0.00000000E+00
