Li56 P56
1.0
5.593872 0.000000 0.000000
-4.836985 9.037780 -4.970385
0.000000 0.000000 59.644620
Li P
56 56
direct
0.782992 0.670700 0.065204 Li+
0.217008 0.829300 0.036754 Li+
0.217008 0.329300 0.018129 Li+
0.782992 0.170700 0.046579 Li+
0.774232 0.970214 0.067658 Li+
0.225768 0.529786 0.072623 Li+
0.225768 0.029786 0.015675 Li+
0.774232 0.470214 0.010711 Li+
0.782992 0.670700 0.148538 Li+
0.217008 0.829300 0.120088 Li+
0.217008 0.329300 0.101462 Li+
0.782992 0.170700 0.129912 Li+
0.774232 0.970214 0.150992 Li+
0.225768 0.529786 0.155956 Li+
0.225768 0.029786 0.099008 Li+
0.774232 0.470214 0.094044 Li+
0.782992 0.670700 0.231871 Li+
0.217008 0.829300 0.203421 Li+
0.217008 0.329300 0.184796 Li+
0.782992 0.170700 0.213246 Li+
0.774232 0.970214 0.234325 Li+
0.225768 0.529786 0.239289 Li+
0.225768 0.029786 0.182342 Li+
0.774232 0.470214 0.177377 Li+
0.782992 0.670700 0.315204 Li+
0.217008 0.829300 0.286754 Li+
0.217008 0.329300 0.268129 Li+
0.782992 0.170700 0.296579 Li+
0.774232 0.970214 0.317658 Li+
0.225768 0.529786 0.322623 Li+
0.225768 0.029786 0.265675 Li+
0.774232 0.470214 0.260711 Li+
0.782992 0.670700 0.398538 Li+
0.217008 0.829300 0.370088 Li+
0.217008 0.329300 0.351462 Li+
0.782992 0.170700 0.379912 Li+
0.774232 0.970214 0.400992 Li+
0.225768 0.529786 0.405956 Li+
0.225768 0.029786 0.349008 Li+
0.774232 0.470214 0.344044 Li+
0.782992 0.670700 0.481871 Li+
0.217008 0.829300 0.453421 Li+
0.217008 0.329300 0.434796 Li+
0.782992 0.170700 0.463246 Li+
0.774232 0.970214 0.484325 Li+
0.225768 0.529786 0.489289 Li+
0.225768 0.029786 0.432342 Li+
0.774232 0.470214 0.427378 Li+
0.782992 0.670700 0.565204 Li+
0.217008 0.829300 0.536754 Li+
0.217008 0.329300 0.518129 Li+
0.782992 0.170700 0.546579 Li+
0.774232 0.970214 0.567658 Li+
0.225768 0.529786 0.572623 Li+
0.225768 0.029786 0.515675 Li+
0.774232 0.470214 0.510711 Li+
0.683355 0.707084 0.026015 P-
0.316645 0.792916 0.074834 P-
0.316645 0.292916 0.057318 P-
0.683355 0.207084 0.008499 P-
0.696818 0.888258 0.019353 P-
0.303182 0.611742 0.037976 P-
0.303182 0.111742 0.063981 P-
0.696818 0.388258 0.045357 P-
0.683355 0.707084 0.109348 P-
0.316645 0.792916 0.158168 P-
0.316645 0.292916 0.140652 P-
0.683355 0.207084 0.091832 P-
0.696818 0.888258 0.102686 P-
0.303182 0.611742 0.121310 P-
0.303182 0.111742 0.147314 P-
0.696818 0.388258 0.128690 P-
0.683355 0.707084 0.192682 P-
0.316645 0.792916 0.241501 P-
0.316645 0.292916 0.223985 P-
0.683355 0.207084 0.175166 P-
0.696818 0.888258 0.186019 P-
0.303182 0.611742 0.204643 P-
0.303182 0.111742 0.230647 P-
0.696818 0.388258 0.212024 P-
0.683355 0.707084 0.276015 P-
0.316645 0.792916 0.324834 P-
0.316645 0.292916 0.307318 P-
0.683355 0.207084 0.258499 P-
0.696818 0.888258 0.269353 P-
0.303182 0.611742 0.287976 P-
0.303182 0.111742 0.313981 P-
0.696818 0.388258 0.295357 P-
0.683355 0.707084 0.359348 P-
0.316645 0.792916 0.408168 P-
0.316645 0.292916 0.390652 P-
0.683355 0.207084 0.341832 P-
0.696818 0.888258 0.352686 P-
0.303182 0.611742 0.371310 P-
0.303182 0.111742 0.397314 P-
0.696818 0.388258 0.378690 P-
0.683355 0.707084 0.442682 P-
0.316645 0.792916 0.491501 P-
0.316645 0.292916 0.473985 P-
0.683355 0.207084 0.425166 P-
0.696818 0.888258 0.436019 P-
0.303182 0.611742 0.454643 P-
0.303182 0.111742 0.480647 P-
0.696818 0.388258 0.462024 P-
0.683355 0.707084 0.526015 P-
0.316645 0.792916 0.574834 P-
0.316645 0.292916 0.557318 P-
0.683355 0.207084 0.508499 P-
0.696818 0.888258 0.519353 P-
0.303182 0.611742 0.537976 P-
0.303182 0.111742 0.563981 P-
0.696818 0.388258 0.545357 P-
