Li56 P56
1.0
4.970385 0.000000 0.000000
0.000000 9.037780 -10.430857
0.000000 0.000000 72.720336
Li P
56 56
Selective dynamics
direct
0.388247 0.329300 0.029350 T T T Li+
0.888247 0.170700 0.060687 F F F Li+
0.611753 0.670700 0.022225 T T T Li+
0.111753 0.829300 0.067811 T T T Li+
0.658316 0.029786 0.006984 T T T Li+
0.158316 0.470214 0.006130 T T T Li+
0.341684 0.970214 0.044591 T T T Li+
0.841684 0.529786 0.045446 T T T Li+
0.388247 0.329300 0.106273 F F F Li+
0.888247 0.170700 0.137610 F F F Li+
0.611753 0.670700 0.099149 F F F Li+
0.111753 0.829300 0.144734 F F F Li+
0.658316 0.029786 0.083907 F F F Li+
0.158316 0.470214 0.083053 F F F Li+
0.341684 0.970214 0.121514 F F F Li+
0.841684 0.529786 0.122369 F F F Li+
0.388247 0.329300 0.183196 F F F Li+
0.888247 0.170700 0.214533 F F F Li+
0.611753 0.670700 0.176072 F F F Li+
0.111753 0.829300 0.221657 F F F Li+
0.658316 0.029786 0.160830 F F F Li+
0.158316 0.470214 0.159976 F F F Li+
0.341684 0.970214 0.198437 F F F Li+
0.841684 0.529786 0.199292 F F F Li+
0.388247 0.329300 0.260119 F F F Li+
0.888247 0.170700 0.291456 F F F Li+
0.611753 0.670700 0.252995 F F F Li+
0.111753 0.829300 0.298581 F F F Li+
0.658316 0.029786 0.237753 F F F Li+
0.158316 0.470214 0.236899 F F F Li+
0.341684 0.970214 0.275360 F F F Li+
0.841684 0.529786 0.276215 F F F Li+
0.388247 0.329300 0.337042 F F F Li+
0.888247 0.170700 0.368379 F F F Li+
0.611753 0.670700 0.329918 F F F Li+
0.111753 0.829300 0.375504 F F F Li+
0.658316 0.029786 0.314676 F F F Li+
0.158316 0.470214 0.313822 F F F Li+
0.341684 0.970214 0.352283 F F F Li+
0.841684 0.529786 0.353138 F F F Li+
0.388247 0.329300 0.413965 F F F Li+
0.888247 0.170700 0.445302 F F F Li+
0.611753 0.670700 0.406841 F F F Li+
0.111753 0.829300 0.452427 F F F Li+
0.658316 0.029786 0.391599 F F F Li+
0.158316 0.470214 0.390745 F F F Li+
0.341684 0.970214 0.429207 F F F Li+
0.841684 0.529786 0.430061 F F F Li+
0.388247 0.329300 0.490888 T T T Li+
0.888247 0.170700 0.522225 T T T Li+
0.611753 0.670700 0.483764 F F F Li+
0.111753 0.829300 0.529350 T T T Li+
0.658316 0.029786 0.468523 T T T Li+
0.158316 0.470214 0.467668 F F F Li+
0.341684 0.970214 0.506130 F F F Li+
0.841684 0.529786 0.506984 T T T Li+
0.894904 0.292916 0.034215 T T T P-
0.394904 0.207084 0.055821 F F F P-
0.105096 0.707084 0.017360 T T T P-
0.605096 0.792916 0.072677 T T T P-
0.156027 0.111742 0.019243 T T T P-
0.656027 0.388258 0.070793 F F F P-
0.843973 0.888258 0.032332 T T T P-
0.343973 0.611742 0.057705 T T T P-
0.894904 0.292916 0.111138 F F F P-
0.394904 0.207084 0.132744 F F F P-
0.105096 0.707084 0.094283 F F F P-
0.605096 0.792916 0.149600 F F F P-
0.156027 0.111742 0.096166 F F F P-
0.656027 0.388258 0.147717 F F F P-
0.843973 0.888258 0.109255 F F F P-
0.343973 0.611742 0.134628 F F F P-
0.894904 0.292916 0.188062 F F F P-
0.394904 0.207084 0.209668 F F F P-
0.105096 0.707084 0.171206 F F F P-
0.605096 0.792916 0.226523 F F F P-
0.156027 0.111742 0.173089 F F F P-
0.656027 0.388258 0.224640 F F F P-
0.843973 0.888258 0.186178 F F F P-
0.343973 0.611742 0.211551 F F F P-
0.894904 0.292916 0.264985 F F F P-
0.394904 0.207084 0.286591 F F F P-
0.105096 0.707084 0.248129 F F F P-
0.605096 0.792916 0.303446 F F F P-
0.156027 0.111742 0.250013 F F F P-
0.656027 0.388258 0.301563 F F F P-
0.843973 0.888258 0.263101 F F F P-
0.343973 0.611742 0.288474 F F F P-
0.894904 0.292916 0.341908 F F F P-
0.394904 0.207084 0.363514 F F F P-
0.105096 0.707084 0.325052 F F F P-
0.605096 0.792916 0.380369 F F F P-
0.156027 0.111742 0.326936 F F F P-
0.656027 0.388258 0.378486 F F F P-
0.843973 0.888258 0.340024 F F F P-
0.343973 0.611742 0.365397 F F F P-
0.894904 0.292916 0.418831 F F F P-
0.394904 0.207084 0.440437 F F F P-
0.105096 0.707084 0.401975 F F F P-
0.605096 0.792916 0.457292 F F F P-
0.156027 0.111742 0.403859 F F F P-
0.656027 0.388258 0.455409 F F F P-
0.843973 0.888258 0.416947 F F F P-
0.343973 0.611742 0.442320 F F F P-
0.894904 0.292916 0.495754 T T T P-
0.394904 0.207084 0.517360 T T T P-
0.105096 0.707084 0.478898 F F F P-
0.605096 0.792916 0.534215 T T T P-
0.156027 0.111742 0.480782 T T T P-
0.656027 0.388258 0.532332 T T T P-
0.843973 0.888258 0.493870 F F F P-
0.343973 0.611742 0.519243 T T T P-
