Li84 P196
1.0
9.847875 0.000000 0.000000
0.000000 10.597250 0.000000
0.000000 0.000000 76.286820
Li P
84 196
Selective dynamics
direct
0.307848 0.816050 0.060053 F F F Li
0.192152 0.183950 0.010053 F F F Li
0.807848 0.683950 0.089947 F F F Li
0.692152 0.316050 0.039947 F F F Li
0.025950 0.014795 0.031895 T T T Li
0.474050 0.985205 0.081895 F F F Li
0.525950 0.485205 0.018105 T T T Li
0.974050 0.514795 0.068105 F F F Li
0.301371 0.692124 0.015224 T T T Li
0.198629 0.307876 0.065224 F F F Li
0.801371 0.807876 0.034776 F F F Li
0.698629 0.192124 0.084776 F F F Li
0.307848 0.816050 0.160053 F F F Li
0.192152 0.183950 0.110053 F F F Li
0.807848 0.683950 0.189947 F F F Li
0.692152 0.316050 0.139947 F F F Li
0.025950 0.014795 0.131895 F F F Li
0.474050 0.985205 0.181895 F F F Li
0.525950 0.485205 0.118105 F F F Li
0.974050 0.514795 0.168105 F F F Li
0.301371 0.692124 0.115224 F F F Li
0.198629 0.307876 0.165224 F F F Li
0.801371 0.807876 0.134776 F F F Li
0.698629 0.192124 0.184776 F F F Li
0.307848 0.816050 0.260053 F F F Li
0.192152 0.183950 0.210053 F F F Li
0.807848 0.683950 0.289947 F F F Li
0.692152 0.316050 0.239947 F F F Li
0.025950 0.014795 0.231895 F F F Li
0.474050 0.985205 0.281895 F F F Li
0.525950 0.485205 0.218105 F F F Li
0.974050 0.514795 0.268105 F F F Li
0.301371 0.692124 0.215224 F F F Li
0.198629 0.307876 0.265224 F F F Li
0.801371 0.807876 0.234776 F F F Li
0.698629 0.192124 0.284776 F F F Li
0.307848 0.816050 0.360053 F F F Li
0.192152 0.183950 0.310053 F F F Li
0.807848 0.683950 0.389947 F F F Li
0.692152 0.316050 0.339947 F F F Li
0.025950 0.014795 0.331895 F F F Li
0.474050 0.985205 0.381895 F F F Li
0.525950 0.485205 0.318105 F F F Li
0.974050 0.514795 0.368105 F F F Li
0.301371 0.692124 0.315224 F F F Li
0.198629 0.307876 0.365224 F F F Li
0.801371 0.807876 0.334776 F F F Li
0.698629 0.192124 0.384776 F F F Li
0.307848 0.816050 0.460053 F F F Li
0.192152 0.183950 0.410053 F F F Li
0.807848 0.683950 0.489947 F F F Li
0.692152 0.316050 0.439947 F F F Li
0.025950 0.014795 0.431895 F F F Li
0.474050 0.985205 0.481895 F F F Li
0.525950 0.485205 0.418105 F F F Li
0.974050 0.514795 0.468105 F F F Li
0.301371 0.692124 0.415224 F F F Li
0.198629 0.307876 0.465224 F F F Li
0.801371 0.807876 0.434776 F F F Li
0.698629 0.192124 0.484776 F F F Li
0.307848 0.816050 0.560053 F F F Li
0.192152 0.183950 0.510053 F F F Li
0.807848 0.683950 0.589947 F F F Li
0.692152 0.316050 0.539947 F F F Li
0.025950 0.014795 0.531895 F F F Li
0.474050 0.985205 0.581895 F F F Li
0.525950 0.485205 0.518105 F F F Li
0.974050 0.514795 0.568105 F F F Li
0.301371 0.692124 0.515224 F F F Li
0.198629 0.307876 0.565224 F F F Li
0.801371 0.807876 0.534776 F F F Li
0.698629 0.192124 0.584776 F F F Li
0.307848 0.816050 0.660053 F F F Li
0.192152 0.183950 0.610053 F F F Li
0.807848 0.683950 0.689947 F F F Li
0.692152 0.316050 0.639947 F F F Li
0.025950 0.014795 0.631895 F F F Li
0.474050 0.985205 0.681895 T T T Li
0.525950 0.485205 0.618105 F F F Li
0.974050 0.514795 0.668105 T T T Li
0.301371 0.692124 0.615224 F F F Li
0.198629 0.307876 0.665224 F F F Li
0.801371 0.807876 0.634776 F F F Li
0.698629 0.192124 0.684776 T T T Li
0.875491 0.318848 0.003077 T T T P
0.624509 0.681152 0.053077 F F F P
0.375491 0.181152 0.046923 F F F P
0.124509 0.818848 0.096923 F F F P
0.048522 0.387402 0.038765 F F F P
0.451478 0.612598 0.088765 F F F P
0.548522 0.112598 0.011235 T T T P
0.951478 0.887402 0.061235 F F F P
0.943528 0.565132 0.028380 T T T P
0.556472 0.434868 0.078380 F F F P
0.443528 0.934868 0.021620 F F F P
0.056472 0.065132 0.071620 F F F P
0.134841 0.494288 0.015605 T T T P
0.365159 0.505712 0.065605 F F F P
0.634841 0.005712 0.034395 F F F P
0.865159 0.994288 0.084395 F F F P
0.927027 0.881290 0.006627 F F F P
0.572973 0.118710 0.056627 F F F P
0.427027 0.618710 0.043374 F F F P
0.072973 0.381290 0.093373 F F F P
0.218031 0.994617 0.087872 F F F P
0.281969 0.005383 0.037872 F F F P
0.718031 0.505383 0.062128 F F F P
0.781969 0.494617 0.012128 T T T P
0.070503 0.734192 0.071649 F F F P
0.429497 0.265808 0.021649 T T T P
0.570503 0.765808 0.078351 F F F P
0.929497 0.234192 0.028351 F F F P
0.875491 0.318848 0.103077 F F F P
0.624509 0.681152 0.153077 F F F P
0.375491 0.181152 0.146923 F F F P
0.124509 0.818848 0.196923 F F F P
0.048522 0.387402 0.138765 F F F P
0.451478 0.612598 0.188765 F F F P
0.548522 0.112598 0.111235 F F F P
0.951478 0.887402 0.161235 F F F P
0.943528 0.565132 0.128380 F F F P
0.556472 0.434868 0.178380 F F F P
0.443528 0.934868 0.121620 F F F P
0.056472 0.065132 0.171620 F F F P
0.134841 0.494288 0.115605 F F F P
0.365159 0.505712 0.165605 F F F P
0.634841 0.005712 0.134395 F F F P
0.865159 0.994288 0.184395 F F F P
0.927027 0.881290 0.106627 F F F P
0.572973 0.118710 0.156627 F F F P
0.427027 0.618710 0.143374 F F F P
0.072973 0.381290 0.193374 F F F P
0.218031 0.994617 0.187872 F F F P
0.281969 0.005383 0.137873 F F F P
0.718031 0.505383 0.162128 F F F P
0.781969 0.494617 0.112128 F F F P
0.070503 0.734192 0.171649 F F F P
0.429497 0.265808 0.121649 F F F P
0.570503 0.765808 0.178351 F F F P
0.929497 0.234192 0.128351 F F F P
0.875491 0.318848 0.203077 F F F P
0.624509 0.681152 0.253077 F F F P
0.375491 0.181152 0.246923 F F F P
0.124509 0.818848 0.296923 F F F P
0.048522 0.387402 0.238765 F F F P
0.451478 0.612598 0.288765 F F F P
0.548522 0.112598 0.211235 F F F P
0.951478 0.887402 0.261235 F F F P
0.943528 0.565132 0.228380 F F F P
0.556472 0.434868 0.278380 F F F P
0.443528 0.934868 0.221620 F F F P
0.056472 0.065132 0.271620 F F F P
0.134841 0.494288 0.215605 F F F P
0.365159 0.505712 0.265605 F F F P
0.634841 0.005712 0.234395 F F F P
0.865159 0.994288 0.284395 F F F P
0.927027 0.881290 0.206627 F F F P
0.572973 0.118710 0.256627 F F F P
0.427027 0.618710 0.243374 F F F P
0.072973 0.381290 0.293374 F F F P
0.218031 0.994617 0.287872 F F F P
0.281969 0.005383 0.237872 F F F P
0.718031 0.505383 0.262128 F F F P
0.781969 0.494617 0.212128 F F F P
0.070503 0.734192 0.271649 F F F P
0.429497 0.265808 0.221649 F F F P
0.570503 0.765808 0.278351 F F F P
0.929497 0.234192 0.228351 F F F P
0.875491 0.318848 0.303077 F F F P
0.624509 0.681152 0.353077 F F F P
0.375491 0.181152 0.346923 F F F P
0.124509 0.818848 0.396923 F F F P
0.048522 0.387402 0.338765 F F F P
0.451478 0.612598 0.388765 F F F P
0.548522 0.112598 0.311235 F F F P
0.951478 0.887402 0.361235 F F F P
0.943528 0.565132 0.328380 F F F P
0.556472 0.434868 0.378380 F F F P
0.443528 0.934868 0.321620 F F F P
0.056472 0.065132 0.371620 F F F P
0.134841 0.494288 0.315605 F F F P
0.365159 0.505712 0.365605 F F F P
0.634841 0.005712 0.334395 F F F P
0.865159 0.994288 0.384395 F F F P
0.927027 0.881290 0.306626 F F F P
0.572973 0.118710 0.356627 F F F P
0.427027 0.618710 0.343373 F F F P
0.072973 0.381290 0.393373 F F F P
0.218031 0.994617 0.387872 F F F P
0.281969 0.005383 0.337872 F F F P
0.718031 0.505383 0.362127 F F F P
0.781969 0.494617 0.312128 F F F P
0.070503 0.734192 0.371649 F F F P
0.429497 0.265808 0.321649 F F F P
0.570503 0.765808 0.378351 F F F P
0.929497 0.234192 0.328351 F F F P
0.875491 0.318848 0.403077 F F F P
0.624509 0.681152 0.453077 F F F P
0.375491 0.181152 0.446923 F F F P
0.124509 0.818848 0.496923 F F F P
0.048522 0.387402 0.438765 F F F P
0.451478 0.612598 0.488765 F F F P
0.548522 0.112598 0.411235 F F F P
0.951478 0.887402 0.461235 F F F P
0.943528 0.565132 0.428380 F F F P
0.556472 0.434868 0.478380 F F F P
0.443528 0.934868 0.421620 F F F P
0.056472 0.065132 0.471620 F F F P
0.134841 0.494288 0.415605 F F F P
0.365159 0.505712 0.465605 F F F P
0.634841 0.005712 0.434395 F F F P
0.865159 0.994288 0.484395 F F F P
0.927027 0.881290 0.406627 F F F P
0.572973 0.118710 0.456627 F F F P
0.427027 0.618710 0.443374 F F F P
0.072973 0.381290 0.493374 F F F P
0.218031 0.994617 0.487873 F F F P
0.281969 0.005383 0.437872 F F F P
0.718031 0.505383 0.462128 F F F P
0.781969 0.494617 0.412128 F F F P
0.070503 0.734192 0.471649 F F F P
0.429497 0.265808 0.421649 F F F P
0.570503 0.765808 0.478351 F F F P
0.929497 0.234192 0.428351 F F F P
0.875491 0.318848 0.503077 F F F P
0.624509 0.681152 0.553077 F F F P
0.375491 0.181152 0.546923 F F F P
0.124509 0.818848 0.596923 F F F P
0.048522 0.387402 0.538765 F F F P
0.451478 0.612598 0.588765 F F F P
0.548522 0.112598 0.511235 F F F P
0.951478 0.887402 0.561235 F F F P
0.943528 0.565132 0.528380 F F F P
0.556472 0.434868 0.578380 F F F P
0.443528 0.934868 0.521620 F F F P
0.056472 0.065132 0.571620 F F F P
0.134841 0.494288 0.515605 F F F P
0.365159 0.505712 0.565605 F F F P
0.634841 0.005712 0.534395 F F F P
0.865159 0.994288 0.584395 F F F P
0.927027 0.881290 0.506626 F F F P
0.572973 0.118710 0.556627 F F F P
0.427027 0.618710 0.543373 F F F P
0.072973 0.381290 0.593373 F F F P
0.218031 0.994617 0.587873 F F F P
0.281969 0.005383 0.537872 F F F P
0.718031 0.505383 0.562128 F F F P
0.781969 0.494617 0.512127 F F F P
0.070503 0.734192 0.571649 F F F P
0.429497 0.265808 0.521649 F F F P
0.570503 0.765808 0.578351 F F F P
0.929497 0.234192 0.528351 F F F P
0.875491 0.318848 0.603077 F F F P
0.624509 0.681152 0.653077 F F F P
0.375491 0.181152 0.646923 F F F P
0.124509 0.818848 0.696923 T T T P
0.048522 0.387402 0.638765 F F F P
0.451478 0.612598 0.688765 T T T P
0.548522 0.112598 0.611235 F F F P
0.951478 0.887402 0.661235 F F F P
0.943528 0.565132 0.628380 F F F P
0.556472 0.434868 0.678380 F F F P
0.443528 0.934868 0.621620 F F F P
0.056472 0.065132 0.671620 T T T P
0.134841 0.494288 0.615605 F F F P
0.365159 0.505712 0.665605 F F F P
0.634841 0.005712 0.634395 F F F P
0.865159 0.994288 0.684395 T T T P
0.927027 0.881290 0.606626 F F F P
0.572973 0.118710 0.656627 F F F P
0.427027 0.618710 0.643373 F F F P
0.072973 0.381290 0.693373 F F F P
0.218031 0.994617 0.687872 T T T P
0.281969 0.005383 0.637872 F F F P
0.718031 0.505383 0.662127 F F F P
0.781969 0.494617 0.612127 F F F P
0.070503 0.734192 0.671649 F F F P
0.429497 0.265808 0.621649 F F F P
0.570503 0.765808 0.678351 T T T P
0.929497 0.234192 0.628351 F F F P
