Li61 P7 N32                             
   1.00000000000000     
     0.0050915347559001    9.5087807659155210    0.0081298946000345
     0.0229017635054126    0.0086795798581633    9.6280793573076178
     9.5613154376317127    0.0056770081599683    0.0231777157761231
   Li   P    N 
    61     7    32
Direct
  0.5016242805357570  0.9996165322945036  0.4910446177558235
  0.0077565611965575  0.4848892752057181  0.0083762802774046
  0.5033655716877382  0.0041500411737177  0.9902390866648383
  0.0048111997983739  0.9977633775866416  0.4947702938623780
  0.5170366901479881  0.4848194002224157  0.0034984175675818
  0.0087156650893036  0.4990581541660403  0.5043703539331051
  0.7515301692274424  0.9957087476075405  0.4908802218929935
  0.2536191503158106  0.9961743407028807  0.4953211683313070
  0.7624162496132716  0.5050351535444009  0.4723418585351219
  0.2338651995119528  0.5088324598939672  0.4998974997895747
  0.2675253997331307  0.0045130119003341  0.9932427227954602
  0.7425765405571172  0.0162087026977303  0.9989301410178008
  0.8202361937577467  0.5902184921532451  0.0726652051059713
  0.4869858900070296  0.2466374838817998  0.9657965739606212
  0.5027987289428334  0.7594739770219257  0.0001161212621640
  0.9570030964556330  0.4912126286958419  0.2776059496480506
  0.9849618851592024  0.4975506710970214  0.7335617148667432
  0.2372218696774409  0.1865032344076525  0.2246638835117715
  0.2519418507729826  0.7952639628051662  0.7710662465168971
  0.2719656535885867  0.2800832999281516  0.7280584370691111
  0.2444352494043156  0.6827126589582900  0.2799705883390732
  0.7548263073161561  0.2806263406802663  0.2991943795333418
  0.7690529337827595  0.6924926419073583  0.6864468776484176
  0.7404284428950839  0.1953665706830745  0.8036199068947919
  0.7330338890156887  0.7980661729951859  0.1906102722013766
  0.9852100969987728  0.2461285042573478  0.2432543941507380
  0.9786166579071791  0.7693160944545113  0.7557893477541228
  0.2639040288245534  0.2373255364251461  0.4862562759693446
  0.2704465836852419  0.7553594773957535  0.5225329916409294
  0.7544811203717272  0.2223710879421170  0.5490932284209910
  0.7508772497944881  0.7615529539319805  0.4422703749829470
  0.7029518473164409  0.4922729366709884  0.2199705056818025
  0.8103738036674890  0.4200336373361441  0.9309270516726139
  0.1559657535166281  0.4283560988543370  0.2024808286253482
  0.1036382535640778  0.6262350985975049  0.8558773602752899
  0.5084753121254325  0.7553488853083893  0.2434147332163769
  0.5181902751178225  0.2515902362845804  0.7302777226689002
  0.2441856441231055  0.9474982369894289  0.2580824377492067
  0.2406640650132669  0.0318266298743311  0.7356089604920928
  0.2305046687547098  0.2480411869461027  0.9813742749596522
  0.2641241675078818  0.7672868898614682  0.0304188261766728
  0.7602057540896615  0.9565693985539111  0.7304022335492808
  0.7625609961138582  0.0350273420646488  0.2484235220482970
  0.7559743133824132  0.7862539778249718  0.9459649354265219
  0.7091903105283235  0.2670214019898503  0.0533787854532798
  0.0116985464875703  0.2473587619488903  0.7602609506265694
  0.0022016498733104  0.7552957215044200  0.2447622717606492
  0.4949267181855749  0.2634684618117765  0.2255457674341382
  0.4963924783109022  0.7368411178135600  0.7432861042148843
  0.9706571058771939  0.2421286868836701  0.0172833173120451
  0.0001066476395881  0.7480895901157442  0.0026442662153569
  0.5091263432269335  0.2366365940111376  0.4826358877887275
  0.5084824936625479  0.7615035318186882  0.4942720715357504
  0.4826962140143748  0.5371512509482149  0.2219879487127337
  0.4971244849852076  0.4817131796113293  0.7544839517111819
  0.0036595316652259  0.0005507173632102  0.2555716093216290
  0.0033061981859391  0.0048741308718030  0.7310843760274091
  0.3402755224740023  0.3998769919152354  0.3313029493378908
  0.2632590960673875  0.5246542932981019  0.7255557845405933
  0.7363019778984881  0.4377477039977503  0.7029862271492160
  0.6736143563319932  0.5829138607449441  0.8994360119864623
  0.4999134209917730  0.5013175257723714  0.4932965066172677
  0.0049475783573484  0.9975063018704231  0.9931635028664211
  0.2614688042842909  0.5051079288584770  0.9930116342880750
  0.0089773848196557  0.7491679315845506  0.5018440854643549
  0.0069368309245281  0.2473262108985692  0.4984273237982325
  0.5004657859576646  0.0065005548737257  0.2405027301460700
  0.5011235104023256  0.9970408523078921  0.7410877783004753
  0.6074148293190841  0.5945266437689685  0.5946282919627075
  0.5905660115151292  0.4019517241491096  0.3785593027598347
  0.8986759887240602  0.9008190725400025  0.0988802095994367
  0.9037720232856776  0.0961108324244807  0.8881044688036018
  0.1091762334196181  0.8952734902339020  0.8929804229141127
  0.1053713831960492  0.0997774497468152  0.0963187885915885
  0.3926079994339074  0.6065355322663507  0.4002926089726680
  0.3941530899108783  0.3937359694337527  0.5873188510591080
  0.1102936831939955  0.3455303523891285  0.3883431133961469
  0.1087495586147540  0.6541437151670839  0.6170479188161245
  0.1143522990234652  0.1475270660360115  0.5992355120552534
  0.1174296849571523  0.8467314176546802  0.3985454945938440
  0.8957155989294008  0.1470749548526510  0.4030461314380167
  0.8935174128023380  0.8518326774120403  0.5894057722750619
  0.8680756719799224  0.3824055720102397  0.1333578340173182
  0.8782520385404290  0.6192722141206951  0.8697820267570684
  0.1532119018345576  0.6044847176959419  0.0941217660464634
  0.1602980683454504  0.4124026226777451  0.8780506780951504
  0.4015433016677940  0.9022190903805893  0.1396663140468341
  0.3997328812471216  0.1071815448190960  0.8359009587769265
  0.3907262617250096  0.1038438454887788  0.3436785391517481
  0.3924926445315650  0.8976962431719030  0.6410146986406130
  0.3454458106081622  0.3914320471681859  0.1024193831676835
  0.3578817867670050  0.6139076493369559  0.8933182948070576
  0.6146705867533963  0.0905445808372157  0.6391684212747920
  0.6122168406912243  0.9088250587912614  0.3414128593074363
  0.6288491093286673  0.6416221421537381  0.1059201667916641
  0.6301472920075191  0.3647818864518289  0.8669199388043093
  0.9079456507255937  0.3499903380101199  0.6012999009328898
  0.9149431695816985  0.6453390841500616  0.3987688772494369
  0.5999738842512852  0.1130260620467794  0.1407376077099917
  0.5985300518712763  0.8926705580150220  0.8446671801328437
 
  0.00000000E+00  0.00000000E+00  0.00000000E+00
  0.00000000E+00  0.00000000E+00  0.00000000E+00
  0.00000000E+00  0.00000000E+00  0.00000000E+00
  0.00000000E+00  0.00000000E+00  0.00000000E+00
  0.00000000E+00  0.00000000E+00  0.00000000E+00
  0.00000000E+00  0.00000000E+00  0.00000000E+00
  0.00000000E+00  0.00000000E+00  0.00000000E+00
  0.00000000E+00  0.00000000E+00  0.00000000E+00
  0.00000000E+00  0.00000000E+00  0.00000000E+00
  0.00000000E+00  0.00000000E+00  0.00000000E+00
  0.00000000E+00  0.00000000E+00  0.00000000E+00
  0.00000000E+00  0.00000000E+00  0.00000000E+00
  0.00000000E+00  0.00000000E+00  0.00000000E+00
  0.00000000E+00  0.00000000E+00  0.00000000E+00
  0.00000000E+00  0.00000000E+00  0.00000000E+00
  0.00000000E+00  0.00000000E+00  0.00000000E+00
  0.00000000E+00  0.00000000E+00  0.00000000E+00
  0.00000000E+00  0.00000000E+00  0.00000000E+00
  0.00000000E+00  0.00000000E+00  0.00000000E+00
  0.00000000E+00  0.00000000E+00  0.00000000E+00
  0.00000000E+00  0.00000000E+00  0.00000000E+00
  0.00000000E+00  0.00000000E+00  0.00000000E+00
  0.00000000E+00  0.00000000E+00  0.00000000E+00
  0.00000000E+00  0.00000000E+00  0.00000000E+00
  0.00000000E+00  0.00000000E+00  0.00000000E+00
  0.00000000E+00  0.00000000E+00  0.00000000E+00
  0.00000000E+00  0.00000000E+00  0.00000000E+00
  0.00000000E+00  0.00000000E+00  0.00000000E+00
  0.00000000E+00  0.00000000E+00  0.00000000E+00
  0.00000000E+00  0.00000000E+00  0.00000000E+00
  0.00000000E+00  0.00000000E+00  0.00000000E+00
  0.00000000E+00  0.00000000E+00  0.00000000E+00
  0.00000000E+00  0.00000000E+00  0.00000000E+00
  0.00000000E+00  0.00000000E+00  0.00000000E+00
  0.00000000E+00  0.00000000E+00  0.00000000E+00
  0.00000000E+00  0.00000000E+00  0.00000000E+00
  0.00000000E+00  0.00000000E+00  0.00000000E+00
  0.00000000E+00  0.00000000E+00  0.00000000E+00
  0.00000000E+00  0.00000000E+00  0.00000000E+00
  0.00000000E+00  0.00000000E+00  0.00000000E+00
  0.00000000E+00  0.00000000E+00  0.00000000E+00
  0.00000000E+00  0.00000000E+00  0.00000000E+00
  0.00000000E+00  0.00000000E+00  0.00000000E+00
  0.00000000E+00  0.00000000E+00  0.00000000E+00
  0.00000000E+00  0.00000000E+00  0.00000000E+00
  0.00000000E+00  0.00000000E+00  0.00000000E+00
  0.00000000E+00  0.00000000E+00  0.00000000E+00
  0.00000000E+00  0.00000000E+00  0.00000000E+00
  0.00000000E+00  0.00000000E+00  0.00000000E+00
  0.00000000E+00  0.00000000E+00  0.00000000E+00
  0.00000000E+00  0.00000000E+00  0.00000000E+00
  0.00000000E+00  0.00000000E+00  0.00000000E+00
  0.00000000E+00  0.00000000E+00  0.00000000E+00
  0.00000000E+00  0.00000000E+00  0.00000000E+00
  0.00000000E+00  0.00000000E+00  0.00000000E+00
  0.00000000E+00  0.00000000E+00  0.00000000E+00
  0.00000000E+00  0.00000000E+00  0.00000000E+00
  0.00000000E+00  0.00000000E+00  0.00000000E+00
  0.00000000E+00  0.00000000E+00  0.00000000E+00
  0.00000000E+00  0.00000000E+00  0.00000000E+00
  0.00000000E+00  0.00000000E+00  0.00000000E+00
  0.00000000E+00  0.00000000E+00  0.00000000E+00
  0.00000000E+00  0.00000000E+00  0.00000000E+00
  0.00000000E+00  0.00000000E+00  0.00000000E+00
  0.00000000E+00  0.00000000E+00  0.00000000E+00
  0.00000000E+00  0.00000000E+00  0.00000000E+00
  0.00000000E+00  0.00000000E+00  0.00000000E+00
  0.00000000E+00  0.00000000E+00  0.00000000E+00
  0.00000000E+00  0.00000000E+00  0.00000000E+00
  0.00000000E+00  0.00000000E+00  0.00000000E+00
  0.00000000E+00  0.00000000E+00  0.00000000E+00
  0.00000000E+00  0.00000000E+00  0.00000000E+00
  0.00000000E+00  0.00000000E+00  0.00000000E+00
  0.00000000E+00  0.00000000E+00  0.00000000E+00
  0.00000000E+00  0.00000000E+00  0.00000000E+00
  0.00000000E+00  0.00000000E+00  0.00000000E+00
  0.00000000E+00  0.00000000E+00  0.00000000E+00
  0.00000000E+00  0.00000000E+00  0.00000000E+00
  0.00000000E+00  0.00000000E+00  0.00000000E+00
  0.00000000E+00  0.00000000E+00  0.00000000E+00
  0.00000000E+00  0.00000000E+00  0.00000000E+00
  0.00000000E+00  0.00000000E+00  0.00000000E+00
  0.00000000E+00  0.00000000E+00  0.00000000E+00
  0.00000000E+00  0.00000000E+00  0.00000000E+00
  0.00000000E+00  0.00000000E+00  0.00000000E+00
  0.00000000E+00  0.00000000E+00  0.00000000E+00
  0.00000000E+00  0.00000000E+00  0.00000000E+00
  0.00000000E+00  0.00000000E+00  0.00000000E+00
  0.00000000E+00  0.00000000E+00  0.00000000E+00
  0.00000000E+00  0.00000000E+00  0.00000000E+00
  0.00000000E+00  0.00000000E+00  0.00000000E+00
  0.00000000E+00  0.00000000E+00  0.00000000E+00
  0.00000000E+00  0.00000000E+00  0.00000000E+00
  0.00000000E+00  0.00000000E+00  0.00000000E+00
  0.00000000E+00  0.00000000E+00  0.00000000E+00
  0.00000000E+00  0.00000000E+00  0.00000000E+00
  0.00000000E+00  0.00000000E+00  0.00000000E+00
  0.00000000E+00  0.00000000E+00  0.00000000E+00
  0.00000000E+00  0.00000000E+00  0.00000000E+00
  0.00000000E+00  0.00000000E+00  0.00000000E+00
