Li61 P7 N32                             
   1.00000000000000     
    -0.0003051590757676    9.5035126106833268    0.0100466565778044
     0.0217149190872457    0.0106156298940158    9.6142700322020840
     9.5586211228643307    0.0002514281371921    0.0219759858026481
   Li   P    N 
    61     7    32
Direct
  0.5010839455934251 -0.0009839183438371  0.4903303016271592
  0.0090215269904240  0.4835812382276908  0.0088659574508287
  0.5044135734185439  0.0031639753189059 -0.0103993429529385
  0.0043927814723708 -0.0026656483982213  0.4945851685185247
  0.5175217743207028  0.4850602257573571  0.0033985156931889
  0.0075620533129082  0.4987893463414220  0.5055199328012769
  0.7512797667939232 -0.0031765836750896  0.4892716699883534
  0.2530195867861229 -0.0040805409735552  0.4960530604763624
  0.7626833260463476  0.5045068203647830  0.4723520359294381
  0.2330849854226398  0.5081989308878982  0.4990084005736956
  0.2683283908520381  0.0042764477474715 -0.0062470088381250
  0.7436342635938981  0.0186456363632853 -0.0012114287456212
  0.8215442494933641  0.5908782462400652  0.0732612740261202
  0.4872841738500876  0.2459316765812191 -0.0349363885349340
  0.5027713127034693  0.7577846344837266 -0.0014213476781640
 -0.0399305353438554  0.4923674323319683  0.2767302628860904
 -0.0121923936528823  0.4968370668743893  0.7353240455926540
  0.2356595983567470  0.1861903501867194  0.2263311017896266
  0.2543486022941942  0.7950994709233044  0.7724477156642822
  0.2721262322244967  0.2814188872673869  0.7302605705606763
  0.2420873555107170  0.6821223581786129  0.2809049988414805
  0.7520707878024521  0.2792076841381432  0.2969140525367323
  0.7690930749894146  0.6926590665148338  0.6871114867095893
  0.7398685404386808  0.1952353445215247  0.8025912209988165
  0.7314077746641773  0.7991303731481876  0.1891003602565900
  0.9838679995641187  0.2479660067972230  0.2449186607675218
  0.9795325417656594  0.7677290038633510  0.7552108046713462
  0.2632458906084847  0.2375006846921313  0.4889332785581187
  0.2699860263666987  0.7550491521467795  0.5232109248809734
  0.7529643970600662  0.2243479639440495  0.5472814416581092
  0.7502039017642906  0.7613703357301103  0.4427757874457614
  0.7047448986897124  0.4946361971355225  0.2224794164755828
  0.8133945998445943  0.4188471519814045  0.9299288544571245
  0.1583634032102249  0.4268468810065844  0.2022328612061018
  0.1046838370544993  0.6281307090245397  0.8600469298131326
  0.5081435481981118  0.7549151493152663  0.2424154330562201
  0.5176099853423487  0.2527150410228924  0.7295430733392676
  0.2452991450379853  0.9474557184505159  0.2586944429253730
  0.2387983633755808  0.0318929895697941  0.7363482381268052
  0.2303921528138913  0.2474681283337282  0.9817234699685209
  0.2642059355726282  0.7672719731911432  0.0317568448902291
  0.7585406514690122  0.9566762991377527  0.7276428772139582
  0.7630812704859696  0.0344443810279113  0.2474845481813028
  0.7559614947542833  0.7876368892937403  0.9435799460217741
  0.7069225109079793  0.2711546302315293  0.0532233342269252
  0.0109157238851817  0.2457300523406111  0.7606467935178205
 -0.0013887367187934  0.7589912518069218  0.2461990319333220
  0.4933081114299328  0.2632986961590724  0.2241740803663327
  0.4992288483243283  0.7370879828129229  0.7404576407568667
 -0.0312708945762537  0.2403080519386026  0.0194905795602730
 -0.0008142364064824  0.7485066685987610  0.0034540266019951
  0.5088909639131111  0.2354371360206981  0.4823084054849996
  0.5076132454978539  0.7613254724989869  0.4922743298024065
  0.4820234612312502  0.5358398124548988  0.2217897379042608
  0.4975226510891847  0.4828032846750361  0.7548469575304374
  0.0042768742315404  0.0025042008372429  0.2554807242039000
  0.0015182813617709  0.0030600270901190  0.7308575199522869
  0.3416956099815998  0.3976889656780958  0.3335362047021026
  0.2623842957013680  0.5264960327712797  0.7249083277766777
  0.7373500204595057  0.4384069102714703  0.7032713592914585
  0.6761878071873217  0.5806378201086126  0.9020133093330172
  0.4999484215349564  0.5012200162341828  0.4931194042281277
  0.0054599039381092 -0.0027431741403776 -0.0069433408477377
  0.2625079225771645  0.5045253458336688 -0.0072320606949928
  0.0088200349557996  0.7488931276278470  0.5017989393361076
  0.0064884012069008  0.2470751168007941  0.4987908474211696
  0.5006924717984089  0.0068121944785253  0.2399887594996044
  0.5002881769199589 -0.0025526481942786  0.7400298982977137
  0.6075957360588659  0.5951139251380591  0.5941335483218214
  0.5905906562662565  0.4015570984976670  0.3789712298662665
  0.8985174383126141  0.9016270966189612  0.0991825166691360
  0.9045133975550776  0.0960789821765917  0.8877624205635808
  0.1093575119763943  0.8942454227726448  0.8936019591674501
  0.1058163932387826  0.0995792713062624  0.0963284331282325
  0.3922317877996091  0.6058739440840660  0.3998929025081171
  0.3941847826172870  0.3939169735414249  0.5875378827043057
  0.1101835277433243  0.3450372727422690  0.3889136248525945
  0.1086849650876004  0.6536345285753040  0.6165949600539007
  0.1135457608447532  0.1466219875164228  0.5995253251395332
  0.1170656783059132  0.8467828569425800  0.3985954122075271
  0.8949275520055193  0.1470759989392071  0.4029269570343379
  0.8933388005107690  0.8515954817079515  0.5895854580096923
  0.8684314667458430  0.3829978410106061  0.1334934262192254
  0.8791814042027022  0.6191602288759405  0.8703102061481857
  0.1539498283884095  0.6034779076955202  0.0943312023561957
  0.1612488193686645  0.4123815252193833  0.8775283901253157
  0.4020316831268811  0.9024173346931779  0.1389544198999576
  0.3991985166623827  0.1071677724691958  0.8355250564489591
  0.3905921333398645  0.1039052741963727  0.3431886895489050
  0.3919713551567430  0.8976189876669252  0.6403096997357861
  0.3466394610109702  0.3906399555836209  0.1020257358458872
  0.3582592577241105  0.6141947572461436  0.8935049689945119
  0.6133995954557041  0.0912061509391072  0.6379668759630300
  0.6123916076545973  0.9089079541159035  0.3407633318266413
  0.6291614637626940  0.6412783794104717  0.1060700826539970
  0.6307630700338623  0.3651105180152091  0.8667987211111585
  0.9076676360112992  0.3496128618670905  0.6020460539819278
  0.9144787092239205  0.6452466316376493  0.3985739856048696
  0.6003127941449592  0.1137964158105572  0.1404953026744912
  0.5986835483193623  0.8929335113798602  0.8431549606204509
 
  0.00000000E+00  0.00000000E+00  0.00000000E+00
  0.00000000E+00  0.00000000E+00  0.00000000E+00
  0.00000000E+00  0.00000000E+00  0.00000000E+00
  0.00000000E+00  0.00000000E+00  0.00000000E+00
  0.00000000E+00  0.00000000E+00  0.00000000E+00
  0.00000000E+00  0.00000000E+00  0.00000000E+00
  0.00000000E+00  0.00000000E+00  0.00000000E+00
  0.00000000E+00  0.00000000E+00  0.00000000E+00
  0.00000000E+00  0.00000000E+00  0.00000000E+00
  0.00000000E+00  0.00000000E+00  0.00000000E+00
  0.00000000E+00  0.00000000E+00  0.00000000E+00
  0.00000000E+00  0.00000000E+00  0.00000000E+00
  0.00000000E+00  0.00000000E+00  0.00000000E+00
  0.00000000E+00  0.00000000E+00  0.00000000E+00
  0.00000000E+00  0.00000000E+00  0.00000000E+00
  0.00000000E+00  0.00000000E+00  0.00000000E+00
  0.00000000E+00  0.00000000E+00  0.00000000E+00
  0.00000000E+00  0.00000000E+00  0.00000000E+00
  0.00000000E+00  0.00000000E+00  0.00000000E+00
  0.00000000E+00  0.00000000E+00  0.00000000E+00
  0.00000000E+00  0.00000000E+00  0.00000000E+00
  0.00000000E+00  0.00000000E+00  0.00000000E+00
  0.00000000E+00  0.00000000E+00  0.00000000E+00
  0.00000000E+00  0.00000000E+00  0.00000000E+00
  0.00000000E+00  0.00000000E+00  0.00000000E+00
  0.00000000E+00  0.00000000E+00  0.00000000E+00
  0.00000000E+00  0.00000000E+00  0.00000000E+00
  0.00000000E+00  0.00000000E+00  0.00000000E+00
  0.00000000E+00  0.00000000E+00  0.00000000E+00
  0.00000000E+00  0.00000000E+00  0.00000000E+00
  0.00000000E+00  0.00000000E+00  0.00000000E+00
  0.00000000E+00  0.00000000E+00  0.00000000E+00
  0.00000000E+00  0.00000000E+00  0.00000000E+00
  0.00000000E+00  0.00000000E+00  0.00000000E+00
  0.00000000E+00  0.00000000E+00  0.00000000E+00
  0.00000000E+00  0.00000000E+00  0.00000000E+00
  0.00000000E+00  0.00000000E+00  0.00000000E+00
  0.00000000E+00  0.00000000E+00  0.00000000E+00
  0.00000000E+00  0.00000000E+00  0.00000000E+00
  0.00000000E+00  0.00000000E+00  0.00000000E+00
  0.00000000E+00  0.00000000E+00  0.00000000E+00
  0.00000000E+00  0.00000000E+00  0.00000000E+00
  0.00000000E+00  0.00000000E+00  0.00000000E+00
  0.00000000E+00  0.00000000E+00  0.00000000E+00
  0.00000000E+00  0.00000000E+00  0.00000000E+00
  0.00000000E+00  0.00000000E+00  0.00000000E+00
  0.00000000E+00  0.00000000E+00  0.00000000E+00
  0.00000000E+00  0.00000000E+00  0.00000000E+00
  0.00000000E+00  0.00000000E+00  0.00000000E+00
  0.00000000E+00  0.00000000E+00  0.00000000E+00
  0.00000000E+00  0.00000000E+00  0.00000000E+00
  0.00000000E+00  0.00000000E+00  0.00000000E+00
  0.00000000E+00  0.00000000E+00  0.00000000E+00
  0.00000000E+00  0.00000000E+00  0.00000000E+00
  0.00000000E+00  0.00000000E+00  0.00000000E+00
  0.00000000E+00  0.00000000E+00  0.00000000E+00
  0.00000000E+00  0.00000000E+00  0.00000000E+00
  0.00000000E+00  0.00000000E+00  0.00000000E+00
  0.00000000E+00  0.00000000E+00  0.00000000E+00
  0.00000000E+00  0.00000000E+00  0.00000000E+00
  0.00000000E+00  0.00000000E+00  0.00000000E+00
  0.00000000E+00  0.00000000E+00  0.00000000E+00
  0.00000000E+00  0.00000000E+00  0.00000000E+00
  0.00000000E+00  0.00000000E+00  0.00000000E+00
  0.00000000E+00  0.00000000E+00  0.00000000E+00
  0.00000000E+00  0.00000000E+00  0.00000000E+00
  0.00000000E+00  0.00000000E+00  0.00000000E+00
  0.00000000E+00  0.00000000E+00  0.00000000E+00
  0.00000000E+00  0.00000000E+00  0.00000000E+00
  0.00000000E+00  0.00000000E+00  0.00000000E+00
  0.00000000E+00  0.00000000E+00  0.00000000E+00
  0.00000000E+00  0.00000000E+00  0.00000000E+00
  0.00000000E+00  0.00000000E+00  0.00000000E+00
  0.00000000E+00  0.00000000E+00  0.00000000E+00
  0.00000000E+00  0.00000000E+00  0.00000000E+00
  0.00000000E+00  0.00000000E+00  0.00000000E+00
  0.00000000E+00  0.00000000E+00  0.00000000E+00
  0.00000000E+00  0.00000000E+00  0.00000000E+00
  0.00000000E+00  0.00000000E+00  0.00000000E+00
  0.00000000E+00  0.00000000E+00  0.00000000E+00
  0.00000000E+00  0.00000000E+00  0.00000000E+00
  0.00000000E+00  0.00000000E+00  0.00000000E+00
  0.00000000E+00  0.00000000E+00  0.00000000E+00
  0.00000000E+00  0.00000000E+00  0.00000000E+00
  0.00000000E+00  0.00000000E+00  0.00000000E+00
  0.00000000E+00  0.00000000E+00  0.00000000E+00
  0.00000000E+00  0.00000000E+00  0.00000000E+00
  0.00000000E+00  0.00000000E+00  0.00000000E+00
  0.00000000E+00  0.00000000E+00  0.00000000E+00
  0.00000000E+00  0.00000000E+00  0.00000000E+00
  0.00000000E+00  0.00000000E+00  0.00000000E+00
  0.00000000E+00  0.00000000E+00  0.00000000E+00
  0.00000000E+00  0.00000000E+00  0.00000000E+00
  0.00000000E+00  0.00000000E+00  0.00000000E+00
  0.00000000E+00  0.00000000E+00  0.00000000E+00
  0.00000000E+00  0.00000000E+00  0.00000000E+00
  0.00000000E+00  0.00000000E+00  0.00000000E+00
  0.00000000E+00  0.00000000E+00  0.00000000E+00
  0.00000000E+00  0.00000000E+00  0.00000000E+00
  0.00000000E+00  0.00000000E+00  0.00000000E+00
