Li7 P2 N1 O7                            
   1.00000000000000     
     5.0773616960051049   -0.0758183509989074    0.0092848970282859
    -0.0825962059102625    5.3547644405966199   -0.1200174376104661
     0.0138009837848572   -0.1443105614660060    6.2008645257124222
   Li   P    N    O 
     7     2     1     7
Direct
 -0.1194482951294118  0.5615359371534847  0.4108236130458759
  0.0414880703820521  0.6854928041329102  0.7550708542417878
  0.5148117509117407  0.3378187239553319  0.7379945627479869
  0.6536536425357617  0.8346218860061650 -0.0243754945761184
 -0.0024737132297608  0.1118649094824787  0.5217023312049780
  0.4879248472509523  0.3070356526421054  0.2418927438380660
  0.2135169352265229  0.7004393726963974  0.1807791531302468
  0.5103744272122221  0.8240146642375861  0.4937320518033861
 -0.0064012571586027  0.2014231209584005 -0.0017485494769864
  0.6500400118818849  0.6819434128276157  0.6750160966392934
  0.1160054548671588  0.3267040554457296  0.7976229732929460
  0.5958002773366853  0.1107922833730290  0.4805649437501578
  0.1938338270949496  0.8111722179710198  0.4893768387860327
  0.6886335952562868  0.2067935325628350 -0.0086402525382760
  0.5783281907491915  0.6931445119610210  0.2594419149407477
  0.0956405393719740  0.3437540944042246  0.2113415673047919
  0.0719716954404244  0.9230088201896656 -0.0017753481349156
 
  0.00000000E+00  0.00000000E+00  0.00000000E+00
  0.00000000E+00  0.00000000E+00  0.00000000E+00
  0.00000000E+00  0.00000000E+00  0.00000000E+00
  0.00000000E+00  0.00000000E+00  0.00000000E+00
  0.00000000E+00  0.00000000E+00  0.00000000E+00
  0.00000000E+00  0.00000000E+00  0.00000000E+00
  0.00000000E+00  0.00000000E+00  0.00000000E+00
  0.00000000E+00  0.00000000E+00  0.00000000E+00
  0.00000000E+00  0.00000000E+00  0.00000000E+00
  0.00000000E+00  0.00000000E+00  0.00000000E+00
  0.00000000E+00  0.00000000E+00  0.00000000E+00
  0.00000000E+00  0.00000000E+00  0.00000000E+00
  0.00000000E+00  0.00000000E+00  0.00000000E+00
  0.00000000E+00  0.00000000E+00  0.00000000E+00
  0.00000000E+00  0.00000000E+00  0.00000000E+00
  0.00000000E+00  0.00000000E+00  0.00000000E+00
  0.00000000E+00  0.00000000E+00  0.00000000E+00
