Li1 O8
1.0
4.711338 0.035198 1.934629
2.001813 4.513436 1.550839
0.567642 -0.352502 5.131957
Li O
1 8
direct
0.492984 0.804430 0.804430 Li
0.841361 0.333115 0.820647 O
0.151779 0.231386 0.699762 O
0.151779 0.699762 0.231386 O
0.841361 0.820647 0.333115 O
0.837960 0.256273 0.256273 O
0.154752 0.741977 0.741977 O
0.143998 0.152143 0.152143 O
0.842360 0.865028 0.865028 O
