Li71 P24 N1 O94                         
   1.00000000000000     
    14.7553817047422537    0.0129768496485096   -0.0117802268389356
     0.0092522625953727   10.5491956180706694    0.0160626003167806
    -0.0098072296319338    0.0187546309904691   12.3342902952099891
   Li   P    N    O 
    71    24     1    94
Direct
  0.2035072508411325  0.4142545532752877  0.0006473435048054
  0.1688961481133297  0.4230371264043251  0.4985709966562721
  0.1709358271726455  0.9230612989123237  0.0019600222320147
  0.1703195917704500  0.9235545174963814  0.4969362578013853
  0.5022054518300505  0.4209204532222730  0.9996588943473043
  0.5030162756814729  0.4211850463224319  0.5000444871995322
  0.5026603225339891  0.9214577820689972 -0.0003435897642506
  0.5028337344112704  0.9227693030838768  0.4997625962253756
  0.8339980015792269  0.4185466742219336  0.0028358660734699
  0.8359433131082581  0.4240523396214761  0.5007028961360210
  0.8366494895582672  0.9252806429341958  0.0007197999585710
  0.8370712329157400  0.9257593587045760  0.4987156469395968
  0.0008323763252140  0.0700434848094834  0.7460650110124297
  0.9995125391900609  0.5826430930765257  0.2551299087600797
  0.0013200303409884  0.5786442853576941  0.7477264968086287
  0.3353247834990880  0.0765689384099674  0.2500859560512297
  0.3363919595458956  0.0763437290838608  0.7484725841530517
  0.3395558387531139  0.5794374574520815  0.2505064368336074
  0.3369336271387172  0.5779792341501985  0.7486077733004169
  0.6747617319991039  0.0746550144868292  0.2506442701010523
  0.6693003829797303  0.0760688522599650  0.7489919885572278
  0.6693804716796500  0.5793826127211409  0.2512208603539308
  0.6683794303692105  0.5775793279840475  0.7493772156762316
  0.1686092501173482  0.1624286262370580  0.1269148846111786
  0.1678633666705583  0.1618504750339459  0.6255931394676455
  0.1727567229798301  0.6678865196249486  0.1281071989861671
  0.1696638586811811  0.6635287757838613  0.6248666843795752
  0.5046205058782520  0.1612706871169442  0.1264480801406436
  0.5022727157985541  0.1626017128914737  0.6255333507679811
  0.5044427554863691  0.6630155371651846  0.1261669218999553
  0.5023473987275340  0.6628126712326496  0.6255286049384383
  0.8324796722041621  0.1605903717114940  0.1243744788567552
  0.8360757463421061  0.1637742263564690  0.6260779225396456
  0.8322152733847596  0.6677280845165928  0.1298332170340181
  0.8351712503156076  0.6647565444953513  0.6257460079542206
  0.9887185148225381  0.2815154509752237  0.1732751627347622
  0.0040392897974365  0.3368691946078994  0.6237747808073311
 -0.0001571890092944  0.8555236098219273  0.1288007672281969
  0.0031322327341606  0.8384444973689114  0.6213722425045974
  0.3424671239087024  0.3338447891935436  0.1264748349466600
  0.3350203389969137  0.3363076228426154  0.6229920937495205
  0.3384387444437260  0.8378137246256947  0.1239657880554104
  0.3363767038157219  0.8366619446388297  0.6226145491266085
  0.6683779355105196  0.3362395228292182  0.1246881445827420
  0.6692899729691224  0.3355764143529423  0.6242313208595780
  0.6677184890879401  0.8356220677911631  0.1223959729532410
  0.6690256255671826  0.8360986772928299  0.6233360852520008
  0.9995351014821260  0.3385996354675649  0.3830958362479803
  0.9970030607948606  0.3176402743542392  0.8572965437475046
  0.0018625629484102  0.8480614350930559  0.3738677009870254
  0.0025413951676683  0.8420264107934785  0.8744896476936753
  0.3373454986363450  0.3366631702915331  0.3769986780986340
  0.3392131123411252  0.3335304579827701  0.8724406341755957
  0.3380755783037682  0.8374684478487620  0.3762185604912848
  0.3366443784319006  0.8372566877515613  0.8755940662397609
  0.6698799128684788  0.3359333308430689  0.3773438368488295
  0.6679970429579382  0.3359139464916784  0.8760063523726028
  0.6682998115966152  0.8354264114225903  0.3779400794216712
  0.6686446266675067  0.8365010253070740  0.8764130491996754
  0.1647594737432699  0.1619854609778238  0.3701154533299901
  0.1687709194923042  0.1601441497182648  0.8717324793727235
  0.1701130187424358  0.6656786768778685  0.3722802838437661
  0.1717262426822487  0.6642538225909693  0.8730337918777297
  0.5040674091919052  0.1620667403359410  0.3730756918932102
  0.5027637962240989  0.1615618383501104  0.8722791325285907
  0.5034316552398276  0.6629185409567695  0.3743473041589175
  0.5032255755943025  0.6628652384163920  0.8726986284995263
  0.8383918682771871  0.1623962216554030  0.3727600303539278
  0.8340235813506731  0.1622534406712181  0.8729252165390351
  0.8353392626227634  0.6671548642059848  0.3747086995892273
  0.8327251813722057  0.6644870616643057  0.8719640052085158
  0.1713217846713304  0.4154768135674266  0.2470245382168946
  0.1670824862952924  0.4129414137138448  0.7512239957279846
  0.1695559827262042  0.9107413728134059  0.2498363554729904
  0.1679747488192161  0.9104984531665251  0.7489325062329181
  0.5013727547063176  0.4123297358832006  0.2506624641454603
  0.5001417020027203  0.4117840527350415  0.7493427548986210
  0.5015201783258950  0.9121161878633736  0.2500190359560265
  0.5003878167738030  0.9113043858297989  0.7493993565165390
  0.8315033061778901  0.4139409365706483  0.2509535100839665
  0.8329600538415645  0.4136504748160358  0.7508405229079657
  0.8291041959519909  0.9139213510012721  0.2496810586595920
  0.8326515625446378  0.9113295611784714  0.7498439233881261
  0.0016827436036557  0.0897557393110984  0.9925183867110720
  0.0011237756387428  0.0926515185696867  0.5039470674643800
  0.9984042434269772  0.5996338405663635  0.0037825475479110
  0.0000633198255826  0.5909160992358027  0.5010240228797795
  0.3348381694985286  0.0873408320951037  0.9988876187557659
  0.3338136159159603  0.0886142358510162  0.4994198418433080
  0.3345691351380317  0.5892403668257669  0.9993226193010308
  0.3341119208073966  0.5874289508383065  0.4998334281507415
  0.6659294746842090  0.0874078155175811  0.9985361846888605
  0.6670863924561614  0.0876569809093532  0.5006851441846629
  0.6660529819191039  0.5861982643684742  0.9993924400455295
  0.6668893124225090  0.5866950112665869  0.5010145440517868
  0.0612468260813750  0.4113277900871525  0.2460015018274484
  0.0387347943546626  0.1705659996064110  0.4086253522583158
  0.0331098813554024  0.1497793338860471  0.8823207218615483
  0.0351934978933101  0.6613822941737748  0.3983283795832656
  0.0359656221702911  0.6558723234714340  0.8963689226029322
  0.3700162744639136  0.1575317624242798  0.3958932806405319
  0.3699210712423381  0.1561119702287412  0.8945837259686277
  0.3705660499686478  0.6566000420120668  0.3968341904882106
  0.3698495185608279  0.6561187407535228  0.8948951555992364
  0.7022836987624470  0.1572196932095192  0.3974550523936673
  0.7009946018584262  0.1564122328837017  0.8944223535280063
  0.7020666283457345  0.6561104810316344  0.3975263019835699
  0.7011196678449545  0.6556231915647274  0.8955631624773502
  0.2021690435625134  0.0516240224603149  0.2493789152732374
  0.2014499349995981  0.0505914109598349  0.7488325481211814
  0.2079159142597366  0.5546554865512042  0.2476878013249013
  0.2011130089064415  0.5526194041927560  0.7507695534699453
  0.5365795608100493  0.0514783086314122  0.2499051396198948
  0.5340815291360698  0.0513711090755085  0.7491641675093200
  0.5349183992517261  0.5524936452537701  0.2502211464069872
  0.5338077313663021  0.5518467453125673  0.7495711044340284
  0.8515087744878259  0.0564056307746057  0.2483131313797914
  0.8648989968089611  0.0518241959394655  0.7502243360966900
  0.8641793719505760  0.5545400982591419  0.2496370660331583
  0.8663076923513219  0.5539284642176966  0.7512127434727202
  0.0611829425477599  0.4118745068212996  0.7537105279140294
  0.0659762969577633  0.8993070479103487  0.2502416096316436
  0.0624003655156209  0.9055815928427788  0.7486721136222961
  0.3958879354751052  0.4101143200864331  0.2514401494823707
  0.3945286777364684  0.4094051199745027  0.7484034969506794
  0.3960362487668320  0.9107512837443140  0.2498717337774313
  0.3948575875207663  0.9085507246921429  0.7492962883814845
  0.7260721145033459  0.4104623786184253  0.2507097009006473
  0.7276498164196032  0.4094498084814530  0.7507877037232141
  0.7236883213706383  0.8987538942346130  0.2498144577239593
  0.7271866582546596  0.9066421193052620  0.7502082851870454
  0.2294229993278507  0.0914734105670873  0.9988209646870350
  0.2283920922159339  0.0921447490648728  0.4988986320261585
  0.2287400708721264  0.5941990342444718  0.0000232630450021
  0.2285273961619604  0.5904717329921694  0.4992606404581287
  0.5604520106929655  0.0892055213139774  0.9983562533493896
  0.5614279673060751  0.0902496009906703  0.5005438296825091
  0.5605220084828196  0.5885209905247929  0.9990907831760039
  0.5613257533996623  0.5891733731666503  0.5006402230409741
  0.8959270434803560  0.0936696922854217  0.9980375044285830
  0.8951854723751632  0.0931446487765781  0.5013774417350998
  0.8935603561551849  0.5913974837660587  0.0018419606018842
  0.8943697579676256  0.5925404264792484  0.5007129528663747
  0.2096843232203780  0.3451610163696509  0.1451714563168336
  0.2003475405996722  0.3433256566073566  0.6473730481274523
  0.2075501758146837  0.8438830273015067  0.1454898870504766
  0.2035096288639531  0.8416983431542949  0.6455004941182920
  0.5349816371541534  0.3432569074904079  0.1461318368346144
  0.5359573493679191  0.3423271744709370  0.6464406866970026
  0.5355392709299023  0.8423296245395542  0.1460039515105366
  0.5356222167624377  0.8420190233505795  0.6459482714911596
  0.8663093061567860  0.3421539523790629  0.1480239151914021
  0.8694912369070250  0.3446447863094691  0.6481476403785611
  0.8670989713415203  0.8463031244142392  0.1459508116878812
  0.8687755314861973  0.8433022029250463  0.6463252533305587
  0.0433931434124842  0.1672521120707297  0.0850064196451787
  0.0330449289578604  0.1556362969882321  0.6128130954905837
  0.0353642046234141  0.6660252977491838  0.1060389115772276
  0.0350534606387331  0.6582138727615964  0.6057112910802011
  0.3711155817193820  0.1557891155318594  0.1023392116367414
  0.3688231543571012  0.1576501330153675  0.6035149928866052
  0.3718719096305511  0.6560758436021220  0.1022687161327709
  0.3689673317345620  0.6561376567973382  0.6039384937874004
  0.7004193848005064  0.1576634480823950  0.1016149236662179
  0.7020837971898395  0.1563594096637032  0.6048259999540129
  0.7009576370311137  0.6557425407630727  0.1027244132905127
  0.7018249000767109  0.6559271858765727  0.6047866135007042
  0.0340543126972727  0.4505836604322068  0.5014286282768772
  0.0341785882285942  0.9486997209328493  0.9971436506021354
  0.0352820985643742  0.9522689236492166  0.5009500789633838
  0.3633746032747025  0.4460621707112473  0.9987710517386488
  0.3676296544064300  0.4469386584316752  0.5003386772245594
  0.3683669917302075  0.9470056938293453  0.9986915998889107
  0.3680665458423822  0.9485232121080628  0.5002526088517804
  0.7003148422066021  0.4461860529188721  0.9997180785230407
  0.7010129608505681  0.4466418456205791  0.5014228599930773
  0.7007122469394111  0.9476495227351265  0.9992301126327753
  0.7008809438779677  0.9473968364794795  0.5007805630667159
  0.2023976775442599  0.3462645083556812  0.3532518220219654
  0.2028996780320206  0.3427120305999943  0.8547527825839470
  0.2076592126247505  0.8431482418532071  0.3539539895838221
  0.2031506007565644  0.8420616930738095  0.8534867210099880
  0.5368994742290895  0.3426702308597319  0.3540762173085356
  0.5344056804948792  0.3426419281332870  0.8539339242618490
  0.5356787896644930  0.8421443694352666  0.3542131497753336
  0.5356280643589413  0.8421869956404120  0.8535347594224690
  0.8677457549724308  0.3457512333469867  0.3548277999097712
  0.8686845231329943  0.3447929563894983  0.8555073919709121
  0.8677818884174244  0.8469381432387815  0.3532915905798777
  0.8688914246059101  0.8423712220363040  0.8539478118340119
 
  0.00000000E+00  0.00000000E+00  0.00000000E+00
  0.00000000E+00  0.00000000E+00  0.00000000E+00
  0.00000000E+00  0.00000000E+00  0.00000000E+00
  0.00000000E+00  0.00000000E+00  0.00000000E+00
  0.00000000E+00  0.00000000E+00  0.00000000E+00
  0.00000000E+00  0.00000000E+00  0.00000000E+00
  0.00000000E+00  0.00000000E+00  0.00000000E+00
  0.00000000E+00  0.00000000E+00  0.00000000E+00
  0.00000000E+00  0.00000000E+00  0.00000000E+00
  0.00000000E+00  0.00000000E+00  0.00000000E+00
  0.00000000E+00  0.00000000E+00  0.00000000E+00
  0.00000000E+00  0.00000000E+00  0.00000000E+00
  0.00000000E+00  0.00000000E+00  0.00000000E+00
  0.00000000E+00  0.00000000E+00  0.00000000E+00
  0.00000000E+00  0.00000000E+00  0.00000000E+00
  0.00000000E+00  0.00000000E+00  0.00000000E+00
  0.00000000E+00  0.00000000E+00  0.00000000E+00
  0.00000000E+00  0.00000000E+00  0.00000000E+00
  0.00000000E+00  0.00000000E+00  0.00000000E+00
  0.00000000E+00  0.00000000E+00  0.00000000E+00
  0.00000000E+00  0.00000000E+00  0.00000000E+00
  0.00000000E+00  0.00000000E+00  0.00000000E+00
  0.00000000E+00  0.00000000E+00  0.00000000E+00
  0.00000000E+00  0.00000000E+00  0.00000000E+00
  0.00000000E+00  0.00000000E+00  0.00000000E+00
  0.00000000E+00  0.00000000E+00  0.00000000E+00
  0.00000000E+00  0.00000000E+00  0.00000000E+00
  0.00000000E+00  0.00000000E+00  0.00000000E+00
  0.00000000E+00  0.00000000E+00  0.00000000E+00
  0.00000000E+00  0.00000000E+00  0.00000000E+00
  0.00000000E+00  0.00000000E+00  0.00000000E+00
  0.00000000E+00  0.00000000E+00  0.00000000E+00
  0.00000000E+00  0.00000000E+00  0.00000000E+00
  0.00000000E+00  0.00000000E+00  0.00000000E+00
  0.00000000E+00  0.00000000E+00  0.00000000E+00
  0.00000000E+00  0.00000000E+00  0.00000000E+00
  0.00000000E+00  0.00000000E+00  0.00000000E+00
  0.00000000E+00  0.00000000E+00  0.00000000E+00
  0.00000000E+00  0.00000000E+00  0.00000000E+00
  0.00000000E+00  0.00000000E+00  0.00000000E+00
  0.00000000E+00  0.00000000E+00  0.00000000E+00
  0.00000000E+00  0.00000000E+00  0.00000000E+00
  0.00000000E+00  0.00000000E+00  0.00000000E+00
  0.00000000E+00  0.00000000E+00  0.00000000E+00
  0.00000000E+00  0.00000000E+00  0.00000000E+00
  0.00000000E+00  0.00000000E+00  0.00000000E+00
  0.00000000E+00  0.00000000E+00  0.00000000E+00
  0.00000000E+00  0.00000000E+00  0.00000000E+00
  0.00000000E+00  0.00000000E+00  0.00000000E+00
  0.00000000E+00  0.00000000E+00  0.00000000E+00
  0.00000000E+00  0.00000000E+00  0.00000000E+00
  0.00000000E+00  0.00000000E+00  0.00000000E+00
  0.00000000E+00  0.00000000E+00  0.00000000E+00
  0.00000000E+00  0.00000000E+00  0.00000000E+00
  0.00000000E+00  0.00000000E+00  0.00000000E+00
  0.00000000E+00  0.00000000E+00  0.00000000E+00
  0.00000000E+00  0.00000000E+00  0.00000000E+00
  0.00000000E+00  0.00000000E+00  0.00000000E+00
  0.00000000E+00  0.00000000E+00  0.00000000E+00
  0.00000000E+00  0.00000000E+00  0.00000000E+00
  0.00000000E+00  0.00000000E+00  0.00000000E+00
  0.00000000E+00  0.00000000E+00  0.00000000E+00
  0.00000000E+00  0.00000000E+00  0.00000000E+00
  0.00000000E+00  0.00000000E+00  0.00000000E+00
  0.00000000E+00  0.00000000E+00  0.00000000E+00
  0.00000000E+00  0.00000000E+00  0.00000000E+00
  0.00000000E+00  0.00000000E+00  0.00000000E+00
  0.00000000E+00  0.00000000E+00  0.00000000E+00
  0.00000000E+00  0.00000000E+00  0.00000000E+00
  0.00000000E+00  0.00000000E+00  0.00000000E+00
  0.00000000E+00  0.00000000E+00  0.00000000E+00
  0.00000000E+00  0.00000000E+00  0.00000000E+00
  0.00000000E+00  0.00000000E+00  0.00000000E+00
  0.00000000E+00  0.00000000E+00  0.00000000E+00
  0.00000000E+00  0.00000000E+00  0.00000000E+00
  0.00000000E+00  0.00000000E+00  0.00000000E+00
  0.00000000E+00  0.00000000E+00  0.00000000E+00
  0.00000000E+00  0.00000000E+00  0.00000000E+00
  0.00000000E+00  0.00000000E+00  0.00000000E+00
  0.00000000E+00  0.00000000E+00  0.00000000E+00
  0.00000000E+00  0.00000000E+00  0.00000000E+00
  0.00000000E+00  0.00000000E+00  0.00000000E+00
  0.00000000E+00  0.00000000E+00  0.00000000E+00
  0.00000000E+00  0.00000000E+00  0.00000000E+00
  0.00000000E+00  0.00000000E+00  0.00000000E+00
  0.00000000E+00  0.00000000E+00  0.00000000E+00
  0.00000000E+00  0.00000000E+00  0.00000000E+00
  0.00000000E+00  0.00000000E+00  0.00000000E+00
  0.00000000E+00  0.00000000E+00  0.00000000E+00
  0.00000000E+00  0.00000000E+00  0.00000000E+00
  0.00000000E+00  0.00000000E+00  0.00000000E+00
  0.00000000E+00  0.00000000E+00  0.00000000E+00
  0.00000000E+00  0.00000000E+00  0.00000000E+00
  0.00000000E+00  0.00000000E+00  0.00000000E+00
  0.00000000E+00  0.00000000E+00  0.00000000E+00
  0.00000000E+00  0.00000000E+00  0.00000000E+00
  0.00000000E+00  0.00000000E+00  0.00000000E+00
  0.00000000E+00  0.00000000E+00  0.00000000E+00
  0.00000000E+00  0.00000000E+00  0.00000000E+00
  0.00000000E+00  0.00000000E+00  0.00000000E+00
  0.00000000E+00  0.00000000E+00  0.00000000E+00
  0.00000000E+00  0.00000000E+00  0.00000000E+00
  0.00000000E+00  0.00000000E+00  0.00000000E+00
  0.00000000E+00  0.00000000E+00  0.00000000E+00
  0.00000000E+00  0.00000000E+00  0.00000000E+00
  0.00000000E+00  0.00000000E+00  0.00000000E+00
  0.00000000E+00  0.00000000E+00  0.00000000E+00
  0.00000000E+00  0.00000000E+00  0.00000000E+00
  0.00000000E+00  0.00000000E+00  0.00000000E+00
  0.00000000E+00  0.00000000E+00  0.00000000E+00
  0.00000000E+00  0.00000000E+00  0.00000000E+00
  0.00000000E+00  0.00000000E+00  0.00000000E+00
  0.00000000E+00  0.00000000E+00  0.00000000E+00
  0.00000000E+00  0.00000000E+00  0.00000000E+00
  0.00000000E+00  0.00000000E+00  0.00000000E+00
  0.00000000E+00  0.00000000E+00  0.00000000E+00
  0.00000000E+00  0.00000000E+00  0.00000000E+00
  0.00000000E+00  0.00000000E+00  0.00000000E+00
  0.00000000E+00  0.00000000E+00  0.00000000E+00
  0.00000000E+00  0.00000000E+00  0.00000000E+00
  0.00000000E+00  0.00000000E+00  0.00000000E+00
  0.00000000E+00  0.00000000E+00  0.00000000E+00
  0.00000000E+00  0.00000000E+00  0.00000000E+00
  0.00000000E+00  0.00000000E+00  0.00000000E+00
  0.00000000E+00  0.00000000E+00  0.00000000E+00
  0.00000000E+00  0.00000000E+00  0.00000000E+00
  0.00000000E+00  0.00000000E+00  0.00000000E+00
  0.00000000E+00  0.00000000E+00  0.00000000E+00
  0.00000000E+00  0.00000000E+00  0.00000000E+00
  0.00000000E+00  0.00000000E+00  0.00000000E+00
  0.00000000E+00  0.00000000E+00  0.00000000E+00
  0.00000000E+00  0.00000000E+00  0.00000000E+00
  0.00000000E+00  0.00000000E+00  0.00000000E+00
  0.00000000E+00  0.00000000E+00  0.00000000E+00
  0.00000000E+00  0.00000000E+00  0.00000000E+00
  0.00000000E+00  0.00000000E+00  0.00000000E+00
  0.00000000E+00  0.00000000E+00  0.00000000E+00
  0.00000000E+00  0.00000000E+00  0.00000000E+00
  0.00000000E+00  0.00000000E+00  0.00000000E+00
  0.00000000E+00  0.00000000E+00  0.00000000E+00
  0.00000000E+00  0.00000000E+00  0.00000000E+00
  0.00000000E+00  0.00000000E+00  0.00000000E+00
  0.00000000E+00  0.00000000E+00  0.00000000E+00
  0.00000000E+00  0.00000000E+00  0.00000000E+00
  0.00000000E+00  0.00000000E+00  0.00000000E+00
  0.00000000E+00  0.00000000E+00  0.00000000E+00
  0.00000000E+00  0.00000000E+00  0.00000000E+00
  0.00000000E+00  0.00000000E+00  0.00000000E+00
  0.00000000E+00  0.00000000E+00  0.00000000E+00
  0.00000000E+00  0.00000000E+00  0.00000000E+00
  0.00000000E+00  0.00000000E+00  0.00000000E+00
  0.00000000E+00  0.00000000E+00  0.00000000E+00
  0.00000000E+00  0.00000000E+00  0.00000000E+00
  0.00000000E+00  0.00000000E+00  0.00000000E+00
  0.00000000E+00  0.00000000E+00  0.00000000E+00
  0.00000000E+00  0.00000000E+00  0.00000000E+00
  0.00000000E+00  0.00000000E+00  0.00000000E+00
  0.00000000E+00  0.00000000E+00  0.00000000E+00
  0.00000000E+00  0.00000000E+00  0.00000000E+00
  0.00000000E+00  0.00000000E+00  0.00000000E+00
  0.00000000E+00  0.00000000E+00  0.00000000E+00
  0.00000000E+00  0.00000000E+00  0.00000000E+00
  0.00000000E+00  0.00000000E+00  0.00000000E+00
  0.00000000E+00  0.00000000E+00  0.00000000E+00
  0.00000000E+00  0.00000000E+00  0.00000000E+00
  0.00000000E+00  0.00000000E+00  0.00000000E+00
  0.00000000E+00  0.00000000E+00  0.00000000E+00
  0.00000000E+00  0.00000000E+00  0.00000000E+00
  0.00000000E+00  0.00000000E+00  0.00000000E+00
  0.00000000E+00  0.00000000E+00  0.00000000E+00
  0.00000000E+00  0.00000000E+00  0.00000000E+00
  0.00000000E+00  0.00000000E+00  0.00000000E+00
  0.00000000E+00  0.00000000E+00  0.00000000E+00
  0.00000000E+00  0.00000000E+00  0.00000000E+00
  0.00000000E+00  0.00000000E+00  0.00000000E+00
  0.00000000E+00  0.00000000E+00  0.00000000E+00
  0.00000000E+00  0.00000000E+00  0.00000000E+00
  0.00000000E+00  0.00000000E+00  0.00000000E+00
  0.00000000E+00  0.00000000E+00  0.00000000E+00
  0.00000000E+00  0.00000000E+00  0.00000000E+00
  0.00000000E+00  0.00000000E+00  0.00000000E+00
  0.00000000E+00  0.00000000E+00  0.00000000E+00
  0.00000000E+00  0.00000000E+00  0.00000000E+00
  0.00000000E+00  0.00000000E+00  0.00000000E+00
  0.00000000E+00  0.00000000E+00  0.00000000E+00
  0.00000000E+00  0.00000000E+00  0.00000000E+00
  0.00000000E+00  0.00000000E+00  0.00000000E+00
  0.00000000E+00  0.00000000E+00  0.00000000E+00
  0.00000000E+00  0.00000000E+00  0.00000000E+00
  0.00000000E+00  0.00000000E+00  0.00000000E+00
