Li4 P2 N2 O4                            
   1.00000000000000     
     2.7207082514948016   -4.5555266820924025    0.0000000000000000
     2.7207082514948016    4.5555266820924025    0.0000000000000000
     0.0000000000000000    0.0000000000000000    4.7431971355645794
   Li   P    N    O 
     4     2     2     4
Direct
  0.3248153688991586  0.9936458930194331  0.5014957995767649
  0.9936458930194331  0.3248153688991586  0.5014957995767649
  0.6751846311008413  0.0063541069805670  0.0014957995767649
  0.0063541069805670  0.6751846311008413  0.0014957995767649
  0.6544905874063097  0.6544905874063097  0.4992360248104974
  0.3455094125936904  0.3455094125936904  0.9992360248104974
  0.3858396038970940  0.3858396038970940  0.3427232252184800
  0.6141603961029060  0.6141603961029060  0.8427232252184799
  0.9458670126017161  0.6669173626436460  0.4180250754087438
  0.6669173626436460  0.9458670126017161  0.4180250754087438
  0.0541329873982838  0.3330826373563540  0.9180250754087438
  0.3330826373563540  0.0541329873982838  0.9180250754087438
 
  0.00000000E+00  0.00000000E+00  0.00000000E+00
  0.00000000E+00  0.00000000E+00  0.00000000E+00
  0.00000000E+00  0.00000000E+00  0.00000000E+00
  0.00000000E+00  0.00000000E+00  0.00000000E+00
  0.00000000E+00  0.00000000E+00  0.00000000E+00
  0.00000000E+00  0.00000000E+00  0.00000000E+00
  0.00000000E+00  0.00000000E+00  0.00000000E+00
  0.00000000E+00  0.00000000E+00  0.00000000E+00
  0.00000000E+00  0.00000000E+00  0.00000000E+00
  0.00000000E+00  0.00000000E+00  0.00000000E+00
  0.00000000E+00  0.00000000E+00  0.00000000E+00
  0.00000000E+00  0.00000000E+00  0.00000000E+00
