P56 O140
1.0
5.549684 0.000000 0.000000
0.000000 9.243835 -0.114002
0.000000 0.000000 73.275459
P O
56 140
direct
0.397736 0.545305 0.924360 P5+
0.897736 0.050201 0.974516 P5+
0.147736 0.106784 0.939730 P5+
0.647736 0.488723 0.959147 P5+
0.897736 0.745305 0.974360 P5+
0.397736 0.850201 0.924516 P5+
0.647736 0.306784 0.989730 P5+
0.147736 0.288723 0.909147 P5+
0.397736 0.145305 0.824360 P5+
0.897736 0.650201 0.874516 P5+
0.147736 0.706784 0.839730 P5+
0.647736 0.088723 0.859147 P5+
0.897736 0.345306 0.874360 P5+
0.397736 0.450201 0.824516 P5+
0.647736 0.906784 0.889730 P5+
0.147736 0.888723 0.809147 P5+
0.397736 0.745305 0.724360 P5+
0.897736 0.250201 0.774516 P5+
0.147736 0.306784 0.739730 P5+
0.647736 0.688723 0.759147 P5+
0.897736 0.945305 0.774360 P5+
0.397736 0.050201 0.724516 P5+
0.647736 0.506784 0.789730 P5+
0.147736 0.488723 0.709147 P5+
0.397736 0.345306 0.624360 P5+
0.897736 0.850201 0.674516 P5+
0.147736 0.906784 0.639730 P5+
0.647736 0.288723 0.659147 P5+
0.897736 0.545305 0.674360 P5+
0.397736 0.650201 0.624516 P5+
0.647736 0.106784 0.689730 P5+
0.147736 0.088723 0.609147 P5+
0.397736 0.945305 0.524360 P5+
0.897736 0.450201 0.574516 P5+
0.147736 0.506784 0.539730 P5+
0.647736 0.888723 0.559147 P5+
0.897736 0.145306 0.574360 P5+
0.397736 0.250201 0.524516 P5+
0.647736 0.706784 0.589730 P5+
0.147736 0.688723 0.509147 P5+
0.397736 0.545306 0.424360 P5+
0.897736 0.050201 0.474516 P5+
0.147736 0.106784 0.439730 P5+
0.647736 0.488723 0.459147 P5+
0.897736 0.745306 0.474360 P5+
0.397736 0.850201 0.424516 P5+
0.647736 0.306784 0.489730 P5+
0.147736 0.288723 0.409147 P5+
0.397736 0.145306 0.324360 P5+
0.897736 0.650201 0.374516 P5+
0.147736 0.706784 0.339730 P5+
0.647736 0.088723 0.359147 P5+
0.897736 0.345306 0.374360 P5+
0.397736 0.450201 0.324516 P5+
0.647736 0.906784 0.389730 P5+
0.147736 0.888723 0.309147 P5+
0.618645 0.537724 0.913617 O2-
0.118645 0.057783 0.985259 O2-
0.868645 0.370989 0.996934 O2-
0.868645 0.424517 0.951943 O2-
0.509255 0.397753 0.974438 O2-
0.259255 0.697753 0.924438 O2-
0.425991 0.514217 0.945810 O2-
0.925991 0.081290 0.953066 O2-
0.675991 0.150850 0.979969 O2-
0.675991 0.644657 0.968908 O2-
0.118645 0.737724 0.963617 O2-
0.618645 0.857783 0.935259 O2-
0.368645 0.170989 0.946934 O2-
0.368645 0.224517 0.901943 O2-
0.009255 0.197753 0.924438 O2-
0.759255 0.897753 0.974438 O2-
0.925991 0.714217 0.995810 O2-
0.425991 0.881290 0.903066 O2-
0.175991 0.950850 0.929969 O2-
0.175991 0.444657 0.918908 O2-
0.618645 0.137724 0.813617 O2-
0.118645 0.657783 0.885259 O2-
0.868645 0.970989 0.896934 O2-
0.868645 0.024517 0.851943 O2-
0.509255 0.997753 0.874438 O2-
0.259255 0.297753 0.824438 O2-
0.425991 0.114217 0.845810 O2-
0.925991 0.681290 0.853066 O2-
0.675991 0.750850 0.879969 O2-
0.675991 0.244657 0.868908 O2-
0.118645 0.337724 0.863617 O2-
0.618645 0.457783 0.835259 O2-
0.368645 0.770989 0.846934 O2-
0.368645 0.824517 0.801943 O2-
0.009255 0.797753 0.824438 O2-
0.759255 0.497753 0.874438 O2-
0.925991 0.314217 0.895810 O2-
0.425991 0.481290 0.803066 O2-
0.175991 0.550850 0.829969 O2-
0.175991 0.044657 0.818908 O2-
0.618645 0.737724 0.713617 O2-
0.118645 0.257783 0.785259 O2-
0.868645 0.570989 0.796934 O2-
0.868645 0.624517 0.751943 O2-
0.509255 0.597753 0.774438 O2-
0.259255 0.897753 0.724438 O2-
0.425991 0.714217 0.745810 O2-
0.925991 0.281290 0.753066 O2-
0.675991 0.350850 0.779969 O2-
0.675991 0.844657 0.768908 O2-
0.118645 0.937724 0.763617 O2-
0.618645 0.057783 0.735259 O2-
0.368645 0.370989 0.746934 O2-
0.368645 0.424517 0.701943 O2-
0.009255 0.397753 0.724438 O2-
0.759255 0.097753 0.774438 O2-
0.925991 0.914217 0.795810 O2-
0.425991 0.081290 0.703066 O2-
0.175991 0.150850 0.729969 O2-
0.175991 0.644657 0.718908 O2-
0.618645 0.337724 0.613617 O2-
0.118645 0.857783 0.685259 O2-
0.868645 0.170989 0.696934 O2-
0.868645 0.224517 0.651943 O2-
0.509255 0.197753 0.674438 O2-
0.259255 0.497753 0.624438 O2-
0.425991 0.314217 0.645810 O2-
0.925991 0.881290 0.653066 O2-
0.675991 0.950850 0.679969 O2-
0.675991 0.444657 0.668908 O2-
0.118645 0.537724 0.663617 O2-
0.618645 0.657783 0.635259 O2-
0.368645 0.970989 0.646934 O2-
0.368645 0.024517 0.601943 O2-
0.009255 0.997753 0.624438 O2-
0.759255 0.697753 0.674438 O2-
0.925991 0.514217 0.695810 O2-
0.425991 0.681290 0.603066 O2-
0.175991 0.750850 0.629969 O2-
0.175991 0.244657 0.618908 O2-
0.618645 0.937724 0.513617 O2-
0.118645 0.457783 0.585259 O2-
0.868645 0.770989 0.596934 O2-
0.868645 0.824517 0.551943 O2-
0.509255 0.797753 0.574438 O2-
0.259255 0.097753 0.524438 O2-
0.425991 0.914217 0.545810 O2-
0.925991 0.481290 0.553066 O2-
0.675991 0.550850 0.579969 O2-
0.675991 0.044657 0.568908 O2-
0.118645 0.137724 0.563617 O2-
0.618645 0.257783 0.535259 O2-
0.368645 0.570989 0.546934 O2-
0.368645 0.624517 0.501943 O2-
0.009255 0.597753 0.524438 O2-
0.759255 0.297753 0.574438 O2-
0.925991 0.114217 0.595810 O2-
0.425991 0.281290 0.503066 O2-
0.175991 0.350850 0.529969 O2-
0.175991 0.844657 0.518908 O2-
0.618645 0.537724 0.413617 O2-
0.118645 0.057783 0.485259 O2-
0.868645 0.370989 0.496934 O2-
0.868645 0.424517 0.451943 O2-
0.509255 0.397753 0.474438 O2-
0.259255 0.697753 0.424438 O2-
0.425991 0.514217 0.445810 O2-
0.925991 0.081290 0.453066 O2-
0.675991 0.150850 0.479969 O2-
0.675991 0.644657 0.468908 O2-
0.118645 0.737724 0.463617 O2-
0.618645 0.857783 0.435259 O2-
0.368645 0.170989 0.446934 O2-
0.368645 0.224517 0.401943 O2-
0.009255 0.197753 0.424438 O2-
0.759255 0.897753 0.474438 O2-
0.925991 0.714217 0.495810 O2-
0.425991 0.881290 0.403066 O2-
0.175991 0.950850 0.429969 O2-
0.175991 0.444657 0.418908 O2-
0.618645 0.137724 0.313617 O2-
0.118645 0.657783 0.385259 O2-
0.868645 0.970989 0.396934 O2-
0.868645 0.024517 0.351943 O2-
0.509255 0.997753 0.374438 O2-
0.259255 0.297753 0.324438 O2-
0.425991 0.114217 0.345810 O2-
0.925991 0.681290 0.353066 O2-
0.675991 0.750850 0.379969 O2-
0.675991 0.244657 0.368908 O2-
0.118645 0.337724 0.363617 O2-
0.618645 0.457783 0.335259 O2-
0.368645 0.770989 0.346934 O2-
0.368645 0.824517 0.301943 O2-
0.009255 0.797753 0.324438 O2-
0.759255 0.497753 0.374438 O2-
0.925991 0.314217 0.395810 O2-
0.425991 0.481290 0.303066 O2-
0.175991 0.550850 0.329969 O2-
0.175991 0.044657 0.318908 O2-
