P4 O10
1.0
0.000000 4.083457 8.293785
2.774842 0.000000 8.293785
2.774842 4.083457 0.000000
P O
4 10
direct
0.601484 0.550652 0.244821 P
0.603044 0.244821 0.550652 P
0.005179 0.646956 0.648516 P
0.699348 0.648516 0.646956 P
0.273146 0.843600 0.393691 O
0.489563 0.393691 0.843600 O
0.856309 0.760437 0.976854 O
0.406400 0.976854 0.760437 O
0.990745 0.509255 0.509255 O
0.740745 0.259255 0.259255 O
0.787730 0.481295 0.370687 O
0.360288 0.370687 0.481295 O
0.879313 0.889712 0.462270 O
0.768705 0.462270 0.889712 O
