Li56 P28 O98
1.0
4.907295 0.000000 -1.895193
-0.730671 8.419349 5.315209
0.000000 0.000000 79.370284
Li P O
56 28 98
Selective dynamics
direct
0.744463 0.987971 0.032800 T T T Li+
0.255537 0.012029 0.056972 T T T Li+
0.395677 0.751653 0.013943 T T T Li+
0.604323 0.248347 0.075830 T T T Li+
0.027769 0.791276 0.034067 T T T Li+
0.972231 0.208724 0.055706 T T T Li+
0.056952 0.450796 0.072824 T T T Li+
0.943048 0.549204 0.016948 T T T Li+
0.744463 0.987971 0.123709 F F F Li+
0.255537 0.012029 0.147881 F F F Li+
0.395677 0.751653 0.104852 F F F Li+
0.604323 0.248347 0.166739 F F F Li+
0.027769 0.791276 0.124976 F F F Li+
0.972231 0.208724 0.146615 F F F Li+
0.056952 0.450796 0.163733 F F F Li+
0.943048 0.549204 0.107857 F F F Li+
0.744463 0.987971 0.214618 F F F Li+
0.255537 0.012029 0.238791 F F F Li+
0.395677 0.751653 0.195761 F F F Li+
0.604323 0.248347 0.257648 F F F Li+
0.027769 0.791276 0.215885 F F F Li+
0.972231 0.208724 0.237524 F F F Li+
0.056952 0.450796 0.254642 F F F Li+
0.943048 0.549204 0.198766 F F F Li+
0.744463 0.987971 0.305527 F F F Li+
0.255537 0.012029 0.329700 F F F Li+
0.395677 0.751653 0.286670 F F F Li+
0.604323 0.248347 0.348557 F F F Li+
0.027769 0.791276 0.306794 F F F Li+
0.972231 0.208724 0.328433 F F F Li+
0.056952 0.450796 0.345552 F F F Li+
0.943048 0.549204 0.289675 F F F Li+
0.744463 0.987971 0.396436 F F F Li+
0.255537 0.012029 0.420609 F F F Li+
0.395677 0.751653 0.377579 F F F Li+
0.604323 0.248347 0.439466 F F F Li+
0.027769 0.791276 0.397703 F F F Li+
0.972231 0.208724 0.419342 F F F Li+
0.056952 0.450796 0.436461 F F F Li+
0.943048 0.549204 0.380585 F F F Li+
0.744463 0.987971 0.487345 F F F Li+
0.255537 0.012029 0.511518 F F F Li+
0.395677 0.751653 0.468488 F F F Li+
0.604323 0.248347 0.530375 F F F Li+
0.027769 0.791276 0.488612 F F F Li+
0.972231 0.208724 0.510251 F F F Li+
0.056952 0.450796 0.527370 F F F Li+
0.943048 0.549204 0.471494 F F F Li+
0.744463 0.987971 0.578255 T T T Li+
0.255537 0.012029 0.602427 T T T Li+
0.395677 0.751653 0.559397 T T T Li+
0.604323 0.248347 0.621284 T T T Li+
0.027769 0.791276 0.579521 T T T Li+
0.972231 0.208724 0.601160 T T T Li+
0.056952 0.450796 0.618279 T T T Li+
0.943048 0.549204 0.562403 T T T Li+
0.573990 0.631956 0.058954 T T T P5+
0.426010 0.368044 0.030818 T T T P5+
0.784272 0.845502 0.079001 T T T P5+
0.215728 0.154498 0.010772 T T T P5+
0.573990 0.631956 0.149863 F F F P5+
0.426010 0.368044 0.121727 F F F P5+
0.784272 0.845502 0.169910 F F F P5+
0.215728 0.154498 0.101681 F F F P5+
0.573990 0.631956 0.240772 F F F P5+
0.426010 0.368044 0.212637 F F F P5+
0.784272 0.845502 0.260819 F F F P5+
0.215728 0.154498 0.192590 F F F P5+
0.573990 0.631956 0.331681 F F F P5+
0.426010 0.368044 0.303546 F F F P5+
0.784272 0.845502 0.351728 F F F P5+
0.215728 0.154498 0.283499 F F F P5+
0.573990 0.631956 0.422590 F F F P5+
0.426010 0.368044 0.394455 F F F P5+
0.784272 0.845502 0.442637 F F F P5+
0.215728 0.154498 0.374408 F F F P5+
0.573990 0.631956 0.513499 F F F P5+
0.426010 0.368044 0.485364 F F F P5+
0.784272 0.845502 0.533546 F F F P5+
0.215728 0.154498 0.465317 F F F P5+
0.573990 0.631956 0.604409 T T T P5+
0.426010 0.368044 0.576273 T T T P5+
0.784272 0.845502 0.624455 T T T P5+
0.215728 0.154498 0.556226 T T T P5+
0.519912 0.874340 0.079786 T T T O2-
0.006130 0.790684 0.008850 T T T O2-
0.993870 0.209316 0.080923 T T T O2-
0.882911 0.981976 0.060289 T T T O2-
0.732561 0.376455 0.033995 T T T O2-
0.267439 0.623545 0.055778 T T T O2-
0.314844 0.526190 0.021397 T T T O2-
0.685156 0.473810 0.068375 T T T O2-
0.338222 0.236504 0.050440 T T T O2-
0.661778 0.763496 0.039332 T T T O2-
0.733069 0.683894 0.077043 T T T O2-
0.266931 0.316106 0.012730 T T T O2-
0.117089 0.018024 0.029483 T T T O2-
0.480088 0.125660 0.009986 T T T O2-
0.519912 0.874340 0.170695 F F F O2-
0.006130 0.790684 0.099759 F F F O2-
0.993870 0.209316 0.171832 F F F O2-
0.882911 0.981976 0.151198 F F F O2-
0.732561 0.376455 0.124904 F F F O2-
0.267439 0.623545 0.146687 F F F O2-
0.314844 0.526190 0.112306 F F F O2-
0.685156 0.473810 0.159284 F F F O2-
0.338222 0.236504 0.141349 F F F O2-
0.661778 0.763496 0.130241 F F F O2-
0.733069 0.683894 0.167952 F F F O2-
0.266931 0.316106 0.103639 F F F O2-
0.117089 0.018024 0.120392 F F F O2-
0.480088 0.125660 0.100895 F F F O2-
0.519912 0.874340 0.261605 F F F O2-
0.006130 0.790684 0.190668 F F F O2-
0.993870 0.209316 0.262741 F F F O2-
0.882911 0.981976 0.242107 F F F O2-
0.732561 0.376455 0.215813 F F F O2-
0.267439 0.623545 0.237596 F F F O2-
0.314844 0.526190 0.203215 F F F O2-
0.685156 0.473810 0.250193 F F F O2-
0.338222 0.236504 0.232258 F F F O2-
0.661778 0.763496 0.221151 F F F O2-
0.733069 0.683894 0.258861 F F F O2-
0.266931 0.316106 0.194548 F F F O2-
0.117089 0.018024 0.211301 F F F O2-
0.480088 0.125660 0.191804 F F F O2-
0.519912 0.874340 0.352514 F F F O2-
0.006130 0.790684 0.281577 F F F O2-
0.993870 0.209316 0.353650 F F F O2-
0.882911 0.981976 0.333016 F F F O2-
0.732561 0.376455 0.306722 F F F O2-
0.267439 0.623545 0.328505 F F F O2-
0.314844 0.526190 0.294125 F F F O2-
0.685156 0.473810 0.341102 F F F O2-
0.338222 0.236504 0.323167 F F F O2-
0.661778 0.763496 0.312060 F F F O2-
0.733069 0.683894 0.349770 F F F O2-
0.266931 0.316106 0.285457 F F F O2-
0.117089 0.018024 0.302210 F F F O2-
0.480088 0.125660 0.282713 F F F O2-
0.519912 0.874340 0.443423 F F F O2-
0.006130 0.790684 0.372486 F F F O2-
0.993870 0.209316 0.444559 F F F O2-
0.882911 0.981976 0.423926 F F F O2-
0.732561 0.376455 0.397631 F F F O2-
0.267439 0.623545 0.419414 F F F O2-
0.314844 0.526190 0.385034 F F F O2-
0.685156 0.473810 0.432012 F F F O2-
0.338222 0.236504 0.414077 F F F O2-
0.661778 0.763496 0.402969 F F F O2-
0.733069 0.683894 0.440679 F F F O2-
0.266931 0.316106 0.376366 F F F O2-
0.117089 0.018024 0.393120 F F F O2-
0.480088 0.125660 0.373623 F F F O2-
0.519912 0.874340 0.534332 F F F O2-
0.006130 0.790684 0.463395 F F F O2-
0.993870 0.209316 0.535468 F F F O2-
0.882911 0.981976 0.514835 F F F O2-
0.732561 0.376455 0.488540 F F F O2-
0.267439 0.623545 0.510323 F F F O2-
0.314844 0.526190 0.475943 F F F O2-
0.685156 0.473810 0.522921 F F F O2-
0.338222 0.236504 0.504986 F F F O2-
0.661778 0.763496 0.493878 F F F O2-
0.733069 0.683894 0.531588 F F F O2-
0.266931 0.316106 0.467275 F F F O2-
0.117089 0.018024 0.484029 F F F O2-
0.480088 0.125660 0.464532 F F F O2-
0.519912 0.874340 0.625241 T T T O2-
0.006130 0.790684 0.554304 T T T O2-
0.993870 0.209316 0.626377 T T T O2-
0.882911 0.981976 0.605744 T T T O2-
0.732561 0.376455 0.579449 T T T O2-
0.267439 0.623545 0.601232 T T T O2-
0.314844 0.526190 0.566852 T T T O2-
0.685156 0.473810 0.613830 T T T O2-
0.338222 0.236504 0.595895 T T T O2-
0.661778 0.763496 0.584787 T T T O2-
0.733069 0.683894 0.622497 T T T O2-
0.266931 0.316106 0.558184 T T T O2-
0.117089 0.018024 0.574938 T T T O2-
0.480088 0.125660 0.555441 T T T O2-
