Li61 P7 N32                             
   1.00000000000000     
     0.0041401502685758    9.5242731735285808    0.0175847848670365
    -0.0194240424145509    0.0178885878065107    9.5785396127788172
     9.5747588414145781    0.0045617466621238   -0.0192748423597467
   Li   P    N 
    61     7    32
Direct
  0.4943529321423643  0.0065218760922850  0.5045683551864900
 -0.0180724311325058  0.4933240702128731 -0.0165382444872581
  0.4946447868719469 -0.0255153859374971  0.0057334170011836
 -0.0033351536434493  0.0104094806327504  0.4996194271806725
  0.4854470068032317  0.4580049190592406 -0.0253531317784690
  0.0029324844300197  0.5117878906365642  0.5006764970334654
  0.7480403487877590  0.0137765832042234  0.4988272177868493
  0.2424126561044880  0.0009202862791796  0.5110316121908183
  0.7654746221470559  0.5159057450027531  0.5425031904254247
  0.2355593451064482  0.5053438175987492  0.5073295230449759
  0.2577632119104232  0.0041432020380358  0.0048912822893886
  0.7387734567000943  0.0087304741973670 -0.0038798289069345
  0.7115018101949041  0.5334306287582142 -0.0466958994087899
  0.5496848723902520  0.2049507067819340 -0.0309121597519739
  0.5071198558531860  0.7297182713920574  0.0021876851556664
  0.0114232793347535  0.4840698923604976  0.2453341176896536
  0.0172509490212289  0.5270499480869866  0.7473938782972631
  0.1834926063898166  0.2620757797218087  0.2148088774858469
  0.2154044225286426  0.7739509529797775  0.7839269199858511
  0.2574287110971947  0.2822807394574597  0.7066915010860960
  0.2751686989064998  0.7530549043869548  0.2919253990764612
  0.6608480534589474  0.2288465637606177  0.2977124883523480
  0.7274858394289050  0.7040735542483548  0.7337540646975138
  0.7463602350767804  0.1973484089805453  0.7869973862607935
  0.7612851181150351  0.7947432536792983  0.2200273625399508
  0.9578775009122010  0.2247950603887418  0.2344292014180397
  0.9692304184870443  0.7584275647145858  0.7526373657697025
  0.2550144715025002  0.2387376613683830  0.4663829837000805
  0.2574596078435452  0.7621901866378326  0.5348631304623271
  0.7418410942688901  0.2557480331477610  0.5508322702704423
  0.7403553710531898  0.7730189334477542  0.4813541443670436
  0.8330588003068543  0.3744428251070288  0.3475603779701964
  0.8000547576925667  0.4423814494236650  0.7758134097959365
  0.2366559724113185  0.5027015845949423  0.2677680247285335
  0.2749088541252334  0.5185868840587574  0.7507824424303104
  0.5255642172790064  0.7590590769893721  0.2498522510066898
  0.5078241011487944  0.2538151548711342  0.7513154698328007
  0.2366889424691368  0.0013545931401984  0.2575007983032733
  0.2361928486677164  0.0225807650837213  0.7575489243614600
  0.2724617958674997  0.2494485552850676  0.9534890144928673
  0.2546554771358305  0.7646006579560495  0.0370698385532401
  0.7528521408636524  0.9523548427542138  0.7332806159708172
  0.7629888720100008  0.0253740126138729  0.2408645084913551
  0.7516048391350332  0.7673914394322616  0.9718378156729046
  0.7856927160154643  0.2724050409060806  0.0036415238594497
  0.0135082265371808  0.2602882802864432  0.7677017033690888
  0.0251065012483505  0.7420310635914489  0.2390773443052845
  0.4098155183762018  0.2029247333173662  0.1497458916711761
  0.4721223009038042  0.7355879241518423  0.7528415689906403
  0.0178945299813444  0.2656790117684624  0.0124719791381450
  0.0023157416120218  0.7423437765550270 -0.0154044122989340
  0.5034473081486094  0.2405464522610389  0.5129278848735930
  0.4950578338925997  0.7706777516646501  0.5010220039483114
  0.4634005260225528  0.5538934601918167  0.1945090363617009
  0.5406537553396157  0.4828686338076169  0.7456469981081553
  0.0041454113266434 -0.0150716194471030  0.2616742888820890
 -0.0040531279445847  0.0085995329857964  0.7402055413973160
  0.4255364763370831  0.3525334133525836  0.3150344332091597
  0.7025177954117804  0.5793641297607925  0.3192381019709320
  0.8390376555906077  0.5859790595382316  0.1203553808342902
  0.6725767192501161  0.4225673140398040  0.1424851875275788
  0.4988846597693872  0.5086225266731141  0.5001283840055104
  0.0008359625502823  0.0051691389629933  0.0025564469847621
  0.2399535269611195  0.5056805332122430  0.0053010035746391
 -0.0001603169235013  0.7601321512956943  0.4992559052306886
  0.0020504619800231  0.2578727337699392  0.5065680748008142
  0.4983112571387927  0.0039109856510631  0.2556420950237618
  0.4953600515608153 -0.0056037082085878  0.7530403440077347
  0.5929540919900759  0.6179936244624428  0.5972288928763052
  0.6118684462084638  0.4022332563699064  0.4086376537204549
  0.8953978092791555  0.9041561372662507  0.1027514347458876
  0.9017162422814798  0.1113293389393640  0.9020964759525273
  0.1048156788759318  0.9071227479874168  0.8990381428963449
  0.1029798794042963  0.1018959539867768  0.1118789495029818
  0.3925674616646212  0.6001542741147141  0.3923857843136107
  0.3970419866233855  0.4021801571572016  0.5990872825084240
  0.0988461320880672  0.3548086942486930  0.3939153058714396
  0.0996555267112741  0.6616292648365943  0.6072465313480070
  0.1118846693078098  0.1559259474640797  0.6015278375008171
  0.1115416396868870  0.8578315232502096  0.4000424110031495
  0.8812619978217424  0.1619113060414446  0.4143100967030447
  0.8900420133111685  0.8639745469912118  0.5934103538095200
  0.8719020099314565  0.3832304589569929  0.1433723624118092
  0.8680589243178329  0.6247141536898492  0.8684626455613382
  0.1388908746512239  0.6031804692620027  0.1125697888984749
  0.1531781319988692  0.4049997041411766  0.8876083782038774
  0.3901566626196520  0.8952811835497276  0.1666709011179890
  0.3985281898951195  0.1022545638640170  0.8574540429215963
  0.3960990757237811  0.1200296241127613  0.3498982455951783
  0.3820806943839882  0.9019056630014683  0.6501636775269911
  0.3351656060034419  0.3925794333348866  0.1115405967565348
  0.3478779454371324  0.6131831003381319  0.9159684467122305
  0.6054775177401254  0.0927052993967896  0.6531163692854688
  0.6104043586125723  0.9137671389942030  0.3569821256458214
  0.6404839355039272  0.6353559545451974  0.1302290687199213
  0.6376283717579266  0.3571433953672789  0.8774337834206757
  0.9086821969168066  0.3629281866095989  0.6126685648028315
  0.8976001296586900  0.6585152865200746  0.3926398831434634
  0.5920908343651315  0.1010534785700826  0.1440491565529599
  0.5933716729376197  0.8832539679147245  0.8491525741631332
 
  0.00000000E+00  0.00000000E+00  0.00000000E+00
  0.00000000E+00  0.00000000E+00  0.00000000E+00
  0.00000000E+00  0.00000000E+00  0.00000000E+00
  0.00000000E+00  0.00000000E+00  0.00000000E+00
  0.00000000E+00  0.00000000E+00  0.00000000E+00
  0.00000000E+00  0.00000000E+00  0.00000000E+00
  0.00000000E+00  0.00000000E+00  0.00000000E+00
  0.00000000E+00  0.00000000E+00  0.00000000E+00
  0.00000000E+00  0.00000000E+00  0.00000000E+00
  0.00000000E+00  0.00000000E+00  0.00000000E+00
  0.00000000E+00  0.00000000E+00  0.00000000E+00
  0.00000000E+00  0.00000000E+00  0.00000000E+00
  0.00000000E+00  0.00000000E+00  0.00000000E+00
  0.00000000E+00  0.00000000E+00  0.00000000E+00
  0.00000000E+00  0.00000000E+00  0.00000000E+00
  0.00000000E+00  0.00000000E+00  0.00000000E+00
  0.00000000E+00  0.00000000E+00  0.00000000E+00
  0.00000000E+00  0.00000000E+00  0.00000000E+00
  0.00000000E+00  0.00000000E+00  0.00000000E+00
  0.00000000E+00  0.00000000E+00  0.00000000E+00
  0.00000000E+00  0.00000000E+00  0.00000000E+00
  0.00000000E+00  0.00000000E+00  0.00000000E+00
  0.00000000E+00  0.00000000E+00  0.00000000E+00
  0.00000000E+00  0.00000000E+00  0.00000000E+00
  0.00000000E+00  0.00000000E+00  0.00000000E+00
  0.00000000E+00  0.00000000E+00  0.00000000E+00
  0.00000000E+00  0.00000000E+00  0.00000000E+00
  0.00000000E+00  0.00000000E+00  0.00000000E+00
  0.00000000E+00  0.00000000E+00  0.00000000E+00
  0.00000000E+00  0.00000000E+00  0.00000000E+00
  0.00000000E+00  0.00000000E+00  0.00000000E+00
  0.00000000E+00  0.00000000E+00  0.00000000E+00
  0.00000000E+00  0.00000000E+00  0.00000000E+00
  0.00000000E+00  0.00000000E+00  0.00000000E+00
  0.00000000E+00  0.00000000E+00  0.00000000E+00
  0.00000000E+00  0.00000000E+00  0.00000000E+00
  0.00000000E+00  0.00000000E+00  0.00000000E+00
  0.00000000E+00  0.00000000E+00  0.00000000E+00
  0.00000000E+00  0.00000000E+00  0.00000000E+00
  0.00000000E+00  0.00000000E+00  0.00000000E+00
  0.00000000E+00  0.00000000E+00  0.00000000E+00
  0.00000000E+00  0.00000000E+00  0.00000000E+00
  0.00000000E+00  0.00000000E+00  0.00000000E+00
  0.00000000E+00  0.00000000E+00  0.00000000E+00
  0.00000000E+00  0.00000000E+00  0.00000000E+00
  0.00000000E+00  0.00000000E+00  0.00000000E+00
  0.00000000E+00  0.00000000E+00  0.00000000E+00
  0.00000000E+00  0.00000000E+00  0.00000000E+00
  0.00000000E+00  0.00000000E+00  0.00000000E+00
  0.00000000E+00  0.00000000E+00  0.00000000E+00
  0.00000000E+00  0.00000000E+00  0.00000000E+00
  0.00000000E+00  0.00000000E+00  0.00000000E+00
  0.00000000E+00  0.00000000E+00  0.00000000E+00
  0.00000000E+00  0.00000000E+00  0.00000000E+00
  0.00000000E+00  0.00000000E+00  0.00000000E+00
  0.00000000E+00  0.00000000E+00  0.00000000E+00
  0.00000000E+00  0.00000000E+00  0.00000000E+00
  0.00000000E+00  0.00000000E+00  0.00000000E+00
  0.00000000E+00  0.00000000E+00  0.00000000E+00
  0.00000000E+00  0.00000000E+00  0.00000000E+00
  0.00000000E+00  0.00000000E+00  0.00000000E+00
  0.00000000E+00  0.00000000E+00  0.00000000E+00
  0.00000000E+00  0.00000000E+00  0.00000000E+00
  0.00000000E+00  0.00000000E+00  0.00000000E+00
  0.00000000E+00  0.00000000E+00  0.00000000E+00
  0.00000000E+00  0.00000000E+00  0.00000000E+00
  0.00000000E+00  0.00000000E+00  0.00000000E+00
  0.00000000E+00  0.00000000E+00  0.00000000E+00
  0.00000000E+00  0.00000000E+00  0.00000000E+00
  0.00000000E+00  0.00000000E+00  0.00000000E+00
  0.00000000E+00  0.00000000E+00  0.00000000E+00
  0.00000000E+00  0.00000000E+00  0.00000000E+00
  0.00000000E+00  0.00000000E+00  0.00000000E+00
  0.00000000E+00  0.00000000E+00  0.00000000E+00
  0.00000000E+00  0.00000000E+00  0.00000000E+00
  0.00000000E+00  0.00000000E+00  0.00000000E+00
  0.00000000E+00  0.00000000E+00  0.00000000E+00
  0.00000000E+00  0.00000000E+00  0.00000000E+00
  0.00000000E+00  0.00000000E+00  0.00000000E+00
  0.00000000E+00  0.00000000E+00  0.00000000E+00
  0.00000000E+00  0.00000000E+00  0.00000000E+00
  0.00000000E+00  0.00000000E+00  0.00000000E+00
  0.00000000E+00  0.00000000E+00  0.00000000E+00
  0.00000000E+00  0.00000000E+00  0.00000000E+00
  0.00000000E+00  0.00000000E+00  0.00000000E+00
  0.00000000E+00  0.00000000E+00  0.00000000E+00
  0.00000000E+00  0.00000000E+00  0.00000000E+00
  0.00000000E+00  0.00000000E+00  0.00000000E+00
  0.00000000E+00  0.00000000E+00  0.00000000E+00
  0.00000000E+00  0.00000000E+00  0.00000000E+00
  0.00000000E+00  0.00000000E+00  0.00000000E+00
  0.00000000E+00  0.00000000E+00  0.00000000E+00
  0.00000000E+00  0.00000000E+00  0.00000000E+00
  0.00000000E+00  0.00000000E+00  0.00000000E+00
  0.00000000E+00  0.00000000E+00  0.00000000E+00
  0.00000000E+00  0.00000000E+00  0.00000000E+00
  0.00000000E+00  0.00000000E+00  0.00000000E+00
  0.00000000E+00  0.00000000E+00  0.00000000E+00
  0.00000000E+00  0.00000000E+00  0.00000000E+00
  0.00000000E+00  0.00000000E+00  0.00000000E+00
