Li56 P56
1.0
5.593872 0.000000 4.970385
10.430857 9.037780 0.000000
0.000000 0.000000 69.585390
Li P
56 56
direct
0.453692 0.329300 0.051863 Li+
0.046308 0.170700 0.045247 Li+
0.546308 0.670700 0.061212 Li+
0.953692 0.829300 0.067827 Li+
0.744446 0.029786 0.050385 Li+
0.755554 0.470214 0.013877 Li+
0.255554 0.970214 0.062689 Li+
0.244446 0.529786 0.027769 Li+
0.453692 0.329300 0.123291 Li+
0.046308 0.170700 0.116676 Li+
0.546308 0.670700 0.132640 Li+
0.953692 0.829300 0.139256 Li+
0.744446 0.029786 0.121814 Li+
0.755554 0.470214 0.085306 Li+
0.255554 0.970214 0.134118 Li+
0.244446 0.529786 0.099197 Li+
0.453692 0.329300 0.194720 Li+
0.046308 0.170700 0.188104 Li+
0.546308 0.670700 0.204069 Li+
0.953692 0.829300 0.210684 Li+
0.744446 0.029786 0.193242 Li+
0.755554 0.470214 0.156734 Li+
0.255554 0.970214 0.205546 Li+
0.244446 0.529786 0.170626 Li+
0.453692 0.329300 0.266148 Li+
0.046308 0.170700 0.259533 Li+
0.546308 0.670700 0.275498 Li+
0.953692 0.829300 0.282113 Li+
0.744446 0.029786 0.264671 Li+
0.755554 0.470214 0.228163 Li+
0.255554 0.970214 0.276975 Li+
0.244446 0.529786 0.242054 Li+
0.453692 0.329300 0.337577 Li+
0.046308 0.170700 0.330961 Li+
0.546308 0.670700 0.346926 Li+
0.953692 0.829300 0.353542 Li+
0.744446 0.029786 0.336099 Li+
0.755554 0.470214 0.299592 Li+
0.255554 0.970214 0.348404 Li+
0.244446 0.529786 0.313483 Li+
0.453692 0.329300 0.409005 Li+
0.046308 0.170700 0.402390 Li+
0.546308 0.670700 0.418355 Li+
0.953692 0.829300 0.424970 Li+
0.744446 0.029786 0.407528 Li+
0.755554 0.470214 0.371020 Li+
0.255554 0.970214 0.419832 Li+
0.244446 0.529786 0.384911 Li+
0.453692 0.329300 0.480434 Li+
0.046308 0.170700 0.473819 Li+
0.546308 0.670700 0.489783 Li+
0.953692 0.829300 0.496399 Li+
0.744446 0.029786 0.478957 Li+
0.755554 0.470214 0.442449 Li+
0.255554 0.970214 0.491261 Li+
0.244446 0.529786 0.456340 Li+
0.390439 0.292916 0.021142 P-
0.109561 0.207084 0.005490 P-
0.609561 0.707084 0.020504 P-
0.890439 0.792916 0.036156 P-
0.585076 0.111742 0.025891 P-
0.914924 0.388258 0.038045 P-
0.414924 0.888258 0.015755 P-
0.085076 0.611742 0.003601 P-
0.390439 0.292916 0.092570 P-
0.109561 0.207084 0.076919 P-
0.609561 0.707084 0.091933 P-
0.890439 0.792916 0.107584 P-
0.585076 0.111742 0.097319 P-
0.914924 0.388258 0.109473 P-
0.414924 0.888258 0.087184 P-
0.085076 0.611742 0.075030 P-
0.390439 0.292916 0.163999 P-
0.109561 0.207084 0.148347 P-
0.609561 0.707084 0.163361 P-
0.890439 0.792916 0.179013 P-
0.585076 0.111742 0.168748 P-
0.914924 0.388258 0.180902 P-
0.414924 0.888258 0.158612 P-
0.085076 0.611742 0.146458 P-
0.390439 0.292916 0.235428 P-
0.109561 0.207084 0.219776 P-
0.609561 0.707084 0.234790 P-
0.890439 0.792916 0.250441 P-
0.585076 0.111742 0.240177 P-
0.914924 0.388258 0.252330 P-
0.414924 0.888258 0.230041 P-
0.085076 0.611742 0.217887 P-
0.390439 0.292916 0.306856 P-
0.109561 0.207084 0.291205 P-
0.609561 0.707084 0.306218 P-
0.890439 0.792916 0.321870 P-
0.585076 0.111742 0.311605 P-
0.914924 0.388258 0.323759 P-
0.414924 0.888258 0.301469 P-
0.085076 0.611742 0.289316 P-
0.390439 0.292916 0.378285 P-
0.109561 0.207084 0.362633 P-
0.609561 0.707084 0.377647 P-
0.890439 0.792916 0.393298 P-
0.585076 0.111742 0.383034 P-
0.914924 0.388258 0.395187 P-
0.414924 0.888258 0.372898 P-
0.085076 0.611742 0.360744 P-
0.390439 0.292916 0.449713 P-
0.109561 0.207084 0.434062 P-
0.609561 0.707084 0.449075 P-
0.890439 0.792916 0.464727 P-
0.585076 0.111742 0.454462 P-
0.914924 0.388258 0.466616 P-
0.414924 0.888258 0.444326 P-
0.085076 0.611742 0.432173 P-
