Li8 P56
1.0
-6.337848 6.337848 6.897042
6.814890 -6.814890 7.416174
6.814890 6.814890 -7.416174
Li P
8 56
direct
0.118757 0.118757 0.737515 Li
0.868757 0.631243 0.500000 Li
0.131243 0.368757 0.500000 Li
0.381243 0.381243 0.262485 Li
0.631243 0.131243 0.762485 Li
0.881243 0.618757 0.000000 Li
0.618757 0.881243 0.000000 Li
0.368757 0.868757 0.237515 Li
0.793929 0.767734 0.382791 P
0.517734 0.634944 0.473805 P
0.161139 0.043929 0.526195 P
0.865056 0.982266 0.526195 P
0.456071 0.338861 0.473805 P
0.384944 0.411139 0.617209 P
0.732266 0.706071 0.617209 P
0.088861 0.115056 0.382791 P
0.956071 0.482266 0.117209 P
0.232266 0.615056 0.026195 P
0.588861 0.206071 0.973805 P
0.884944 0.267734 0.973805 P
0.293929 0.911139 0.026195 P
0.365056 0.838861 0.882791 P
0.017734 0.543929 0.882791 P
0.661139 0.134944 0.117209 P
0.582941 0.709931 0.246429 P
0.459931 0.713501 0.626990 P
0.086512 0.832941 0.373010 P
0.786499 0.040069 0.373010 P
0.667059 0.413488 0.626990 P
0.463501 0.336512 0.753571 P
0.790069 0.917059 0.753571 P
0.163488 0.036499 0.246429 P
0.167059 0.540069 0.253571 P
0.290069 0.536499 0.873010 P
0.663488 0.417059 0.126990 P
0.963501 0.209931 0.126990 P
0.082941 0.836512 0.873010 P
0.286499 0.913488 0.746429 P
0.959931 0.332941 0.746429 P
0.586512 0.213501 0.253571 P
0.717491 0.970614 0.594170 P
0.720614 0.626445 0.753123 P
0.873321 0.967491 0.246877 P
0.873555 0.779386 0.246877 P
0.532509 0.626679 0.753123 P
0.376445 0.123321 0.405830 P
0.529386 0.782509 0.405830 P
0.376679 0.123555 0.594170 P
0.032509 0.279386 0.905830 P
0.029386 0.623555 0.746877 P
0.876679 0.282509 0.253123 P
0.876445 0.470614 0.253123 P
0.217491 0.623321 0.746877 P
0.373555 0.126679 0.094170 P
0.220614 0.467491 0.094170 P
0.373321 0.126445 0.905830 P
0.625000 0.915130 0.790130 P
0.665130 0.375000 0.790130 P
0.584870 0.875000 0.209870 P
0.125000 0.834870 0.209870 P
0.125000 0.334870 0.709870 P
0.084870 0.875000 0.709870 P
0.165130 0.375000 0.290130 P
0.625000 0.415130 0.290130 P
