Li1 O8                                  
   1.00000000000000     
     4.6809409999999998    0.0349710000000000    1.9221470000000000
     1.9888980000000001    4.4843159999999997    1.5408329999999999
     0.5639800000000000   -0.3502280000000000    5.0988470000000001
   Li   O 
     1     8
Direct
  0.4929839999999999  0.8044299999999964  0.8044299999999964
  0.8413609999999991  0.3331149999999994  0.8206470000000010
  0.1517789999999977  0.2313860000000005  0.6997619999999998
  0.1517789999999977  0.6997619999999998  0.2313860000000005
  0.8413609999999991  0.8206470000000010  0.3331149999999994
  0.8379600000000025  0.2562730000000002  0.2562730000000002
  0.1547520000000020  0.7419769999999986  0.7419769999999986
  0.1439980000000034  0.1521430000000024  0.1521430000000024
  0.8423599999999993  0.8650280000000024  0.8650280000000024
 
  0.00000000E+00  0.00000000E+00  0.00000000E+00
  0.00000000E+00  0.00000000E+00  0.00000000E+00
  0.00000000E+00  0.00000000E+00  0.00000000E+00
  0.00000000E+00  0.00000000E+00  0.00000000E+00
  0.00000000E+00  0.00000000E+00  0.00000000E+00
  0.00000000E+00  0.00000000E+00  0.00000000E+00
  0.00000000E+00  0.00000000E+00  0.00000000E+00
  0.00000000E+00  0.00000000E+00  0.00000000E+00
  0.00000000E+00  0.00000000E+00  0.00000000E+00
