Li71 P24 N1 O94                         
   1.00000000000000     
    14.7228440845825297    0.0182906219575254   -0.0222528977399089
     0.0131036052819172   10.5732565372748084    0.0081063235027351
    -0.0185306744316649    0.0094259794546540   12.3356022239224146
   Li   P    N    O 
    71    24     1    94
Direct
  0.1713379862738501  0.4193928171802440 -0.0086628021707720
  0.1602068062834028  0.4369055391813865  0.5243608850023975
  0.1678809587584540  0.9341743508789082  0.0071456297501348
  0.1703727229165979  0.9208338975995802  0.5005554207439809
  0.5049784495431480  0.4226575431069790 -0.0015288955633501
  0.5078873218915212  0.4260810447337294  0.5054496593428287
  0.5046777450490602  0.9227346540821729 -0.0006346368521615
  0.5020148320414302  0.9223596492801633  0.4998100254125387
  0.8365683144005716  0.4219682765959444  0.0011193666241363
  0.8343666935219485  0.4227441071441455  0.5010091214566219
  0.8358276772072817  0.9192002431873503 -0.0013176725559477
  0.8361567016415591  0.9218899081040798  0.4997831383681223
  0.0062319425946998  0.0793452803293286  0.2452889721187995
  0.0024496505551164  0.0763212360978463  0.7523641097111615
 -0.0013880858538934  0.5773501578154209  0.2550766215353771
  0.0028048724282639  0.5773767389565573  0.7523307868745917
  0.3324947313818670  0.0781848345317888  0.2424283471156522
  0.3359256879073112  0.0779500833703685  0.7518245942342885
  0.3400116202476968  0.5807443670103567  0.2465977661062219
  0.3365693513026872  0.5775318389303572  0.7506577929539107
  0.6713873372062132  0.0766457875433813  0.2482461054975238
  0.6696899370605413  0.0762481780974582  0.7498202781549540
  0.6706932374544203  0.5788135975363922  0.2495395208095476
  0.6692085774528074  0.5783491207216711  0.7505568328756440
  0.1680866799708981  0.1621699071545194  0.6277656589580570
  0.1713229352612396  0.6749890842758172  0.1185778037585624
  0.1698957494770072  0.6668106969254209  0.6279013625835851
  0.5034736093393480  0.1616458574705469  0.1248316162123548
  0.5026380570903026  0.1629936288551723  0.6265338004257025
  0.5040562762256431  0.6643846611609410  0.1245746618068918
  0.5020420979674772  0.6646735428636203  0.6267650092116744
  0.8402034146287702  0.1609331950150538  0.1240768784609428
  0.8354732002956872  0.1624053580400634  0.6263084233566616
  0.8362995617226121  0.6629117759538246  0.1267390975308678
  0.8350145828918724  0.6636764639317032  0.6279581122097128
  0.0017125782340351  0.3294674838892463  0.1267665541744228
 -0.0002419671322948  0.3350198146978304  0.6275542958629406
  0.0031575353091711  0.8376327367328471  0.1244596268378909
  0.0022087513563144  0.8372824557568191  0.6245142510840271
  0.3399465319661404  0.3341675893907720  0.1186666855338218
  0.3358329077433280  0.3359679673374054  0.6249482271180187
  0.3375802062216205  0.8392410378020652  0.1213637344652328
  0.3357207898812991  0.8380916882453160  0.6238360754560796
  0.6717812709754144  0.3354906044724366  0.1229912632948781
  0.6698726066611843  0.3364909735085892  0.6249167061540170
  0.6701775875171853  0.8369387193260803  0.1234043866263178
  0.6689483000766784  0.8370961790749972  0.6234252446591864
 -0.0020320222337916  0.3356271180637082  0.3800985473135565
  0.0019275038015179  0.3340924140909938  0.8789719135635572
  0.0030799396722276  0.8379788061137557  0.3764226620741101
  0.0036411877957385  0.8367522010156376  0.8774410929152179
  0.3771677554178394  0.3350348823856205  0.3825908173555924
  0.3385190273420323  0.3339719093889013  0.8763021806478948
  0.3349994401572058  0.8372942190196534  0.3746150476448822
  0.3363345284765418  0.8390113374350565  0.8772046841791015
  0.6682652716673495  0.3366451531687628  0.3767442221290728
  0.6700726563686226  0.3363759262949083  0.8764944826228861
  0.6693181113243039  0.8375488232825581  0.3761955524452407
  0.6698518592396718  0.8365868686695522  0.8756100802113799
  0.1617674852589096  0.1428731439970106  0.3708806668076235
  0.1675820394852879  0.1615592967510585  0.8789597358315721
  0.1663223543965270  0.6621402671902906  0.3749854456289419
  0.1700100181221922  0.6651886277857065  0.8736586339338971
  0.5052124790010240  0.1574950100572219  0.3718682511937401
  0.5045259297426000  0.1625166010443269  0.8732661719604141
  0.5031668379270527  0.6645802419441015  0.3735291325165006
  0.5029530757192703  0.6640361128670205  0.8730353082605520
  0.8355927230672185  0.1622181270888786  0.3728794772878311
  0.8348061612480928  0.1618466538122065  0.8711386300954476
  0.8350261446652452  0.6641715960765707  0.3748971884917919
  0.8370684166390621  0.6624877343038217  0.8744938359180617
  0.1576278522778870  0.4365666169688975  0.2176263181107206
  0.1668330378065462  0.4113410842034261  0.7517274356926773
  0.1684859682410337  0.9103289449723300  0.2522787312461792
  0.1669254179764486  0.9124825751216205  0.7505609069121769
  0.5008047505914174  0.4137162898142364  0.2479361423550422
  0.5006464707436820  0.4124641020358311  0.7501177935329688
  0.5008976448931799  0.9118172974544837  0.2496285689038093
  0.5004561384654979  0.9122539034968460  0.7492649264591407
  0.8313748002757926  0.4122345394476393  0.2511334323852551
  0.8330033851003650  0.4123959036261814  0.7509313734743734
  0.8339463079787001  0.9114285930849926  0.2504646807800233
  0.8335443833113479  0.9109636573958966  0.7489992825142276
 -0.0042024949361328  0.0861701323259827 -0.0000695616363578
 -0.0004635749810178  0.0876561225210381  0.5017613969952919
  0.0017142559913330  0.5862954832247469  0.0016285848673461
 -0.0018197183768340  0.5884150882810381  0.5026316892659372
  0.3359885347378425  0.0869918675865643 -0.0026038485387558
  0.3326531367795251  0.0895262636757082  0.4989144040631554
  0.3353606883855230  0.5881322908953167 -0.0019856609104405
  0.3337583652636810  0.5868609405981470  0.4995159475474444
  0.6680497188058183  0.0870454317398296 -0.0007698345328582
  0.6664815456049934  0.0877093925030503  0.4999953331809745
  0.6676382429145236  0.5878946643156846 -0.0003943835936164
  0.6662785678389840  0.5888922909134049  0.5005947633288302
  0.0633103017631306  0.4043099831619806  0.2587221872410770
  0.0351072172487420  0.1577002848049597  0.3986925416742688
  0.0331159314087410  0.1554561161446623  0.8967121064886463
  0.0334897520184393  0.6567435717022122  0.3989764070436818
  0.0365363928615944  0.6555443718468111  0.8978116985866198
  0.3687101948486249  0.1581856428376417  0.3951876419062478
  0.3734760046107696  0.1565167760156140  0.8940958974011995
  0.3686753604174709  0.6555758053224087  0.3959802491322197
  0.3693487467160509  0.6579075025463459  0.8941762773356262
  0.7007270480107282  0.1570855408149139  0.3959856137720910
  0.7019304150679772  0.1560914248002235  0.8948217526917723
  0.7015577938600925  0.6574647292183253  0.3969550531325826
  0.7029722123614642  0.6567604150715780  0.8959801852077739
  0.2045742779783809  0.0463598616497837  0.2584198791354299
  0.1999016891842498  0.0524597135669066  0.7496449934810939
  0.2060961483416334  0.5608468725442461  0.2483900441582386
  0.2001345021259683  0.5513738622246908  0.7498074288157647
  0.5354517115321199  0.0512972422546030  0.2492728245658347
  0.5346785750936189  0.0517488352531710  0.7489539178715883
  0.5352229903522047  0.5526661238350875  0.2499148662352533
  0.5337446148547901  0.5525536262142244  0.7494261309924920
  0.8670807126328534  0.0511635820770802  0.2505788991843794
  0.8668721930111796  0.0508070753747080  0.7484213689664422
  0.8645454627580003  0.5524596795316261  0.2517911096686419
  0.8674779329957145  0.5518143269468785  0.7507138018067058
  0.0611336930764961  0.4082710521261348  0.7522335781764012
  0.0623963221978955  0.9083676479265129  0.2507066086447875
  0.0610956757482908  0.9085599593468219  0.7501211519014596
  0.3948178921023572  0.4122220258798677  0.2457623200746276
  0.3948549220364639  0.4093537572876828  0.7496055695058850
  0.3952610274888276  0.9094712009445471  0.2492501211771516
  0.3947006360482024  0.9098157556458289  0.7493479155970879
  0.7254115823114901  0.4097899657667938  0.2509344901846579
  0.7272209972441664  0.4107144928538466  0.7506011359243305
  0.7280247996993527  0.9082025969509121  0.2501950841380289
  0.7277082975728613  0.9082986427848240  0.7492973089011413
  0.2320876843366831  0.0871954959408864 -0.0064866406375608
  0.2266732056097460  0.0951700246329983  0.4986761461593416
  0.2293343932381791  0.5902693081155673 -0.0016201105400914
  0.2275438479322541  0.5863706727984601  0.4990192028657702
  0.5623574471723315  0.0904690409131504 -0.0001796657212413
  0.5605609726447328  0.0902012759253157  0.5002722386578597
  0.5618217551834809  0.5910180166555010 -0.0008142911761439
  0.5603956896200127  0.5931393495907045  0.5004710236300758
  0.8896421200255989  0.0842357750483490 -0.0068972440519583
  0.8938413564209012  0.0902662879019978  0.5003277900798812
  0.8958987102483650  0.5896652963629962  0.0015384769227738
  0.8925987871430439  0.5911493414416699  0.5021959605181835
  0.2118536720328903  0.3593175005410823  0.1371301399216884
  0.2014868920578861  0.3426442528851567  0.6472829938263186
  0.2041438662225411  0.8443001508564816  0.1471618779007950
  0.2022774946356410  0.8438246300779614  0.6461575618621271
  0.5377137321957373  0.3428160153757557  0.1468875662706457
  0.5360219189517492  0.3431814966763745  0.6465058969996309
  0.5368506995891679  0.8421175323242513  0.1467535440600017
  0.5349149082353686  0.8432501427801548  0.6450528447418665
  0.8662695112880507  0.3439934779130885  0.1473594182620780
  0.8673164277821783  0.3428018888035640  0.6470353478750157
  0.8692219720485562  0.8417342459483438  0.1471807851870567
  0.8683709694663702  0.8422809022669479  0.6449440986905444
  0.0221709321432312  0.1556807279195383  0.1045628409950598
  0.0341427916989135  0.1567604575716481  0.6057835425083292
  0.0376306867039753  0.6550071489613488  0.1055210111089240
  0.0351302713745426  0.6568743950321313  0.6058288693469800
  0.3721702411142462  0.1566294701028636  0.1009791517630041
  0.3684510081312982  0.1577810689048384  0.6026759160186451
  0.3705868943043720  0.6576804106513916  0.1015389918177187
  0.3673569480594031  0.6565440529138743  0.6034189494463542
  0.7040448067613975  0.1558730722310248  0.1026534746823261
  0.7017552187246717  0.1569481881297448  0.6035917436992596
  0.7027657967798229  0.6568763841843126  0.1033714484564798
  0.7017760900960817  0.6569296151771560  0.6044670404311682
  0.0357165903518497  0.4462760364850895  0.0018354775368737
  0.0315291436124254  0.4477696811097328  0.5046988574110932
  0.0321030135090386  0.9468500096508619  0.0004914181923232
  0.0343958629212995  0.9482186932831280  0.5011890886716290
  0.3704715466051423  0.4489409047466862 -0.0027328753315643
  0.3688114941058862  0.4471282507472858  0.5007630115852486
  0.3725039316081902  0.9474186195167965 -0.0009968924051909
  0.3652028213151295  0.9490747196874785  0.4987635971011505
  0.7011504392412803  0.4477935045141434 -0.0001316214325162
  0.6983969323537272  0.4480321158248002  0.5004562437078262
  0.7009172655292331  0.9465882212178715 -0.0008657010801174
  0.7006127711464304  0.9480156733937908  0.4999556977478982
  0.2038683570263789  0.3416483580839116  0.8537521453432759
  0.2012236882374759  0.8355539208203454  0.3555255273973684
  0.2026051988031868  0.8429746841953126  0.8537111216797966
  0.5295906983222233  0.3434283212248445  0.3553149781635095
  0.5365718225625095  0.3436837615566788  0.8536703279028829
  0.5355969280101570  0.8432991944530543  0.3543840009287266
  0.5365222966037563  0.8425464696979879  0.8524526026782918
  0.8657150705069205  0.3431174849502840  0.3555894717841510
  0.8682759759921015  0.3429538742337677  0.8545727664774336
  0.8690581605335964  0.8424500593669844  0.3547283217598539
  0.8693045606084395  0.8408870424611888  0.8521517041194264
 
  0.00000000E+00  0.00000000E+00  0.00000000E+00
  0.00000000E+00  0.00000000E+00  0.00000000E+00
  0.00000000E+00  0.00000000E+00  0.00000000E+00
  0.00000000E+00  0.00000000E+00  0.00000000E+00
  0.00000000E+00  0.00000000E+00  0.00000000E+00
  0.00000000E+00  0.00000000E+00  0.00000000E+00
  0.00000000E+00  0.00000000E+00  0.00000000E+00
  0.00000000E+00  0.00000000E+00  0.00000000E+00
  0.00000000E+00  0.00000000E+00  0.00000000E+00
  0.00000000E+00  0.00000000E+00  0.00000000E+00
  0.00000000E+00  0.00000000E+00  0.00000000E+00
  0.00000000E+00  0.00000000E+00  0.00000000E+00
  0.00000000E+00  0.00000000E+00  0.00000000E+00
  0.00000000E+00  0.00000000E+00  0.00000000E+00
  0.00000000E+00  0.00000000E+00  0.00000000E+00
  0.00000000E+00  0.00000000E+00  0.00000000E+00
  0.00000000E+00  0.00000000E+00  0.00000000E+00
  0.00000000E+00  0.00000000E+00  0.00000000E+00
  0.00000000E+00  0.00000000E+00  0.00000000E+00
  0.00000000E+00  0.00000000E+00  0.00000000E+00
  0.00000000E+00  0.00000000E+00  0.00000000E+00
  0.00000000E+00  0.00000000E+00  0.00000000E+00
  0.00000000E+00  0.00000000E+00  0.00000000E+00
  0.00000000E+00  0.00000000E+00  0.00000000E+00
  0.00000000E+00  0.00000000E+00  0.00000000E+00
  0.00000000E+00  0.00000000E+00  0.00000000E+00
  0.00000000E+00  0.00000000E+00  0.00000000E+00
  0.00000000E+00  0.00000000E+00  0.00000000E+00
  0.00000000E+00  0.00000000E+00  0.00000000E+00
  0.00000000E+00  0.00000000E+00  0.00000000E+00
  0.00000000E+00  0.00000000E+00  0.00000000E+00
  0.00000000E+00  0.00000000E+00  0.00000000E+00
  0.00000000E+00  0.00000000E+00  0.00000000E+00
  0.00000000E+00  0.00000000E+00  0.00000000E+00
  0.00000000E+00  0.00000000E+00  0.00000000E+00
  0.00000000E+00  0.00000000E+00  0.00000000E+00
  0.00000000E+00  0.00000000E+00  0.00000000E+00
  0.00000000E+00  0.00000000E+00  0.00000000E+00
  0.00000000E+00  0.00000000E+00  0.00000000E+00
  0.00000000E+00  0.00000000E+00  0.00000000E+00
  0.00000000E+00  0.00000000E+00  0.00000000E+00
  0.00000000E+00  0.00000000E+00  0.00000000E+00
  0.00000000E+00  0.00000000E+00  0.00000000E+00
  0.00000000E+00  0.00000000E+00  0.00000000E+00
  0.00000000E+00  0.00000000E+00  0.00000000E+00
  0.00000000E+00  0.00000000E+00  0.00000000E+00
  0.00000000E+00  0.00000000E+00  0.00000000E+00
  0.00000000E+00  0.00000000E+00  0.00000000E+00
  0.00000000E+00  0.00000000E+00  0.00000000E+00
  0.00000000E+00  0.00000000E+00  0.00000000E+00
  0.00000000E+00  0.00000000E+00  0.00000000E+00
  0.00000000E+00  0.00000000E+00  0.00000000E+00
  0.00000000E+00  0.00000000E+00  0.00000000E+00
  0.00000000E+00  0.00000000E+00  0.00000000E+00
  0.00000000E+00  0.00000000E+00  0.00000000E+00
  0.00000000E+00  0.00000000E+00  0.00000000E+00
  0.00000000E+00  0.00000000E+00  0.00000000E+00
  0.00000000E+00  0.00000000E+00  0.00000000E+00
  0.00000000E+00  0.00000000E+00  0.00000000E+00
  0.00000000E+00  0.00000000E+00  0.00000000E+00
  0.00000000E+00  0.00000000E+00  0.00000000E+00
  0.00000000E+00  0.00000000E+00  0.00000000E+00
  0.00000000E+00  0.00000000E+00  0.00000000E+00
  0.00000000E+00  0.00000000E+00  0.00000000E+00
  0.00000000E+00  0.00000000E+00  0.00000000E+00
  0.00000000E+00  0.00000000E+00  0.00000000E+00
  0.00000000E+00  0.00000000E+00  0.00000000E+00
  0.00000000E+00  0.00000000E+00  0.00000000E+00
  0.00000000E+00  0.00000000E+00  0.00000000E+00
  0.00000000E+00  0.00000000E+00  0.00000000E+00
  0.00000000E+00  0.00000000E+00  0.00000000E+00
  0.00000000E+00  0.00000000E+00  0.00000000E+00
  0.00000000E+00  0.00000000E+00  0.00000000E+00
  0.00000000E+00  0.00000000E+00  0.00000000E+00
  0.00000000E+00  0.00000000E+00  0.00000000E+00
  0.00000000E+00  0.00000000E+00  0.00000000E+00
  0.00000000E+00  0.00000000E+00  0.00000000E+00
  0.00000000E+00  0.00000000E+00  0.00000000E+00
  0.00000000E+00  0.00000000E+00  0.00000000E+00
  0.00000000E+00  0.00000000E+00  0.00000000E+00
  0.00000000E+00  0.00000000E+00  0.00000000E+00
  0.00000000E+00  0.00000000E+00  0.00000000E+00
  0.00000000E+00  0.00000000E+00  0.00000000E+00
  0.00000000E+00  0.00000000E+00  0.00000000E+00
  0.00000000E+00  0.00000000E+00  0.00000000E+00
  0.00000000E+00  0.00000000E+00  0.00000000E+00
  0.00000000E+00  0.00000000E+00  0.00000000E+00
  0.00000000E+00  0.00000000E+00  0.00000000E+00
  0.00000000E+00  0.00000000E+00  0.00000000E+00
  0.00000000E+00  0.00000000E+00  0.00000000E+00
  0.00000000E+00  0.00000000E+00  0.00000000E+00
  0.00000000E+00  0.00000000E+00  0.00000000E+00
  0.00000000E+00  0.00000000E+00  0.00000000E+00
  0.00000000E+00  0.00000000E+00  0.00000000E+00
  0.00000000E+00  0.00000000E+00  0.00000000E+00
  0.00000000E+00  0.00000000E+00  0.00000000E+00
  0.00000000E+00  0.00000000E+00  0.00000000E+00
  0.00000000E+00  0.00000000E+00  0.00000000E+00
  0.00000000E+00  0.00000000E+00  0.00000000E+00
  0.00000000E+00  0.00000000E+00  0.00000000E+00
  0.00000000E+00  0.00000000E+00  0.00000000E+00
  0.00000000E+00  0.00000000E+00  0.00000000E+00
  0.00000000E+00  0.00000000E+00  0.00000000E+00
  0.00000000E+00  0.00000000E+00  0.00000000E+00
  0.00000000E+00  0.00000000E+00  0.00000000E+00
  0.00000000E+00  0.00000000E+00  0.00000000E+00
  0.00000000E+00  0.00000000E+00  0.00000000E+00
  0.00000000E+00  0.00000000E+00  0.00000000E+00
  0.00000000E+00  0.00000000E+00  0.00000000E+00
  0.00000000E+00  0.00000000E+00  0.00000000E+00
  0.00000000E+00  0.00000000E+00  0.00000000E+00
  0.00000000E+00  0.00000000E+00  0.00000000E+00
  0.00000000E+00  0.00000000E+00  0.00000000E+00
  0.00000000E+00  0.00000000E+00  0.00000000E+00
  0.00000000E+00  0.00000000E+00  0.00000000E+00
  0.00000000E+00  0.00000000E+00  0.00000000E+00
  0.00000000E+00  0.00000000E+00  0.00000000E+00
  0.00000000E+00  0.00000000E+00  0.00000000E+00
  0.00000000E+00  0.00000000E+00  0.00000000E+00
  0.00000000E+00  0.00000000E+00  0.00000000E+00
  0.00000000E+00  0.00000000E+00  0.00000000E+00
  0.00000000E+00  0.00000000E+00  0.00000000E+00
  0.00000000E+00  0.00000000E+00  0.00000000E+00
  0.00000000E+00  0.00000000E+00  0.00000000E+00
  0.00000000E+00  0.00000000E+00  0.00000000E+00
  0.00000000E+00  0.00000000E+00  0.00000000E+00
  0.00000000E+00  0.00000000E+00  0.00000000E+00
  0.00000000E+00  0.00000000E+00  0.00000000E+00
  0.00000000E+00  0.00000000E+00  0.00000000E+00
  0.00000000E+00  0.00000000E+00  0.00000000E+00
  0.00000000E+00  0.00000000E+00  0.00000000E+00
  0.00000000E+00  0.00000000E+00  0.00000000E+00
  0.00000000E+00  0.00000000E+00  0.00000000E+00
  0.00000000E+00  0.00000000E+00  0.00000000E+00
  0.00000000E+00  0.00000000E+00  0.00000000E+00
  0.00000000E+00  0.00000000E+00  0.00000000E+00
  0.00000000E+00  0.00000000E+00  0.00000000E+00
  0.00000000E+00  0.00000000E+00  0.00000000E+00
  0.00000000E+00  0.00000000E+00  0.00000000E+00
  0.00000000E+00  0.00000000E+00  0.00000000E+00
  0.00000000E+00  0.00000000E+00  0.00000000E+00
  0.00000000E+00  0.00000000E+00  0.00000000E+00
  0.00000000E+00  0.00000000E+00  0.00000000E+00
  0.00000000E+00  0.00000000E+00  0.00000000E+00
  0.00000000E+00  0.00000000E+00  0.00000000E+00
  0.00000000E+00  0.00000000E+00  0.00000000E+00
  0.00000000E+00  0.00000000E+00  0.00000000E+00
  0.00000000E+00  0.00000000E+00  0.00000000E+00
  0.00000000E+00  0.00000000E+00  0.00000000E+00
  0.00000000E+00  0.00000000E+00  0.00000000E+00
  0.00000000E+00  0.00000000E+00  0.00000000E+00
  0.00000000E+00  0.00000000E+00  0.00000000E+00
  0.00000000E+00  0.00000000E+00  0.00000000E+00
  0.00000000E+00  0.00000000E+00  0.00000000E+00
  0.00000000E+00  0.00000000E+00  0.00000000E+00
  0.00000000E+00  0.00000000E+00  0.00000000E+00
  0.00000000E+00  0.00000000E+00  0.00000000E+00
  0.00000000E+00  0.00000000E+00  0.00000000E+00
  0.00000000E+00  0.00000000E+00  0.00000000E+00
  0.00000000E+00  0.00000000E+00  0.00000000E+00
  0.00000000E+00  0.00000000E+00  0.00000000E+00
  0.00000000E+00  0.00000000E+00  0.00000000E+00
  0.00000000E+00  0.00000000E+00  0.00000000E+00
  0.00000000E+00  0.00000000E+00  0.00000000E+00
  0.00000000E+00  0.00000000E+00  0.00000000E+00
  0.00000000E+00  0.00000000E+00  0.00000000E+00
  0.00000000E+00  0.00000000E+00  0.00000000E+00
  0.00000000E+00  0.00000000E+00  0.00000000E+00
  0.00000000E+00  0.00000000E+00  0.00000000E+00
  0.00000000E+00  0.00000000E+00  0.00000000E+00
  0.00000000E+00  0.00000000E+00  0.00000000E+00
  0.00000000E+00  0.00000000E+00  0.00000000E+00
  0.00000000E+00  0.00000000E+00  0.00000000E+00
  0.00000000E+00  0.00000000E+00  0.00000000E+00
  0.00000000E+00  0.00000000E+00  0.00000000E+00
  0.00000000E+00  0.00000000E+00  0.00000000E+00
  0.00000000E+00  0.00000000E+00  0.00000000E+00
  0.00000000E+00  0.00000000E+00  0.00000000E+00
  0.00000000E+00  0.00000000E+00  0.00000000E+00
  0.00000000E+00  0.00000000E+00  0.00000000E+00
  0.00000000E+00  0.00000000E+00  0.00000000E+00
  0.00000000E+00  0.00000000E+00  0.00000000E+00
  0.00000000E+00  0.00000000E+00  0.00000000E+00
  0.00000000E+00  0.00000000E+00  0.00000000E+00
  0.00000000E+00  0.00000000E+00  0.00000000E+00
  0.00000000E+00  0.00000000E+00  0.00000000E+00
  0.00000000E+00  0.00000000E+00  0.00000000E+00
  0.00000000E+00  0.00000000E+00  0.00000000E+00
  0.00000000E+00  0.00000000E+00  0.00000000E+00
  0.00000000E+00  0.00000000E+00  0.00000000E+00
