Li7 P2 N1 O7                            
   1.00000000000000     
     5.2142878098726628   -0.0000010096607413   -0.0459536243379289
    -0.0000011441064877    6.0987062501232376   -0.0000007039233262
    -0.0441252751869487   -0.0000005839602672    5.2266871327110103
   Li   P    N    O 
     7     2     1     7
Direct
  0.0110689468905344  0.4999999747358266  0.1430383353746885
  0.5138427034882148  0.7299645785546200  0.3043238906485236
  0.5138429163033665  0.2700354902283055  0.3043239660517821
 -0.0275462760860603  0.7140274095487174  0.6706929138980133
 -0.0275467627780972  0.2859727669364490  0.6706922377652551
  0.6708451957231159 -0.0000002451558156  0.8438516794732751
  0.2928190928276856  0.0000006871331146  0.6094088509828799
  0.4807121581440552  0.4999999045845221  0.8159931805460316
  0.0017138192569504 -0.0000000219507037  0.1859975079773692
  0.1838296508144005  0.4999998561180077  0.8221236967253970
  0.1221793073940417  0.2024047083376768  0.3257635068548370
  0.1221792936797767  0.7975953878321086  0.3257634981942557
  0.6255959386185537  0.4999999806223080  0.0879447400914310
  0.7039004687905264 -0.0000000191547633  0.2119961501935457
  0.5977263105665862  0.7144100633491305  0.6721285523429383
  0.5977260577336727  0.2855895333921702  0.6721286437152045
  0.0502411786327044 -0.0000000551116728  0.8907486491645695
 
  0.00000000E+00  0.00000000E+00  0.00000000E+00
  0.00000000E+00  0.00000000E+00  0.00000000E+00
  0.00000000E+00  0.00000000E+00  0.00000000E+00
  0.00000000E+00  0.00000000E+00  0.00000000E+00
  0.00000000E+00  0.00000000E+00  0.00000000E+00
  0.00000000E+00  0.00000000E+00  0.00000000E+00
  0.00000000E+00  0.00000000E+00  0.00000000E+00
  0.00000000E+00  0.00000000E+00  0.00000000E+00
  0.00000000E+00  0.00000000E+00  0.00000000E+00
  0.00000000E+00  0.00000000E+00  0.00000000E+00
  0.00000000E+00  0.00000000E+00  0.00000000E+00
  0.00000000E+00  0.00000000E+00  0.00000000E+00
  0.00000000E+00  0.00000000E+00  0.00000000E+00
  0.00000000E+00  0.00000000E+00  0.00000000E+00
  0.00000000E+00  0.00000000E+00  0.00000000E+00
  0.00000000E+00  0.00000000E+00  0.00000000E+00
  0.00000000E+00  0.00000000E+00  0.00000000E+00
