Li73 P24 N1 O95                         
   1.00000000000000     
    14.7364909561026085   -0.0053043971950292   -0.0128725217366218
    -0.0037681571238816   10.5580752644405891    0.0010199382784464
    -0.0107332328350797    0.0012179865038843   12.3016859487383918
   Li   P    N    O 
    73    24     1    95
Direct
  0.2184862389162173  0.4342799042965432  0.0006147885862424
  0.1691019040624449  0.4212643882274109  0.4938099472975794
  0.1705499875194265  0.9186613842538828  0.0011922658233078
  0.1695146622937455  0.9213988857700784  0.4994361834368495
  0.5019237608405097  0.4233088850980860  0.0010199545498539
  0.5019359133056216  0.4231118506652223  0.4991772821200892
  0.5030158006589356  0.9212826529748258  0.0006397064212053
  0.5026631075674929  0.9227897979634141  0.4999117903979068
  0.8352546574207317  0.4224502870340673  0.0016962143956974
  0.8354782343922134  0.4235439180136642  0.5010910062609304
  0.8364203461353606  0.9230772893987453  0.0006941346156284
  0.8365055919616551  0.9232206476765591  0.5004204694023119
  0.0046214621443993  0.0781479418570710  0.2520997329679299
  0.0034129683728393  0.0777540181833939  0.7494776994500751
  0.0039816152057885  0.5770731749469284  0.2534855703737640
  0.0016825922879908  0.5767064008612929  0.7506829069835113
  0.3377028872825397  0.0765435251544276  0.2522556212810725
  0.3377168972847386  0.0763994272657581  0.7482527963883647
  0.3323966199824576  0.5751340789217478  0.2496156525107653
  0.3373159114795409  0.5786922232743582  0.7498613775293090
  0.6690125916928671  0.0785086114822991  0.2508490216951272
  0.6687572490311128  0.0783397362866353  0.7497409272192848
  0.6693314621548562  0.5787407637913737  0.2515918861744610
  0.6688470274254286  0.5789440453799352  0.7492348088132645
  0.1797061999425038  0.1561712891838601  0.1357530327622764
  0.1694052538473324  0.1626283975256477  0.6252590927576580
  0.1682336706850062  0.6585196165730053  0.1277182430910516
  0.1686079120363690  0.6601578717648584  0.6270236979291214
  0.5023523102069424  0.1634443332841969  0.1270725117227931
  0.5023008303824440  0.1637944519356812  0.6255902876160651
  0.5064037863918965  0.6643899548126796  0.1281837971494064
  0.5022655243248564  0.6640178475344440  0.6255473323314599
  0.8347372924876537  0.1637817768175661  0.1271158926546027
  0.8357769872237022  0.1637330712216381  0.6265470514746659
  0.8351525262977599  0.6640690817018352  0.1276585501849954
  0.8353504759504021  0.6643895459818497  0.6274665352136914
 -0.0059130706552844  0.3422202542732208  0.1386493151047028
  0.0022675213095600  0.3369453185351677  0.6240314491442834
  0.0031628732394888  0.8337293809914750  0.1245572936730741
  0.0026994217618430  0.8368398815885456  0.6242340723658296
  0.3320620069949133  0.3336269640048209  0.1282934258132596
  0.3355779945934971  0.3366900940856056  0.6232936722319501
  0.3362930279442285  0.8367082454947448  0.1249806825247973
  0.3356271961239669  0.8359891750434501  0.6232677927638244
  0.6689075581378165  0.3377822804125242  0.1249134337976630
  0.6681388704365042  0.3370685168890034  0.6226817121690763
  0.6699035808395316  0.8380354536196085  0.1243919977102110
  0.6694402248927059  0.8377416151866199  0.6240138577561657
  0.0039135897646657  0.3389673538011252  0.3782954341408235
 -0.0063274422985824  0.3388022448328586  0.8699905927941955
  0.0031389020929484  0.8369834188107774  0.3775486636246023
  0.0023046932874812  0.8341403746196075  0.8768736644326844
  0.3323093363234413  0.3376449911340947  0.3737710728943918
  0.3399841964049344  0.3347917736293288  0.8744193066931369
  0.3352655219472303  0.8351402688523620  0.3766951902370608
  0.3365759466363158  0.8376721337071314  0.8752109969599624
  0.6683612127963944  0.3371818816476118  0.3779058959361133
  0.6686443799044625  0.3379151329873929  0.8765004407248890
  0.6697629492225784  0.8376577489071193  0.3766457561213373
  0.6698711230851372  0.8381193153623171  0.8766704302884768
  0.1701910645002086  0.1663860430792725  0.3723024184851083
  0.1758486740327181  0.1566219268982426  0.8686296557821050
  0.1684781223623552  0.6574206174007508  0.3728541596244541
  0.1670852786716535  0.6640861843357544  0.8740416212786658
  0.5021756220636950  0.1643384106885499  0.3744966286230569
  0.5030515057239027  0.1628673275470130  0.8737565623229840
  0.5016259123476358  0.6633340708202921  0.3736693869473006
  0.5069083336094721  0.6648978306812574  0.8721713551160157
  0.8364182800269460  0.1642292629709760  0.3744335639524284
  0.8330751284194851  0.1631208125392123  0.8737684182101406
  0.8363392137953695  0.6645683847167532  0.3753078461135844
  0.8344404070002264  0.6638186067072323  0.8744102308042864
  0.1062752557659655  0.2965690833315511  0.0163914169326392
  0.1655855655676829  0.4085116800304885  0.2413044204515044
  0.1664795110232712  0.4106741072563060  0.7533610543160416
  0.1673742276956492  0.9083527117637669  0.2519708014291949
  0.1668899586075202  0.9105377152988482  0.7493706083476208
  0.5004485363523454  0.4127265620770966  0.2503141131325481
  0.5002582801220106  0.4127057762872817  0.7494983397498207
  0.5008255298146500  0.9125883780803057  0.2509455818077653
  0.5007537237107970  0.9129893715691083  0.7496351848645768
  0.8311656698482023  0.4135495677757545  0.2529498677288524
  0.8308813109856292  0.4127047087882583  0.7496877351413076
  0.8343653518689371  0.9135216535963930  0.2503607313291104
  0.8339664098848780  0.9132057887398305  0.7508296536146354
  0.0005444107791986  0.0887104912305659  0.0012136671657119
  0.0003013351660935  0.0881168139102118  0.5007523975783091
 -0.0029160119919424  0.5830200131666735  0.0006564650427911
 -0.0005158635927123  0.5884422108255565  0.5027326997611041
  0.3339502518316513  0.0859391324315905  0.0001438752590748
  0.3334034987864851  0.0877930642398114  0.4999898316583973
  0.3385556472443388  0.5976735673570723 -0.0013035650246116
  0.3330268015071494  0.5869721030248096  0.5003957169578694
  0.6663109567899609  0.0883315333272606  0.0004255018739571
  0.6671350509990293  0.0881750917440229  0.5003246210346678
  0.6667185037304008  0.5882839779252383  0.0003974774989943
  0.6667140264295193  0.5890978054436473  0.5004418697496659
  0.1962808784612068  0.3400117796973750  0.1330926891002482
  0.0354237475043262  0.1572676224165057  0.3970079323892232
  0.0395319236257264  0.1631156074263419  0.9005563656904055
  0.0344933060469917  0.6584337467723556  0.3994069862090653
  0.0340865594711712  0.6510334414470730  0.8967497867347939
  0.3690302991664800  0.1572229609654520  0.3964936440184968
  0.3683399579865819  0.1559829566869123  0.8958806032485755
  0.3681332656824507  0.6563359399979679  0.3965511988050125
  0.3759947956022521  0.6616888815158259  0.8941834786976882
  0.7024073501873357  0.1574710076811542  0.3964956799768098
  0.7007578668670820  0.1576744369011614  0.8961201943413464
  0.7024519007064930  0.6585149919934477  0.3969097079413087
  0.7012097941802572  0.6577411373485792  0.8961019790086721
  0.2031852370152035  0.0471643618526726  0.2542300761719365
  0.2019018670848099  0.0500802966900075  0.7478190633208638
  0.1989478549796710  0.5522108043585447  0.2497127147829186
  0.2009065502947218  0.5502618832138267  0.7535724061866317
  0.5338323520912290  0.0530715995996052  0.2512345422428136
  0.5337091207043280  0.0534916405104632  0.7494392914078654
  0.5351371868728604  0.5523975228028504  0.2508578986073696
  0.5344724104427520  0.5524481952231013  0.7490730161108077
  0.8685320432449853  0.0535154470557305  0.2499350899479428
  0.8681878183290183  0.0532155285230879  0.7513100172360612
  0.8655883946242040  0.5531349219050833  0.2516584828902161
  0.8657471544012894  0.5521747602800183  0.7512148629618027
  0.0579672661910219  0.4129671667817351  0.2547937024827696
  0.0608066756353283  0.4080811467026019  0.7517977493442557
  0.0615077529150915  0.9087315438413698  0.2504222422772883
  0.0610870661597586  0.9099322893020136  0.7510859267032213
  0.3950400177143616  0.4104023683135994  0.2499987073213323
  0.3945021012002264  0.4103225780147192  0.7493577990573005
  0.3951674418435974  0.9086324298509408  0.2507968231106332
  0.3950605561117838  0.9093145603562939  0.7495083987270826
  0.7256238975072956  0.4109660724731971  0.2526084720380349
  0.7253665560176140  0.4107488482036258  0.7486991928780051
  0.7286596058019323  0.9111826516728638  0.2503296557439919
  0.7283133836409365  0.9109873254031347  0.7505520608660069
  0.2280159867311193  0.0868135899519407 -0.0004201331422123
  0.2277654906095711  0.0904101574266907  0.4999059303009650
  0.2332922676513382  0.6099112159629581 -0.0017865107842964
  0.2274252388356689  0.5889134828061823  0.5014697024347973
  0.5606828311540552  0.0901180565584963  0.0006570137371773
  0.5614566072882172  0.0907749024227915  0.5002003188711716
  0.5610817810562873  0.5903318183571188  0.0002375277307399
  0.5610375077839438  0.5914913604782214  0.4999296780608352
  0.8952655888912582  0.0926053278007838 -0.0008185059254110
  0.8945742649457618  0.0909007655321932  0.5008719534066850
  0.8915014631452736  0.5921271009860669  0.0006553855461721
  0.8937218928402035  0.5911653410230721  0.5023221447145992
  0.2025828481848546  0.3403701033110508  0.6508922985053774
  0.2020435576053460  0.8403857808859410  0.1473269443062880
  0.2010572074986769  0.8404348410490423  0.6457214618938959
  0.5353709723858238  0.3436099350663629  0.1459683734622199
  0.5351131072071836  0.3429578129724583  0.6458425354969146
  0.5369536286791781  0.8444946745036526  0.1470251875690298
  0.5359387623891548  0.8438281017295886  0.6457788477122762
  0.8647815292368716  0.3429743184249492  0.1488719796649814
  0.8675170105057792  0.3435915597035620  0.6465817454929211
  0.8693379964540735  0.8441350930096811  0.1463103592729081
  0.8690770930937562  0.8440863057556471  0.6469708062735849
  0.0362737764520550  0.1605338065820988  0.1041703470467676
  0.0354358534017488  0.1572991543522908  0.6050878850875659
  0.0344072200220151  0.6515046082026283  0.1037061210509191
  0.0345208333083476  0.6570727369533019  0.6073476302897303
  0.3693789725687470  0.1544480014223986  0.1040707972959899
  0.3687980758106995  0.1567658909366605  0.6042425128344727
  0.3758022984528557  0.6605747983331496  0.1036166215696624
  0.3686684098478015  0.6566239250182941  0.6043261309415665
  0.7017428202235668  0.1578537079312631  0.1041931620116260
  0.7022712631463713  0.1575135823858297  0.6044588467118162
  0.7016415328321467  0.6580461144299415  0.1043246596253034
  0.7018267814988030  0.6583510709955237  0.6046243945330617
  0.0234007772633887  0.4396008850745407  0.0000068146317733
  0.0333125598475111  0.4486003017666095  0.5031731850564302
  0.0340496519708537  0.9491656663744531  0.0003200508031500
  0.0339837646369071  0.9480707018029690  0.5011416168741585
  0.3623717373041557  0.4526739463684311 -0.0022805627140309
  0.3670212374226041  0.4470698334417853  0.5002310512196609
  0.3679965611935557  0.9461589955362019 -0.0004510072820282
  0.3670072577945605  0.9475905151431249  0.5000961790414212
  0.7005890500468754  0.4483958357388946  0.0005128305392803
  0.7003679193622872  0.4490725132445757  0.5006847252426274
  0.7011216110507148  0.9487799243847093  0.0003674706818664
  0.7011470457874784  0.9482984222299047  0.5005041933150387
  0.2008244470525264  0.3429986133176214  0.3510709367270756
  0.2007889440458688  0.3420808652252375  0.8596116611767093
  0.2011823995543298  0.8379878298751435  0.3557614779290471
  0.2020884763346745  0.8421288723599308  0.8536040670940501
  0.5356589308517028  0.3429907684894664  0.3541862099785409
  0.5345142729842279  0.3436528056837378  0.8542483464335027
  0.5361880130804962  0.8433144969951677  0.3548661031076055
  0.5369819813989438  0.8449089911453351  0.8536161580813900
  0.8673063583172448  0.3444432894912692  0.3563733789111402
  0.8643831198645207  0.3420671512189347  0.8539125363114251
  0.8694625687758850  0.8443475803198269  0.3544180124758114
  0.8689675305459322  0.8436544145908382  0.8549301380389175
 
  0.00000000E+00  0.00000000E+00  0.00000000E+00
  0.00000000E+00  0.00000000E+00  0.00000000E+00
  0.00000000E+00  0.00000000E+00  0.00000000E+00
  0.00000000E+00  0.00000000E+00  0.00000000E+00
  0.00000000E+00  0.00000000E+00  0.00000000E+00
  0.00000000E+00  0.00000000E+00  0.00000000E+00
  0.00000000E+00  0.00000000E+00  0.00000000E+00
  0.00000000E+00  0.00000000E+00  0.00000000E+00
  0.00000000E+00  0.00000000E+00  0.00000000E+00
  0.00000000E+00  0.00000000E+00  0.00000000E+00
  0.00000000E+00  0.00000000E+00  0.00000000E+00
  0.00000000E+00  0.00000000E+00  0.00000000E+00
  0.00000000E+00  0.00000000E+00  0.00000000E+00
  0.00000000E+00  0.00000000E+00  0.00000000E+00
  0.00000000E+00  0.00000000E+00  0.00000000E+00
  0.00000000E+00  0.00000000E+00  0.00000000E+00
  0.00000000E+00  0.00000000E+00  0.00000000E+00
  0.00000000E+00  0.00000000E+00  0.00000000E+00
  0.00000000E+00  0.00000000E+00  0.00000000E+00
  0.00000000E+00  0.00000000E+00  0.00000000E+00
  0.00000000E+00  0.00000000E+00  0.00000000E+00
  0.00000000E+00  0.00000000E+00  0.00000000E+00
  0.00000000E+00  0.00000000E+00  0.00000000E+00
  0.00000000E+00  0.00000000E+00  0.00000000E+00
  0.00000000E+00  0.00000000E+00  0.00000000E+00
  0.00000000E+00  0.00000000E+00  0.00000000E+00
  0.00000000E+00  0.00000000E+00  0.00000000E+00
  0.00000000E+00  0.00000000E+00  0.00000000E+00
  0.00000000E+00  0.00000000E+00  0.00000000E+00
  0.00000000E+00  0.00000000E+00  0.00000000E+00
  0.00000000E+00  0.00000000E+00  0.00000000E+00
  0.00000000E+00  0.00000000E+00  0.00000000E+00
  0.00000000E+00  0.00000000E+00  0.00000000E+00
  0.00000000E+00  0.00000000E+00  0.00000000E+00
  0.00000000E+00  0.00000000E+00  0.00000000E+00
  0.00000000E+00  0.00000000E+00  0.00000000E+00
  0.00000000E+00  0.00000000E+00  0.00000000E+00
  0.00000000E+00  0.00000000E+00  0.00000000E+00
  0.00000000E+00  0.00000000E+00  0.00000000E+00
  0.00000000E+00  0.00000000E+00  0.00000000E+00
  0.00000000E+00  0.00000000E+00  0.00000000E+00
  0.00000000E+00  0.00000000E+00  0.00000000E+00
  0.00000000E+00  0.00000000E+00  0.00000000E+00
  0.00000000E+00  0.00000000E+00  0.00000000E+00
  0.00000000E+00  0.00000000E+00  0.00000000E+00
  0.00000000E+00  0.00000000E+00  0.00000000E+00
  0.00000000E+00  0.00000000E+00  0.00000000E+00
  0.00000000E+00  0.00000000E+00  0.00000000E+00
  0.00000000E+00  0.00000000E+00  0.00000000E+00
  0.00000000E+00  0.00000000E+00  0.00000000E+00
  0.00000000E+00  0.00000000E+00  0.00000000E+00
  0.00000000E+00  0.00000000E+00  0.00000000E+00
  0.00000000E+00  0.00000000E+00  0.00000000E+00
  0.00000000E+00  0.00000000E+00  0.00000000E+00
  0.00000000E+00  0.00000000E+00  0.00000000E+00
  0.00000000E+00  0.00000000E+00  0.00000000E+00
  0.00000000E+00  0.00000000E+00  0.00000000E+00
  0.00000000E+00  0.00000000E+00  0.00000000E+00
  0.00000000E+00  0.00000000E+00  0.00000000E+00
  0.00000000E+00  0.00000000E+00  0.00000000E+00
  0.00000000E+00  0.00000000E+00  0.00000000E+00
  0.00000000E+00  0.00000000E+00  0.00000000E+00
  0.00000000E+00  0.00000000E+00  0.00000000E+00
  0.00000000E+00  0.00000000E+00  0.00000000E+00
  0.00000000E+00  0.00000000E+00  0.00000000E+00
  0.00000000E+00  0.00000000E+00  0.00000000E+00
  0.00000000E+00  0.00000000E+00  0.00000000E+00
  0.00000000E+00  0.00000000E+00  0.00000000E+00
  0.00000000E+00  0.00000000E+00  0.00000000E+00
  0.00000000E+00  0.00000000E+00  0.00000000E+00
  0.00000000E+00  0.00000000E+00  0.00000000E+00
  0.00000000E+00  0.00000000E+00  0.00000000E+00
  0.00000000E+00  0.00000000E+00  0.00000000E+00
  0.00000000E+00  0.00000000E+00  0.00000000E+00
  0.00000000E+00  0.00000000E+00  0.00000000E+00
  0.00000000E+00  0.00000000E+00  0.00000000E+00
  0.00000000E+00  0.00000000E+00  0.00000000E+00
  0.00000000E+00  0.00000000E+00  0.00000000E+00
  0.00000000E+00  0.00000000E+00  0.00000000E+00
  0.00000000E+00  0.00000000E+00  0.00000000E+00
  0.00000000E+00  0.00000000E+00  0.00000000E+00
  0.00000000E+00  0.00000000E+00  0.00000000E+00
  0.00000000E+00  0.00000000E+00  0.00000000E+00
  0.00000000E+00  0.00000000E+00  0.00000000E+00
  0.00000000E+00  0.00000000E+00  0.00000000E+00
  0.00000000E+00  0.00000000E+00  0.00000000E+00
  0.00000000E+00  0.00000000E+00  0.00000000E+00
  0.00000000E+00  0.00000000E+00  0.00000000E+00
  0.00000000E+00  0.00000000E+00  0.00000000E+00
  0.00000000E+00  0.00000000E+00  0.00000000E+00
  0.00000000E+00  0.00000000E+00  0.00000000E+00
  0.00000000E+00  0.00000000E+00  0.00000000E+00
  0.00000000E+00  0.00000000E+00  0.00000000E+00
  0.00000000E+00  0.00000000E+00  0.00000000E+00
  0.00000000E+00  0.00000000E+00  0.00000000E+00
  0.00000000E+00  0.00000000E+00  0.00000000E+00
  0.00000000E+00  0.00000000E+00  0.00000000E+00
  0.00000000E+00  0.00000000E+00  0.00000000E+00
  0.00000000E+00  0.00000000E+00  0.00000000E+00
  0.00000000E+00  0.00000000E+00  0.00000000E+00
  0.00000000E+00  0.00000000E+00  0.00000000E+00
  0.00000000E+00  0.00000000E+00  0.00000000E+00
  0.00000000E+00  0.00000000E+00  0.00000000E+00
  0.00000000E+00  0.00000000E+00  0.00000000E+00
  0.00000000E+00  0.00000000E+00  0.00000000E+00
  0.00000000E+00  0.00000000E+00  0.00000000E+00
  0.00000000E+00  0.00000000E+00  0.00000000E+00
  0.00000000E+00  0.00000000E+00  0.00000000E+00
  0.00000000E+00  0.00000000E+00  0.00000000E+00
  0.00000000E+00  0.00000000E+00  0.00000000E+00
  0.00000000E+00  0.00000000E+00  0.00000000E+00
  0.00000000E+00  0.00000000E+00  0.00000000E+00
  0.00000000E+00  0.00000000E+00  0.00000000E+00
  0.00000000E+00  0.00000000E+00  0.00000000E+00
  0.00000000E+00  0.00000000E+00  0.00000000E+00
  0.00000000E+00  0.00000000E+00  0.00000000E+00
  0.00000000E+00  0.00000000E+00  0.00000000E+00
  0.00000000E+00  0.00000000E+00  0.00000000E+00
  0.00000000E+00  0.00000000E+00  0.00000000E+00
  0.00000000E+00  0.00000000E+00  0.00000000E+00
  0.00000000E+00  0.00000000E+00  0.00000000E+00
  0.00000000E+00  0.00000000E+00  0.00000000E+00
  0.00000000E+00  0.00000000E+00  0.00000000E+00
  0.00000000E+00  0.00000000E+00  0.00000000E+00
  0.00000000E+00  0.00000000E+00  0.00000000E+00
  0.00000000E+00  0.00000000E+00  0.00000000E+00
  0.00000000E+00  0.00000000E+00  0.00000000E+00
  0.00000000E+00  0.00000000E+00  0.00000000E+00
  0.00000000E+00  0.00000000E+00  0.00000000E+00
  0.00000000E+00  0.00000000E+00  0.00000000E+00
  0.00000000E+00  0.00000000E+00  0.00000000E+00
  0.00000000E+00  0.00000000E+00  0.00000000E+00
  0.00000000E+00  0.00000000E+00  0.00000000E+00
  0.00000000E+00  0.00000000E+00  0.00000000E+00
  0.00000000E+00  0.00000000E+00  0.00000000E+00
  0.00000000E+00  0.00000000E+00  0.00000000E+00
  0.00000000E+00  0.00000000E+00  0.00000000E+00
  0.00000000E+00  0.00000000E+00  0.00000000E+00
  0.00000000E+00  0.00000000E+00  0.00000000E+00
  0.00000000E+00  0.00000000E+00  0.00000000E+00
  0.00000000E+00  0.00000000E+00  0.00000000E+00
  0.00000000E+00  0.00000000E+00  0.00000000E+00
  0.00000000E+00  0.00000000E+00  0.00000000E+00
  0.00000000E+00  0.00000000E+00  0.00000000E+00
  0.00000000E+00  0.00000000E+00  0.00000000E+00
  0.00000000E+00  0.00000000E+00  0.00000000E+00
  0.00000000E+00  0.00000000E+00  0.00000000E+00
  0.00000000E+00  0.00000000E+00  0.00000000E+00
  0.00000000E+00  0.00000000E+00  0.00000000E+00
  0.00000000E+00  0.00000000E+00  0.00000000E+00
  0.00000000E+00  0.00000000E+00  0.00000000E+00
  0.00000000E+00  0.00000000E+00  0.00000000E+00
  0.00000000E+00  0.00000000E+00  0.00000000E+00
  0.00000000E+00  0.00000000E+00  0.00000000E+00
  0.00000000E+00  0.00000000E+00  0.00000000E+00
  0.00000000E+00  0.00000000E+00  0.00000000E+00
  0.00000000E+00  0.00000000E+00  0.00000000E+00
  0.00000000E+00  0.00000000E+00  0.00000000E+00
  0.00000000E+00  0.00000000E+00  0.00000000E+00
  0.00000000E+00  0.00000000E+00  0.00000000E+00
  0.00000000E+00  0.00000000E+00  0.00000000E+00
  0.00000000E+00  0.00000000E+00  0.00000000E+00
  0.00000000E+00  0.00000000E+00  0.00000000E+00
  0.00000000E+00  0.00000000E+00  0.00000000E+00
  0.00000000E+00  0.00000000E+00  0.00000000E+00
  0.00000000E+00  0.00000000E+00  0.00000000E+00
  0.00000000E+00  0.00000000E+00  0.00000000E+00
  0.00000000E+00  0.00000000E+00  0.00000000E+00
  0.00000000E+00  0.00000000E+00  0.00000000E+00
  0.00000000E+00  0.00000000E+00  0.00000000E+00
  0.00000000E+00  0.00000000E+00  0.00000000E+00
  0.00000000E+00  0.00000000E+00  0.00000000E+00
  0.00000000E+00  0.00000000E+00  0.00000000E+00
  0.00000000E+00  0.00000000E+00  0.00000000E+00
  0.00000000E+00  0.00000000E+00  0.00000000E+00
  0.00000000E+00  0.00000000E+00  0.00000000E+00
  0.00000000E+00  0.00000000E+00  0.00000000E+00
  0.00000000E+00  0.00000000E+00  0.00000000E+00
  0.00000000E+00  0.00000000E+00  0.00000000E+00
  0.00000000E+00  0.00000000E+00  0.00000000E+00
  0.00000000E+00  0.00000000E+00  0.00000000E+00
  0.00000000E+00  0.00000000E+00  0.00000000E+00
  0.00000000E+00  0.00000000E+00  0.00000000E+00
  0.00000000E+00  0.00000000E+00  0.00000000E+00
  0.00000000E+00  0.00000000E+00  0.00000000E+00
  0.00000000E+00  0.00000000E+00  0.00000000E+00
  0.00000000E+00  0.00000000E+00  0.00000000E+00
  0.00000000E+00  0.00000000E+00  0.00000000E+00
  0.00000000E+00  0.00000000E+00  0.00000000E+00
  0.00000000E+00  0.00000000E+00  0.00000000E+00
  0.00000000E+00  0.00000000E+00  0.00000000E+00
  0.00000000E+00  0.00000000E+00  0.00000000E+00
  0.00000000E+00  0.00000000E+00  0.00000000E+00
