Li61 P7 N32                             
   1.00000000000000     
    -0.0467951738491496    9.6216641247859052   -0.0372854299696187
     0.0100012019398163   -0.0372231585801050    9.6492522448441242
     9.6172936199217602   -0.0468115295709302    0.0096608442128853
   Li   P    N 
    61     7    32
Direct
  0.4855060244868769  0.9882740663137688  0.4977676503194120
  0.0038450201275535  0.5067299816798606  0.0022108835675737
  0.5026001219747829 -0.0001431191681955 -0.0016513317979391
  0.9920537900722025  0.0117107894476767  0.4966390789932424
  0.5021501194456737  0.4958676238418913  0.0090287560530789
  0.9664145861830041  0.5080632609713481  0.5039600870712972
  0.7279866657321874  0.0522456041546695  0.4843443316865954
  0.2406553398074756  0.0126329646150350  0.4957948324841578
  0.6704747398811070  0.5682930893546951  0.4489246761393878
  0.2034084449581952  0.5219255704418355  0.5017371195931328
  0.2656141317691293 -0.0050383063674376  0.0014625198980369
  0.7484754340699323  0.9956913612459141  0.9526949066653775
  0.5830047501095819  0.4196915161297976  0.5781938967203401
  0.4992576464909985  0.2472388027716030 -0.0013698855679734
  0.5229746081834123  0.7577915829878586  0.0227448433341828
 -0.0041341257716941  0.5294301557873534  0.2510616467076375
  0.0148347441397972  0.5094654130918242  0.7517851051885227
  0.2322647962495653  0.2206410844842715  0.2226247543650695
  0.2109176338545521  0.7447457334400365  0.7778707671976004
  0.2950340622884131  0.2211238543660355  0.7097405435355507
  0.2175366795863248  0.7154613209472008  0.2828860904537724
  0.7088015847958193  0.2221743633742661  0.2895066086843573
  0.8041317807710935  0.6716288446522507  0.6124534573441116
  0.7869048635125880  0.1651807786568152  0.7133341722808277
  0.7206825202563105  0.7288889650345234  0.2477414221268803
  0.9599239205227070  0.2896859934168131  0.2586403294557064
  0.9684484152889888  0.7649817793159982  0.7707619679950266
  0.2512629623303742  0.2707998322086379  0.4920687863976878
  0.2582845007701475  0.7670000116316227  0.5183814550542500
  0.7712323320771148  0.3188183938088929  0.4834865675113652
  0.7523645758234314  0.8269141344431441  0.4513255640176989
  0.7358757830778876  0.4644602061185070  0.2423674322339996
  0.7540445878203417  0.4802993472948359  0.7369207635223197
  0.2459905597137353  0.4851482083555986  0.2599259632770270
  0.2724452039531708  0.4621688322810374  0.7582191310491651
  0.4547737924770079  0.7655519019171770  0.2901994953301482
  0.5250534559492119  0.2445210874391705  0.7535685874686624
  0.2341701119911798  0.9722654299984439  0.2488661792888078
  0.2368063626678246  0.9938377586253079  0.7581715598096698
  0.2572227075847694  0.2376258836740949  0.9721196580206045
  0.2829116686232687  0.7499617015030980  0.0391135470873163
  0.7252589773449267  0.9153128220004277  0.6997441367443722
  0.7425795788763764  0.9831360465003536  0.2055953783407026
  0.7903389471111214  0.7515053622797091  0.0136394406979072
  0.7387552256318153  0.2334193680602948  0.0415653944610436
  0.0555366911046654  0.2546219775900299  0.7663148948521263
  0.9717883596257304  0.7948353454858561  0.2528231310944438
  0.4816932742429824  0.2684410392934131  0.2411057143705086
  0.4587695326029372  0.7378375482575776  0.7743310928553978
  0.0186551917022688  0.2640823475556439  0.0209664499793307
  0.0334187821783521  0.7484854356199876  0.0131818637927099
  0.5009023993847882  0.2202918710924321  0.4963459788142624
  0.5130335888591212  0.7592154417221361  0.5266115312037808
  0.4984784449361958  0.5223619067841494  0.2420534849770749
  0.5073448725014298  0.4904476416288814  0.7818150180407888
  0.9913026711903500  0.0366672816355793  0.2566883736290693
  0.9949178111917489  0.0067523190508305  0.7351136647861031
  0.4258144844775265  0.4339185558963392  0.4278783628165390
  0.4223196450519725  0.5719672759823355  0.5834301239200025
  0.8598093330516178  0.3195782035481035  0.8619502618159510
  0.6782262299118768  0.6982070380471228  0.8126799451037846
  0.0064151596448328  0.0077699797927151  0.9954116491240629
  0.7559184040622495  0.4982194988584995 -0.0002444001604327
  0.2485011958402071  0.4965423994782661  0.0053011993189257
  0.9959930476155207  0.7664026170054147  0.5016458016162955
  0.0031251473964164  0.2567167276798715  0.5122094626846114
  0.4932571988078929  0.0061125164057201  0.2438929566135080
  0.4929542571625239  0.9896492478828761  0.7526712513072421
  0.6156981053357264  0.6159015053157282  0.6415062167260654
  0.6129428337187565  0.3783713453555483  0.3760888157877860
  0.8992401198510755  0.9079241470368320  0.0941844193786034
  0.9104869394014590  0.1177152825236902  0.8957389243039857
  0.1001195145778516  0.9017392122252450  0.8926405005695326
  0.1127606197602365  0.1002134404380931  0.1007179635938603
  0.3607669963956948  0.6228064632816344  0.3936017462340590
  0.3935527367120136  0.3703321870224877  0.6226496035892066
  0.0877390689140976  0.3679090433039329  0.4043892193633543
  0.0793077325400751  0.6613301158004314  0.6118147621927273
  0.1137565120987418  0.1510428913363920  0.5969828114081124
  0.0999051550581753  0.8619055962762637  0.3995709665854880
  0.8885295088232990  0.1663091261231531  0.4096333473110561
  0.8907723767681912  0.8666910395982117  0.5993639034602481
  0.8610884051079805  0.3986000528460576  0.1002731057981484
  0.8540646845153648  0.5971874253488038  0.8909102486299155
  0.1524503768894968  0.5994339570403238  0.1101325105956854
  0.1440794985000333  0.3986650201374609  0.9009684605499128
  0.3986213744809784  0.8958996925798584  0.1439175036132606
  0.3990200865733177  0.1003410399684509  0.8503953411273039
  0.3857332871985912  0.0980103339159641  0.3448413292847104
  0.3818799050952816  0.8921725288089535  0.6536412969442552
  0.3485917003057480  0.3871686927868402  0.1026878776888639
  0.3501464676781716  0.6005533415727223  0.9044167348997145
  0.6032488339720866  0.0784699996937691  0.6491682236538597
  0.6047363762236435  0.9069839844312902  0.3433918028541423
  0.6602125135001707  0.6052425359361203  0.0976519136386750
  0.6559362999677336  0.3868865666751613  0.9058063730678919
  0.9090514767198891  0.3449680526764586  0.6349613926840947
  0.8810514302746779  0.6733795621968620  0.3962998008508146
  0.5944321043899758  0.1116120100998619  0.1460074856891550
  0.5906076034979489  0.8837941882255290  0.8561973145617301
 
  0.00000000E+00  0.00000000E+00  0.00000000E+00
  0.00000000E+00  0.00000000E+00  0.00000000E+00
  0.00000000E+00  0.00000000E+00  0.00000000E+00
  0.00000000E+00  0.00000000E+00  0.00000000E+00
  0.00000000E+00  0.00000000E+00  0.00000000E+00
  0.00000000E+00  0.00000000E+00  0.00000000E+00
  0.00000000E+00  0.00000000E+00  0.00000000E+00
  0.00000000E+00  0.00000000E+00  0.00000000E+00
  0.00000000E+00  0.00000000E+00  0.00000000E+00
  0.00000000E+00  0.00000000E+00  0.00000000E+00
  0.00000000E+00  0.00000000E+00  0.00000000E+00
  0.00000000E+00  0.00000000E+00  0.00000000E+00
  0.00000000E+00  0.00000000E+00  0.00000000E+00
  0.00000000E+00  0.00000000E+00  0.00000000E+00
  0.00000000E+00  0.00000000E+00  0.00000000E+00
  0.00000000E+00  0.00000000E+00  0.00000000E+00
  0.00000000E+00  0.00000000E+00  0.00000000E+00
  0.00000000E+00  0.00000000E+00  0.00000000E+00
  0.00000000E+00  0.00000000E+00  0.00000000E+00
  0.00000000E+00  0.00000000E+00  0.00000000E+00
  0.00000000E+00  0.00000000E+00  0.00000000E+00
  0.00000000E+00  0.00000000E+00  0.00000000E+00
  0.00000000E+00  0.00000000E+00  0.00000000E+00
  0.00000000E+00  0.00000000E+00  0.00000000E+00
  0.00000000E+00  0.00000000E+00  0.00000000E+00
  0.00000000E+00  0.00000000E+00  0.00000000E+00
  0.00000000E+00  0.00000000E+00  0.00000000E+00
  0.00000000E+00  0.00000000E+00  0.00000000E+00
  0.00000000E+00  0.00000000E+00  0.00000000E+00
  0.00000000E+00  0.00000000E+00  0.00000000E+00
  0.00000000E+00  0.00000000E+00  0.00000000E+00
  0.00000000E+00  0.00000000E+00  0.00000000E+00
  0.00000000E+00  0.00000000E+00  0.00000000E+00
  0.00000000E+00  0.00000000E+00  0.00000000E+00
  0.00000000E+00  0.00000000E+00  0.00000000E+00
  0.00000000E+00  0.00000000E+00  0.00000000E+00
  0.00000000E+00  0.00000000E+00  0.00000000E+00
  0.00000000E+00  0.00000000E+00  0.00000000E+00
  0.00000000E+00  0.00000000E+00  0.00000000E+00
  0.00000000E+00  0.00000000E+00  0.00000000E+00
  0.00000000E+00  0.00000000E+00  0.00000000E+00
  0.00000000E+00  0.00000000E+00  0.00000000E+00
  0.00000000E+00  0.00000000E+00  0.00000000E+00
  0.00000000E+00  0.00000000E+00  0.00000000E+00
  0.00000000E+00  0.00000000E+00  0.00000000E+00
  0.00000000E+00  0.00000000E+00  0.00000000E+00
  0.00000000E+00  0.00000000E+00  0.00000000E+00
  0.00000000E+00  0.00000000E+00  0.00000000E+00
  0.00000000E+00  0.00000000E+00  0.00000000E+00
  0.00000000E+00  0.00000000E+00  0.00000000E+00
  0.00000000E+00  0.00000000E+00  0.00000000E+00
  0.00000000E+00  0.00000000E+00  0.00000000E+00
  0.00000000E+00  0.00000000E+00  0.00000000E+00
  0.00000000E+00  0.00000000E+00  0.00000000E+00
  0.00000000E+00  0.00000000E+00  0.00000000E+00
  0.00000000E+00  0.00000000E+00  0.00000000E+00
  0.00000000E+00  0.00000000E+00  0.00000000E+00
  0.00000000E+00  0.00000000E+00  0.00000000E+00
  0.00000000E+00  0.00000000E+00  0.00000000E+00
  0.00000000E+00  0.00000000E+00  0.00000000E+00
  0.00000000E+00  0.00000000E+00  0.00000000E+00
  0.00000000E+00  0.00000000E+00  0.00000000E+00
  0.00000000E+00  0.00000000E+00  0.00000000E+00
  0.00000000E+00  0.00000000E+00  0.00000000E+00
  0.00000000E+00  0.00000000E+00  0.00000000E+00
  0.00000000E+00  0.00000000E+00  0.00000000E+00
  0.00000000E+00  0.00000000E+00  0.00000000E+00
  0.00000000E+00  0.00000000E+00  0.00000000E+00
  0.00000000E+00  0.00000000E+00  0.00000000E+00
  0.00000000E+00  0.00000000E+00  0.00000000E+00
  0.00000000E+00  0.00000000E+00  0.00000000E+00
  0.00000000E+00  0.00000000E+00  0.00000000E+00
  0.00000000E+00  0.00000000E+00  0.00000000E+00
  0.00000000E+00  0.00000000E+00  0.00000000E+00
  0.00000000E+00  0.00000000E+00  0.00000000E+00
  0.00000000E+00  0.00000000E+00  0.00000000E+00
  0.00000000E+00  0.00000000E+00  0.00000000E+00
  0.00000000E+00  0.00000000E+00  0.00000000E+00
  0.00000000E+00  0.00000000E+00  0.00000000E+00
  0.00000000E+00  0.00000000E+00  0.00000000E+00
  0.00000000E+00  0.00000000E+00  0.00000000E+00
  0.00000000E+00  0.00000000E+00  0.00000000E+00
  0.00000000E+00  0.00000000E+00  0.00000000E+00
  0.00000000E+00  0.00000000E+00  0.00000000E+00
  0.00000000E+00  0.00000000E+00  0.00000000E+00
  0.00000000E+00  0.00000000E+00  0.00000000E+00
  0.00000000E+00  0.00000000E+00  0.00000000E+00
  0.00000000E+00  0.00000000E+00  0.00000000E+00
  0.00000000E+00  0.00000000E+00  0.00000000E+00
  0.00000000E+00  0.00000000E+00  0.00000000E+00
  0.00000000E+00  0.00000000E+00  0.00000000E+00
  0.00000000E+00  0.00000000E+00  0.00000000E+00
  0.00000000E+00  0.00000000E+00  0.00000000E+00
  0.00000000E+00  0.00000000E+00  0.00000000E+00
  0.00000000E+00  0.00000000E+00  0.00000000E+00
  0.00000000E+00  0.00000000E+00  0.00000000E+00
  0.00000000E+00  0.00000000E+00  0.00000000E+00
  0.00000000E+00  0.00000000E+00  0.00000000E+00
  0.00000000E+00  0.00000000E+00  0.00000000E+00
  0.00000000E+00  0.00000000E+00  0.00000000E+00
