Li61 P7 N32                             
   1.00000000000000     
     0.0251075947760109    9.4853045848322814   -0.0124248896594921
    -0.0037154069138343   -0.0124655874576839    9.5351950194644175
     9.5259575196813877    0.0247585640680501   -0.0034072168238357
   Li   P    N 
    61     7    32
Direct
  0.4936947494371202 -0.0005937773766960  0.4995684868832281
  0.0080467191274847  0.4906514257939679  0.0125381484406431
  0.4948653378635735 -0.0013610703982152 -0.0007146236109246
 -0.0037389188177601 -0.0013074214418407  0.5021973167009645
  0.4905790349280208  0.5004235761986173 -0.0003209132570163
  0.0079222939730460  0.4965233920656278  0.4996354000394068
  0.7439525950076600 -0.0083120965028645  0.5020911111352696
  0.2458572577685986 -0.0014348835182202  0.4996317212441497
  0.7615152298973402  0.4822244596652524  0.4880510726520395
  0.2380239704324381  0.4966801040259127  0.4990990984593772
  0.2594205018769029 -0.0018635684718213 -0.0003732695252950
  0.7317011324719079 -0.0023015586825186  0.0069984333575077
  0.6700792994512154  0.4216966557052071  0.0886393040721496
  0.4996412528334653  0.2436717454516184 -0.0121823449660415
  0.5053294752320244  0.7558863040210484  0.0152113214900756
 -0.0083305054120447  0.4846335532496627  0.2597492391173443
  0.0174913013039360  0.5105018281755873  0.7647477392082569
  0.2310696748153039  0.2163189415942029  0.2205388361021515
  0.2219832066341257  0.7758236431400052  0.7787524186746920
  0.2611743973309402  0.2756025671892175  0.7191292853247503
  0.2621614967429927  0.7169555727049125  0.2808444675554479
  0.7515909120148838  0.2923967974863051  0.2972814538375627
  0.6977114141754368  0.7516600355991424  0.7108792956028034
  0.7329766098671989  0.2014174161395456  0.8052774968636092
  0.7363158919120666  0.7995355277495977  0.2010212798094792
  0.9823696857688906  0.2441981303617261  0.2446881244717378
  0.9813613006697427  0.7693005285869483  0.7629509814169648
  0.2615059875967021  0.2429983523460958  0.4731660676540613
  0.2601760850433529  0.7522742379646967  0.5270701487327191
  0.7438340328351394  0.2255463483100377  0.5472994049783939
  0.7385043876200418  0.7549411882104645  0.4542857115162414
  0.8252377433813339  0.5902564339610236  0.0738757478544400
  0.8617349254034075  0.6190172283481763  0.6538295360029105
  0.2347686793860663  0.4645687823775635  0.2590430290622727
  0.2503925716108266  0.5238120062968565  0.7381888632728920
  0.5108169906416790  0.7434689645083951  0.2552576510633942
  0.5086233183327410  0.2529338542122454  0.7459591163920971
  0.2335457956949999  0.9718360833215441  0.2533097622562069
  0.2361479436094618  0.0217397877243387  0.7476224760066829
  0.2567614725706439  0.2385715603223653  0.9695529324871738
  0.2626344857578554  0.7586511225957074  0.0333605402578948
  0.7618395206405854  0.9754869295707080  0.7482350943013120
  0.7525100161540480  0.0414334865358886  0.2674077061392379
  0.7643840340577294  0.7788011094035591  0.9544007999198801
  0.7573763720889433  0.2194488646454814  0.0491151474692359
  0.0086900586167429  0.2563568884343908  0.7635667799233099
  0.0103717160433790  0.7422421594849061  0.2355046043102226
  0.4814870205310761  0.2634374810440514  0.2444592530299525
  0.4610853444982506  0.7340741889772162  0.7672628073545001
  0.0055691743569745  0.2547261758546702  0.0144656600398230
  0.0139588476178191  0.7346662746817931 -0.0135515638771612
  0.5011422797334629  0.2380677667961604  0.4927606360575428
  0.4983070161303612  0.7606808180299593  0.5076423775771688
  0.4846690625755450  0.5144018739306029  0.2388824656122085
  0.4898839638728969  0.4835307826643932  0.7608080653858369
 -0.0063182087744719 -0.0080711375373332  0.2619686863817431
  0.0000769558629531  0.0133383999912579  0.7403900337890943
  0.7254607189220319  0.4384006001430343  0.7143297767212429
  0.7358170848073655  0.5465038973959564  0.2758028300287066
  0.8259979840145145  0.4110542497886278  0.9176374412826566
  0.6726488030964364  0.5776608021158606  0.9036721472365373
  0.4962882906597879  0.4992823364253818  0.4989939391160664
 -0.0014673112884655 -0.0028573357103198  0.0004951673366950
  0.2487135846500523  0.4989628093710243  0.0006171416129408
  0.0006089579104477  0.7494503774862908  0.4958702432016374
 -0.0002504043764454  0.2495411376097970  0.5025440802270845
  0.4943864147859101  0.0013403392800471  0.2497496812131355
  0.4950086882553691 -0.0053729294944843  0.7495637075014698
  0.6061177783984339  0.5966059044793829  0.6023157513628410
  0.5965280979656979  0.4001418055502201  0.3913607831961783
  0.8954065752224641  0.8910447462646517  0.0988315552566612
  0.8921999533648591  0.1013643798409227  0.9019981682259218
  0.1021180058953257  0.9026255149535360  0.8918628756852406
  0.1018976622514444  0.0946037796561889  0.1062874570611808
  0.3918571741371402  0.6067730639331944  0.4054388942483944
  0.3927518619680294  0.3937234694903088  0.5988109262799514
  0.1014146906794053  0.3459173058154190  0.3924569702636103
  0.0954257576727312  0.6521207177442246  0.6112756908166126
  0.1076186396254736  0.1499490838900075  0.6040059377094126
  0.1087431163069571  0.8492123573190532  0.3977467761257880
  0.8866257743204923  0.1470632224657239  0.4089794219442769
  0.8817111528269646  0.8453613310072120  0.5930245836579405
  0.8649907268813566  0.3815299110710649  0.1305424282048046
  0.8684159681303596  0.6185168690944139  0.8650184029461814
  0.1502687723513210  0.5984958178694647  0.1133661758956222
  0.1501642683238234  0.3995062470150319  0.8882315325180917
  0.3950718034732300  0.8912470616904316  0.1512074898126047
  0.3955783193637509  0.1037125187109076  0.8489899893570934
  0.3841732247020184  0.1008912221012998  0.3500427312168474
  0.3844812261731511  0.8949432346190979  0.6503548398787772
  0.3465930641576661  0.3868544617073919  0.0990120636321200
  0.3466828168288680  0.6113573382097992  0.9001630750955069
  0.6082932157230030  0.0909291191984507  0.6494686131740818
  0.6066099578592105  0.9059100030797499  0.3517305927987964
  0.6311223983225777  0.6302943523700483  0.1163422765389872
  0.6289210914111344  0.3685487946189187  0.8820747020280771
  0.8994202262368585  0.3552678344267477  0.6083975931300845
  0.9024186863032555  0.6413522774957053  0.3946052047283923
  0.5949631508742883  0.1079007497461092  0.1474793767866392
  0.5958731200146440  0.8859173786349589  0.8491285428934887
 
  0.00000000E+00  0.00000000E+00  0.00000000E+00
  0.00000000E+00  0.00000000E+00  0.00000000E+00
  0.00000000E+00  0.00000000E+00  0.00000000E+00
  0.00000000E+00  0.00000000E+00  0.00000000E+00
  0.00000000E+00  0.00000000E+00  0.00000000E+00
  0.00000000E+00  0.00000000E+00  0.00000000E+00
  0.00000000E+00  0.00000000E+00  0.00000000E+00
  0.00000000E+00  0.00000000E+00  0.00000000E+00
  0.00000000E+00  0.00000000E+00  0.00000000E+00
  0.00000000E+00  0.00000000E+00  0.00000000E+00
  0.00000000E+00  0.00000000E+00  0.00000000E+00
  0.00000000E+00  0.00000000E+00  0.00000000E+00
  0.00000000E+00  0.00000000E+00  0.00000000E+00
  0.00000000E+00  0.00000000E+00  0.00000000E+00
  0.00000000E+00  0.00000000E+00  0.00000000E+00
  0.00000000E+00  0.00000000E+00  0.00000000E+00
  0.00000000E+00  0.00000000E+00  0.00000000E+00
  0.00000000E+00  0.00000000E+00  0.00000000E+00
  0.00000000E+00  0.00000000E+00  0.00000000E+00
  0.00000000E+00  0.00000000E+00  0.00000000E+00
  0.00000000E+00  0.00000000E+00  0.00000000E+00
  0.00000000E+00  0.00000000E+00  0.00000000E+00
  0.00000000E+00  0.00000000E+00  0.00000000E+00
  0.00000000E+00  0.00000000E+00  0.00000000E+00
  0.00000000E+00  0.00000000E+00  0.00000000E+00
  0.00000000E+00  0.00000000E+00  0.00000000E+00
  0.00000000E+00  0.00000000E+00  0.00000000E+00
  0.00000000E+00  0.00000000E+00  0.00000000E+00
  0.00000000E+00  0.00000000E+00  0.00000000E+00
  0.00000000E+00  0.00000000E+00  0.00000000E+00
  0.00000000E+00  0.00000000E+00  0.00000000E+00
  0.00000000E+00  0.00000000E+00  0.00000000E+00
  0.00000000E+00  0.00000000E+00  0.00000000E+00
  0.00000000E+00  0.00000000E+00  0.00000000E+00
  0.00000000E+00  0.00000000E+00  0.00000000E+00
  0.00000000E+00  0.00000000E+00  0.00000000E+00
  0.00000000E+00  0.00000000E+00  0.00000000E+00
  0.00000000E+00  0.00000000E+00  0.00000000E+00
  0.00000000E+00  0.00000000E+00  0.00000000E+00
  0.00000000E+00  0.00000000E+00  0.00000000E+00
  0.00000000E+00  0.00000000E+00  0.00000000E+00
  0.00000000E+00  0.00000000E+00  0.00000000E+00
  0.00000000E+00  0.00000000E+00  0.00000000E+00
  0.00000000E+00  0.00000000E+00  0.00000000E+00
  0.00000000E+00  0.00000000E+00  0.00000000E+00
  0.00000000E+00  0.00000000E+00  0.00000000E+00
  0.00000000E+00  0.00000000E+00  0.00000000E+00
  0.00000000E+00  0.00000000E+00  0.00000000E+00
  0.00000000E+00  0.00000000E+00  0.00000000E+00
  0.00000000E+00  0.00000000E+00  0.00000000E+00
  0.00000000E+00  0.00000000E+00  0.00000000E+00
  0.00000000E+00  0.00000000E+00  0.00000000E+00
  0.00000000E+00  0.00000000E+00  0.00000000E+00
  0.00000000E+00  0.00000000E+00  0.00000000E+00
  0.00000000E+00  0.00000000E+00  0.00000000E+00
  0.00000000E+00  0.00000000E+00  0.00000000E+00
  0.00000000E+00  0.00000000E+00  0.00000000E+00
  0.00000000E+00  0.00000000E+00  0.00000000E+00
  0.00000000E+00  0.00000000E+00  0.00000000E+00
  0.00000000E+00  0.00000000E+00  0.00000000E+00
  0.00000000E+00  0.00000000E+00  0.00000000E+00
  0.00000000E+00  0.00000000E+00  0.00000000E+00
  0.00000000E+00  0.00000000E+00  0.00000000E+00
  0.00000000E+00  0.00000000E+00  0.00000000E+00
  0.00000000E+00  0.00000000E+00  0.00000000E+00
  0.00000000E+00  0.00000000E+00  0.00000000E+00
  0.00000000E+00  0.00000000E+00  0.00000000E+00
  0.00000000E+00  0.00000000E+00  0.00000000E+00
  0.00000000E+00  0.00000000E+00  0.00000000E+00
  0.00000000E+00  0.00000000E+00  0.00000000E+00
  0.00000000E+00  0.00000000E+00  0.00000000E+00
  0.00000000E+00  0.00000000E+00  0.00000000E+00
  0.00000000E+00  0.00000000E+00  0.00000000E+00
  0.00000000E+00  0.00000000E+00  0.00000000E+00
  0.00000000E+00  0.00000000E+00  0.00000000E+00
  0.00000000E+00  0.00000000E+00  0.00000000E+00
  0.00000000E+00  0.00000000E+00  0.00000000E+00
  0.00000000E+00  0.00000000E+00  0.00000000E+00
  0.00000000E+00  0.00000000E+00  0.00000000E+00
  0.00000000E+00  0.00000000E+00  0.00000000E+00
  0.00000000E+00  0.00000000E+00  0.00000000E+00
  0.00000000E+00  0.00000000E+00  0.00000000E+00
  0.00000000E+00  0.00000000E+00  0.00000000E+00
  0.00000000E+00  0.00000000E+00  0.00000000E+00
  0.00000000E+00  0.00000000E+00  0.00000000E+00
  0.00000000E+00  0.00000000E+00  0.00000000E+00
  0.00000000E+00  0.00000000E+00  0.00000000E+00
  0.00000000E+00  0.00000000E+00  0.00000000E+00
  0.00000000E+00  0.00000000E+00  0.00000000E+00
  0.00000000E+00  0.00000000E+00  0.00000000E+00
  0.00000000E+00  0.00000000E+00  0.00000000E+00
  0.00000000E+00  0.00000000E+00  0.00000000E+00
  0.00000000E+00  0.00000000E+00  0.00000000E+00
  0.00000000E+00  0.00000000E+00  0.00000000E+00
  0.00000000E+00  0.00000000E+00  0.00000000E+00
  0.00000000E+00  0.00000000E+00  0.00000000E+00
  0.00000000E+00  0.00000000E+00  0.00000000E+00
  0.00000000E+00  0.00000000E+00  0.00000000E+00
  0.00000000E+00  0.00000000E+00  0.00000000E+00
  0.00000000E+00  0.00000000E+00  0.00000000E+00
