Li7 P2 N1 O7                            
   1.00000000000000     
     4.9451341638440525    0.0955839767707121    0.0532400368559477
     0.1148660604817237    6.3936729024815113    0.1536946111433228
     0.0594216019806570    0.1380337029592844    5.2644129297561486
   Li   P    N    O 
     7     2     1     7
Direct
  0.0343235906269978  0.4828493920154545  0.1626220082733232
  0.5323826353629590  0.7306513179363846  0.2774953062780900
  0.5396241200473094  0.2684680009687602  0.3334052109296799
 -0.0323607502290047  0.7428687118550654  0.6818652343663979
  0.0030267822648708  0.2550166793488420  0.6648140061822966
  0.4567884361263311  0.1062503730224620  0.9590779015253690
  0.3302992973736423 -0.0445245795485538  0.5585128787333752
  0.4934383576551692  0.5048783101029584  0.8071361247118788
  0.0190672838348219 -0.0016462072041416  0.1792994727407769
  0.1487921425247873  0.1879053778234860  0.3090768785730519
  0.1207318555668254  0.7800510587227294  0.3149170579564640
  0.6090380070743234  0.5014341250961860  0.0807074556780047
  0.1795869392030305  0.5009955795836807  0.8144632623954347
  0.6997052100079026 -0.0036255674487767  0.1952682613614271
  0.5874330562274372  0.7020896828387031  0.6495654303978555
  0.6046542818128660  0.2991192966878515  0.6863166430341421
  0.1065987545197566 -0.0127815518010921  0.8823768668624291
 
  0.00000000E+00  0.00000000E+00  0.00000000E+00
  0.00000000E+00  0.00000000E+00  0.00000000E+00
  0.00000000E+00  0.00000000E+00  0.00000000E+00
  0.00000000E+00  0.00000000E+00  0.00000000E+00
  0.00000000E+00  0.00000000E+00  0.00000000E+00
  0.00000000E+00  0.00000000E+00  0.00000000E+00
  0.00000000E+00  0.00000000E+00  0.00000000E+00
  0.00000000E+00  0.00000000E+00  0.00000000E+00
  0.00000000E+00  0.00000000E+00  0.00000000E+00
  0.00000000E+00  0.00000000E+00  0.00000000E+00
  0.00000000E+00  0.00000000E+00  0.00000000E+00
  0.00000000E+00  0.00000000E+00  0.00000000E+00
  0.00000000E+00  0.00000000E+00  0.00000000E+00
  0.00000000E+00  0.00000000E+00  0.00000000E+00
  0.00000000E+00  0.00000000E+00  0.00000000E+00
  0.00000000E+00  0.00000000E+00  0.00000000E+00
  0.00000000E+00  0.00000000E+00  0.00000000E+00
