Li61 P7 N32                             
   1.00000000000000     
    -0.0059616388754910    9.4718219820165963    0.0115111950419504
    -0.0110504293031662    0.0117311074184648    9.5451065278385805
     9.5542337234391628   -0.0059314739383080   -0.0107686491729138
   Li   P    N 
    61     7    32
Direct
  0.4987154280205554 -0.0068871177027290  0.4963604323007230
  0.0082158023621879  0.4966083070757567  0.0087586376394393
  0.4958562706186090 -0.0019911302020899 -0.0041252116841646
  0.0028767280969121 -0.0038214255967609  0.4992377801040239
  0.4943737350504538  0.4748947271112495 -0.0120947513894119
  0.0054650595992726  0.4957257939901760  0.5041587545276309
  0.7511579440725595  0.0006081199691547  0.4963469157240604
  0.2503800900859209 -0.0032787018575814  0.4952300838680965
  0.7675652876306479  0.4972661030412286  0.5015954102257925
  0.2394117892299243  0.4960255686506374  0.4999224202319109
  0.2637349258437632 -0.0024741472910260 -0.0045698893464221
  0.7349433205948102  0.0010300560816981 -0.0029567754063089
  0.8185154028526694  0.5940238624931332  0.0748901123571211
  0.5087817930915974  0.2331756254825274 -0.0169185069107172
  0.5284322507788420  0.7716379140674549  0.0068896508417579
 -0.0034641626711365  0.4865099479417329  0.2606757415237175
 -0.0007767044256413  0.5084697199376447  0.7481673710318337
  0.2363603486521739  0.2069918311131828  0.2203748541699730
  0.2316940876126724  0.7784408910707382  0.7693157496494810
  0.2663530927748275  0.2742356702983312  0.7186911500022747
  0.2477723409508296  0.7085234619551344  0.2929287923821078
  0.7616671791528384  0.2954673248040466  0.2998132063770113
  0.7604301213063684  0.6969677987248765  0.6950333643509723
  0.7471538800162795  0.1982284099388449  0.7929462015448182
  0.7348029969065664  0.8009793821647910  0.1931458714455122
  0.9878407292038733  0.2460555667130286  0.2453658310510576
  0.9869250186618249  0.7496232139796504  0.7542249990472293
  0.2639734304336800  0.2428353701444566  0.4748417268632052
  0.2672060143965015  0.7522933555835515  0.5268588849786570
  0.7426677756065341  0.2375769506764777  0.5386581195985825
  0.7495626709571220  0.7659856359921515  0.4507955005565634
  0.7449149425225071  0.5444780759011438  0.2805121842352001
  0.6686593575149452  0.5791233389868581  0.9065071313573485
  0.2390305123497878  0.4551342510132677  0.2599363708304323
  0.2430690855347049  0.5268138430537606  0.7397423927691595
  0.5202307154713482  0.7396806787265406  0.2736361944894299
  0.5164002849593549  0.2501390004275687  0.7436416804799305
  0.2395595948155433  0.9617872875140906  0.2499830591172382
  0.2377478288908574  0.0229830852520815  0.7414437996853918
  0.2622698181704209  0.2344030531962555  0.9673037843942019
  0.2434351386699211  0.7654301988684807  0.0142903734504315
  0.7566089047144030  0.9552598876540838  0.7286799633762872
  0.7592491938707786  0.0408139248133698  0.2601507821959972
  0.7770768363848634  0.7892649297612929  0.9331330573050787
  0.7635407733752819  0.2197077742393293  0.0440119280866329
  0.0153002357473162  0.2492801451254055  0.7639691861218304
  0.0051323340822726  0.7475056021124589  0.2370809732079358
  0.4859185543952139  0.2527075012775152  0.2403109825598397
  0.4844791379430430  0.7309863120777443  0.7582628052042766
  0.0127143283870685  0.2557288347853950  0.0147764209779066
  0.0088229899189913  0.7343123297124629 -0.0152980865957899
  0.5029851425499799  0.2310000870597303  0.4924183280502373
  0.5061785627256766  0.7541437233380929  0.5157519632103350
  0.4012108567890278  0.6425880622384521  0.1165603782791684
  0.4924725569656115  0.4788283193866189  0.7568059151433445
 -0.0005336628699328 -0.0058328022865615  0.2608271371577108
 -0.0015128587822275  0.0010655988311783  0.7377222737563189
  0.7419388914613492  0.4472633969128033  0.7206669420920677
  0.5020247512833177  0.4952137658616670  0.2527774829483255
  0.8294666330096589  0.4099321244961378  0.9223514980729045
  0.6746206437605187  0.4197782570171313  0.0902667153265508
  0.4996122760077159  0.4932227032425544  0.5026717126571790
  0.0037296019157125 -0.0044261975100087 -0.0012718752495919
  0.2495687114968391  0.4915584756964033 -0.0021642740125873
  0.0047689583266809  0.7457047335064312  0.4980799473715368
  0.0039628697423702  0.2466015378498262  0.5031497553300727
  0.5001539731262491 -0.0048640101091940  0.2459664958588318
  0.4987647602599193 -0.0065872399574713  0.7470765477248326
  0.6022911128264515  0.5912132945558972  0.6085651112650353
  0.6060283929885094  0.3936847288721563  0.4004839942331097
  0.8979955010334659  0.8914301787349701  0.0965191712581581
  0.9005404026412287  0.1010851820790269  0.9008050992849949
  0.1070605824212846  0.8965305490617529  0.8927286733268196
  0.1085850074413421  0.0909135126385330  0.1049011834668416
  0.3975859309448233  0.6008037645503301  0.4023774404020308
  0.3940538679821382  0.3880559307712798  0.5970276526570085
  0.1042288992990721  0.3451464580101056  0.3941408831521273
  0.1063648836422355  0.6494165732819940  0.6084776243456953
  0.1139792150567501  0.1455315201634782  0.6016943161974003
  0.1127945066017924  0.8451635956859918  0.3969016910222058
  0.8913194950061623  0.1463262083273287  0.4061304390109757
  0.8912173996440155  0.8478678982309064  0.5920003624950438
  0.8690515631832093  0.3828078027012240  0.1315308800798428
  0.8673867511158464  0.6158382477636628  0.8698163766370929
  0.1600858816913820  0.5965713210367173  0.1135556815164607
  0.1500492227719572  0.3958704269896500  0.8879412359690455
  0.4024905476468494  0.8803392730354809  0.1477266343869452
  0.3978329335955594  0.1026199239513661  0.8454139406276904
  0.3883048624773985  0.0937092543951531  0.3447842407116722
  0.3895258771416936  0.8916514315701470  0.6487080537663402
  0.3502653144389383  0.3817995170369873  0.0983685731397220
  0.3519454906019636  0.6052526011744176  0.9038333119721840
  0.6099764862791949  0.0882027541848658  0.6451221133888239
  0.6152333130558603  0.9045924319687181  0.3488599116692325
  0.6198977532523213  0.6222541612700683  0.1224223872582781
  0.6356250578677726  0.3628915787088610  0.8816477207668523
  0.9048654948909007  0.3487240928270564  0.6104249906355479
  0.9058073867747122  0.6418517613370186  0.3928209949035314
  0.5970750670327005  0.1017127925833828  0.1422387653227390
  0.6005219157013341  0.8885805560771022  0.8499221905080294
 
  0.00000000E+00  0.00000000E+00  0.00000000E+00
  0.00000000E+00  0.00000000E+00  0.00000000E+00
  0.00000000E+00  0.00000000E+00  0.00000000E+00
  0.00000000E+00  0.00000000E+00  0.00000000E+00
  0.00000000E+00  0.00000000E+00  0.00000000E+00
  0.00000000E+00  0.00000000E+00  0.00000000E+00
  0.00000000E+00  0.00000000E+00  0.00000000E+00
  0.00000000E+00  0.00000000E+00  0.00000000E+00
  0.00000000E+00  0.00000000E+00  0.00000000E+00
  0.00000000E+00  0.00000000E+00  0.00000000E+00
  0.00000000E+00  0.00000000E+00  0.00000000E+00
  0.00000000E+00  0.00000000E+00  0.00000000E+00
  0.00000000E+00  0.00000000E+00  0.00000000E+00
  0.00000000E+00  0.00000000E+00  0.00000000E+00
  0.00000000E+00  0.00000000E+00  0.00000000E+00
  0.00000000E+00  0.00000000E+00  0.00000000E+00
  0.00000000E+00  0.00000000E+00  0.00000000E+00
  0.00000000E+00  0.00000000E+00  0.00000000E+00
  0.00000000E+00  0.00000000E+00  0.00000000E+00
  0.00000000E+00  0.00000000E+00  0.00000000E+00
  0.00000000E+00  0.00000000E+00  0.00000000E+00
  0.00000000E+00  0.00000000E+00  0.00000000E+00
  0.00000000E+00  0.00000000E+00  0.00000000E+00
  0.00000000E+00  0.00000000E+00  0.00000000E+00
  0.00000000E+00  0.00000000E+00  0.00000000E+00
  0.00000000E+00  0.00000000E+00  0.00000000E+00
  0.00000000E+00  0.00000000E+00  0.00000000E+00
  0.00000000E+00  0.00000000E+00  0.00000000E+00
  0.00000000E+00  0.00000000E+00  0.00000000E+00
  0.00000000E+00  0.00000000E+00  0.00000000E+00
  0.00000000E+00  0.00000000E+00  0.00000000E+00
  0.00000000E+00  0.00000000E+00  0.00000000E+00
  0.00000000E+00  0.00000000E+00  0.00000000E+00
  0.00000000E+00  0.00000000E+00  0.00000000E+00
  0.00000000E+00  0.00000000E+00  0.00000000E+00
  0.00000000E+00  0.00000000E+00  0.00000000E+00
  0.00000000E+00  0.00000000E+00  0.00000000E+00
  0.00000000E+00  0.00000000E+00  0.00000000E+00
  0.00000000E+00  0.00000000E+00  0.00000000E+00
  0.00000000E+00  0.00000000E+00  0.00000000E+00
  0.00000000E+00  0.00000000E+00  0.00000000E+00
  0.00000000E+00  0.00000000E+00  0.00000000E+00
  0.00000000E+00  0.00000000E+00  0.00000000E+00
  0.00000000E+00  0.00000000E+00  0.00000000E+00
  0.00000000E+00  0.00000000E+00  0.00000000E+00
  0.00000000E+00  0.00000000E+00  0.00000000E+00
  0.00000000E+00  0.00000000E+00  0.00000000E+00
  0.00000000E+00  0.00000000E+00  0.00000000E+00
  0.00000000E+00  0.00000000E+00  0.00000000E+00
  0.00000000E+00  0.00000000E+00  0.00000000E+00
  0.00000000E+00  0.00000000E+00  0.00000000E+00
  0.00000000E+00  0.00000000E+00  0.00000000E+00
  0.00000000E+00  0.00000000E+00  0.00000000E+00
  0.00000000E+00  0.00000000E+00  0.00000000E+00
  0.00000000E+00  0.00000000E+00  0.00000000E+00
  0.00000000E+00  0.00000000E+00  0.00000000E+00
  0.00000000E+00  0.00000000E+00  0.00000000E+00
  0.00000000E+00  0.00000000E+00  0.00000000E+00
  0.00000000E+00  0.00000000E+00  0.00000000E+00
  0.00000000E+00  0.00000000E+00  0.00000000E+00
  0.00000000E+00  0.00000000E+00  0.00000000E+00
  0.00000000E+00  0.00000000E+00  0.00000000E+00
  0.00000000E+00  0.00000000E+00  0.00000000E+00
  0.00000000E+00  0.00000000E+00  0.00000000E+00
  0.00000000E+00  0.00000000E+00  0.00000000E+00
  0.00000000E+00  0.00000000E+00  0.00000000E+00
  0.00000000E+00  0.00000000E+00  0.00000000E+00
  0.00000000E+00  0.00000000E+00  0.00000000E+00
  0.00000000E+00  0.00000000E+00  0.00000000E+00
  0.00000000E+00  0.00000000E+00  0.00000000E+00
  0.00000000E+00  0.00000000E+00  0.00000000E+00
  0.00000000E+00  0.00000000E+00  0.00000000E+00
  0.00000000E+00  0.00000000E+00  0.00000000E+00
  0.00000000E+00  0.00000000E+00  0.00000000E+00
  0.00000000E+00  0.00000000E+00  0.00000000E+00
  0.00000000E+00  0.00000000E+00  0.00000000E+00
  0.00000000E+00  0.00000000E+00  0.00000000E+00
  0.00000000E+00  0.00000000E+00  0.00000000E+00
  0.00000000E+00  0.00000000E+00  0.00000000E+00
  0.00000000E+00  0.00000000E+00  0.00000000E+00
  0.00000000E+00  0.00000000E+00  0.00000000E+00
  0.00000000E+00  0.00000000E+00  0.00000000E+00
  0.00000000E+00  0.00000000E+00  0.00000000E+00
  0.00000000E+00  0.00000000E+00  0.00000000E+00
  0.00000000E+00  0.00000000E+00  0.00000000E+00
  0.00000000E+00  0.00000000E+00  0.00000000E+00
  0.00000000E+00  0.00000000E+00  0.00000000E+00
  0.00000000E+00  0.00000000E+00  0.00000000E+00
  0.00000000E+00  0.00000000E+00  0.00000000E+00
  0.00000000E+00  0.00000000E+00  0.00000000E+00
  0.00000000E+00  0.00000000E+00  0.00000000E+00
  0.00000000E+00  0.00000000E+00  0.00000000E+00
  0.00000000E+00  0.00000000E+00  0.00000000E+00
  0.00000000E+00  0.00000000E+00  0.00000000E+00
  0.00000000E+00  0.00000000E+00  0.00000000E+00
  0.00000000E+00  0.00000000E+00  0.00000000E+00
  0.00000000E+00  0.00000000E+00  0.00000000E+00
  0.00000000E+00  0.00000000E+00  0.00000000E+00
  0.00000000E+00  0.00000000E+00  0.00000000E+00
  0.00000000E+00  0.00000000E+00  0.00000000E+00
