Li3 N1
1.0
1.852684 -3.208942 0.000000
1.852684 3.208942 0.000000
0.000000 -0.000000 3.945389
Li N
3 1
direct
0.000000 -0.000000 0.500000 Li
0.333333 0.666667 0.000000 Li
0.666667 0.333333 -0.000000 Li
0.000000 -0.000000 -0.000000 N
