Li6 P2                                  
   1.00000000000000     
     1.9696739999999999   -3.4115760000000002    0.0000000000000000
     2.1179290000000002    3.6683610000000000    0.0000000000000000
     0.0000000000000000    0.0000000000000000    7.5707180000000003
   Li   P 
     6     2
Direct
  0.0000000000000000  0.0000000000000000  0.2500000000000000
  0.0000000000000000  0.0000000000000000  0.7500000000000000
  0.3333330000000032  0.6666669999999968  0.5841190000000012
  0.6666669999999968  0.3333330000000032  0.0841190000000012
  0.6666669999999968  0.3333330000000032  0.4158809999999988
  0.3333330000000032  0.6666669999999968  0.9158809999999988
  0.3333330000000032  0.6666669999999968  0.2500000000000000
  0.6666669999999968  0.3333330000000032  0.7500000000000000
 
  0.00000000E+00  0.00000000E+00  0.00000000E+00
  0.00000000E+00  0.00000000E+00  0.00000000E+00
  0.00000000E+00  0.00000000E+00  0.00000000E+00
  0.00000000E+00  0.00000000E+00  0.00000000E+00
  0.00000000E+00  0.00000000E+00  0.00000000E+00
  0.00000000E+00  0.00000000E+00  0.00000000E+00
  0.00000000E+00  0.00000000E+00  0.00000000E+00
  0.00000000E+00  0.00000000E+00  0.00000000E+00
