(1, 0, 0)                               
   1.00000000000000     
     2.7948081600024568    0.0000000153089430   -1.6136007671730928
    -0.0000000185717630    7.6745750453551667   -0.0000001069795145
    -0.8113263141417006   -0.0000006504801057   47.0027739635665753
   Li   O 
    28    28
Selective dynamics
Direct
 -0.0208647536932800  0.4361728502444067  0.0305519903542358   T   T   T
 -0.0208650696160882  0.0638267727546452  0.0305519421048875   T   T   T
  0.3333330000000032  0.7500000000000000  0.0111109999999996   F   F   F
  0.6666669999999968  0.2500000000000000  0.0555560000000028   F   F   F
  0.0000000000000000  0.5000000000000000  0.1000000000000014   F   F   F
  0.0000000000000000  0.0000000000000000  0.1000000000000014   F   F   F
  0.3333330000000032  0.7500000000000000  0.0777780000000021   F   F   F
  0.6666669999999968  0.2500000000000000  0.1222220000000007   F   F   F
  0.0000000000000000  0.5000000000000000  0.1666669999999968   F   F   F
  0.0000000000000000  0.0000000000000000  0.1666669999999968   F   F   F
  0.3333330000000032  0.7500000000000000  0.1444440000000000   F   F   F
  0.6666669999999968  0.2500000000000000  0.1888890000000032   F   F   F
  0.0000000000000000  0.5000000000000000  0.2333330000000018   F   F   F
  0.0000000000000000  0.0000000000000000  0.2333330000000018   F   F   F
  0.3333330000000032  0.7500000000000000  0.2111110000000025   F   F   F
  0.6666669999999968  0.2500000000000000  0.2555559999999986   F   F   F
  0.0000000000000000  0.5000000000000000  0.2999999999999972   F   F   F
  0.0000000000000000  0.0000000000000000  0.2999999999999972   F   F   F
  0.3333330000000032  0.7500000000000000  0.2777779999999979   F   F   F
  0.6666669999999968  0.2500000000000000  0.3222219999999965   F   F   F
  0.0000000000000000  0.5000000000000000  0.3666669999999996   F   F   F
  0.0000000000000000  0.0000000000000000  0.3666669999999996   F   F   F
  0.3333330000000032  0.7500000000000000  0.3444440000000029   F   F   F
  0.6666669999999968  0.2500000000000000  0.3888889999999989   F   F   F
  0.0208642917605181  0.5638264843525755  0.4361148229056864   T   T   T
  0.0208644420850622 -0.0638262112549393  0.4361148533562219   T   T   T
  0.3333330000000032  0.7500000000000000  0.4111109999999982   F   F   F
  0.6666669999999968  0.2500000000000000  0.4555560000000014   F   F   F
  0.3460332267295270  0.1505736894734024  0.0128053356849849   T   T   T
  0.6666669999999968  0.6493099999999998  0.0555560000000028   F   F   F
  0.6666669999999968  0.8506900000000002  0.0555560000000028   F   F   F
  0.3460331140673565  0.3494261338327378  0.0128053295899001   T   T   T
  0.3333330000000032  0.1493099999999998  0.0777780000000021   F   F   F
  0.6666669999999968  0.6493099999999998  0.1222220000000007   F   F   F
  0.6666669999999968  0.8506900000000002  0.1222220000000007   F   F   F
  0.3333330000000032  0.3506900000000002  0.0777780000000021   F   F   F
  0.3333330000000032  0.1493099999999998  0.1444440000000000   F   F   F
  0.6666669999999968  0.6493099999999998  0.1888890000000032   F   F   F
  0.6666669999999968  0.8506900000000002  0.1888890000000032   F   F   F
  0.3333330000000032  0.3506900000000002  0.1444440000000000   F   F   F
  0.3333330000000032  0.1493099999999998  0.2111110000000025   F   F   F
  0.6666669999999968  0.6493099999999998  0.2555559999999986   F   F   F
  0.6666669999999968  0.8506900000000002  0.2555559999999986   F   F   F
  0.3333330000000032  0.3506900000000002  0.2111110000000025   F   F   F
  0.3333330000000032  0.1493099999999998  0.2777779999999979   F   F   F
  0.6666669999999968  0.6493099999999998  0.3222219999999965   F   F   F
  0.6666669999999968  0.8506900000000002  0.3222219999999965   F   F   F
  0.3333330000000032  0.3506900000000002  0.2777779999999979   F   F   F
  0.3333330000000032  0.1493099999999998  0.3444440000000029   F   F   F
  0.6666669999999968  0.6493099999999998  0.3888889999999989   F   F   F
  0.6666669999999968  0.8506900000000002  0.3888889999999989   F   F   F
  0.3333330000000032  0.3506900000000002  0.3444440000000029   F   F   F
  0.3333330000000032  0.1493099999999998  0.4111109999999982   F   F   F
  0.6539656376109771  0.6505612763946657  0.4538613295495571   T   T   T
  0.6539654920351260  0.8494388758662470  0.4538613233371343   T   T   T
  0.3333330000000032  0.3506900000000002  0.4111109999999982   F   F   F
 
  0.00000000E+00  0.00000000E+00  0.00000000E+00
  0.00000000E+00  0.00000000E+00  0.00000000E+00
  0.00000000E+00  0.00000000E+00  0.00000000E+00
  0.00000000E+00  0.00000000E+00  0.00000000E+00
  0.00000000E+00  0.00000000E+00  0.00000000E+00
  0.00000000E+00  0.00000000E+00  0.00000000E+00
  0.00000000E+00  0.00000000E+00  0.00000000E+00
  0.00000000E+00  0.00000000E+00  0.00000000E+00
  0.00000000E+00  0.00000000E+00  0.00000000E+00
  0.00000000E+00  0.00000000E+00  0.00000000E+00
  0.00000000E+00  0.00000000E+00  0.00000000E+00
  0.00000000E+00  0.00000000E+00  0.00000000E+00
  0.00000000E+00  0.00000000E+00  0.00000000E+00
  0.00000000E+00  0.00000000E+00  0.00000000E+00
  0.00000000E+00  0.00000000E+00  0.00000000E+00
  0.00000000E+00  0.00000000E+00  0.00000000E+00
  0.00000000E+00  0.00000000E+00  0.00000000E+00
  0.00000000E+00  0.00000000E+00  0.00000000E+00
  0.00000000E+00  0.00000000E+00  0.00000000E+00
  0.00000000E+00  0.00000000E+00  0.00000000E+00
  0.00000000E+00  0.00000000E+00  0.00000000E+00
  0.00000000E+00  0.00000000E+00  0.00000000E+00
  0.00000000E+00  0.00000000E+00  0.00000000E+00
  0.00000000E+00  0.00000000E+00  0.00000000E+00
  0.00000000E+00  0.00000000E+00  0.00000000E+00
  0.00000000E+00  0.00000000E+00  0.00000000E+00
  0.00000000E+00  0.00000000E+00  0.00000000E+00
  0.00000000E+00  0.00000000E+00  0.00000000E+00
  0.00000000E+00  0.00000000E+00  0.00000000E+00
  0.00000000E+00  0.00000000E+00  0.00000000E+00
  0.00000000E+00  0.00000000E+00  0.00000000E+00
  0.00000000E+00  0.00000000E+00  0.00000000E+00
  0.00000000E+00  0.00000000E+00  0.00000000E+00
  0.00000000E+00  0.00000000E+00  0.00000000E+00
  0.00000000E+00  0.00000000E+00  0.00000000E+00
  0.00000000E+00  0.00000000E+00  0.00000000E+00
  0.00000000E+00  0.00000000E+00  0.00000000E+00
  0.00000000E+00  0.00000000E+00  0.00000000E+00
  0.00000000E+00  0.00000000E+00  0.00000000E+00
  0.00000000E+00  0.00000000E+00  0.00000000E+00
  0.00000000E+00  0.00000000E+00  0.00000000E+00
  0.00000000E+00  0.00000000E+00  0.00000000E+00
  0.00000000E+00  0.00000000E+00  0.00000000E+00
  0.00000000E+00  0.00000000E+00  0.00000000E+00
  0.00000000E+00  0.00000000E+00  0.00000000E+00
  0.00000000E+00  0.00000000E+00  0.00000000E+00
  0.00000000E+00  0.00000000E+00  0.00000000E+00
  0.00000000E+00  0.00000000E+00  0.00000000E+00
  0.00000000E+00  0.00000000E+00  0.00000000E+00
  0.00000000E+00  0.00000000E+00  0.00000000E+00
  0.00000000E+00  0.00000000E+00  0.00000000E+00
  0.00000000E+00  0.00000000E+00  0.00000000E+00
  0.00000000E+00  0.00000000E+00  0.00000000E+00
  0.00000000E+00  0.00000000E+00  0.00000000E+00
  0.00000000E+00  0.00000000E+00  0.00000000E+00
  0.00000000E+00  0.00000000E+00  0.00000000E+00
