Li140 P140 O420
1.0
19.664632 0.000000 0.000000
7.200064 11.197969 5.521558
0.000000 0.000000 66.258696
Li P O
140 140 420
direct
0.181780 0.873522 0.074173 Li+
0.681780 0.873522 0.073274 Li+
0.065996 0.111170 0.055218 Li+
0.565996 0.111170 0.052621 Li+
0.950543 0.347043 0.033782 Li+
0.450543 0.347043 0.034746 Li+
0.835452 0.581703 0.014107 Li+
0.335452 0.581703 0.015311 Li+
0.758434 0.729106 0.044693 Li+
0.258434 0.729106 0.043490 Li+
0.681714 0.375737 0.030107 Li+
0.181714 0.375737 0.033639 Li+
0.566270 0.612275 0.014135 Li+
0.066270 0.612275 0.010187 Li+
0.449547 0.848182 0.073065 Li+
0.949547 0.848182 0.078606 Li+
0.332984 0.084520 0.057996 Li+
0.832984 0.084520 0.054286 Li+
0.256366 0.233171 0.005346 Li+
0.756366 0.233171 0.082161 Li+
0.181780 0.873522 0.157507 Li+
0.681780 0.873522 0.156608 Li+
0.065996 0.111170 0.138552 Li+
0.565996 0.111170 0.135955 Li+
0.950543 0.347043 0.117115 Li+
0.450543 0.347043 0.118079 Li+
0.835452 0.581703 0.097440 Li+
0.335452 0.581703 0.098644 Li+
0.758434 0.729106 0.128027 Li+
0.258434 0.729106 0.126824 Li+
0.681714 0.375737 0.113440 Li+
0.181714 0.375737 0.116972 Li+
0.566270 0.612275 0.097468 Li+
0.066270 0.612275 0.093521 Li+
0.449547 0.848182 0.156398 Li+
0.949547 0.848182 0.161940 Li+
0.332984 0.084520 0.141329 Li+
0.832984 0.084520 0.137619 Li+
0.256366 0.233171 0.088679 Li+
0.756366 0.233171 0.165494 Li+
0.181780 0.873522 0.240840 Li+
0.681780 0.873522 0.239941 Li+
0.065996 0.111170 0.221885 Li+
0.565996 0.111170 0.219288 Li+
0.950543 0.347043 0.200448 Li+
0.450543 0.347043 0.201412 Li+
0.835452 0.581703 0.180773 Li+
0.335452 0.581703 0.181977 Li+
0.758434 0.729106 0.211360 Li+
0.258434 0.729106 0.210157 Li+
0.681714 0.375737 0.196773 Li+
0.181714 0.375737 0.200305 Li+
0.566270 0.612275 0.180802 Li+
0.066270 0.612275 0.176854 Li+
0.449547 0.848182 0.239731 Li+
0.949547 0.848182 0.245273 Li+
0.332984 0.084520 0.224663 Li+
0.832984 0.084520 0.220952 Li+
0.256366 0.233171 0.172012 Li+
0.756366 0.233171 0.248827 Li+
0.181780 0.873522 0.324173 Li+
0.681780 0.873522 0.323275 Li+
0.065996 0.111170 0.305218 Li+
0.565996 0.111170 0.302621 Li+
0.950543 0.347043 0.283782 Li+
0.450543 0.347043 0.284746 Li+
0.835452 0.581703 0.264107 Li+
0.335452 0.581703 0.265311 Li+
0.758434 0.729106 0.294693 Li+
0.258434 0.729106 0.293490 Li+
0.681714 0.375737 0.280107 Li+
0.181714 0.375737 0.283639 Li+
0.566270 0.612275 0.264135 Li+
0.066270 0.612275 0.260187 Li+
0.449547 0.848182 0.323065 Li+
0.949547 0.848182 0.328606 Li+
0.332984 0.084520 0.307996 Li+
0.832984 0.084520 0.304285 Li+
0.256366 0.233171 0.255346 Li+
0.756366 0.233171 0.332161 Li+
0.181780 0.873522 0.407507 Li+
0.681780 0.873522 0.406608 Li+
0.065996 0.111170 0.388552 Li+
0.565996 0.111170 0.385955 Li+
0.950543 0.347043 0.367115 Li+
0.450543 0.347043 0.368079 Li+
0.835452 0.581703 0.347440 Li+
0.335452 0.581703 0.348644 Li+
0.758434 0.729106 0.378027 Li+
0.258434 0.729106 0.376824 Li+
0.681714 0.375737 0.363440 Li+
0.181714 0.375737 0.366972 Li+
0.566270 0.612275 0.347468 Li+
0.066270 0.612275 0.343521 Li+
0.449547 0.848182 0.406398 Li+
0.949547 0.848182 0.411940 Li+
0.332984 0.084520 0.391329 Li+
0.832984 0.084520 0.387619 Li+
0.256366 0.233171 0.338679 Li+
0.756366 0.233171 0.415494 Li+
0.181780 0.873522 0.490840 Li+
0.681780 0.873522 0.489941 Li+
0.065996 0.111170 0.471885 Li+
0.565996 0.111170 0.469288 Li+
0.950543 0.347043 0.450449 Li+
0.450543 0.347043 0.451412 Li+
0.835452 0.581703 0.430774 Li+
0.335452 0.581703 0.431978 Li+
0.758434 0.729106 0.461360 Li+
0.258434 0.729106 0.460157 Li+
0.681714 0.375737 0.446773 Li+
0.181714 0.375737 0.450306 Li+
0.566270 0.612275 0.430802 Li+
0.066270 0.612275 0.426854 Li+
0.449547 0.848182 0.489731 Li+
0.949547 0.848182 0.495273 Li+
0.332984 0.084520 0.474663 Li+
0.832984 0.084520 0.470952 Li+
0.256366 0.233171 0.422012 Li+
0.756366 0.233171 0.498827 Li+
0.181780 0.873522 0.574173 Li+
0.681780 0.873522 0.573275 Li+
0.065996 0.111170 0.555218 Li+
0.565996 0.111170 0.552621 Li+
0.950543 0.347043 0.533782 Li+
0.450543 0.347043 0.534746 Li+
0.835452 0.581703 0.514107 Li+
0.335452 0.581703 0.515311 Li+
0.758434 0.729106 0.544693 Li+
0.258434 0.729106 0.543490 Li+
0.681714 0.375737 0.530107 Li+
0.181714 0.375737 0.533639 Li+
0.566270 0.612275 0.514135 Li+
0.066270 0.612275 0.510187 Li+
0.449547 0.848182 0.573065 Li+
0.949547 0.848182 0.578606 Li+
0.332984 0.084520 0.557996 Li+
0.832984 0.084520 0.554285 Li+
0.256366 0.233171 0.505346 Li+
0.756366 0.233171 0.582161 Li+
0.999587 0.999221 0.006134 P5+
0.499587 0.999221 0.037030 P5+
0.906720 0.205613 0.017440 P5+
0.406720 0.205613 0.074659 P5+
0.802939 0.401137 0.055719 P5+
0.302939 0.401137 0.003793 P5+
0.691689 0.591605 0.069802 P5+
0.191689 0.591605 0.041298 P5+
0.591751 0.791599 0.025573 P5+
0.091751 0.791599 0.052196 P5+
0.425433 0.665080 0.062433 P5+
0.925433 0.665080 0.036422 P5+
0.325562 0.865452 0.018203 P5+
0.825562 0.865452 0.047257 P5+
0.213545 0.056323 0.032467 P5+
0.713545 0.056323 0.001180 P5+
0.110144 0.252134 0.071181 P5+
0.610144 0.252134 0.013165 P5+
0.017155 0.458420 0.082494 P5+
0.517155 0.458420 0.050805 P5+
0.999587 0.999221 0.089468 P5+
0.499587 0.999221 0.120364 P5+
0.906720 0.205613 0.100773 P5+
0.406720 0.205613 0.157993 P5+
0.802939 0.401137 0.139052 P5+
0.302939 0.401137 0.087126 P5+
0.691689 0.591605 0.153136 P5+
0.191689 0.591605 0.124632 P5+
0.591751 0.791599 0.108906 P5+
0.091751 0.791599 0.135529 P5+
0.425433 0.665080 0.145767 P5+
0.925433 0.665080 0.119755 P5+
0.325562 0.865452 0.101536 P5+
0.825562 0.865452 0.130590 P5+
0.213545 0.056323 0.115801 P5+
0.713545 0.056323 0.084514 P5+
0.110144 0.252134 0.154514 P5+
0.610144 0.252134 0.096498 P5+
0.017155 0.458420 0.165827 P5+
0.517155 0.458420 0.134138 P5+
0.999587 0.999221 0.172801 P5+
0.499587 0.999221 0.203697 P5+
0.906720 0.205613 0.184107 P5+
0.406720 0.205613 0.241326 P5+
0.802939 0.401137 0.222386 P5+
0.302939 0.401137 0.170460 P5+
0.691689 0.591605 0.236469 P5+
0.191689 0.591605 0.207965 P5+
0.591751 0.791599 0.192239 P5+
0.091751 0.791599 0.218862 P5+
0.425433 0.665080 0.229100 P5+
0.925433 0.665080 0.203088 P5+
0.325562 0.865452 0.184870 P5+
0.825562 0.865452 0.213923 P5+
0.213545 0.056323 0.199134 P5+
0.713545 0.056323 0.167847 P5+
0.110144 0.252134 0.237848 P5+
0.610144 0.252134 0.179831 P5+
0.017155 0.458420 0.249160 P5+
0.517155 0.458420 0.217471 P5+
0.999587 0.999221 0.256134 P5+
0.499587 0.999221 0.287030 P5+
0.906720 0.205613 0.267440 P5+
0.406720 0.205613 0.324659 P5+
0.802939 0.401137 0.305719 P5+
0.302939 0.401137 0.253793 P5+
0.691689 0.591605 0.319802 P5+
0.191689 0.591605 0.291298 P5+
0.591751 0.791599 0.275573 P5+
0.091751 0.791599 0.302196 P5+
0.425433 0.665080 0.312433 P5+
0.925433 0.665080 0.286422 P5+
0.325562 0.865452 0.268203 P5+
0.825562 0.865452 0.297257 P5+
0.213545 0.056323 0.282467 P5+
0.713545 0.056323 0.251180 P5+
0.110144 0.252134 0.321181 P5+
0.610144 0.252134 0.263165 P5+
0.017155 0.458420 0.332493 P5+
0.517155 0.458420 0.300805 P5+
0.999587 0.999221 0.339468 P5+
0.499587 0.999221 0.370364 P5+
0.906720 0.205613 0.350773 P5+
0.406720 0.205613 0.407993 P5+
0.802939 0.401137 0.389052 P5+
0.302939 0.401137 0.337126 P5+
0.691689 0.591605 0.403136 P5+
0.191689 0.591605 0.374632 P5+
0.591751 0.791599 0.358906 P5+
0.091751 0.791599 0.385529 P5+
0.425433 0.665080 0.395767 P5+
0.925433 0.665080 0.369755 P5+
0.325562 0.865452 0.351536 P5+
0.825562 0.865452 0.380590 P5+
0.213545 0.056323 0.365801 P5+
0.713545 0.056323 0.334514 P5+
0.110144 0.252134 0.404514 P5+
0.610144 0.252134 0.346498 P5+
0.017155 0.458420 0.415827 P5+
0.517155 0.458420 0.384138 P5+
0.999587 0.999221 0.422801 P5+
0.499587 0.999221 0.453697 P5+
0.906720 0.205613 0.434107 P5+
0.406720 0.205613 0.491326 P5+
0.802939 0.401137 0.472386 P5+
0.302939 0.401137 0.420460 P5+
0.691689 0.591605 0.486469 P5+
0.191689 0.591605 0.457965 P5+
0.591751 0.791599 0.442239 P5+
0.091751 0.791599 0.468862 P5+
0.425433 0.665080 0.479100 P5+
0.925433 0.665080 0.453088 P5+
0.325562 0.865452 0.434870 P5+
0.825562 0.865452 0.463923 P5+
0.213545 0.056323 0.449134 P5+
0.713545 0.056323 0.417847 P5+
0.110144 0.252134 0.487848 P5+
0.610144 0.252134 0.429831 P5+
0.017155 0.458420 0.499160 P5+
0.517155 0.458420 0.467471 P5+
0.999587 0.999221 0.506134 P5+
0.499587 0.999221 0.537030 P5+
0.906720 0.205613 0.517440 P5+
0.406720 0.205613 0.574659 P5+
0.802939 0.401137 0.555719 P5+
0.302939 0.401137 0.503793 P5+
0.691689 0.591605 0.569802 P5+
0.191689 0.591605 0.541298 P5+
0.591751 0.791599 0.525573 P5+
0.091751 0.791599 0.552196 P5+
0.425433 0.665080 0.562433 P5+
0.925433 0.665080 0.536422 P5+
0.325562 0.865452 0.518203 P5+
0.825562 0.865452 0.547257 P5+
0.213545 0.056323 0.532467 P5+
0.713545 0.056323 0.501180 P5+
0.110144 0.252134 0.571181 P5+
0.610144 0.252134 0.513165 P5+
0.017155 0.458420 0.582493 P5+
0.517155 0.458420 0.550805 P5+
0.964587 0.129985 0.004935 O2-
0.464587 0.129985 0.016435 O2-
0.859372 0.340179 0.080579 O2-
0.359372 0.340179 0.072426 O2-
0.724144 0.518650 0.054962 O2-
0.224144 0.518650 0.068298 O2-
0.607741 0.706904 0.052052 O2-
0.107741 0.706904 0.039832 O2-
0.021852 0.919848 0.033028 O2-
0.521852 0.919848 0.023365 O2-
0.409378 0.749936 0.035958 O2-
0.909378 0.749936 0.048755 O2-
0.290596 0.936774 0.033299 O2-
0.790596 0.936774 0.020273 O2-
0.156445 0.116799 0.007679 O2-
0.656445 0.116799 0.015890 O2-
0.056520 0.325432 0.001166 O2-
0.556520 0.325432 0.070964 O2-
0.495673 0.536371 0.064762 O2-
0.995673 0.536371 0.055544 O2-
0.073889 0.970827 0.080382 O2-
0.573889 0.970827 0.050848 O2-
0.933926 0.994909 0.079115 O2-
0.433926 0.994909 0.048101 O2-
0.958651 0.204625 0.034167 O2-
0.458651 0.204625 0.058097 O2-
0.846743 0.171056 0.024321 O2-
0.346743 0.171056 0.073538 O2-
0.845353 0.439658 0.038881 O2-
0.345353 0.439658 0.014210 O2-
0.775410 0.322583 0.054487 O2-
0.275410 0.322583 0.018117 O2-
0.747295 0.630670 0.072999 O2-
0.247295 0.630670 0.031590 O2-
0.669352 0.527520 0.006200 O2-
0.169352 0.527520 0.032248 O2-
0.667159 0.790584 0.021042 O2-
0.167159 0.790584 0.056895 O2-
0.553292 0.761105 0.011777 O2-
0.053292 0.761105 0.071073 O2-
0.463335 0.697609 0.075892 O2-
0.963335 0.697609 0.017541 O2-
0.350606 0.665087 0.067260 O2-
0.850606 0.665087 0.031593 O2-
0.348215 0.931406 0.082167 O2-
0.848215 0.931406 0.055633 O2-
0.271458 0.824688 0.014623 O2-
0.771458 0.824688 0.057630 O2-
0.241625 0.135280 0.033100 O2-
0.741625 0.135280 0.070722 O2-
0.171199 0.019880 0.049615 O2-
0.671199 0.019880 0.073440 O2-
0.170027 0.286380 0.063880 O2-
0.670027 0.286380 0.014758 O2-
0.055640 0.257004 0.054493 O2-
0.555640 0.257004 0.029042 O2-
0.080441 0.467181 0.009463 O2-
0.580441 0.467181 0.039042 O2-
0.942366 0.484690 0.007884 O2-
0.442366 0.484690 0.037703 O2-
0.964587 0.129985 0.088269 O2-
0.464587 0.129985 0.099769 O2-
0.859372 0.340179 0.163912 O2-
0.359372 0.340179 0.155760 O2-
0.724144 0.518650 0.138295 O2-
0.224144 0.518650 0.151631 O2-
0.607741 0.706904 0.135385 O2-
0.107741 0.706904 0.123165 O2-
0.021852 0.919848 0.116362 O2-
0.521852 0.919848 0.106699 O2-
0.409378 0.749936 0.119291 O2-
0.909378 0.749936 0.132088 O2-
0.290596 0.936774 0.116633 O2-
0.790596 0.936774 0.103606 O2-
0.156445 0.116799 0.091012 O2-
0.656445 0.116799 0.099223 O2-
0.056520 0.325432 0.084499 O2-
0.556520 0.325432 0.154297 O2-
0.495673 0.536371 0.148096 O2-
0.995673 0.536371 0.138877 O2-
0.073889 0.970827 0.163716 O2-
0.573889 0.970827 0.134181 O2-
0.933926 0.994909 0.162448 O2-
0.433926 0.994909 0.131435 O2-
0.958651 0.204625 0.117501 O2-
0.458651 0.204625 0.141430 O2-
0.846743 0.171056 0.107654 O2-
0.346743 0.171056 0.156871 O2-
0.845353 0.439658 0.122215 O2-
0.345353 0.439658 0.097544 O2-
0.775410 0.322583 0.137820 O2-
0.275410 0.322583 0.101451 O2-
0.747295 0.630670 0.156333 O2-
0.247295 0.630670 0.114924 O2-
0.669352 0.527520 0.089533 O2-
0.169352 0.527520 0.115582 O2-
0.667159 0.790584 0.104375 O2-
0.167159 0.790584 0.140229 O2-
0.553292 0.761105 0.095111 O2-
0.053292 0.761105 0.154407 O2-
0.463335 0.697609 0.159226 O2-
0.963335 0.697609 0.100874 O2-
0.350606 0.665087 0.150594 O2-
0.850606 0.665087 0.114926 O2-
0.348215 0.931406 0.165501 O2-
0.848215 0.931406 0.138966 O2-
0.271458 0.824688 0.097956 O2-
0.771458 0.824688 0.140964 O2-
0.241625 0.135280 0.116433 O2-
0.741625 0.135280 0.154055 O2-
0.171199 0.019880 0.132948 O2-
0.671199 0.019880 0.156773 O2-
0.170027 0.286380 0.147213 O2-
0.670027 0.286380 0.098092 O2-
0.055640 0.257004 0.137826 O2-
0.555640 0.257004 0.112375 O2-
0.080441 0.467181 0.092796 O2-
0.580441 0.467181 0.122375 O2-
0.942366 0.484690 0.091217 O2-
0.442366 0.484690 0.121036 O2-
0.964587 0.129985 0.171602 O2-
0.464587 0.129985 0.183102 O2-
0.859372 0.340179 0.247245 O2-
0.359372 0.340179 0.239093 O2-
0.724144 0.518650 0.221628 O2-
0.224144 0.518650 0.234965 O2-
0.607741 0.706904 0.218719 O2-
0.107741 0.706904 0.206499 O2-
0.021852 0.919848 0.199695 O2-
0.521852 0.919848 0.190032 O2-
0.409378 0.749936 0.202624 O2-
0.909378 0.749936 0.215421 O2-
0.290596 0.936774 0.199966 O2-
0.790596 0.936774 0.186940 O2-
0.156445 0.116799 0.174345 O2-
0.656445 0.116799 0.182556 O2-
0.056520 0.325432 0.167832 O2-
0.556520 0.325432 0.237630 O2-
0.495673 0.536371 0.231429 O2-
0.995673 0.536371 0.222211 O2-
0.073889 0.970827 0.247049 O2-
0.573889 0.970827 0.217515 O2-
0.933926 0.994909 0.245782 O2-
0.433926 0.994909 0.214768 O2-
0.958651 0.204625 0.200834 O2-
0.458651 0.204625 0.224763 O2-
0.846743 0.171056 0.190987 O2-
0.346743 0.171056 0.240205 O2-
0.845353 0.439658 0.205548 O2-
0.345353 0.439658 0.180877 O2-
0.775410 0.322583 0.221154 O2-
0.275410 0.322583 0.184784 O2-
0.747295 0.630670 0.239666 O2-
0.247295 0.630670 0.198257 O2-
0.669352 0.527520 0.172867 O2-
0.169352 0.527520 0.198915 O2-
0.667159 0.790584 0.187709 O2-
0.167159 0.790584 0.223562 O2-
0.553292 0.761105 0.178444 O2-
0.053292 0.761105 0.237740 O2-
0.463335 0.697609 0.242559 O2-
0.963335 0.697609 0.184207 O2-
0.350606 0.665087 0.233927 O2-
0.850606 0.665087 0.198260 O2-
0.348215 0.931406 0.248834 O2-
0.848215 0.931406 0.222300 O2-
0.271458 0.824688 0.181290 O2-
0.771458 0.824688 0.224297 O2-
0.241625 0.135280 0.199766 O2-
0.741625 0.135280 0.237389 O2-
0.171199 0.019880 0.216282 O2-
0.671199 0.019880 0.240107 O2-
0.170027 0.286380 0.230546 O2-
0.670027 0.286380 0.181425 O2-
0.055640 0.257004 0.221159 O2-
0.555640 0.257004 0.195708 O2-
0.080441 0.467181 0.176130 O2-
0.580441 0.467181 0.205708 O2-
0.942366 0.484690 0.174550 O2-
0.442366 0.484690 0.204369 O2-
0.964587 0.129985 0.254935 O2-
0.464587 0.129985 0.266435 O2-
0.859372 0.340179 0.330579 O2-
0.359372 0.340179 0.322426 O2-
0.724144 0.518650 0.304962 O2-
0.224144 0.518650 0.318298 O2-
0.607741 0.706904 0.302052 O2-
0.107741 0.706904 0.289832 O2-
0.021852 0.919848 0.283028 O2-
0.521852 0.919848 0.273365 O2-
0.409378 0.749936 0.285958 O2-
0.909378 0.749936 0.298755 O2-
0.290596 0.936774 0.283299 O2-
0.790596 0.936774 0.270273 O2-
0.156445 0.116799 0.257679 O2-
0.656445 0.116799 0.265890 O2-
0.056520 0.325432 0.251166 O2-
0.556520 0.325432 0.320964 O2-
0.495673 0.536371 0.314762 O2-
0.995673 0.536371 0.305544 O2-
0.073889 0.970827 0.330382 O2-
0.573889 0.970827 0.300848 O2-
0.933926 0.994909 0.329115 O2-
0.433926 0.994909 0.298102 O2-
0.958651 0.204625 0.284167 O2-
0.458651 0.204625 0.308097 O2-
0.846743 0.171056 0.274321 O2-
0.346743 0.171056 0.323538 O2-
0.845353 0.439658 0.288881 O2-
0.345353 0.439658 0.264210 O2-
0.775410 0.322583 0.304487 O2-
0.275410 0.322583 0.268117 O2-
0.747295 0.630670 0.322999 O2-
0.247295 0.630670 0.281590 O2-
0.669352 0.527520 0.256200 O2-
0.169352 0.527520 0.282248 O2-
0.667159 0.790584 0.271042 O2-
0.167159 0.790584 0.306895 O2-
0.553292 0.761105 0.261777 O2-
0.053292 0.761105 0.321073 O2-
0.463335 0.697609 0.325892 O2-
0.963335 0.697609 0.267541 O2-
0.350606 0.665087 0.317261 O2-
0.850606 0.665087 0.281593 O2-
0.348215 0.931406 0.332168 O2-
0.848215 0.931406 0.305633 O2-
0.271458 0.824688 0.264623 O2-
0.771458 0.824688 0.307630 O2-
0.241625 0.135280 0.283100 O2-
0.741625 0.135280 0.320722 O2-
0.171199 0.019880 0.299615 O2-
0.671199 0.019880 0.323440 O2-
0.170027 0.286380 0.313880 O2-
0.670027 0.286380 0.264758 O2-
0.055640 0.257004 0.304492 O2-
0.555640 0.257004 0.279042 O2-
0.080441 0.467181 0.259463 O2-
0.580441 0.467181 0.289042 O2-
0.942366 0.484690 0.257884 O2-
0.442366 0.484690 0.287703 O2-
0.964587 0.129985 0.338269 O2-
0.464587 0.129985 0.349769 O2-
0.859372 0.340179 0.413912 O2-
0.359372 0.340179 0.405760 O2-
0.724144 0.518650 0.388295 O2-
0.224144 0.518650 0.401631 O2-
0.607741 0.706904 0.385385 O2-
0.107741 0.706904 0.373165 O2-
0.021852 0.919848 0.366362 O2-
0.521852 0.919848 0.356699 O2-
0.409378 0.749936 0.369291 O2-
0.909378 0.749936 0.382088 O2-
0.290596 0.936774 0.366633 O2-
0.790596 0.936774 0.353606 O2-
0.156445 0.116799 0.341012 O2-
0.656445 0.116799 0.349223 O2-
0.056520 0.325432 0.334499 O2-
0.556520 0.325432 0.404297 O2-
0.495673 0.536371 0.398096 O2-
0.995673 0.536371 0.388877 O2-
0.073889 0.970827 0.413716 O2-
0.573889 0.970827 0.384181 O2-
0.933926 0.994909 0.412448 O2-
0.433926 0.994909 0.381435 O2-
0.958651 0.204625 0.367501 O2-
0.458651 0.204625 0.391430 O2-
0.846743 0.171056 0.357654 O2-
0.346743 0.171056 0.406871 O2-
0.845353 0.439658 0.372215 O2-
0.345353 0.439658 0.347544 O2-
0.775410 0.322583 0.387820 O2-
0.275410 0.322583 0.351451 O2-
0.747295 0.630670 0.406333 O2-
0.247295 0.630670 0.364924 O2-
0.669352 0.527520 0.339533 O2-
0.169352 0.527520 0.365582 O2-
0.667159 0.790584 0.354375 O2-
0.167159 0.790584 0.390229 O2-
0.553292 0.761105 0.345111 O2-
0.053292 0.761105 0.404407 O2-
0.463335 0.697609 0.409226 O2-
0.963335 0.697609 0.350874 O2-
0.350606 0.665087 0.400594 O2-
0.850606 0.665087 0.364926 O2-
0.348215 0.931406 0.415501 O2-
0.848215 0.931406 0.388966 O2-
0.271458 0.824688 0.347956 O2-
0.771458 0.824688 0.390964 O2-
0.241625 0.135280 0.366433 O2-
0.741625 0.135280 0.404055 O2-
0.171199 0.019880 0.382948 O2-
0.671199 0.019880 0.406773 O2-
0.170027 0.286380 0.397213 O2-
0.670027 0.286380 0.348092 O2-
0.055640 0.257004 0.387826 O2-
0.555640 0.257004 0.362375 O2-
0.080441 0.467181 0.342796 O2-
0.580441 0.467181 0.372375 O2-
0.942366 0.484690 0.341217 O2-
0.442366 0.484690 0.371036 O2-
0.964587 0.129985 0.421602 O2-
0.464587 0.129985 0.433102 O2-
0.859372 0.340179 0.497245 O2-
0.359372 0.340179 0.489093 O2-
0.724144 0.518650 0.471628 O2-
0.224144 0.518650 0.484965 O2-
0.607741 0.706904 0.468719 O2-
0.107741 0.706904 0.456499 O2-
0.021852 0.919848 0.449695 O2-
0.521852 0.919848 0.440032 O2-
0.409378 0.749936 0.452624 O2-
0.909378 0.749936 0.465421 O2-
0.290596 0.936774 0.449966 O2-
0.790596 0.936774 0.436940 O2-
0.156445 0.116799 0.424345 O2-
0.656445 0.116799 0.432556 O2-
0.056520 0.325432 0.417833 O2-
0.556520 0.325432 0.487630 O2-
0.495673 0.536371 0.481429 O2-
0.995673 0.536371 0.472211 O2-
0.073889 0.970827 0.497049 O2-
0.573889 0.970827 0.467515 O2-
0.933926 0.994909 0.495782 O2-
0.433926 0.994909 0.464768 O2-
0.958651 0.204625 0.450834 O2-
0.458651 0.204625 0.474763 O2-
0.846743 0.171056 0.440987 O2-
0.346743 0.171056 0.490205 O2-
0.845353 0.439658 0.455548 O2-
0.345353 0.439658 0.430877 O2-
0.775410 0.322583 0.471154 O2-
0.275410 0.322583 0.434784 O2-
0.747295 0.630670 0.489666 O2-
0.247295 0.630670 0.448257 O2-
0.669352 0.527520 0.422867 O2-
0.169352 0.527520 0.448915 O2-
0.667159 0.790584 0.437709 O2-
0.167159 0.790584 0.473562 O2-
0.553292 0.761105 0.428444 O2-
0.053292 0.761105 0.487740 O2-
0.463335 0.697609 0.492559 O2-
0.963335 0.697609 0.434208 O2-
0.350606 0.665087 0.483927 O2-
0.850606 0.665087 0.448260 O2-
0.348215 0.931406 0.498834 O2-
0.848215 0.931406 0.472300 O2-
0.271458 0.824688 0.431290 O2-
0.771458 0.824688 0.474297 O2-
0.241625 0.135280 0.449766 O2-
0.741625 0.135280 0.487389 O2-
0.171199 0.019880 0.466282 O2-
0.671199 0.019880 0.490107 O2-
0.170027 0.286380 0.480546 O2-
0.670027 0.286380 0.431425 O2-
0.055640 0.257004 0.471159 O2-
0.555640 0.257004 0.445708 O2-
0.080441 0.467181 0.426130 O2-
0.580441 0.467181 0.455708 O2-
0.942366 0.484690 0.424550 O2-
0.442366 0.484690 0.454369 O2-
0.964587 0.129985 0.504935 O2-
0.464587 0.129985 0.516435 O2-
0.859372 0.340179 0.580579 O2-
0.359372 0.340179 0.572426 O2-
0.724144 0.518650 0.554962 O2-
0.224144 0.518650 0.568298 O2-
0.607741 0.706904 0.552052 O2-
0.107741 0.706904 0.539832 O2-
0.021852 0.919848 0.533028 O2-
0.521852 0.919848 0.523365 O2-
0.409378 0.749936 0.535958 O2-
0.909378 0.749936 0.548755 O2-
0.290596 0.936774 0.533300 O2-
0.790596 0.936774 0.520273 O2-
0.156445 0.116799 0.507679 O2-
0.656445 0.116799 0.515890 O2-
0.056520 0.325432 0.501166 O2-
0.556520 0.325432 0.570964 O2-
0.495673 0.536371 0.564762 O2-
0.995673 0.536371 0.555544 O2-
0.073889 0.970827 0.580382 O2-
0.573889 0.970827 0.550848 O2-
0.933926 0.994909 0.579115 O2-
0.433926 0.994909 0.548102 O2-
0.958651 0.204625 0.534167 O2-
0.458651 0.204625 0.558097 O2-
0.846743 0.171056 0.524321 O2-
0.346743 0.171056 0.573538 O2-
0.845353 0.439658 0.538881 O2-
0.345353 0.439658 0.514210 O2-
0.775410 0.322583 0.554487 O2-
0.275410 0.322583 0.518117 O2-
0.747295 0.630670 0.572999 O2-
0.247295 0.630670 0.531590 O2-
0.669352 0.527520 0.506200 O2-
0.169352 0.527520 0.532248 O2-
0.667159 0.790584 0.521042 O2-
0.167159 0.790584 0.556895 O2-
0.553292 0.761105 0.511777 O2-
0.053292 0.761105 0.571073 O2-
0.463335 0.697609 0.575892 O2-
0.963335 0.697609 0.517541 O2-
0.350606 0.665087 0.567260 O2-
0.850606 0.665087 0.531593 O2-
0.348215 0.931406 0.582167 O2-
0.848215 0.931406 0.555633 O2-
0.271458 0.824688 0.514623 O2-
0.771458 0.824688 0.557630 O2-
0.241625 0.135280 0.533100 O2-
0.741625 0.135280 0.570722 O2-
0.171199 0.019880 0.549615 O2-
0.671199 0.019880 0.573440 O2-
0.170027 0.286380 0.563880 O2-
0.670027 0.286380 0.514758 O2-
0.055640 0.257004 0.554493 O2-
0.555640 0.257004 0.529042 O2-
0.080441 0.467181 0.509463 O2-
0.580441 0.467181 0.539042 O2-
0.942366 0.484690 0.507884 O2-
0.442366 0.484690 0.537703 O2-
