Li71 P24 N1 O94                         
   1.00000000000000     
    14.7418454450035590    0.0044677859507078    0.0052511621312533
     0.0032055085406898   10.5550237329742291    0.0174287346196411
     0.0043768748070484    0.0203100090729132   12.3362056506970319
   Li   P    N    O 
    71    24     1    94
Direct
  0.2006324043609764  0.4138314702907483  0.0021296808712228
  0.1693454005282497  0.4218383391622807  0.4996093697542947
  0.1701345668636630  0.9238342607546812  0.0029232443724576
  0.1706752975623278  0.9232690083608658  0.4977474226860885
  0.5017621673470967  0.4212135938047806  0.0002460169690051
  0.5027294860584842  0.4212674972092125  0.5001896206895401
  0.5036814044506860  0.9223397866328812  0.0001542640405289
  0.5033862577430973  0.9234464579177362  0.4998823331815779
  0.8325263543752618  0.4195625502206550  0.0011701885581399
  0.8367452086083922  0.4225631168569721  0.4998244458183544
  0.8348687004825294  0.9214338688759212  0.0003752424058654
  0.8371903879586272  0.9257078127171434  0.4982583805774922
  0.0006085078718720  0.0685901901589378  0.7443478195380985
  0.0024239670160090  0.5822850631429028  0.2541637969957544
  0.0015446290674770  0.5781307554108838  0.7469817388279089
  0.3360701664736510  0.0761386338267429  0.2510808912793426
  0.3367813003647671  0.0766473261781960  0.7490640367827065
  0.3371001536612808  0.5790224135053469  0.2514455067973518
  0.3367433503815993  0.5779997573878518  0.7490229487110762
  0.6758448704864016  0.0747283725068386  0.2504382051036731
  0.6693489211808373  0.0758939433420898  0.7487602420417963
  0.6688080643280342  0.5798114495481583  0.2513552390203698
  0.6681978989658770  0.5774120497984158  0.7492254721016650
  0.1723669294306963  0.1616421341910930  0.1287138690527360
  0.1680760282156776  0.1613493619510550  0.6263939966751794
  0.1719373028345969  0.6673469509438543  0.1281282353270840
  0.1695943305777584  0.6631165645111013  0.6255774853239595
  0.5043995584126716  0.1621589584623762  0.1272182291378354
  0.5027796333165719  0.1630983292517819  0.6258091346327849
  0.5035187501666170  0.6632837871395104  0.1265864705220800
  0.5024812400934457  0.6632542793654549  0.6255203686444764
  0.8368284027048478  0.1614185044010170  0.1244219879812128
  0.8363565908308892  0.1630848612158424  0.6253500228088864
  0.8323828341927000  0.6666953604933011  0.1293873066896005
  0.8352429205853944  0.6637194933823327  0.6253004330316382
 -0.0059195112023263  0.3178418229204851  0.1548694706452463
  0.0039837026578819  0.3361299987148998  0.6233035322580494
 -0.0005159816400134  0.8521322350330490  0.1289117139013869
  0.0032986923334430  0.8378253587121699  0.6211214912792463
  0.3400150991180304  0.3344382406522485  0.1279097092395096
  0.3354228729243983  0.3358916400108307  0.6235341029081881
  0.3386726106531812  0.8380459752256071  0.1242967273948459
  0.3369178920016222  0.8365168948287129  0.6231419727319673
  0.6687349979737982  0.3364336489086746  0.1250231989658398
  0.6693277953760306  0.3356000912626639  0.6240693342454706
  0.6675592057730526  0.8354838347845320  0.1226968290683852
  0.6690007439242388  0.8359934607184071  0.6229104211589472
  0.0047606789559241  0.3390131313273494  0.3789383783255031
 -0.0034534733564079  0.3176806504505308  0.8581953845393371
  0.0018468106337653  0.8476260954072911  0.3741467613808364
  0.0014046348892761  0.8400195557241500  0.8736817814409926
  0.3360166071256094  0.3361890951763448  0.3771926387742321
  0.3388508448344188  0.3340006622679448  0.8733911223658044
  0.3380663819316007  0.8371946148175398  0.3768410191575636
  0.3367579026834648  0.8377022743886963  0.8765811593114740
  0.6697665304324671  0.3361992479944223  0.3771983821126036
  0.6677463238885482  0.3358812499378227  0.8759515392577280
  0.6683321546782649  0.8352262538320938  0.3782545579990230
  0.6682360165589295  0.8365430229090074  0.8762029700374864
  0.1663274345768096  0.1612008536982804  0.3712293506842717
  0.1693332835513469  0.1593536774745354  0.8730055217502966
  0.1697216815561993  0.6660772862573819  0.3746047782764584
  0.1716429548477508  0.6641062177167265  0.8733496619224443
  0.5041424740784101  0.1624999870792128  0.3732173333837626
  0.5034118662478937  0.1624263596018279  0.8727037757975875
  0.5030691287960759  0.6629598233077464  0.3746176449640710
  0.5027978815664930  0.6633624786687422  0.8729551004205627
  0.8407751788902824  0.1624930325215286  0.3711324978234488
  0.8328699037027140  0.1609174549580431  0.8718536185571697
  0.8360370089920233  0.6666556951816670  0.3748268980664288
  0.8321565142992231  0.6637714323994885  0.8708188210614063
  0.1689693628494821  0.4155084790395619  0.2506194725480135
  0.1668945477502633  0.4122796347297707  0.7518141108542652
  0.1695731088579445  0.9100211226032562  0.2502491042540958
  0.1681061547757740  0.9100987973728060  0.7495710396688573
  0.5008026726592251  0.4128555461732942  0.2509068231475056
  0.4999950188077044  0.4123606292405270  0.7496658844799549
  0.5016333495461850  0.9121662140553267  0.2504286805643027
  0.5003757036080909  0.9117847695956421  0.7496706230741611
  0.8322241275012239  0.4151600669890951  0.2507263374596690
  0.8328257701909775  0.4128263209568978  0.7503967234918434
  0.8291902598299887  0.9128342700964664  0.2496445824136331
  0.8323705100686530  0.9104685782872013  0.7490124167172024
 -0.0007001217671982  0.0866244759579007 -0.0087328936954490
  0.0018951972145108  0.0924008797780411  0.5035377854008352
 -0.0022756812661004  0.5972519138310236  0.0007372839204605
  0.0001913524829508  0.5897325877041680  0.5007570077398461
  0.3356808214495551  0.0875435909450687 -0.0006718444261292
  0.3343287304706737  0.0882468833386303  0.5000587632772409
  0.3336276303752407  0.5888632994620975  0.0000373409447458
  0.3339085356485631  0.5870255227499133  0.5003439816243388
  0.6661654459345320  0.0878550424701751 -0.0011178566982327
  0.6675392648800729  0.0882285017899004  0.5003188496161979
  0.6654648108734337  0.5865309429944849 -0.0006266825955845
  0.6669812472978842  0.5864468002358956  0.5008518130936672
  0.0446203132826594  0.1767272986011864  0.0818883670652563
  0.0402442633330130  0.1701270284722042  0.4085733200632027
  0.0326481932927623  0.1487345320158001  0.8822522442740854
  0.0352333039784965  0.6598467568086636  0.3975912663069294
  0.0356344021976538  0.6567880250268885  0.8946574826611398
  0.3702664848740695  0.1573165335902728  0.3963682578631078
  0.3707387958147805  0.1567478912313681  0.8951216734961968
  0.3698577781371046  0.6560996569202114  0.3968576219117945
  0.3691779110552537  0.6560785783475130  0.8957499583043238
  0.7031637147528824  0.1578365954869362  0.3971872175275230
  0.7007093771660141  0.1562708007282516  0.8940566356016956
  0.7022855581680777  0.6559736229152106  0.3973471101387588
  0.7006303623418618  0.6557418681449861  0.8953531798292469
  0.2029073092794523  0.0504970625709391  0.2504349562691009
  0.2015214218388706  0.0502294020357245  0.7495165833719281
  0.2024168144916077  0.5556412149477883  0.2505011446352141
  0.2008833993709318  0.5519955057900768  0.7512463471651502
  0.5367155638218489  0.0515108613452222  0.2501657375038706
  0.5341470437578124  0.0518133739715832  0.7494064717926093
  0.5344441578636121  0.5529585430688810  0.2503872772947733
  0.5335191633064594  0.5524803236096799  0.7496608803339432
  0.8520704517009023  0.0549948306844929  0.2476550623999922
  0.8650542710916260  0.0508107429909646  0.7492717547905660
  0.8662022380212860  0.5552427024869507  0.2497613744262512
  0.8665502627797377  0.5529012337091579  0.7507060937908008
  0.0630047203077026  0.4154154973749894  0.2497366158515114
  0.0608916610115335  0.4110620236304821  0.7536885682981138
  0.0657788416066441  0.8986209155870660  0.2498011095336101
  0.0623884329956090  0.9050752616108978  0.7488081872009795
  0.3951484171677598  0.4105782762957457  0.2516985271817788
  0.3942769883542124  0.4096745357654595  0.7489779339794205
  0.3960303433320740  0.9105658754990703  0.2503959524522659
  0.3947512328341753  0.9088872260806711  0.7498062929540575
  0.7267828488480012  0.4116574464469865  0.2511744315473265
  0.7274067132611142  0.4092371237162961  0.7505311649194779
  0.7236193230475071  0.8982489603842433  0.2499674033468883
  0.7268084814752641  0.9064562135919173  0.7495895655630418
  0.2302612322434637  0.0905688267441663 -0.0010445383286325
  0.2288287585139384  0.0913780247771844  0.5000213544544149
  0.2276908275389601  0.5933167508809964  0.0006651490969331
  0.2282464158739573  0.5898506004755175  0.5003945710640115
  0.5605539464970875  0.0906312158118885 -0.0005557708462114
  0.5617655967967392  0.0911757642535533  0.5003595393505467
  0.5598569386277888  0.5892742093361799 -0.0005295435823532
  0.5613076601345246  0.5890341652589252  0.5006472188768438
  0.8933486036396534  0.0869293185672232 -0.0046985006315416
  0.8958648343805358  0.0928333006500408  0.5006784732010524
  0.8925587920727672  0.5920144924042127  0.0001338283322621
  0.8944359598776737  0.5913065588341302  0.5006315383402884
  0.2059615563441804  0.3463886338552633  0.1478781187430091
  0.2007477834404534  0.3425067681440517  0.6482874509284074
  0.2075979709116952  0.8433123570128298  0.1457855664178729
  0.2038811490617698  0.8412451936026565  0.6462531140217589
  0.5348850325636484  0.3438565696728114  0.1465727615285619
  0.5358495217892723  0.3429242383384901  0.6467201833121101
  0.5355465229064755  0.8423186630231515  0.1463746999493546
  0.5355596468746565  0.8426294409419859  0.6460749173913463
  0.8666301419988381  0.3462239080242249  0.1461104780477301
  0.8693797265284363  0.3437276290489144  0.6477856214901154
  0.8669962662744093  0.8443592931554734  0.1461367960168121
  0.8685408973247950  0.8425507139460218  0.6454369763089092
  0.0334066307082112  0.1550616776139044  0.6126924156338481
  0.0354597166650030  0.6597330052591339  0.1046811984874444
  0.0351447776807691  0.6579186283273348  0.6049720848233474
  0.3707418033258939  0.1566233875655841  0.1030600849627960
  0.3693933576175291  0.1573016279743060  0.6039852111034616
  0.3703926167399390  0.6557453168224966  0.1032118537470982
  0.3690648392403653  0.6560078986393155  0.6040543640268571
  0.7017828567244376  0.1579942106266375  0.1013574268662083
  0.7024069724102440  0.1565452607694623  0.6046131992665119
  0.7008111844711903  0.6556449478667687  0.1026092945377327
  0.7017720317444920  0.6556958557572797  0.6046058602316133
  0.0343948288960979  0.4497888518671931  0.5015591298662884
  0.0322256865125559  0.9457091682025777 -0.0029641026813227
  0.0358334533468460  0.9518854394657009  0.5008738024370796
  0.3626273503752848  0.4459141754939575 -0.0002465490472648
  0.3674271965306759  0.4467168763811087  0.5007752631710015
  0.3697024498333998  0.9475755720924398 -0.0005980155495058
  0.3686062146739242  0.9482804329857897  0.5006503090155877
  0.6994171085655053  0.4464710457652841 -0.0004457049724131
  0.7011749301739897  0.4465386578885645  0.5011716524988283
  0.6997064239121875  0.9475344852504658 -0.0007022030778187
  0.7009141831410601  0.9478637636520180  0.5004698605746937
  0.2027572554147237  0.3452368268445573  0.3542313742468085
  0.2021589161104752  0.3423798263114460  0.8557088741900404
  0.2071198287663162  0.8423328015901428  0.3544792846697180
  0.2030016185846704  0.8419772309225271  0.8542769424936034
  0.5364157949740241  0.3432612662194278  0.3542167890028747
  0.5343585341711633  0.3435037266902631  0.8541859506589408
  0.5356760458290815  0.8421853365573346  0.3545769607608693
  0.5355169170629951  0.8425905194936942  0.8536794882463176
  0.8696805683676374  0.3460286492813640  0.3531737708419748
  0.8681296106890801  0.3437816600034593  0.8551308141751559
  0.8678186257128302  0.8463199143087438  0.3534174494831895
  0.8681556770583084  0.8409504490783174  0.8528338951440725
 
  0.00000000E+00  0.00000000E+00  0.00000000E+00
  0.00000000E+00  0.00000000E+00  0.00000000E+00
  0.00000000E+00  0.00000000E+00  0.00000000E+00
  0.00000000E+00  0.00000000E+00  0.00000000E+00
  0.00000000E+00  0.00000000E+00  0.00000000E+00
  0.00000000E+00  0.00000000E+00  0.00000000E+00
  0.00000000E+00  0.00000000E+00  0.00000000E+00
  0.00000000E+00  0.00000000E+00  0.00000000E+00
  0.00000000E+00  0.00000000E+00  0.00000000E+00
  0.00000000E+00  0.00000000E+00  0.00000000E+00
  0.00000000E+00  0.00000000E+00  0.00000000E+00
  0.00000000E+00  0.00000000E+00  0.00000000E+00
  0.00000000E+00  0.00000000E+00  0.00000000E+00
  0.00000000E+00  0.00000000E+00  0.00000000E+00
  0.00000000E+00  0.00000000E+00  0.00000000E+00
  0.00000000E+00  0.00000000E+00  0.00000000E+00
  0.00000000E+00  0.00000000E+00  0.00000000E+00
  0.00000000E+00  0.00000000E+00  0.00000000E+00
  0.00000000E+00  0.00000000E+00  0.00000000E+00
  0.00000000E+00  0.00000000E+00  0.00000000E+00
  0.00000000E+00  0.00000000E+00  0.00000000E+00
  0.00000000E+00  0.00000000E+00  0.00000000E+00
  0.00000000E+00  0.00000000E+00  0.00000000E+00
  0.00000000E+00  0.00000000E+00  0.00000000E+00
  0.00000000E+00  0.00000000E+00  0.00000000E+00
  0.00000000E+00  0.00000000E+00  0.00000000E+00
  0.00000000E+00  0.00000000E+00  0.00000000E+00
  0.00000000E+00  0.00000000E+00  0.00000000E+00
  0.00000000E+00  0.00000000E+00  0.00000000E+00
  0.00000000E+00  0.00000000E+00  0.00000000E+00
  0.00000000E+00  0.00000000E+00  0.00000000E+00
  0.00000000E+00  0.00000000E+00  0.00000000E+00
  0.00000000E+00  0.00000000E+00  0.00000000E+00
  0.00000000E+00  0.00000000E+00  0.00000000E+00
  0.00000000E+00  0.00000000E+00  0.00000000E+00
  0.00000000E+00  0.00000000E+00  0.00000000E+00
  0.00000000E+00  0.00000000E+00  0.00000000E+00
  0.00000000E+00  0.00000000E+00  0.00000000E+00
  0.00000000E+00  0.00000000E+00  0.00000000E+00
  0.00000000E+00  0.00000000E+00  0.00000000E+00
  0.00000000E+00  0.00000000E+00  0.00000000E+00
  0.00000000E+00  0.00000000E+00  0.00000000E+00
  0.00000000E+00  0.00000000E+00  0.00000000E+00
  0.00000000E+00  0.00000000E+00  0.00000000E+00
  0.00000000E+00  0.00000000E+00  0.00000000E+00
  0.00000000E+00  0.00000000E+00  0.00000000E+00
  0.00000000E+00  0.00000000E+00  0.00000000E+00
  0.00000000E+00  0.00000000E+00  0.00000000E+00
  0.00000000E+00  0.00000000E+00  0.00000000E+00
  0.00000000E+00  0.00000000E+00  0.00000000E+00
  0.00000000E+00  0.00000000E+00  0.00000000E+00
  0.00000000E+00  0.00000000E+00  0.00000000E+00
  0.00000000E+00  0.00000000E+00  0.00000000E+00
  0.00000000E+00  0.00000000E+00  0.00000000E+00
  0.00000000E+00  0.00000000E+00  0.00000000E+00
  0.00000000E+00  0.00000000E+00  0.00000000E+00
  0.00000000E+00  0.00000000E+00  0.00000000E+00
  0.00000000E+00  0.00000000E+00  0.00000000E+00
  0.00000000E+00  0.00000000E+00  0.00000000E+00
  0.00000000E+00  0.00000000E+00  0.00000000E+00
  0.00000000E+00  0.00000000E+00  0.00000000E+00
  0.00000000E+00  0.00000000E+00  0.00000000E+00
  0.00000000E+00  0.00000000E+00  0.00000000E+00
  0.00000000E+00  0.00000000E+00  0.00000000E+00
  0.00000000E+00  0.00000000E+00  0.00000000E+00
  0.00000000E+00  0.00000000E+00  0.00000000E+00
  0.00000000E+00  0.00000000E+00  0.00000000E+00
  0.00000000E+00  0.00000000E+00  0.00000000E+00
  0.00000000E+00  0.00000000E+00  0.00000000E+00
  0.00000000E+00  0.00000000E+00  0.00000000E+00
  0.00000000E+00  0.00000000E+00  0.00000000E+00
  0.00000000E+00  0.00000000E+00  0.00000000E+00
  0.00000000E+00  0.00000000E+00  0.00000000E+00
  0.00000000E+00  0.00000000E+00  0.00000000E+00
  0.00000000E+00  0.00000000E+00  0.00000000E+00
  0.00000000E+00  0.00000000E+00  0.00000000E+00
  0.00000000E+00  0.00000000E+00  0.00000000E+00
  0.00000000E+00  0.00000000E+00  0.00000000E+00
  0.00000000E+00  0.00000000E+00  0.00000000E+00
  0.00000000E+00  0.00000000E+00  0.00000000E+00
  0.00000000E+00  0.00000000E+00  0.00000000E+00
  0.00000000E+00  0.00000000E+00  0.00000000E+00
  0.00000000E+00  0.00000000E+00  0.00000000E+00
  0.00000000E+00  0.00000000E+00  0.00000000E+00
  0.00000000E+00  0.00000000E+00  0.00000000E+00
  0.00000000E+00  0.00000000E+00  0.00000000E+00
  0.00000000E+00  0.00000000E+00  0.00000000E+00
  0.00000000E+00  0.00000000E+00  0.00000000E+00
  0.00000000E+00  0.00000000E+00  0.00000000E+00
  0.00000000E+00  0.00000000E+00  0.00000000E+00
  0.00000000E+00  0.00000000E+00  0.00000000E+00
  0.00000000E+00  0.00000000E+00  0.00000000E+00
  0.00000000E+00  0.00000000E+00  0.00000000E+00
  0.00000000E+00  0.00000000E+00  0.00000000E+00
  0.00000000E+00  0.00000000E+00  0.00000000E+00
  0.00000000E+00  0.00000000E+00  0.00000000E+00
  0.00000000E+00  0.00000000E+00  0.00000000E+00
  0.00000000E+00  0.00000000E+00  0.00000000E+00
  0.00000000E+00  0.00000000E+00  0.00000000E+00
  0.00000000E+00  0.00000000E+00  0.00000000E+00
  0.00000000E+00  0.00000000E+00  0.00000000E+00
  0.00000000E+00  0.00000000E+00  0.00000000E+00
  0.00000000E+00  0.00000000E+00  0.00000000E+00
  0.00000000E+00  0.00000000E+00  0.00000000E+00
  0.00000000E+00  0.00000000E+00  0.00000000E+00
  0.00000000E+00  0.00000000E+00  0.00000000E+00
  0.00000000E+00  0.00000000E+00  0.00000000E+00
  0.00000000E+00  0.00000000E+00  0.00000000E+00
  0.00000000E+00  0.00000000E+00  0.00000000E+00
  0.00000000E+00  0.00000000E+00  0.00000000E+00
  0.00000000E+00  0.00000000E+00  0.00000000E+00
  0.00000000E+00  0.00000000E+00  0.00000000E+00
  0.00000000E+00  0.00000000E+00  0.00000000E+00
  0.00000000E+00  0.00000000E+00  0.00000000E+00
  0.00000000E+00  0.00000000E+00  0.00000000E+00
  0.00000000E+00  0.00000000E+00  0.00000000E+00
  0.00000000E+00  0.00000000E+00  0.00000000E+00
  0.00000000E+00  0.00000000E+00  0.00000000E+00
  0.00000000E+00  0.00000000E+00  0.00000000E+00
  0.00000000E+00  0.00000000E+00  0.00000000E+00
  0.00000000E+00  0.00000000E+00  0.00000000E+00
  0.00000000E+00  0.00000000E+00  0.00000000E+00
  0.00000000E+00  0.00000000E+00  0.00000000E+00
  0.00000000E+00  0.00000000E+00  0.00000000E+00
  0.00000000E+00  0.00000000E+00  0.00000000E+00
  0.00000000E+00  0.00000000E+00  0.00000000E+00
  0.00000000E+00  0.00000000E+00  0.00000000E+00
  0.00000000E+00  0.00000000E+00  0.00000000E+00
  0.00000000E+00  0.00000000E+00  0.00000000E+00
  0.00000000E+00  0.00000000E+00  0.00000000E+00
  0.00000000E+00  0.00000000E+00  0.00000000E+00
  0.00000000E+00  0.00000000E+00  0.00000000E+00
  0.00000000E+00  0.00000000E+00  0.00000000E+00
  0.00000000E+00  0.00000000E+00  0.00000000E+00
  0.00000000E+00  0.00000000E+00  0.00000000E+00
  0.00000000E+00  0.00000000E+00  0.00000000E+00
  0.00000000E+00  0.00000000E+00  0.00000000E+00
  0.00000000E+00  0.00000000E+00  0.00000000E+00
  0.00000000E+00  0.00000000E+00  0.00000000E+00
  0.00000000E+00  0.00000000E+00  0.00000000E+00
  0.00000000E+00  0.00000000E+00  0.00000000E+00
  0.00000000E+00  0.00000000E+00  0.00000000E+00
  0.00000000E+00  0.00000000E+00  0.00000000E+00
  0.00000000E+00  0.00000000E+00  0.00000000E+00
  0.00000000E+00  0.00000000E+00  0.00000000E+00
  0.00000000E+00  0.00000000E+00  0.00000000E+00
  0.00000000E+00  0.00000000E+00  0.00000000E+00
  0.00000000E+00  0.00000000E+00  0.00000000E+00
  0.00000000E+00  0.00000000E+00  0.00000000E+00
  0.00000000E+00  0.00000000E+00  0.00000000E+00
  0.00000000E+00  0.00000000E+00  0.00000000E+00
  0.00000000E+00  0.00000000E+00  0.00000000E+00
  0.00000000E+00  0.00000000E+00  0.00000000E+00
  0.00000000E+00  0.00000000E+00  0.00000000E+00
  0.00000000E+00  0.00000000E+00  0.00000000E+00
  0.00000000E+00  0.00000000E+00  0.00000000E+00
  0.00000000E+00  0.00000000E+00  0.00000000E+00
  0.00000000E+00  0.00000000E+00  0.00000000E+00
  0.00000000E+00  0.00000000E+00  0.00000000E+00
  0.00000000E+00  0.00000000E+00  0.00000000E+00
  0.00000000E+00  0.00000000E+00  0.00000000E+00
  0.00000000E+00  0.00000000E+00  0.00000000E+00
  0.00000000E+00  0.00000000E+00  0.00000000E+00
  0.00000000E+00  0.00000000E+00  0.00000000E+00
  0.00000000E+00  0.00000000E+00  0.00000000E+00
  0.00000000E+00  0.00000000E+00  0.00000000E+00
  0.00000000E+00  0.00000000E+00  0.00000000E+00
  0.00000000E+00  0.00000000E+00  0.00000000E+00
  0.00000000E+00  0.00000000E+00  0.00000000E+00
  0.00000000E+00  0.00000000E+00  0.00000000E+00
  0.00000000E+00  0.00000000E+00  0.00000000E+00
  0.00000000E+00  0.00000000E+00  0.00000000E+00
  0.00000000E+00  0.00000000E+00  0.00000000E+00
  0.00000000E+00  0.00000000E+00  0.00000000E+00
  0.00000000E+00  0.00000000E+00  0.00000000E+00
  0.00000000E+00  0.00000000E+00  0.00000000E+00
  0.00000000E+00  0.00000000E+00  0.00000000E+00
  0.00000000E+00  0.00000000E+00  0.00000000E+00
  0.00000000E+00  0.00000000E+00  0.00000000E+00
  0.00000000E+00  0.00000000E+00  0.00000000E+00
  0.00000000E+00  0.00000000E+00  0.00000000E+00
  0.00000000E+00  0.00000000E+00  0.00000000E+00
  0.00000000E+00  0.00000000E+00  0.00000000E+00
  0.00000000E+00  0.00000000E+00  0.00000000E+00
  0.00000000E+00  0.00000000E+00  0.00000000E+00
  0.00000000E+00  0.00000000E+00  0.00000000E+00
  0.00000000E+00  0.00000000E+00  0.00000000E+00
  0.00000000E+00  0.00000000E+00  0.00000000E+00
  0.00000000E+00  0.00000000E+00  0.00000000E+00
  0.00000000E+00  0.00000000E+00  0.00000000E+00
