Li56 P56
1.0
5.593872 0.000000 -4.970385
0.756887 9.037780 0.000000
0.000000 0.000000 64.615005
Li P
56 56
Selective dynamics
direct
0.112292 0.670700 0.018662 T T T Li+
0.387708 0.829300 0.001386 T T T Li+
0.887708 0.329300 0.061117 T T T Li+
0.612292 0.170700 0.001469 T T T Li+
0.804018 0.970214 0.051097 T T T Li+
0.695982 0.529786 0.004325 T T T Li+
0.195982 0.029786 0.028682 T T T Li+
0.304018 0.470214 0.075454 T T T Li+
0.112292 0.670700 0.095585 F F F Li+
0.387708 0.829300 0.078310 F F F Li+
0.887708 0.329300 0.138040 F F F Li+
0.612292 0.170700 0.078393 F F F Li+
0.804018 0.970214 0.128020 F F F Li+
0.695982 0.529786 0.081248 F F F Li+
0.195982 0.029786 0.105605 F F F Li+
0.304018 0.470214 0.152377 F F F Li+
0.112292 0.670700 0.172508 F F F Li+
0.387708 0.829300 0.155233 F F F Li+
0.887708 0.329300 0.214963 F F F Li+
0.612292 0.170700 0.155316 F F F Li+
0.804018 0.970214 0.204944 F F F Li+
0.695982 0.529786 0.158171 F F F Li+
0.195982 0.029786 0.182528 F F F Li+
0.304018 0.470214 0.229300 F F F Li+
0.112292 0.670700 0.249431 F F F Li+
0.387708 0.829300 0.232156 F F F Li+
0.887708 0.329300 0.291886 F F F Li+
0.612292 0.170700 0.232239 F F F Li+
0.804018 0.970214 0.281867 F F F Li+
0.695982 0.529786 0.235095 F F F Li+
0.195982 0.029786 0.259451 F F F Li+
0.304018 0.470214 0.306223 F F F Li+
0.112292 0.670700 0.326355 F F F Li+
0.387708 0.829300 0.309079 F F F Li+
0.887708 0.329300 0.368809 F F F Li+
0.612292 0.170700 0.309162 F F F Li+
0.804018 0.970214 0.358790 F F F Li+
0.695982 0.529786 0.312018 F F F Li+
0.195982 0.029786 0.336374 F F F Li+
0.304018 0.470214 0.383146 F F F Li+
0.112292 0.670700 0.403278 F F F Li+
0.387708 0.829300 0.386002 F F F Li+
0.887708 0.329300 0.445732 F F F Li+
0.612292 0.170700 0.386085 F F F Li+
0.804018 0.970214 0.435713 F F F Li+
0.695982 0.529786 0.388941 F F F Li+
0.195982 0.029786 0.413297 F F F Li+
0.304018 0.470214 0.460069 F F F Li+
0.112292 0.670700 0.480201 T T T Li+
0.387708 0.829300 0.462925 T T T Li+
0.887708 0.329300 0.522655 T T T Li+
0.612292 0.170700 0.463008 T T T Li+
0.804018 0.970214 0.512636 T T T Li+
0.695982 0.529786 0.465864 T T T Li+
0.195982 0.029786 0.490220 T T T Li+
0.304018 0.470214 0.536992 T T T Li+
0.976271 0.707084 0.046148 T T T P-
0.523729 0.792916 0.049799 T T T P-
0.023729 0.292916 0.033630 T T T P-
0.476271 0.207084 0.029980 T T T P-
0.808560 0.888258 0.013161 T T T P-
0.691440 0.611742 0.042614 T T T P-
0.191440 0.111742 0.066618 T T T P-
0.308560 0.388258 0.037165 T T T P-
0.976271 0.707084 0.123072 F F F P-
0.523729 0.792916 0.126722 F F F P-
0.023729 0.292916 0.110554 F F F P-
0.476271 0.207084 0.106903 F F F P-
0.808560 0.888258 0.090084 F F F P-
0.691440 0.611742 0.119537 F F F P-
0.191440 0.111742 0.143541 F F F P-
0.308560 0.388258 0.114089 F F F P-
0.976271 0.707084 0.199995 F F F P-
0.523729 0.792916 0.203645 F F F P-
0.023729 0.292916 0.187477 F F F P-
0.476271 0.207084 0.183826 F F F P-
0.808560 0.888258 0.167007 F F F P-
0.691440 0.611742 0.196460 F F F P-
0.191440 0.111742 0.220464 F F F P-
0.308560 0.388258 0.191012 F F F P-
0.976271 0.707084 0.276918 F F F P-
0.523729 0.792916 0.280568 F F F P-
0.023729 0.292916 0.264400 F F F P-
0.476271 0.207084 0.260749 F F F P-
0.808560 0.888258 0.243931 F F F P-
0.691440 0.611742 0.273383 F F F P-
0.191440 0.111742 0.297387 F F F P-
0.308560 0.388258 0.267935 F F F P-
0.976271 0.707084 0.353841 F F F P-
0.523729 0.792916 0.357491 F F F P-
0.023729 0.292916 0.341323 F F F P-
0.476271 0.207084 0.337672 F F F P-
0.808560 0.888258 0.320854 F F F P-
0.691440 0.611742 0.350306 F F F P-
0.191440 0.111742 0.374310 F F F P-
0.308560 0.388258 0.344858 F F F P-
0.976271 0.707084 0.430764 F F F P-
0.523729 0.792916 0.434414 F F F P-
0.023729 0.292916 0.418246 F F F P-
0.476271 0.207084 0.414595 F F F P-
0.808560 0.888258 0.397777 F F F P-
0.691440 0.611742 0.427229 F F F P-
0.191440 0.111742 0.451233 F F F P-
0.308560 0.388258 0.421781 F F F P-
0.976271 0.707084 0.507687 T T T P-
0.523729 0.792916 0.511338 T T T P-
0.023729 0.292916 0.495169 T T T P-
0.476271 0.207084 0.491518 T T T P-
0.808560 0.888258 0.474700 T T T P-
0.691440 0.611742 0.504152 T T T P-
0.191440 0.111742 0.528156 T T T P-
0.308560 0.388258 0.498704 T T T P-
