Li56 P8 N32                             
   1.00000000000000     
     9.0262829999999994    0.0000000000000000    0.0000000000000000
     0.0000000000000000    9.4023780000000006    0.0000000000000000
     0.0000000000000000    0.0000000000000000    9.4023780000000006
   Li   P    N 
    56     8    32
Direct
  0.0000000000000000  0.5000000000000000  0.5000000000000000
  0.5000000000000000  0.0000000000000000  0.0000000000000000
  0.0000000000000000  0.0000000000000000  0.5000000000000000
  0.0000000000000000  0.5000000000000000  0.0000000000000000
  0.5000000000000000  0.0000000000000000  0.5000000000000000
  0.5000000000000000  0.5000000000000000  0.0000000000000000
  0.2500000000000000  0.0000000000000000  0.5000000000000000
  0.0000000000000000  0.5000000000000000  0.7500000000000000
  0.0000000000000000  0.5000000000000000  0.2500000000000000
  0.5000000000000000  0.2500000000000000  0.0000000000000000
  0.5000000000000000  0.7500000000000000  0.0000000000000000
  0.7500000000000000  0.0000000000000000  0.5000000000000000
  0.2253740000000022  0.2253740000000022  0.2253740000000022
  0.2746259999999978  0.7253740000000022  0.2746259999999978
  0.2746259999999978  0.2746259999999978  0.7253740000000022
  0.7253740000000022  0.2746259999999978  0.2746259999999978
  0.7746259999999978  0.7746259999999978  0.2253740000000022
  0.2253740000000022  0.7746259999999978  0.7746259999999978
  0.7746259999999978  0.2253740000000022  0.7746259999999978
  0.7253740000000022  0.7253740000000022  0.7253740000000022
  0.2533359999999973  0.2370829999999984  0.9751639999999995
  0.2466640000000027  0.4751639999999995  0.2629170000000016
  0.2466640000000027  0.5248360000000005  0.7370829999999984
  0.5248360000000005  0.2629170000000016  0.7533359999999973
  0.4751639999999995  0.2629170000000016  0.2466640000000027
  0.7370829999999984  0.2466640000000027  0.5248360000000005
  0.2629170000000016  0.7533359999999973  0.5248360000000005
  0.9751639999999995  0.2533359999999973  0.2370829999999984
  0.2370829999999984  0.9751639999999995  0.2533359999999973
  0.7629170000000016  0.0248360000000005  0.2533359999999973
  0.9751639999999995  0.7466640000000027  0.7629170000000016
  0.7629170000000016  0.9751639999999995  0.7466640000000027
  0.0248360000000005  0.7466640000000027  0.2370829999999984
  0.0248360000000005  0.2533359999999973  0.7629170000000016
  0.2370829999999984  0.0248360000000005  0.7466640000000027
  0.2533359999999973  0.7629170000000016  0.0248360000000005
  0.7466640000000027  0.2370829999999984  0.0248360000000005
  0.7466640000000027  0.7629170000000016  0.9751639999999995
  0.2629170000000016  0.2466640000000027  0.4751639999999995
  0.7370829999999984  0.7533359999999973  0.4751639999999995
  0.5248360000000005  0.7370829999999984  0.2466640000000027
  0.4751639999999995  0.7370829999999984  0.7533359999999973
  0.7533359999999973  0.5248360000000005  0.2629170000000016
  0.7533359999999973  0.4751639999999995  0.7370829999999984
  0.2643869999999993  0.0000000000000000  0.0000000000000000
  0.2356130000000007  0.5000000000000000  0.5000000000000000
  0.5000000000000000  0.5000000000000000  0.7643869999999993
  0.5000000000000000  0.5000000000000000  0.2356130000000007
  0.5000000000000000  0.2356130000000007  0.5000000000000000
  0.5000000000000000  0.7643869999999993  0.5000000000000000
  0.0000000000000000  0.2643869999999993  0.0000000000000000
  0.0000000000000000  0.0000000000000000  0.2643869999999993
  0.0000000000000000  0.7356130000000007  0.0000000000000000
  0.0000000000000000  0.0000000000000000  0.7356130000000007
  0.7356130000000007  0.0000000000000000  0.0000000000000000
  0.7643869999999993  0.5000000000000000  0.5000000000000000
  0.5000000000000000  0.5000000000000000  0.5000000000000000
  0.0000000000000000  0.0000000000000000  0.0000000000000000
  0.5000000000000000  0.0000000000000000  0.7500000000000000
  0.7500000000000000  0.5000000000000000  0.0000000000000000
  0.2500000000000000  0.5000000000000000  0.0000000000000000
  0.0000000000000000  0.2500000000000000  0.5000000000000000
  0.0000000000000000  0.7500000000000000  0.5000000000000000
  0.5000000000000000  0.0000000000000000  0.2500000000000000
  0.6034610000000029  0.6034610000000029  0.6034610000000029
  0.8965389999999971  0.1034610000000029  0.8965389999999971
  0.1034610000000029  0.8965389999999971  0.8965389999999971
  0.8965389999999971  0.8965389999999971  0.1034610000000029
  0.6034610000000029  0.3965389999999971  0.3965389999999971
  0.3965389999999971  0.3965389999999971  0.6034610000000029
  0.3965389999999971  0.6034610000000029  0.3965389999999971
  0.1034610000000029  0.1034610000000029  0.1034610000000029
  0.3507310000000032  0.3873850000000019  0.0994209999999995
  0.1492689999999968  0.5994209999999995  0.1126149999999981
  0.1492689999999968  0.4005790000000005  0.8873850000000019
  0.4005790000000005  0.1126149999999981  0.8507310000000032
  0.5994209999999995  0.1126149999999981  0.1492689999999968
  0.8873850000000019  0.1492689999999968  0.4005790000000005
  0.1126149999999981  0.8507310000000032  0.4005790000000005
  0.0994209999999995  0.3507310000000032  0.3873850000000019
  0.3873850000000019  0.0994209999999995  0.3507310000000032
  0.6126149999999981  0.9005790000000005  0.3507310000000032
  0.0994209999999995  0.6492689999999968  0.6126149999999981
  0.6126149999999981  0.0994209999999995  0.6492689999999968
  0.9005790000000005  0.6492689999999968  0.3873850000000019
  0.9005790000000005  0.3507310000000032  0.6126149999999981
  0.3873850000000019  0.9005790000000005  0.6492689999999968
  0.3507310000000032  0.6126149999999981  0.9005790000000005
  0.6492689999999968  0.3873850000000019  0.9005790000000005
  0.6492689999999968  0.6126149999999981  0.0994209999999995
  0.1126149999999981  0.1492689999999968  0.5994209999999995
  0.8873850000000019  0.8507310000000032  0.5994209999999995
  0.4005790000000005  0.8873850000000019  0.1492689999999968
  0.5994209999999995  0.8873850000000019  0.8507310000000032
  0.8507310000000032  0.4005790000000005  0.1126149999999981
  0.8507310000000032  0.5994209999999995  0.8873850000000019
 
  0.00000000E+00  0.00000000E+00  0.00000000E+00
  0.00000000E+00  0.00000000E+00  0.00000000E+00
  0.00000000E+00  0.00000000E+00  0.00000000E+00
  0.00000000E+00  0.00000000E+00  0.00000000E+00
  0.00000000E+00  0.00000000E+00  0.00000000E+00
  0.00000000E+00  0.00000000E+00  0.00000000E+00
  0.00000000E+00  0.00000000E+00  0.00000000E+00
  0.00000000E+00  0.00000000E+00  0.00000000E+00
  0.00000000E+00  0.00000000E+00  0.00000000E+00
  0.00000000E+00  0.00000000E+00  0.00000000E+00
  0.00000000E+00  0.00000000E+00  0.00000000E+00
  0.00000000E+00  0.00000000E+00  0.00000000E+00
  0.00000000E+00  0.00000000E+00  0.00000000E+00
  0.00000000E+00  0.00000000E+00  0.00000000E+00
  0.00000000E+00  0.00000000E+00  0.00000000E+00
  0.00000000E+00  0.00000000E+00  0.00000000E+00
  0.00000000E+00  0.00000000E+00  0.00000000E+00
  0.00000000E+00  0.00000000E+00  0.00000000E+00
  0.00000000E+00  0.00000000E+00  0.00000000E+00
  0.00000000E+00  0.00000000E+00  0.00000000E+00
  0.00000000E+00  0.00000000E+00  0.00000000E+00
  0.00000000E+00  0.00000000E+00  0.00000000E+00
  0.00000000E+00  0.00000000E+00  0.00000000E+00
  0.00000000E+00  0.00000000E+00  0.00000000E+00
  0.00000000E+00  0.00000000E+00  0.00000000E+00
  0.00000000E+00  0.00000000E+00  0.00000000E+00
  0.00000000E+00  0.00000000E+00  0.00000000E+00
  0.00000000E+00  0.00000000E+00  0.00000000E+00
  0.00000000E+00  0.00000000E+00  0.00000000E+00
  0.00000000E+00  0.00000000E+00  0.00000000E+00
  0.00000000E+00  0.00000000E+00  0.00000000E+00
  0.00000000E+00  0.00000000E+00  0.00000000E+00
  0.00000000E+00  0.00000000E+00  0.00000000E+00
  0.00000000E+00  0.00000000E+00  0.00000000E+00
  0.00000000E+00  0.00000000E+00  0.00000000E+00
  0.00000000E+00  0.00000000E+00  0.00000000E+00
  0.00000000E+00  0.00000000E+00  0.00000000E+00
  0.00000000E+00  0.00000000E+00  0.00000000E+00
  0.00000000E+00  0.00000000E+00  0.00000000E+00
  0.00000000E+00  0.00000000E+00  0.00000000E+00
  0.00000000E+00  0.00000000E+00  0.00000000E+00
  0.00000000E+00  0.00000000E+00  0.00000000E+00
  0.00000000E+00  0.00000000E+00  0.00000000E+00
  0.00000000E+00  0.00000000E+00  0.00000000E+00
  0.00000000E+00  0.00000000E+00  0.00000000E+00
  0.00000000E+00  0.00000000E+00  0.00000000E+00
  0.00000000E+00  0.00000000E+00  0.00000000E+00
  0.00000000E+00  0.00000000E+00  0.00000000E+00
  0.00000000E+00  0.00000000E+00  0.00000000E+00
  0.00000000E+00  0.00000000E+00  0.00000000E+00
  0.00000000E+00  0.00000000E+00  0.00000000E+00
  0.00000000E+00  0.00000000E+00  0.00000000E+00
  0.00000000E+00  0.00000000E+00  0.00000000E+00
  0.00000000E+00  0.00000000E+00  0.00000000E+00
  0.00000000E+00  0.00000000E+00  0.00000000E+00
  0.00000000E+00  0.00000000E+00  0.00000000E+00
  0.00000000E+00  0.00000000E+00  0.00000000E+00
  0.00000000E+00  0.00000000E+00  0.00000000E+00
  0.00000000E+00  0.00000000E+00  0.00000000E+00
  0.00000000E+00  0.00000000E+00  0.00000000E+00
  0.00000000E+00  0.00000000E+00  0.00000000E+00
  0.00000000E+00  0.00000000E+00  0.00000000E+00
  0.00000000E+00  0.00000000E+00  0.00000000E+00
  0.00000000E+00  0.00000000E+00  0.00000000E+00
  0.00000000E+00  0.00000000E+00  0.00000000E+00
  0.00000000E+00  0.00000000E+00  0.00000000E+00
  0.00000000E+00  0.00000000E+00  0.00000000E+00
  0.00000000E+00  0.00000000E+00  0.00000000E+00
  0.00000000E+00  0.00000000E+00  0.00000000E+00
  0.00000000E+00  0.00000000E+00  0.00000000E+00
  0.00000000E+00  0.00000000E+00  0.00000000E+00
  0.00000000E+00  0.00000000E+00  0.00000000E+00
  0.00000000E+00  0.00000000E+00  0.00000000E+00
  0.00000000E+00  0.00000000E+00  0.00000000E+00
  0.00000000E+00  0.00000000E+00  0.00000000E+00
  0.00000000E+00  0.00000000E+00  0.00000000E+00
  0.00000000E+00  0.00000000E+00  0.00000000E+00
  0.00000000E+00  0.00000000E+00  0.00000000E+00
  0.00000000E+00  0.00000000E+00  0.00000000E+00
  0.00000000E+00  0.00000000E+00  0.00000000E+00
  0.00000000E+00  0.00000000E+00  0.00000000E+00
  0.00000000E+00  0.00000000E+00  0.00000000E+00
  0.00000000E+00  0.00000000E+00  0.00000000E+00
  0.00000000E+00  0.00000000E+00  0.00000000E+00
  0.00000000E+00  0.00000000E+00  0.00000000E+00
  0.00000000E+00  0.00000000E+00  0.00000000E+00
  0.00000000E+00  0.00000000E+00  0.00000000E+00
  0.00000000E+00  0.00000000E+00  0.00000000E+00
  0.00000000E+00  0.00000000E+00  0.00000000E+00
  0.00000000E+00  0.00000000E+00  0.00000000E+00
  0.00000000E+00  0.00000000E+00  0.00000000E+00
  0.00000000E+00  0.00000000E+00  0.00000000E+00
  0.00000000E+00  0.00000000E+00  0.00000000E+00
  0.00000000E+00  0.00000000E+00  0.00000000E+00
  0.00000000E+00  0.00000000E+00  0.00000000E+00
  0.00000000E+00  0.00000000E+00  0.00000000E+00
