Li42 P14 O56
1.0
5.296402 0.000000 0.000000
-0.000000 6.176136 -4.922448
0.000000 0.000000 63.991824
Li P O
42 14 56
direct
0.844520 0.000000 0.060477 Li+
0.155480 0.500000 0.060477 Li+
0.326434 0.747127 0.040944 Li+
0.673566 0.752873 0.002925 Li+
0.673566 0.247127 0.040944 Li+
0.326434 0.252873 0.002925 Li+
0.844520 0.000000 0.137400 Li+
0.155480 0.500000 0.137400 Li+
0.326434 0.747127 0.117867 Li+
0.673566 0.752873 0.079848 Li+
0.673566 0.247127 0.117867 Li+
0.326434 0.252873 0.079848 Li+
0.844520 0.000000 0.214323 Li+
0.155480 0.500000 0.214323 Li+
0.326434 0.747127 0.194791 Li+
0.673566 0.752873 0.156771 Li+
0.673566 0.247127 0.194791 Li+
0.326434 0.252873 0.156771 Li+
0.844520 0.000000 0.291246 Li+
0.155480 0.500000 0.291246 Li+
0.326434 0.747127 0.271714 Li+
0.673566 0.752873 0.233694 Li+
0.673566 0.247127 0.271714 Li+
0.326434 0.252873 0.233694 Li+
0.844520 0.000000 0.368170 Li+
0.155480 0.500000 0.368170 Li+
0.326434 0.747127 0.348637 Li+
0.673566 0.752873 0.310617 Li+
0.673566 0.247127 0.348637 Li+
0.326434 0.252873 0.310617 Li+
0.844520 0.000000 0.445093 Li+
0.155480 0.500000 0.445093 Li+
0.326434 0.747127 0.425560 Li+
0.673566 0.752873 0.387540 Li+
0.673566 0.247127 0.425560 Li+
0.326434 0.252873 0.387540 Li+
0.844520 0.000000 0.522016 Li+
0.155480 0.500000 0.522016 Li+
0.326434 0.747127 0.502483 Li+
0.673566 0.752873 0.464463 Li+
0.673566 0.247127 0.502483 Li+
0.326434 0.252873 0.464463 Li+
0.824261 0.500000 0.021400 P5+
0.175739 0.000000 0.021400 P5+
0.824261 0.500000 0.098324 P5+
0.175739 0.000000 0.098324 P5+
0.824261 0.500000 0.175247 P5+
0.175739 0.000000 0.175247 P5+
0.824261 0.500000 0.252170 P5+
0.175739 0.000000 0.252170 P5+
0.824261 0.500000 0.329093 P5+
0.175739 0.000000 0.329093 P5+
0.824261 0.500000 0.406016 P5+
0.175739 0.000000 0.406016 P5+
0.824261 0.500000 0.482939 P5+
0.175739 0.000000 0.482939 P5+
0.313509 0.207138 0.045456 O2-
0.103508 0.500000 0.029147 O2-
0.818396 0.500000 0.073998 O2-
0.181604 0.000000 0.073998 O2-
0.686491 0.707138 0.045456 O2-
0.313509 0.792862 0.013589 O2-
0.896492 0.000000 0.029147 O2-
0.686491 0.292862 0.013589 O2-
0.313509 0.207138 0.122380 O2-
0.103508 0.500000 0.106070 O2-
0.818396 0.500000 0.150921 O2-
0.181604 0.000000 0.150921 O2-
0.686491 0.707138 0.122380 O2-
0.313509 0.792862 0.090512 O2-
0.896492 0.000000 0.106070 O2-
0.686491 0.292862 0.090512 O2-
0.313509 0.207138 0.199303 O2-
0.103508 0.500000 0.182993 O2-
0.818396 0.500000 0.227844 O2-
0.181604 0.000000 0.227844 O2-
0.686491 0.707138 0.199303 O2-
0.313509 0.792862 0.167435 O2-
0.896492 0.000000 0.182993 O2-
0.686491 0.292862 0.167435 O2-
0.313509 0.207138 0.276226 O2-
0.103508 0.500000 0.259916 O2-
0.818396 0.500000 0.304767 O2-
0.181604 0.000000 0.304768 O2-
0.686491 0.707138 0.276226 O2-
0.313509 0.792862 0.244358 O2-
0.896492 0.000000 0.259916 O2-
0.686491 0.292862 0.244358 O2-
0.313509 0.207138 0.353149 O2-
0.103508 0.500000 0.336839 O2-
0.818396 0.500000 0.381691 O2-
0.181604 0.000000 0.381691 O2-
0.686491 0.707138 0.353149 O2-
0.313509 0.792862 0.321281 O2-
0.896492 0.000000 0.336839 O2-
0.686491 0.292862 0.321281 O2-
0.313509 0.207138 0.430072 O2-
0.103508 0.500000 0.413763 O2-
0.818396 0.500000 0.458614 O2-
0.181604 0.000000 0.458614 O2-
0.686491 0.707138 0.430072 O2-
0.313509 0.792862 0.398205 O2-
0.896492 0.000000 0.413763 O2-
0.686491 0.292862 0.398205 O2-
0.313509 0.207138 0.506995 O2-
0.103508 0.500000 0.490686 O2-
0.818396 0.500000 0.535537 O2-
0.181604 0.000000 0.535537 O2-
0.686491 0.707138 0.506995 O2-
0.313509 0.792862 0.475128 O2-
0.896492 0.000000 0.490686 O2-
0.686491 0.292862 0.475128 O2-
