Li61 P7 N32                             
   1.00000000000000     
     0.0014437035403326    9.4949840784773638    0.0080868087646284
    -0.0340422296679204    0.0079641203384823    9.5725905605598420
     9.5523740024080457    0.0015064611519174   -0.0341469559526708
   Li   P    N 
    61     7    32
Direct
  0.4905577810942923 -0.0026138867680553  0.4986251818404637
 -0.0200206133239156  0.5043614485176681  0.0114615098912587
  0.4942565810826691  0.0007506373947620 -0.0017431685500691
 -0.0068878182437706 -0.0075424275272524  0.5028932431719862
  0.4995712155493645  0.5057335126111602  0.0187893789772143
  0.0075346357142034  0.4892740347637554  0.4970830231663845
  0.7424751003656784 -0.0135916318723486  0.5024401472084725
  0.2406524122053260 -0.0171250567606298  0.5022037586225958
  0.7703656921871394  0.4823680017550844  0.4543526874096662
  0.2295048149010370  0.5015563463096990  0.5004247216761940
  0.2580990241054059 -0.0038150069350520 -0.0054836658116939
  0.7345739968223637 -0.0137528894676388  0.0043298127872071
  0.7294436532145806  0.4739293455263663  0.0377857637548042
  0.5006205244678318  0.2498982131089983 -0.0216248325322299
  0.5138350817248346  0.7578330315148420  0.0100109169978809
  0.0258108294768958  0.4693975608213574  0.2501626563711700
  0.0235814950219145  0.5133777086959255  0.7617138465011905
  0.2057795442913128  0.2481637330083655  0.2098660341496774
  0.2210228550486000  0.7770245197518018  0.7818425735057276
  0.2537605125956656  0.2794898818108077  0.7216666080214990
  0.2735098460780350  0.7676995658834322  0.2935133425135433
  0.7395646870794244  0.2984617075352429  0.2831186420253860
  0.7146344255797902  0.7565909310484326  0.7208953668172826
  0.7285892798121107  0.1932060789572942  0.8039901951976468
  0.7422207553764205  0.8040088853784420  0.2070469178212994
  0.9725642474450253  0.2352039661723843  0.2498603005843950
  0.9771402537430306  0.7597653020498716  0.7608813937665087
  0.2489347228623060  0.2123892812718522  0.4835679032328138
  0.2616735439811594  0.7470407505779504  0.5349931578818657
  0.7436117506190164  0.2197444277524755  0.5357303689364571
  0.7424259840095982  0.7492253440120521  0.4519726456588173
  0.8043204327265129  0.5609194788755467  0.2248053475576830
  0.8493675598713407  0.5952217101903483  0.6473269687277351
  0.2889563370419795  0.5376518511754834  0.2331309637684086
  0.2466833565726125  0.5283889742801916  0.7354017877799564
  0.5153898030625302  0.7478908096416280  0.2492429728454114
  0.5029520369589494  0.2456719250823541  0.7438916884149323
  0.2408507595516194  0.0081182084121525  0.2391496322323828
  0.2313393662890108  0.0228262110557653  0.7458409243830669
  0.2523758512415840  0.2342327507213420  0.9693545259261461
  0.2649632407561861  0.7561836994138087  0.0333554535058259
  0.7576458890540293  0.9747960192621187  0.7529678705014198
  0.7587577890455860  0.0442730276204790  0.2641895882582742
  0.7756462052700182  0.7292188852208660  0.9913365179501569
  0.7482031557456139  0.2353524061678658  0.0416013857068965
  0.0079479406147595  0.2439122803336474  0.7662517533307667
  0.0202749638382898  0.7334314847288412  0.2346004959601468
  0.4861808605612917  0.2567490194285372  0.2172878210806719
  0.4634110991326357  0.7314233252261776  0.7624427460574936
 -0.0035745008344583  0.2586527117805060  0.0170742970062795
  0.0129965225920089  0.7351207070606055 -0.0131018133345323
  0.5026445382822269  0.2276662694195827  0.4996059954400637
  0.5019773756328250  0.7606150490538669  0.5082982743250948
  0.5503375921509779  0.5200264094409883  0.2578448331402289
  0.4709564042874107  0.4731151687674451  0.7784240595618678
  0.0008801648802617 -0.0162622343093134  0.2616578416663292
 -0.0042648277082813  0.0021521882621873  0.7399763702596339
  0.3560555967233548  0.3617855065777493  0.3636747523686727
  0.6877724771970610  0.4077111260212634  0.6706182903557218
  0.8345746344119338  0.4076210363061064  0.8496404353849062
  0.6692483415582529  0.5702388103397315  0.8470409080055926
  0.4971481565372808  0.4997443352763018  0.5103398159298764
 -0.0019866315753791 -0.0031260693742873 -0.0000642821330685
  0.2438464692431903  0.4970311053196820 -0.0039655408463715
  0.0026612050050269  0.7442847075665915  0.4982639214613722
 -0.0014958296612859  0.2424969094054294  0.5057419451347969
  0.4981316683820844  0.0043518494597767  0.2499731482129214
  0.4911318854107246 -0.0077182344190690  0.7480452437943490
  0.6027438942198317  0.5979972592089263  0.6125699813134138
  0.5925314703048256  0.3892805517182290  0.4099762254761209
  0.9003329412018063  0.8911415504383114  0.1012339595062089
  0.8902203943968662  0.0975140927159758  0.8997907023041216
  0.1015604359228609  0.9010601019867167  0.8917430862139948
  0.1021824944657983  0.0977160394399089  0.1030197933542991
  0.3962087939722011  0.6008772869073277  0.4039603890007777
  0.3862163064902493  0.3951472509353132  0.6003397899926343
  0.1071586024907692  0.3344232674685571  0.3987573863284406
  0.0992217019716267  0.6462783297858238  0.6109806906480834
  0.1028000201235378  0.1411516214036218  0.6088892761995082
  0.1112158764393527  0.8455443358283657  0.4035618319256726
  0.8871174424296208  0.1410210095626419  0.4110417892553849
  0.8823215174492167  0.8404338899656884  0.5921275436097004
  0.8717539546644496  0.3748035040993242  0.1404291601066096
  0.8669588124460503  0.6130177950081420  0.8534735831355763
  0.1470588137007983  0.6003718505633060  0.1047748188139669
  0.1488464062488588  0.3975450842258894  0.8846041255275133
  0.3928975409905485  0.8957987204959253  0.1552575861534669
  0.3922786476374321  0.1033778207325214  0.8468769003127506
  0.3892971492066256  0.1112183918337599  0.3496521703304946
  0.3806035332504926  0.8935616768382570  0.6470349944232592
  0.3421589110247816  0.3867673093297793  0.1015022490689508
  0.3480067096797878  0.6064819123411848  0.9001585790555421
  0.6042330640776793  0.0883441509575219  0.6477463102401001
  0.6067226196891684  0.9079955808192862  0.3526483314855862
  0.6384139125083063  0.6399464044299562  0.1222204974436684
  0.6310441381991164  0.3658001865289638  0.8687836776298166
  0.8973333816927800  0.3511695733739256  0.6088807748551553
  0.9092299333881363  0.6376992108750265  0.3937138472018633
  0.5975996892871605  0.1046509875665482  0.1449495164408085
  0.5900161856921550  0.8857005169239316  0.8465610613299841
 
  0.00000000E+00  0.00000000E+00  0.00000000E+00
  0.00000000E+00  0.00000000E+00  0.00000000E+00
  0.00000000E+00  0.00000000E+00  0.00000000E+00
  0.00000000E+00  0.00000000E+00  0.00000000E+00
  0.00000000E+00  0.00000000E+00  0.00000000E+00
  0.00000000E+00  0.00000000E+00  0.00000000E+00
  0.00000000E+00  0.00000000E+00  0.00000000E+00
  0.00000000E+00  0.00000000E+00  0.00000000E+00
  0.00000000E+00  0.00000000E+00  0.00000000E+00
  0.00000000E+00  0.00000000E+00  0.00000000E+00
  0.00000000E+00  0.00000000E+00  0.00000000E+00
  0.00000000E+00  0.00000000E+00  0.00000000E+00
  0.00000000E+00  0.00000000E+00  0.00000000E+00
  0.00000000E+00  0.00000000E+00  0.00000000E+00
  0.00000000E+00  0.00000000E+00  0.00000000E+00
  0.00000000E+00  0.00000000E+00  0.00000000E+00
  0.00000000E+00  0.00000000E+00  0.00000000E+00
  0.00000000E+00  0.00000000E+00  0.00000000E+00
  0.00000000E+00  0.00000000E+00  0.00000000E+00
  0.00000000E+00  0.00000000E+00  0.00000000E+00
  0.00000000E+00  0.00000000E+00  0.00000000E+00
  0.00000000E+00  0.00000000E+00  0.00000000E+00
  0.00000000E+00  0.00000000E+00  0.00000000E+00
  0.00000000E+00  0.00000000E+00  0.00000000E+00
  0.00000000E+00  0.00000000E+00  0.00000000E+00
  0.00000000E+00  0.00000000E+00  0.00000000E+00
  0.00000000E+00  0.00000000E+00  0.00000000E+00
  0.00000000E+00  0.00000000E+00  0.00000000E+00
  0.00000000E+00  0.00000000E+00  0.00000000E+00
  0.00000000E+00  0.00000000E+00  0.00000000E+00
  0.00000000E+00  0.00000000E+00  0.00000000E+00
  0.00000000E+00  0.00000000E+00  0.00000000E+00
  0.00000000E+00  0.00000000E+00  0.00000000E+00
  0.00000000E+00  0.00000000E+00  0.00000000E+00
  0.00000000E+00  0.00000000E+00  0.00000000E+00
  0.00000000E+00  0.00000000E+00  0.00000000E+00
  0.00000000E+00  0.00000000E+00  0.00000000E+00
  0.00000000E+00  0.00000000E+00  0.00000000E+00
  0.00000000E+00  0.00000000E+00  0.00000000E+00
  0.00000000E+00  0.00000000E+00  0.00000000E+00
  0.00000000E+00  0.00000000E+00  0.00000000E+00
  0.00000000E+00  0.00000000E+00  0.00000000E+00
  0.00000000E+00  0.00000000E+00  0.00000000E+00
  0.00000000E+00  0.00000000E+00  0.00000000E+00
  0.00000000E+00  0.00000000E+00  0.00000000E+00
  0.00000000E+00  0.00000000E+00  0.00000000E+00
  0.00000000E+00  0.00000000E+00  0.00000000E+00
  0.00000000E+00  0.00000000E+00  0.00000000E+00
  0.00000000E+00  0.00000000E+00  0.00000000E+00
  0.00000000E+00  0.00000000E+00  0.00000000E+00
  0.00000000E+00  0.00000000E+00  0.00000000E+00
  0.00000000E+00  0.00000000E+00  0.00000000E+00
  0.00000000E+00  0.00000000E+00  0.00000000E+00
  0.00000000E+00  0.00000000E+00  0.00000000E+00
  0.00000000E+00  0.00000000E+00  0.00000000E+00
  0.00000000E+00  0.00000000E+00  0.00000000E+00
  0.00000000E+00  0.00000000E+00  0.00000000E+00
  0.00000000E+00  0.00000000E+00  0.00000000E+00
  0.00000000E+00  0.00000000E+00  0.00000000E+00
  0.00000000E+00  0.00000000E+00  0.00000000E+00
  0.00000000E+00  0.00000000E+00  0.00000000E+00
  0.00000000E+00  0.00000000E+00  0.00000000E+00
  0.00000000E+00  0.00000000E+00  0.00000000E+00
  0.00000000E+00  0.00000000E+00  0.00000000E+00
  0.00000000E+00  0.00000000E+00  0.00000000E+00
  0.00000000E+00  0.00000000E+00  0.00000000E+00
  0.00000000E+00  0.00000000E+00  0.00000000E+00
  0.00000000E+00  0.00000000E+00  0.00000000E+00
  0.00000000E+00  0.00000000E+00  0.00000000E+00
  0.00000000E+00  0.00000000E+00  0.00000000E+00
  0.00000000E+00  0.00000000E+00  0.00000000E+00
  0.00000000E+00  0.00000000E+00  0.00000000E+00
  0.00000000E+00  0.00000000E+00  0.00000000E+00
  0.00000000E+00  0.00000000E+00  0.00000000E+00
  0.00000000E+00  0.00000000E+00  0.00000000E+00
  0.00000000E+00  0.00000000E+00  0.00000000E+00
  0.00000000E+00  0.00000000E+00  0.00000000E+00
  0.00000000E+00  0.00000000E+00  0.00000000E+00
  0.00000000E+00  0.00000000E+00  0.00000000E+00
  0.00000000E+00  0.00000000E+00  0.00000000E+00
  0.00000000E+00  0.00000000E+00  0.00000000E+00
  0.00000000E+00  0.00000000E+00  0.00000000E+00
  0.00000000E+00  0.00000000E+00  0.00000000E+00
  0.00000000E+00  0.00000000E+00  0.00000000E+00
  0.00000000E+00  0.00000000E+00  0.00000000E+00
  0.00000000E+00  0.00000000E+00  0.00000000E+00
  0.00000000E+00  0.00000000E+00  0.00000000E+00
  0.00000000E+00  0.00000000E+00  0.00000000E+00
  0.00000000E+00  0.00000000E+00  0.00000000E+00
  0.00000000E+00  0.00000000E+00  0.00000000E+00
  0.00000000E+00  0.00000000E+00  0.00000000E+00
  0.00000000E+00  0.00000000E+00  0.00000000E+00
  0.00000000E+00  0.00000000E+00  0.00000000E+00
  0.00000000E+00  0.00000000E+00  0.00000000E+00
  0.00000000E+00  0.00000000E+00  0.00000000E+00
  0.00000000E+00  0.00000000E+00  0.00000000E+00
  0.00000000E+00  0.00000000E+00  0.00000000E+00
  0.00000000E+00  0.00000000E+00  0.00000000E+00
  0.00000000E+00  0.00000000E+00  0.00000000E+00
  0.00000000E+00  0.00000000E+00  0.00000000E+00
