Li21 N7
1.0
3.650690 0.000000 0.000000
-1.825345 3.161590 0.000000
0.000000 0.000000 50.552255
Li N
21 7
Selective dynamics
direct
0.000000 0.000000 0.019231 T T T Li+
0.666667 0.333333 0.057692 T T T Li+
0.333333 0.666667 0.057692 T T T Li+
0.000000 0.000000 0.096154 F F F Li+
0.666667 0.333333 0.134615 F F F Li+
0.333333 0.666667 0.134615 F F F Li+
0.000000 0.000000 0.173077 F F F Li+
0.666667 0.333333 0.211538 F F F Li+
0.333333 0.666667 0.211538 F F F Li+
0.000000 0.000000 0.250000 F F F Li+
0.666667 0.333333 0.288462 F F F Li+
0.333333 0.666667 0.288462 F F F Li+
0.000000 0.000000 0.326923 F F F Li+
0.666667 0.333333 0.365385 F F F Li+
0.333333 0.666667 0.365385 F F F Li+
0.000000 0.000000 0.403846 F F F Li+
0.666667 0.333333 0.442308 F F F Li+
0.333333 0.666667 0.442308 F F F Li+
0.000000 0.000000 0.480769 T T T Li+
0.666667 0.333333 0.519231 T T T Li+
0.333333 0.666667 0.519231 T T T Li+
0.000000 0.000000 0.057692 T T T N3-
0.000000 0.000000 0.134615 F F F N3-
0.000000 0.000000 0.211538 F F F N3-
0.000000 0.000000 0.288462 F F F N3-
0.000000 0.000000 0.365385 F F F N3-
0.000000 0.000000 0.442308 F F F N3-
0.000000 0.000000 0.519231 T T T N3-
