Li61 P7 N32                             
   1.00000000000000     
     0.0024682768457912    9.4864262813938360   -0.0076676127966511
    -0.0119249446757786   -0.0073546316533973    9.5569813687372420
     9.5387767811577433    0.0022408587928893   -0.0119243197124802
   Li   P    N 
    61     7    32
Direct
  0.4952653145148350  0.0003706960580186  0.5039004053595173
  0.0053820762045693  0.5003988043261894 -0.0020905158639340
  0.4954975399980289 -0.0113412655207666  0.0039248488942028
 -0.0011732932965424 -0.0016368271357959  0.5040359281616735
  0.4881002203779735  0.4876499164821196 -0.0001167937662893
  0.0043442884283181  0.4988747395951160  0.5020903019130656
  0.7471075205053432 -0.0051542518515911  0.5041918535188253
  0.2452366743829116 -0.0144326577248219  0.5086871238890160
  0.7661709372837199  0.4974842816019026  0.5040805421307488
  0.2339731642213576  0.5008287057275933  0.5121371143581962
  0.2609179711315637  0.0033472956926674  0.0032135829981184
  0.7340376017607176 -0.0048252667595668  0.0029473734103390
  0.6686028003447354  0.5744708849848383 -0.0852262832842100
  0.5137408442646233  0.2294808497879714 -0.0114258009285466
  0.4978658873253293  0.7468854257019228  0.0173575218229977
 -0.0152678708042762  0.4864513930999575  0.2606176654450552
 -0.0096645803238140  0.5096133099859678  0.7442854035185071
  0.2367433274407541  0.2190096838297546  0.2106440480164460
  0.2334648459707845  0.7911799399952268  0.7798737390589937
  0.2512209106043286  0.2954286099964884  0.7202891646424286
  0.2683535086641642  0.7307891151647889  0.2814613370288053
  0.7714993805474764  0.3037113640063463  0.3117013936042268
  0.7540438192849137  0.7026802372545159  0.7063296641745795
  0.7306688359056625  0.1945140187503971  0.8108342708109465
  0.7412372538846212  0.8006663774642492  0.2043115319388460
  0.9918718876165344  0.2413382093653550  0.2470153102357801
  0.9828128014091549  0.7501681454994473  0.7582231967708002
  0.2576826002715064  0.2205991641337746  0.4887022205852736
  0.2622992006613110  0.7471278521454651  0.5277160887962778
  0.7511983587675449  0.2255401660043396  0.5570632686534049
  0.7432926357332337  0.7602035356936552  0.4612074301927389
  0.8271532887243513  0.5897337029894196  0.0809490469246906
  0.7358188766680084  0.4508564430952938  0.7249188426887763
  0.2136305103151033  0.4861037516165278  0.2560212507287425
  0.2280004398152739  0.5454265015205426  0.7517582050880182
  0.5159269526888735  0.7461507869754976  0.2579799274943604
  0.5069592471794993  0.2522942793864603  0.7492240069202371
  0.2351997369111571  0.9801743591009907  0.2577522043648265
  0.2359216383796491  0.0338756042519004  0.7509292076403835
  0.2706827069067516  0.2464125923092878  0.9656452173660259
  0.2536859729051961  0.7648596771335470  0.0303770157630982
  0.7567419182936385  0.9553581983115087  0.7407955664706887
  0.7577138197901154  0.0412676965912073  0.2694824599432627
  0.7560274248040112  0.7755920344460695  0.9560400904935386
  0.7720026484576649  0.2110681844274430  0.0618368718019734
  0.0031016794057124  0.2475558584637800  0.7674420777485769
  0.0144780425910257  0.7430749882191843  0.2374801686488847
  0.5180682375032634  0.2518505320596840  0.2446044760352738
  0.4822408542190946  0.7330982390097979  0.7598336640328285
  0.0166615393679914  0.2610251530269274  0.0172487814701894
  0.0074042528872460  0.7400434087372909 -0.0130737777295399
  0.5132426612459987  0.2338298033688936  0.5039462772848315
  0.5013668707780112  0.7621471653020543  0.5101820263951919
  0.4865308729827952  0.5233595527345610  0.2337417440108330
  0.4832001240566374  0.4821716779353545  0.7613407893607976
 -0.0029929318294488 -0.0099206503203495  0.2649799576477269
 -0.0030425291109952  0.0017414142481908  0.7429657923403431
  0.3622831327809610  0.3616427698527969  0.3582699794590657
  0.7325069958039337  0.5517446391842187  0.2846229097612640
  0.8226482731137312  0.4033756150770041  0.9273144099776298
  0.6738892917607047  0.4203178702905548  0.0961618034911644
  0.4989100456366633  0.5009446176867038  0.5029729434467098
  0.0011146500832358 -0.0008390358160196  0.0038832593369977
  0.2468862355955911  0.5043067136625977  0.0053021369512290
  0.0012358008200253  0.7478547170948603  0.5005630718652633
  0.0040315229516062  0.2490548639213072  0.5064780573066548
  0.4981664406891190  0.0003962398891852  0.2526508449190768
  0.4970740708030887 -0.0063331708702353  0.7545837817381984
  0.6012682537346662  0.5968751130910647  0.6068873393283932
  0.5967924378879191  0.4013605061758388  0.3919076139364546
  0.8972468555741394  0.8940043607117025  0.1016017240042244
  0.8963241032646548  0.1037578858301375  0.9057177958184369
  0.1055308700564754  0.9036060858311857  0.8972008423795633
  0.1044859458179562  0.0957959112255644  0.1112581524737078
  0.3900173833521106  0.6020718615716874  0.4057397190865346
  0.3942482275790626  0.3880854643255593  0.5926172739341542
  0.1109543751073071  0.3450552997829971  0.3979504084870767
  0.1011181096315003  0.6503927827502419  0.6110208016960289
  0.1085518735724741  0.1472651304789017  0.6093201577818820
  0.1116469917974929  0.8480699150509077  0.4018196760998490
  0.8914364017688717  0.1482473897533729  0.4108558785360689
  0.8877976048287965  0.8486573979225142  0.5953658950237747
  0.8683805928620936  0.3789287241784984  0.1349780677244584
  0.8637148589764135  0.6135224491923875  0.8712606170678393
  0.1440063877481963  0.6061246481133135  0.1100674785323046
  0.1532572165054453  0.4022435216223939  0.8911642068035223
  0.3939577295608536  0.8909774982405155  0.1597599870261890
  0.3993340541382593  0.1024691038267024  0.8554685140492923
  0.3926680533081049  0.1107092452435578  0.3505985141247274
  0.3858263862589976  0.8965680217099934  0.6528840564141004
  0.3406786622666710  0.3935063876272243  0.1137965265524127
  0.3492960002693244  0.6127247129944280  0.9068145897773613
  0.6098096265822299  0.0902132150298583  0.6534264818348111
  0.6084243673819678  0.9065855690013117  0.3569515526491600
  0.6319388386366269  0.6304491815305091  0.1212254880528275
  0.6260737110697703  0.3675341969645499  0.8853145213295175
  0.9044759505180886  0.3536168202028495  0.6096623469762330
  0.9030023844169928  0.6439326355998594  0.3938609069916358
  0.6006923567911129  0.0987439130094309  0.1459749689967087
  0.5960456096787559  0.8857638031413761  0.8543718712361098
 
  0.00000000E+00  0.00000000E+00  0.00000000E+00
  0.00000000E+00  0.00000000E+00  0.00000000E+00
  0.00000000E+00  0.00000000E+00  0.00000000E+00
  0.00000000E+00  0.00000000E+00  0.00000000E+00
  0.00000000E+00  0.00000000E+00  0.00000000E+00
  0.00000000E+00  0.00000000E+00  0.00000000E+00
  0.00000000E+00  0.00000000E+00  0.00000000E+00
  0.00000000E+00  0.00000000E+00  0.00000000E+00
  0.00000000E+00  0.00000000E+00  0.00000000E+00
  0.00000000E+00  0.00000000E+00  0.00000000E+00
  0.00000000E+00  0.00000000E+00  0.00000000E+00
  0.00000000E+00  0.00000000E+00  0.00000000E+00
  0.00000000E+00  0.00000000E+00  0.00000000E+00
  0.00000000E+00  0.00000000E+00  0.00000000E+00
  0.00000000E+00  0.00000000E+00  0.00000000E+00
  0.00000000E+00  0.00000000E+00  0.00000000E+00
  0.00000000E+00  0.00000000E+00  0.00000000E+00
  0.00000000E+00  0.00000000E+00  0.00000000E+00
  0.00000000E+00  0.00000000E+00  0.00000000E+00
  0.00000000E+00  0.00000000E+00  0.00000000E+00
  0.00000000E+00  0.00000000E+00  0.00000000E+00
  0.00000000E+00  0.00000000E+00  0.00000000E+00
  0.00000000E+00  0.00000000E+00  0.00000000E+00
  0.00000000E+00  0.00000000E+00  0.00000000E+00
  0.00000000E+00  0.00000000E+00  0.00000000E+00
  0.00000000E+00  0.00000000E+00  0.00000000E+00
  0.00000000E+00  0.00000000E+00  0.00000000E+00
  0.00000000E+00  0.00000000E+00  0.00000000E+00
  0.00000000E+00  0.00000000E+00  0.00000000E+00
  0.00000000E+00  0.00000000E+00  0.00000000E+00
  0.00000000E+00  0.00000000E+00  0.00000000E+00
  0.00000000E+00  0.00000000E+00  0.00000000E+00
  0.00000000E+00  0.00000000E+00  0.00000000E+00
  0.00000000E+00  0.00000000E+00  0.00000000E+00
  0.00000000E+00  0.00000000E+00  0.00000000E+00
  0.00000000E+00  0.00000000E+00  0.00000000E+00
  0.00000000E+00  0.00000000E+00  0.00000000E+00
  0.00000000E+00  0.00000000E+00  0.00000000E+00
  0.00000000E+00  0.00000000E+00  0.00000000E+00
  0.00000000E+00  0.00000000E+00  0.00000000E+00
  0.00000000E+00  0.00000000E+00  0.00000000E+00
  0.00000000E+00  0.00000000E+00  0.00000000E+00
  0.00000000E+00  0.00000000E+00  0.00000000E+00
  0.00000000E+00  0.00000000E+00  0.00000000E+00
  0.00000000E+00  0.00000000E+00  0.00000000E+00
  0.00000000E+00  0.00000000E+00  0.00000000E+00
  0.00000000E+00  0.00000000E+00  0.00000000E+00
  0.00000000E+00  0.00000000E+00  0.00000000E+00
  0.00000000E+00  0.00000000E+00  0.00000000E+00
  0.00000000E+00  0.00000000E+00  0.00000000E+00
  0.00000000E+00  0.00000000E+00  0.00000000E+00
  0.00000000E+00  0.00000000E+00  0.00000000E+00
  0.00000000E+00  0.00000000E+00  0.00000000E+00
  0.00000000E+00  0.00000000E+00  0.00000000E+00
  0.00000000E+00  0.00000000E+00  0.00000000E+00
  0.00000000E+00  0.00000000E+00  0.00000000E+00
  0.00000000E+00  0.00000000E+00  0.00000000E+00
  0.00000000E+00  0.00000000E+00  0.00000000E+00
  0.00000000E+00  0.00000000E+00  0.00000000E+00
  0.00000000E+00  0.00000000E+00  0.00000000E+00
  0.00000000E+00  0.00000000E+00  0.00000000E+00
  0.00000000E+00  0.00000000E+00  0.00000000E+00
  0.00000000E+00  0.00000000E+00  0.00000000E+00
  0.00000000E+00  0.00000000E+00  0.00000000E+00
  0.00000000E+00  0.00000000E+00  0.00000000E+00
  0.00000000E+00  0.00000000E+00  0.00000000E+00
  0.00000000E+00  0.00000000E+00  0.00000000E+00
  0.00000000E+00  0.00000000E+00  0.00000000E+00
  0.00000000E+00  0.00000000E+00  0.00000000E+00
  0.00000000E+00  0.00000000E+00  0.00000000E+00
  0.00000000E+00  0.00000000E+00  0.00000000E+00
  0.00000000E+00  0.00000000E+00  0.00000000E+00
  0.00000000E+00  0.00000000E+00  0.00000000E+00
  0.00000000E+00  0.00000000E+00  0.00000000E+00
  0.00000000E+00  0.00000000E+00  0.00000000E+00
  0.00000000E+00  0.00000000E+00  0.00000000E+00
  0.00000000E+00  0.00000000E+00  0.00000000E+00
  0.00000000E+00  0.00000000E+00  0.00000000E+00
  0.00000000E+00  0.00000000E+00  0.00000000E+00
  0.00000000E+00  0.00000000E+00  0.00000000E+00
  0.00000000E+00  0.00000000E+00  0.00000000E+00
  0.00000000E+00  0.00000000E+00  0.00000000E+00
  0.00000000E+00  0.00000000E+00  0.00000000E+00
  0.00000000E+00  0.00000000E+00  0.00000000E+00
  0.00000000E+00  0.00000000E+00  0.00000000E+00
  0.00000000E+00  0.00000000E+00  0.00000000E+00
  0.00000000E+00  0.00000000E+00  0.00000000E+00
  0.00000000E+00  0.00000000E+00  0.00000000E+00
  0.00000000E+00  0.00000000E+00  0.00000000E+00
  0.00000000E+00  0.00000000E+00  0.00000000E+00
  0.00000000E+00  0.00000000E+00  0.00000000E+00
  0.00000000E+00  0.00000000E+00  0.00000000E+00
  0.00000000E+00  0.00000000E+00  0.00000000E+00
  0.00000000E+00  0.00000000E+00  0.00000000E+00
  0.00000000E+00  0.00000000E+00  0.00000000E+00
  0.00000000E+00  0.00000000E+00  0.00000000E+00
  0.00000000E+00  0.00000000E+00  0.00000000E+00
  0.00000000E+00  0.00000000E+00  0.00000000E+00
  0.00000000E+00  0.00000000E+00  0.00000000E+00
  0.00000000E+00  0.00000000E+00  0.00000000E+00
