Li56 P28 O98
1.0
4.907295 0.000000 -1.895193
-0.730671 8.419349 5.315209
0.000000 0.000000 72.154804
Li P O
56 28 98
Selective dynamics
direct
0.744463 0.987971 0.086705 F F F Li
0.255537 0.012029 0.013295 T T T Li
0.395677 0.751653 0.065962 F F F Li
0.604323 0.248347 0.034038 F F F Li
0.027769 0.791276 0.088099 F F F Li
0.972231 0.208724 0.011901 F F F Li
0.056952 0.450796 0.030732 T T T Li
0.943048 0.549204 0.069268 F F F Li
0.744463 0.987971 0.186705 F F F Li
0.255537 0.012029 0.113295 F F F Li
0.395677 0.751653 0.165962 F F F Li
0.604323 0.248347 0.134038 F F F Li
0.027769 0.791276 0.188099 F F F Li
0.972231 0.208724 0.111901 F F F Li
0.056952 0.450796 0.130732 F F F Li
0.943048 0.549204 0.169268 F F F Li
0.744463 0.987971 0.286705 F F F Li
0.255537 0.012029 0.213295 F F F Li
0.395677 0.751653 0.265962 F F F Li
0.604323 0.248347 0.234038 F F F Li
0.027769 0.791276 0.288099 F F F Li
0.972231 0.208724 0.211901 F F F Li
0.056952 0.450796 0.230732 F F F Li
0.943048 0.549204 0.269268 F F F Li
0.744463 0.987971 0.386705 F F F Li
0.255537 0.012029 0.313295 F F F Li
0.395677 0.751653 0.365962 F F F Li
0.604323 0.248347 0.334038 F F F Li
0.027769 0.791276 0.388099 F F F Li
0.972231 0.208724 0.311901 F F F Li
0.056952 0.450796 0.330732 F F F Li
0.943048 0.549204 0.369268 F F F Li
0.744463 0.987971 0.486705 F F F Li
0.255537 0.012029 0.413295 F F F Li
0.395677 0.751653 0.465962 F F F Li
0.604323 0.248347 0.434038 F F F Li
0.027769 0.791276 0.488099 F F F Li
0.972231 0.208724 0.411901 F F F Li
0.056952 0.450796 0.430732 F F F Li
0.943048 0.549204 0.469268 F F F Li
0.744463 0.987971 0.586705 F F F Li
0.255537 0.012029 0.513295 F F F Li
0.395677 0.751653 0.565962 F F F Li
0.604323 0.248347 0.534038 F F F Li
0.027769 0.791276 0.588099 F F F Li
0.972231 0.208724 0.511901 F F F Li
0.056952 0.450796 0.530732 F F F Li
0.943048 0.549204 0.569268 F F F Li
0.744463 0.987971 0.686705 T T T Li
0.255537 0.012029 0.613295 F F F Li
0.395677 0.751653 0.665962 F F F Li
0.604323 0.248347 0.634038 F F F Li
0.027769 0.791276 0.688099 F F F Li
0.972231 0.208724 0.611901 F F F Li
0.056952 0.450796 0.630732 F F F Li
0.943048 0.549204 0.669268 T T T Li
0.573990 0.631956 0.015475 T T T P
0.426010 0.368044 0.084525 F F F P
0.784272 0.845502 0.037526 T T T P
0.215728 0.154498 0.062474 F F F P
0.573990 0.631956 0.115475 F F F P
0.426010 0.368044 0.184525 F F F P
0.784272 0.845502 0.137526 F F F P
0.215728 0.154498 0.162474 F F F P
0.573990 0.631956 0.215475 F F F P
0.426010 0.368044 0.284525 F F F P
0.784272 0.845502 0.237526 F F F P
0.215728 0.154498 0.262474 F F F P
0.573990 0.631956 0.315475 F F F P
0.426010 0.368044 0.384525 F F F P
0.784272 0.845502 0.337526 F F F P
0.215728 0.154498 0.362474 F F F P
0.573990 0.631956 0.415475 F F F P
0.426010 0.368044 0.484525 F F F P
0.784272 0.845502 0.437526 F F F P
0.215728 0.154498 0.462474 F F F P
0.573990 0.631956 0.515475 F F F P
0.426010 0.368044 0.584525 F F F P
0.784272 0.845502 0.537526 F F F P
0.215728 0.154498 0.562474 F F F P
0.573990 0.631956 0.615475 F F F P
0.426010 0.368044 0.684525 T T T P
0.784272 0.845502 0.637526 F F F P
0.215728 0.154498 0.662474 T T T P
0.519912 0.874340 0.038390 T T T O
0.006130 0.790684 0.060360 F F F O
0.993870 0.209316 0.039640 F F F O
0.882911 0.981976 0.016943 F F F O
0.732561 0.376455 0.088020 F F F O
0.267439 0.623545 0.011980 T T T O
0.314844 0.526190 0.074162 F F F O
0.685156 0.473810 0.025838 T T T O
0.338222 0.236504 0.006109 F F F O
0.661778 0.763496 0.093891 F F F O
0.733069 0.683894 0.035372 F F F O
0.266931 0.316106 0.064628 F F F O
0.117089 0.018024 0.083057 F F F O
0.480088 0.125660 0.061610 F F F O
0.519912 0.874340 0.138390 F F F O
0.006130 0.790684 0.160360 F F F O
0.993870 0.209316 0.139640 F F F O
0.882911 0.981976 0.116943 F F F O
0.732561 0.376455 0.188020 F F F O
0.267439 0.623545 0.111980 F F F O
0.314844 0.526190 0.174162 F F F O
0.685156 0.473810 0.125838 F F F O
0.338222 0.236504 0.106109 F F F O
0.661778 0.763496 0.193891 F F F O
0.733069 0.683894 0.135372 F F F O
0.266931 0.316106 0.164628 F F F O
0.117089 0.018024 0.183057 F F F O
0.480088 0.125660 0.161610 F F F O
0.519912 0.874340 0.238390 F F F O
0.006130 0.790684 0.260360 F F F O
0.993870 0.209316 0.239640 F F F O
0.882911 0.981976 0.216943 F F F O
0.732561 0.376455 0.288019 F F F O
0.267439 0.623545 0.211981 F F F O
0.314844 0.526190 0.274162 F F F O
0.685156 0.473810 0.225838 F F F O
0.338222 0.236504 0.206109 F F F O
0.661778 0.763496 0.293891 F F F O
0.733069 0.683894 0.235372 F F F O
0.266931 0.316106 0.264628 F F F O
0.117089 0.018024 0.283057 F F F O
0.480088 0.125660 0.261610 F F F O
0.519912 0.874340 0.338390 F F F O
0.006130 0.790684 0.360360 F F F O
0.993870 0.209316 0.339640 F F F O
0.882911 0.981976 0.316943 F F F O
0.732561 0.376455 0.388019 F F F O
0.267439 0.623545 0.311980 F F F O
0.314844 0.526190 0.374162 F F F O
0.685156 0.473810 0.325838 F F F O
0.338222 0.236504 0.306109 F F F O
0.661778 0.763496 0.393891 F F F O
0.733069 0.683894 0.335372 F F F O
0.266931 0.316106 0.364628 F F F O
0.117089 0.018024 0.383057 F F F O
0.480088 0.125660 0.361610 F F F O
0.519912 0.874340 0.438390 F F F O
0.006130 0.790684 0.460360 F F F O
0.993870 0.209316 0.439640 F F F O
0.882911 0.981976 0.416943 F F F O
0.732561 0.376455 0.488020 F F F O
0.267439 0.623545 0.411981 F F F O
0.314844 0.526190 0.474162 F F F O
0.685156 0.473810 0.425838 F F F O
0.338222 0.236504 0.406109 F F F O
0.661778 0.763496 0.493891 F F F O
0.733069 0.683894 0.435372 F F F O
0.266931 0.316106 0.464628 F F F O
0.117089 0.018024 0.483057 F F F O
0.480088 0.125660 0.461610 F F F O
0.519912 0.874340 0.538390 F F F O
0.006130 0.790684 0.560360 F F F O
0.993870 0.209316 0.539640 F F F O
0.882911 0.981976 0.516943 F F F O
0.732561 0.376455 0.588020 F F F O
0.267439 0.623545 0.511980 F F F O
0.314844 0.526190 0.574162 F F F O
0.685156 0.473810 0.525838 F F F O
0.338222 0.236504 0.506109 F F F O
0.661778 0.763496 0.593891 F F F O
0.733069 0.683894 0.535372 F F F O
0.266931 0.316106 0.564628 F F F O
0.117089 0.018024 0.583057 F F F O
0.480088 0.125660 0.561610 F F F O
0.519912 0.874340 0.638390 F F F O
0.006130 0.790684 0.660360 F F F O
0.993870 0.209316 0.639640 F F F O
0.882911 0.981976 0.616943 F F F O
0.732561 0.376455 0.688020 T T T O
0.267439 0.623545 0.611980 F F F O
0.314844 0.526190 0.674162 T T T O
0.685156 0.473810 0.625838 F F F O
0.338222 0.236504 0.606109 F F F O
0.661778 0.763496 0.693891 F F F O
0.733069 0.683894 0.635372 F F F O
0.266931 0.316106 0.664628 F F F O
0.117089 0.018024 0.683057 F F F O
0.480088 0.125660 0.661610 T T T O
