(2, 2, 1)                               
   1.00000000000000     
     3.4179284111827917   -0.0133485459023163   -3.3596154317040763
     0.0306270436223287    6.7201734211839108   -3.3035751209961135
     0.0315354936680415    0.3795515391305662   43.7088531843498771
   Li
    16
Selective dynamics
Direct
  0.0349851788537029  0.0043062538724775  0.0730309198207045   T   T   T
  0.0062912500109566  0.5142727548607589  0.0311914661329788   T   T   T
  0.5102085220575792  0.2227740607709623  0.0093543349980972   T   T   T
  0.4724300583981915  0.7659612501174000  0.0449655104382970   T   T   T
  0.0000000000000000  0.0000000000000000  0.1442309999999978   F   F   F
  0.0000000000000000  0.5000000000000000  0.1057690000000022   F   F   F
  0.4810420333061808  0.2438841389929958  0.0831933466297737   T   T   T
  0.5000000000000000  0.7500000000000000  0.1250000000000000   F   F   F
  0.0193216376591673  0.0059674809728141  0.2245329735273018   T   T   T
  0.0000000000000000  0.5000000000000000  0.1826920000000030   F   F   F
  0.5000000000000000  0.2500000000000000  0.1634620000000027   F   F   F
  0.5000000000000000  0.7500000000000000  0.2019230000000007   F   F   F
 -0.0102138007177081  0.0271018771536389  0.2982819607984501   T   T   T
  0.0278908466083296  0.4835771414720589  0.2627924146025888   T   T   T
  0.4657564460060918  0.2459050389591561  0.2347057434179192   T   T   T
  0.4934966629989889  0.7363537204372138  0.2765415638739549   T   T   T
 
  0.00000000E+00  0.00000000E+00  0.00000000E+00
  0.00000000E+00  0.00000000E+00  0.00000000E+00
  0.00000000E+00  0.00000000E+00  0.00000000E+00
  0.00000000E+00  0.00000000E+00  0.00000000E+00
  0.00000000E+00  0.00000000E+00  0.00000000E+00
  0.00000000E+00  0.00000000E+00  0.00000000E+00
  0.00000000E+00  0.00000000E+00  0.00000000E+00
  0.00000000E+00  0.00000000E+00  0.00000000E+00
  0.00000000E+00  0.00000000E+00  0.00000000E+00
  0.00000000E+00  0.00000000E+00  0.00000000E+00
  0.00000000E+00  0.00000000E+00  0.00000000E+00
  0.00000000E+00  0.00000000E+00  0.00000000E+00
  0.00000000E+00  0.00000000E+00  0.00000000E+00
  0.00000000E+00  0.00000000E+00  0.00000000E+00
  0.00000000E+00  0.00000000E+00  0.00000000E+00
  0.00000000E+00  0.00000000E+00  0.00000000E+00
