(2, 2, 1)
1.0
3.426818 0.000000 -3.426818
0.000000 6.853636 -3.426818
0.000000 0.000000 44.548634
Li
16
Selective dynamics
direct
0.000000 0.000000 0.067308 T T T Li+
0.000000 0.500000 0.028846 T T T Li+
0.500000 0.250000 0.009615 T T T Li+
0.500000 0.750000 0.048077 T T T Li+
0.000000 0.000000 0.144231 F F F Li+
0.000000 0.500000 0.105769 F F F Li+
0.500000 0.250000 0.086538 T T T Li+
0.500000 0.750000 0.125000 F F F Li+
0.000000 0.000000 0.221154 T T T Li+
0.000000 0.500000 0.182692 F F F Li+
0.500000 0.250000 0.163462 F F F Li+
0.500000 0.750000 0.201923 F F F Li+
0.000000 0.000000 0.298077 T T T Li+
0.000000 0.500000 0.259615 T T T Li+
0.500000 0.250000 0.240385 T T T Li+
0.500000 0.750000 0.278846 T T T Li+
