Li71 P24 N1 O94                         
   1.00000000000000     
    14.6999564672567420    0.0186880213336526    0.0179468113107790
     0.0134164314799207   10.5856217066551679    0.0145764531212783
     0.0149832712210829    0.0170289104779821   12.3136120877391946
   Li   P    N    O 
    71    24     1    94
Direct
  0.1712030738882735  0.4182485930861992  0.0031425037440021
  0.1713324326659640  0.4254449067503149  0.5024521663061914
  0.1681908236388312  0.9303769982803471  0.0052364348946577
  0.1732899776319891  0.9228943565285479  0.5002125485029361
  0.5027688391699530  0.4222342673954662  0.0006283298449537
  0.5032751121338638  0.4233822290275647  0.5005302340006657
  0.5040537406999631  0.9233269870140256  0.0001163796961929
  0.5030893921441849  0.9228138001045123  0.4998616278750179
  0.8373317102622432  0.4218921642153824 -0.0000968004435501
  0.8346549563707546  0.4223680787976547  0.5008767987144227
  0.8348721577557694  0.9196800609674736 -0.0022624122312991
  0.8339329651085832  0.9191474338192330  0.4979989738074993
  0.0099146849480367  0.0636955498266243  0.2303263395529238
  0.0028686092389543  0.0752630555591332  0.7554136989632568
  0.0048069278478282  0.5804699293674230  0.2477347398895397
  0.0034054387129559  0.5756392504760846  0.7518494066605608
  0.3331955557466948  0.0798702499535095  0.2427490588930296
  0.3371016357907111  0.0777286203874419  0.7533886042712661
  0.3345511431292673  0.5787202610013517  0.2492366553152884
  0.3366983997861184  0.5777328998625250  0.7515394626710216
  0.6687742495570076  0.0783142384101128  0.2479807933990400
  0.6689881429654875  0.0771811729469031  0.7498093012824413
  0.6692907688539769  0.5773197140563201  0.2496567900267563
  0.6691511149820649  0.5776728186932311  0.7505078207096981
  0.1731655719533222  0.1647889485967342  0.6304474047601214
  0.1698204989920663  0.6624894393515449  0.1256040321052653
  0.1701078627996106  0.6641421470940607  0.6287592684309499
  0.5019407390739491  0.1636595488618687  0.1253548510734415
  0.5036273128608758  0.1637406451386784  0.6270361192263040
  0.5024567633661480  0.6635849799527732  0.1261634617615030
  0.5029096612133201  0.6638183841260832  0.6268365745657838
  0.8409086678197019  0.1620216754487022  0.1229827552880692
  0.8344569528709614  0.1655814422563774  0.6258334785702474
  0.8358938375138200  0.6616527545093270  0.1260454218639311
  0.8348752964291016  0.6628646604548036  0.6269226060911375
  0.0080722827314719  0.3338977633113631  0.1240085356647683
  0.0026361824705290  0.3388628406534857  0.6258993182301980
  0.0006486227882605  0.8313397192605132  0.1191602457221499
  0.0024716310893843  0.8322202245504048  0.6278650181269549
  0.3331549612172847  0.3332805848726494  0.1235830731017726
  0.3374835692565500  0.3375501590991115  0.6249378315578338
  0.3370533033284085  0.8374675090621317  0.1226066555195660
  0.3368531108437978  0.8372519475595468  0.6248493288855900
  0.6706015486926711  0.3360668895309979  0.1235596726810825
  0.6687963401695936  0.3374126697100271  0.6238636441584002
  0.6696596100390596  0.8370003796699800  0.1237072957160392
  0.6686906616083276  0.8368716086041286  0.6231631154593689
 -0.0007780925738295  0.3588419746177081  0.3748244249453285
  0.0033586720241882  0.3349579086478616  0.8773789459141016
 -0.0002086267938205  0.8311371078971524  0.3767876607285239
  0.0039535113189913  0.8359929882792495  0.8766051842765427
  0.3383545511375602  0.3427799121942330  0.3767940167086304
  0.3370596568132768  0.3349147801152500  0.8778010610265607
  0.3358802240781142  0.8370976599954175  0.3757149699020397
  0.3361044011174217  0.8375471926167489  0.8782851991415562
  0.6683712375319777  0.3372570492100864  0.3762500945928403
  0.6697013814291594  0.3367787541361135  0.8767744068895310
  0.6687863676284442  0.8373205560402024  0.3754249545098565
  0.6695506047162314  0.8366936495217128  0.8757374784515740
  0.1960680592306137  0.1768903791769555  0.3726207034802128
  0.1687679027406634  0.1631688799994463  0.8797416187527023
  0.1681763353129112  0.6610366066791301  0.3778505402851116
  0.1697887487429233  0.6631367906353880  0.8746994884620469
  0.5011223153379022  0.1639797974911643  0.3725521635232488
  0.5037956430616858  0.1632360342790357  0.8741416797694973
  0.5022835208715580  0.6636529783241151  0.3732209765590132
  0.5025797100996219  0.6633707616297603  0.8739727139469361
  0.8345653108797673  0.1633749368483015  0.3685250615351299
  0.8346296258802059  0.1626822002141100  0.8701421710849108
  0.8355424234941434  0.6617718525886134  0.3738371520241991
  0.8365075299892886  0.6627488304669960  0.8730778024673713
  0.1679413223666543  0.4183439517325897  0.2504334315679618
  0.1676550676329387  0.4118186977980052  0.7511466255352435
  0.1629689922689747  0.9050851926805893  0.2523964702567482
  0.1672942472933327  0.9125305652459471  0.7506991069360860
  0.5004761668119363  0.4127080747292372  0.2497727233733210
  0.5007258871796713  0.4125045475134885  0.7505033353948125
  0.4999438361731647  0.9129201466893885  0.2501597966149077
  0.5006867575499253  0.9121042803850063  0.7499187114127320
  0.8343129646791405  0.4119632986638647  0.2492962988703440
  0.8335618756631107  0.4120026635565900  0.7499162308933575
  0.8341051565938804  0.9112545805856345  0.2497660050029676
  0.8337706185117563  0.9118957799608499  0.7472995612386523
 -0.0040858277691429  0.0864778460064846 -0.0021109205729884
  0.0023362937107798  0.0841088560804182  0.5021542574113472
  0.0004052331939810  0.5859996807023100 -0.0011691839702864
 -0.0006549536658449  0.5874802692588883  0.5024458952591997
  0.3347072110147004  0.0864702837462117 -0.0012664743181329
  0.3341417350212840  0.0887655482108800  0.5015996291654686
  0.3338548469205456  0.5873174334762460 -0.0000379798639333
  0.3341169116672957  0.5892329216222467  0.5014802533204411
  0.6679652311243959  0.0876454430531169 -0.0005609966333161
  0.6667708458112174  0.0885451504916837  0.4988422195751653
  0.6673564802940245  0.5877802873745913 -0.0000216596471254
  0.6665752735183812  0.5883073514799995  0.4998143013496784
  0.1904812301965547  0.0527727936894839  0.2625641617140916
  0.0334607700521778  0.1552012795506649  0.8944926645917592
  0.0343560972226195  0.6555950720904482  0.3982918180726787
  0.0352235897078486  0.6556641713027281  0.8947812524054279
  0.3655891631785436  0.1594881994760766  0.3962679009795279
  0.3722674010916513  0.1565276437117894  0.8952696953139618
  0.3687659498606087  0.6577358717428340  0.3969194577530534
  0.3692087811086794  0.6570056293710568  0.8960084869362581
  0.7026159619805050  0.1573700362461067  0.3948615806427334
  0.7021549189706662  0.1563458068236008  0.8945009462830358
  0.7020890922300911  0.6573414117235591  0.3958066889338872
  0.7027896692416419  0.6570822110767254  0.8959466855634650
  0.2004953836609291  0.0521869757788751  0.7508226956498311
  0.1977671327854449  0.5601961803633914  0.2541973050808918
  0.2006265821294695  0.5517536801196772  0.7508799545382595
  0.5339377132287849  0.0524810689251712  0.2500980871261271
  0.5347687449429356  0.0516153575616837  0.7495936923408846
  0.5345907827769926  0.5522522328647751  0.2500440109420599
  0.5343933671355918  0.5522284529115188  0.7499768755592876
  0.8710761507033804  0.0495406612958035  0.2498289427423827
  0.8678817126436377  0.0515608005817690  0.7453788454392383
  0.8682326284528177  0.5515053524050839  0.2508151929867640
  0.8674650292942143  0.5514693933831465  0.7494558983244747
  0.0614072281107053  0.4117504071552320  0.2517281473780749
  0.0615376079014093  0.4083424591341849  0.7505481570214487
  0.0570264356460561  0.8928001208363386  0.2488241627479237
  0.0609585207792260  0.9099440801683132  0.7493056629309310
  0.3946841569367706  0.4106570204227685  0.2491762247842309
  0.3948638796100584  0.4098427032614197  0.7508212025823234
  0.3940162692613509  0.9106198919854049  0.2500413048171451
  0.3948113287903092  0.9095333834177632  0.7503888653404276
  0.7284581856958069  0.4092713699398797  0.2509187323796085
  0.7276937153969313  0.4095229385292019  0.7495332608266362
  0.7282054904917572  0.9118443878427085  0.2499087454454757
  0.7279461484085976  0.9097122460252048  0.7483758448524713
  0.2305557753900415  0.0857639526123813 -0.0047849973665656
  0.2280038734989757  0.0917607833612883  0.5042118259399688
  0.2280036440997610  0.5901985388927611 -0.0002336573109438
  0.2281722941286451  0.5918153351463791  0.5030610246629861
  0.5621883127133238  0.0911862114280708  0.0006539915319997
  0.5609558695135993  0.0916316236799434  0.4991077870158578
  0.5614762157515630  0.5905265189731906  0.0000476284402364
  0.5607562058244423  0.5912191188433299  0.4999258581117877
  0.8896768299346975  0.0845002843715811 -0.0080513715711104
  0.8966837246320151  0.0930564960368119  0.4956888519579790
  0.8943480757633402  0.5899209944381917 -0.0005565208474247
  0.8934664925922231  0.5893326143533769  0.5016951928633667
  0.2053565735066916  0.3565376472426152  0.1473571319089842
  0.2031903755579233  0.3436746238999353  0.6466781723682936
  0.2027664890587159  0.8420148045444851  0.1481493389587943
  0.2025780667268932  0.8438456113324427  0.6463331013296294
  0.5368785395244935  0.3431931040630763  0.1467328674077642
  0.5358800479596226  0.3434633912386212  0.6463417879314043
  0.5360178534520736  0.8432517490034054  0.1469662309608460
  0.5356803142328327  0.8434299047328785  0.6455012992389239
  0.8693833263059355  0.3437028045059733  0.1456050152373355
  0.8690237749955685  0.3426442378295736  0.6458332100318345
  0.8681497463897527  0.8408124781688445  0.1461505179029972
  0.8687088404217476  0.8431098512050309  0.6427702517217814
  0.0227434757873445  0.1569999785525222  0.1020215698760348
  0.0381559184668616  0.1582090086059284  0.6024225146220781
  0.0357548483349763  0.6551886182953297  0.1021492317877603
  0.0347721765725285  0.6558259906428712  0.6059920055328328
  0.3704126871030012  0.1560319378631467  0.1022896873177191
  0.3705022108835823  0.1573149220885404  0.6045607538901657
  0.3688427805272730  0.6566653055638700  0.1037236501962626
  0.3695884883387813  0.6581483026680204  0.6049402865867033
  0.7044329226202893  0.1564083172472996  0.1026360898677846
  0.7022901982898475  0.1574767500451374  0.6024872936116668
  0.7024469142140903  0.6566864516605270  0.1038465852871513
  0.7018064291508931  0.6570465178880867  0.6036201782762493
  0.0340268029078971  0.4465114897147481 -0.0009888223161254
  0.0337718096489718  0.4475872168138533  0.5025205438411081
  0.0318498734792476  0.9471483213076085 -0.0000411793287660
  0.0350759600242736  0.9444032451176200  0.5005586899466699
  0.3682570445028209  0.4479016833976019 -0.0001712302520856
  0.3681894515411216  0.4494517195690387  0.5015111047175791
  0.3714383108461182  0.9470444697535689 -0.0000044376941339
  0.3676215049933081  0.9490432061543144  0.4997549784936868
  0.7015811220712217  0.4481149933324283  0.0000073116891407
  0.7004414689609326  0.4483529449210134  0.4998553538377700
  0.7007825268855036  0.9472092622402407 -0.0008498548773998
  0.7007317807143408  0.9487041734948917  0.4992128513756739
  0.2030417422108255  0.3518607112532707  0.3568383738554156
  0.2028286832307535  0.3422154815802343  0.8544388334809903
  0.1999791326279001  0.8369832794248245  0.3566386161232655
  0.2014461179031810  0.8424185386243631  0.8542293965270148
  0.5349127823525635  0.3434678909201981  0.3544256515207964
  0.5365596125678056  0.3434318859136505  0.8541021578692931
  0.5350390558373566  0.8437798858444872  0.3544506532864849
  0.5365775456450752  0.8425294228591356  0.8532522208612024
  0.8703627255129514  0.3418792593446038  0.3534686156993903
  0.8688339922971451  0.3424697991628983  0.8534264819111573
  0.8676882942824359  0.8413940112574450  0.3545218260317682
  0.8696214972744514  0.8421230444064391  0.8504030550370535
 
  0.00000000E+00  0.00000000E+00  0.00000000E+00
  0.00000000E+00  0.00000000E+00  0.00000000E+00
  0.00000000E+00  0.00000000E+00  0.00000000E+00
  0.00000000E+00  0.00000000E+00  0.00000000E+00
  0.00000000E+00  0.00000000E+00  0.00000000E+00
  0.00000000E+00  0.00000000E+00  0.00000000E+00
  0.00000000E+00  0.00000000E+00  0.00000000E+00
  0.00000000E+00  0.00000000E+00  0.00000000E+00
  0.00000000E+00  0.00000000E+00  0.00000000E+00
  0.00000000E+00  0.00000000E+00  0.00000000E+00
  0.00000000E+00  0.00000000E+00  0.00000000E+00
  0.00000000E+00  0.00000000E+00  0.00000000E+00
  0.00000000E+00  0.00000000E+00  0.00000000E+00
  0.00000000E+00  0.00000000E+00  0.00000000E+00
  0.00000000E+00  0.00000000E+00  0.00000000E+00
  0.00000000E+00  0.00000000E+00  0.00000000E+00
  0.00000000E+00  0.00000000E+00  0.00000000E+00
  0.00000000E+00  0.00000000E+00  0.00000000E+00
  0.00000000E+00  0.00000000E+00  0.00000000E+00
  0.00000000E+00  0.00000000E+00  0.00000000E+00
  0.00000000E+00  0.00000000E+00  0.00000000E+00
  0.00000000E+00  0.00000000E+00  0.00000000E+00
  0.00000000E+00  0.00000000E+00  0.00000000E+00
  0.00000000E+00  0.00000000E+00  0.00000000E+00
  0.00000000E+00  0.00000000E+00  0.00000000E+00
  0.00000000E+00  0.00000000E+00  0.00000000E+00
  0.00000000E+00  0.00000000E+00  0.00000000E+00
  0.00000000E+00  0.00000000E+00  0.00000000E+00
  0.00000000E+00  0.00000000E+00  0.00000000E+00
  0.00000000E+00  0.00000000E+00  0.00000000E+00
  0.00000000E+00  0.00000000E+00  0.00000000E+00
  0.00000000E+00  0.00000000E+00  0.00000000E+00
  0.00000000E+00  0.00000000E+00  0.00000000E+00
  0.00000000E+00  0.00000000E+00  0.00000000E+00
  0.00000000E+00  0.00000000E+00  0.00000000E+00
  0.00000000E+00  0.00000000E+00  0.00000000E+00
  0.00000000E+00  0.00000000E+00  0.00000000E+00
  0.00000000E+00  0.00000000E+00  0.00000000E+00
  0.00000000E+00  0.00000000E+00  0.00000000E+00
  0.00000000E+00  0.00000000E+00  0.00000000E+00
  0.00000000E+00  0.00000000E+00  0.00000000E+00
  0.00000000E+00  0.00000000E+00  0.00000000E+00
  0.00000000E+00  0.00000000E+00  0.00000000E+00
  0.00000000E+00  0.00000000E+00  0.00000000E+00
  0.00000000E+00  0.00000000E+00  0.00000000E+00
  0.00000000E+00  0.00000000E+00  0.00000000E+00
  0.00000000E+00  0.00000000E+00  0.00000000E+00
  0.00000000E+00  0.00000000E+00  0.00000000E+00
  0.00000000E+00  0.00000000E+00  0.00000000E+00
  0.00000000E+00  0.00000000E+00  0.00000000E+00
  0.00000000E+00  0.00000000E+00  0.00000000E+00
  0.00000000E+00  0.00000000E+00  0.00000000E+00
  0.00000000E+00  0.00000000E+00  0.00000000E+00
  0.00000000E+00  0.00000000E+00  0.00000000E+00
  0.00000000E+00  0.00000000E+00  0.00000000E+00
  0.00000000E+00  0.00000000E+00  0.00000000E+00
  0.00000000E+00  0.00000000E+00  0.00000000E+00
  0.00000000E+00  0.00000000E+00  0.00000000E+00
  0.00000000E+00  0.00000000E+00  0.00000000E+00
  0.00000000E+00  0.00000000E+00  0.00000000E+00
  0.00000000E+00  0.00000000E+00  0.00000000E+00
  0.00000000E+00  0.00000000E+00  0.00000000E+00
  0.00000000E+00  0.00000000E+00  0.00000000E+00
  0.00000000E+00  0.00000000E+00  0.00000000E+00
  0.00000000E+00  0.00000000E+00  0.00000000E+00
  0.00000000E+00  0.00000000E+00  0.00000000E+00
  0.00000000E+00  0.00000000E+00  0.00000000E+00
  0.00000000E+00  0.00000000E+00  0.00000000E+00
  0.00000000E+00  0.00000000E+00  0.00000000E+00
  0.00000000E+00  0.00000000E+00  0.00000000E+00
  0.00000000E+00  0.00000000E+00  0.00000000E+00
  0.00000000E+00  0.00000000E+00  0.00000000E+00
  0.00000000E+00  0.00000000E+00  0.00000000E+00
  0.00000000E+00  0.00000000E+00  0.00000000E+00
  0.00000000E+00  0.00000000E+00  0.00000000E+00
  0.00000000E+00  0.00000000E+00  0.00000000E+00
  0.00000000E+00  0.00000000E+00  0.00000000E+00
  0.00000000E+00  0.00000000E+00  0.00000000E+00
  0.00000000E+00  0.00000000E+00  0.00000000E+00
  0.00000000E+00  0.00000000E+00  0.00000000E+00
  0.00000000E+00  0.00000000E+00  0.00000000E+00
  0.00000000E+00  0.00000000E+00  0.00000000E+00
  0.00000000E+00  0.00000000E+00  0.00000000E+00
  0.00000000E+00  0.00000000E+00  0.00000000E+00
  0.00000000E+00  0.00000000E+00  0.00000000E+00
  0.00000000E+00  0.00000000E+00  0.00000000E+00
  0.00000000E+00  0.00000000E+00  0.00000000E+00
  0.00000000E+00  0.00000000E+00  0.00000000E+00
  0.00000000E+00  0.00000000E+00  0.00000000E+00
  0.00000000E+00  0.00000000E+00  0.00000000E+00
  0.00000000E+00  0.00000000E+00  0.00000000E+00
  0.00000000E+00  0.00000000E+00  0.00000000E+00
  0.00000000E+00  0.00000000E+00  0.00000000E+00
  0.00000000E+00  0.00000000E+00  0.00000000E+00
  0.00000000E+00  0.00000000E+00  0.00000000E+00
  0.00000000E+00  0.00000000E+00  0.00000000E+00
  0.00000000E+00  0.00000000E+00  0.00000000E+00
  0.00000000E+00  0.00000000E+00  0.00000000E+00
  0.00000000E+00  0.00000000E+00  0.00000000E+00
  0.00000000E+00  0.00000000E+00  0.00000000E+00
  0.00000000E+00  0.00000000E+00  0.00000000E+00
  0.00000000E+00  0.00000000E+00  0.00000000E+00
  0.00000000E+00  0.00000000E+00  0.00000000E+00
  0.00000000E+00  0.00000000E+00  0.00000000E+00
  0.00000000E+00  0.00000000E+00  0.00000000E+00
  0.00000000E+00  0.00000000E+00  0.00000000E+00
  0.00000000E+00  0.00000000E+00  0.00000000E+00
  0.00000000E+00  0.00000000E+00  0.00000000E+00
  0.00000000E+00  0.00000000E+00  0.00000000E+00
  0.00000000E+00  0.00000000E+00  0.00000000E+00
  0.00000000E+00  0.00000000E+00  0.00000000E+00
  0.00000000E+00  0.00000000E+00  0.00000000E+00
  0.00000000E+00  0.00000000E+00  0.00000000E+00
  0.00000000E+00  0.00000000E+00  0.00000000E+00
  0.00000000E+00  0.00000000E+00  0.00000000E+00
  0.00000000E+00  0.00000000E+00  0.00000000E+00
  0.00000000E+00  0.00000000E+00  0.00000000E+00
  0.00000000E+00  0.00000000E+00  0.00000000E+00
  0.00000000E+00  0.00000000E+00  0.00000000E+00
  0.00000000E+00  0.00000000E+00  0.00000000E+00
  0.00000000E+00  0.00000000E+00  0.00000000E+00
  0.00000000E+00  0.00000000E+00  0.00000000E+00
  0.00000000E+00  0.00000000E+00  0.00000000E+00
  0.00000000E+00  0.00000000E+00  0.00000000E+00
  0.00000000E+00  0.00000000E+00  0.00000000E+00
  0.00000000E+00  0.00000000E+00  0.00000000E+00
  0.00000000E+00  0.00000000E+00  0.00000000E+00
  0.00000000E+00  0.00000000E+00  0.00000000E+00
  0.00000000E+00  0.00000000E+00  0.00000000E+00
  0.00000000E+00  0.00000000E+00  0.00000000E+00
  0.00000000E+00  0.00000000E+00  0.00000000E+00
  0.00000000E+00  0.00000000E+00  0.00000000E+00
  0.00000000E+00  0.00000000E+00  0.00000000E+00
  0.00000000E+00  0.00000000E+00  0.00000000E+00
  0.00000000E+00  0.00000000E+00  0.00000000E+00
  0.00000000E+00  0.00000000E+00  0.00000000E+00
  0.00000000E+00  0.00000000E+00  0.00000000E+00
  0.00000000E+00  0.00000000E+00  0.00000000E+00
  0.00000000E+00  0.00000000E+00  0.00000000E+00
  0.00000000E+00  0.00000000E+00  0.00000000E+00
  0.00000000E+00  0.00000000E+00  0.00000000E+00
  0.00000000E+00  0.00000000E+00  0.00000000E+00
  0.00000000E+00  0.00000000E+00  0.00000000E+00
  0.00000000E+00  0.00000000E+00  0.00000000E+00
  0.00000000E+00  0.00000000E+00  0.00000000E+00
  0.00000000E+00  0.00000000E+00  0.00000000E+00
  0.00000000E+00  0.00000000E+00  0.00000000E+00
  0.00000000E+00  0.00000000E+00  0.00000000E+00
  0.00000000E+00  0.00000000E+00  0.00000000E+00
  0.00000000E+00  0.00000000E+00  0.00000000E+00
  0.00000000E+00  0.00000000E+00  0.00000000E+00
  0.00000000E+00  0.00000000E+00  0.00000000E+00
  0.00000000E+00  0.00000000E+00  0.00000000E+00
  0.00000000E+00  0.00000000E+00  0.00000000E+00
  0.00000000E+00  0.00000000E+00  0.00000000E+00
  0.00000000E+00  0.00000000E+00  0.00000000E+00
  0.00000000E+00  0.00000000E+00  0.00000000E+00
  0.00000000E+00  0.00000000E+00  0.00000000E+00
  0.00000000E+00  0.00000000E+00  0.00000000E+00
  0.00000000E+00  0.00000000E+00  0.00000000E+00
  0.00000000E+00  0.00000000E+00  0.00000000E+00
  0.00000000E+00  0.00000000E+00  0.00000000E+00
  0.00000000E+00  0.00000000E+00  0.00000000E+00
  0.00000000E+00  0.00000000E+00  0.00000000E+00
  0.00000000E+00  0.00000000E+00  0.00000000E+00
  0.00000000E+00  0.00000000E+00  0.00000000E+00
  0.00000000E+00  0.00000000E+00  0.00000000E+00
  0.00000000E+00  0.00000000E+00  0.00000000E+00
  0.00000000E+00  0.00000000E+00  0.00000000E+00
  0.00000000E+00  0.00000000E+00  0.00000000E+00
  0.00000000E+00  0.00000000E+00  0.00000000E+00
  0.00000000E+00  0.00000000E+00  0.00000000E+00
  0.00000000E+00  0.00000000E+00  0.00000000E+00
  0.00000000E+00  0.00000000E+00  0.00000000E+00
  0.00000000E+00  0.00000000E+00  0.00000000E+00
  0.00000000E+00  0.00000000E+00  0.00000000E+00
  0.00000000E+00  0.00000000E+00  0.00000000E+00
  0.00000000E+00  0.00000000E+00  0.00000000E+00
  0.00000000E+00  0.00000000E+00  0.00000000E+00
  0.00000000E+00  0.00000000E+00  0.00000000E+00
  0.00000000E+00  0.00000000E+00  0.00000000E+00
  0.00000000E+00  0.00000000E+00  0.00000000E+00
  0.00000000E+00  0.00000000E+00  0.00000000E+00
  0.00000000E+00  0.00000000E+00  0.00000000E+00
  0.00000000E+00  0.00000000E+00  0.00000000E+00
  0.00000000E+00  0.00000000E+00  0.00000000E+00
  0.00000000E+00  0.00000000E+00  0.00000000E+00
  0.00000000E+00  0.00000000E+00  0.00000000E+00
  0.00000000E+00  0.00000000E+00  0.00000000E+00
  0.00000000E+00  0.00000000E+00  0.00000000E+00
