Li28 O28
1.0
2.754274 0.000000 -4.770543
-0.000000 7.703522 -3.180362
0.000000 0.000000 63.607238
Li O
28 28
Selective dynamics
direct
0.000000 0.500000 0.015017 T T T Li+
0.000000 0.000000 0.040017 T T T Li+
0.333333 0.750000 0.027517 T T T Li+
0.666667 0.250000 0.002517 T T T Li+
0.000000 0.500000 0.065017 F F F Li+
0.000000 0.000000 0.090017 F F F Li+
0.333333 0.750000 0.077517 F F F Li+
0.666667 0.250000 0.052517 F F F Li+
0.000000 0.500000 0.115017 F F F Li+
0.000000 0.000000 0.140017 F F F Li+
0.333333 0.750000 0.127517 F F F Li+
0.666667 0.250000 0.102517 F F F Li+
0.000000 0.500000 0.165017 F F F Li+
0.000000 0.000000 0.190017 F F F Li+
0.333333 0.750000 0.177517 F F F Li+
0.666667 0.250000 0.152517 F F F Li+
0.000000 0.500000 0.215017 F F F Li+
0.000000 0.000000 0.240017 F F F Li+
0.333333 0.750000 0.227517 F F F Li+
0.666667 0.250000 0.202517 F F F Li+
0.000000 0.500000 0.265017 F F F Li+
0.000000 0.000000 0.290017 T T T Li+
0.333333 0.750000 0.277517 F F F Li+
0.666667 0.250000 0.252517 F F F Li+
0.000000 0.500000 0.315017 T T T Li+
0.000000 0.000000 0.340017 T T T Li+
0.333333 0.750000 0.327517 T T T Li+
0.666667 0.250000 0.302517 T T T Li+
0.333333 0.149310 0.047483 F F F O-
0.666667 0.649310 0.022483 T T T O-
0.666667 0.850690 0.032552 T T T O-
0.333333 0.350690 0.007552 T T T O-
0.333333 0.149310 0.097483 F F F O-
0.666667 0.649310 0.072483 F F F O-
0.666667 0.850690 0.082552 F F F O-
0.333333 0.350690 0.057552 F F F O-
0.333333 0.149310 0.147483 F F F O-
0.666667 0.649310 0.122483 F F F O-
0.666667 0.850690 0.132552 F F F O-
0.333333 0.350690 0.107552 F F F O-
0.333333 0.149310 0.197483 F F F O-
0.666667 0.649310 0.172483 F F F O-
0.666667 0.850690 0.182552 F F F O-
0.333333 0.350690 0.157552 F F F O-
0.333333 0.149310 0.247483 F F F O-
0.666667 0.649310 0.222483 F F F O-
0.666667 0.850690 0.232552 F F F O-
0.333333 0.350690 0.207552 F F F O-
0.333333 0.149310 0.297483 T T T O-
0.666667 0.649310 0.272483 F F F O-
0.666667 0.850690 0.282552 F F F O-
0.333333 0.350690 0.257552 F F F O-
0.333333 0.149310 0.347483 T T T O-
0.666667 0.649310 0.322483 T T T O-
0.666667 0.850690 0.332552 T T T O-
0.333333 0.350690 0.307552 T T T O-
