Li56 P28 O98
1.0
5.260542 0.000000 0.001820
-2.598943 6.542399 -1.582932
0.000000 0.000000 86.620060
Li P O
56 28 98
direct
0.255537 0.144977 0.094019 Li+
0.744463 0.855023 0.091613 Li+
0.604323 0.588727 0.017650 Li+
0.395677 0.411273 0.067981 Li+
0.972231 0.327738 0.013688 Li+
0.027769 0.672262 0.071943 Li+
0.943048 0.241886 0.047736 Li+
0.056952 0.758114 0.037895 Li+
0.255537 0.144977 0.194019 Li+
0.744463 0.855023 0.191613 Li+
0.604323 0.588727 0.117651 Li+
0.395677 0.411273 0.167981 Li+
0.972231 0.327738 0.113688 Li+
0.027769 0.672262 0.171943 Li+
0.943048 0.241886 0.147736 Li+
0.056952 0.758114 0.137895 Li+
0.255537 0.144977 0.294019 Li+
0.744463 0.855023 0.291613 Li+
0.604323 0.588727 0.217650 Li+
0.395677 0.411273 0.267981 Li+
0.972231 0.327738 0.213688 Li+
0.027769 0.672262 0.271943 Li+
0.943048 0.241886 0.247736 Li+
0.056952 0.758114 0.237895 Li+
0.255537 0.144977 0.394019 Li+
0.744463 0.855023 0.391613 Li+
0.604323 0.588727 0.317651 Li+
0.395677 0.411273 0.367981 Li+
0.972231 0.327738 0.313688 Li+
0.027769 0.672262 0.371943 Li+
0.943048 0.241886 0.347736 Li+
0.056952 0.758114 0.337895 Li+
0.255537 0.144977 0.494019 Li+
0.744463 0.855023 0.491613 Li+
0.604323 0.588727 0.417651 Li+
0.395677 0.411273 0.467981 Li+
0.972231 0.327738 0.413688 Li+
0.027769 0.672262 0.471943 Li+
0.943048 0.241886 0.447736 Li+
0.056952 0.758114 0.437895 Li+
0.255537 0.144977 0.594019 Li+
0.744463 0.855023 0.591613 Li+
0.604323 0.588727 0.517651 Li+
0.395677 0.411273 0.567981 Li+
0.972231 0.327738 0.513688 Li+
0.027769 0.672262 0.571943 Li+
0.943048 0.241886 0.547736 Li+
0.056952 0.758114 0.537895 Li+
0.255537 0.144977 0.694019 Li+
0.744463 0.855023 0.691613 Li+
0.604323 0.588727 0.617650 Li+
0.395677 0.411273 0.667981 Li+
0.972231 0.327738 0.613688 Li+
0.027769 0.672262 0.671943 Li+
0.943048 0.241886 0.647736 Li+
0.056952 0.758114 0.637895 Li+
0.426010 0.213298 0.029620 P5+
0.573990 0.786702 0.056011 P5+
0.215728 0.779241 0.008266 P5+
0.784272 0.220759 0.077366 P5+
0.426010 0.213298 0.129620 P5+
0.573990 0.786702 0.156011 P5+
0.215728 0.779241 0.108266 P5+
0.784272 0.220759 0.177366 P5+
0.426010 0.213298 0.229620 P5+
0.573990 0.786702 0.256011 P5+
0.215728 0.779241 0.208266 P5+
0.784272 0.220759 0.277366 P5+
0.426010 0.213298 0.329620 P5+
0.573990 0.786702 0.356011 P5+
0.215728 0.779241 0.308266 P5+
0.784272 0.220759 0.377366 P5+
0.426010 0.213298 0.429620 P5+
0.573990 0.786702 0.456011 P5+
0.215728 0.779241 0.408266 P5+
0.784272 0.220759 0.477366 P5+
0.426010 0.213298 0.529620 P5+
0.573990 0.786702 0.556011 P5+
0.215728 0.779241 0.508266 P5+
0.784272 0.220759 0.577366 P5+
0.426010 0.213298 0.629620 P5+
0.573990 0.786702 0.656011 P5+
0.215728 0.779241 0.608266 P5+
0.784272 0.220759 0.677366 P5+
0.480088 0.741759 0.005382 O2-
0.993870 0.605720 0.013747 O2-
0.006130 0.394280 0.071884 O2-
0.117089 0.848591 0.094618 O2-
0.267439 0.743350 0.055170 O2-
0.732561 0.256650 0.030461 O2-
0.685156 0.732189 0.040197 O2-
0.314844 0.267811 0.045435 O2-
0.661778 0.702403 0.069165 O2-
0.338222 0.297597 0.016466 O2-
0.266931 0.962384 0.024426 O2-
0.733069 0.037616 0.061205 O2-
0.882911 0.151409 0.091013 O2-
0.519912 0.258241 0.080250 O2-
0.480088 0.741759 0.105382 O2-
0.993870 0.605720 0.113747 O2-
0.006130 0.394280 0.171884 O2-
0.117089 0.848591 0.194618 O2-
0.267439 0.743350 0.155170 O2-
0.732561 0.256650 0.130461 O2-
0.685156 0.732189 0.140197 O2-
0.314844 0.267811 0.145435 O2-
0.661778 0.702403 0.169165 O2-
0.338222 0.297597 0.116466 O2-
0.266931 0.962384 0.124426 O2-
0.733069 0.037616 0.161205 O2-
0.882911 0.151409 0.191013 O2-
0.519912 0.258241 0.180250 O2-
0.480088 0.741759 0.205382 O2-
0.993870 0.605720 0.213747 O2-
0.006130 0.394280 0.271884 O2-
0.117089 0.848591 0.294618 O2-
0.267439 0.743350 0.255170 O2-
0.732561 0.256650 0.230461 O2-
0.685156 0.732189 0.240197 O2-
0.314844 0.267811 0.245435 O2-
0.661778 0.702403 0.269165 O2-
0.338222 0.297597 0.216466 O2-
0.266931 0.962384 0.224426 O2-
0.733069 0.037616 0.261205 O2-
0.882911 0.151409 0.291013 O2-
0.519912 0.258241 0.280250 O2-
0.480088 0.741759 0.305382 O2-
0.993870 0.605720 0.313747 O2-
0.006130 0.394280 0.371884 O2-
0.117089 0.848591 0.394618 O2-
0.267439 0.743350 0.355170 O2-
0.732561 0.256650 0.330461 O2-
0.685156 0.732189 0.340197 O2-
0.314844 0.267811 0.345435 O2-
0.661778 0.702403 0.369165 O2-
0.338222 0.297597 0.316466 O2-
0.266931 0.962384 0.324426 O2-
0.733069 0.037616 0.361205 O2-
0.882911 0.151409 0.391013 O2-
0.519912 0.258241 0.380250 O2-
0.480088 0.741759 0.405382 O2-
0.993870 0.605720 0.413747 O2-
0.006130 0.394280 0.471884 O2-
0.117089 0.848591 0.494618 O2-
0.267439 0.743350 0.455170 O2-
0.732561 0.256650 0.430461 O2-
0.685156 0.732189 0.440197 O2-
0.314844 0.267811 0.445435 O2-
0.661778 0.702403 0.469165 O2-
0.338222 0.297597 0.416466 O2-
0.266931 0.962384 0.424426 O2-
0.733069 0.037616 0.461205 O2-
0.882911 0.151409 0.491013 O2-
0.519912 0.258241 0.480250 O2-
0.480088 0.741759 0.505382 O2-
0.993870 0.605720 0.513747 O2-
0.006130 0.394280 0.571884 O2-
0.117089 0.848591 0.594618 O2-
0.267439 0.743350 0.555170 O2-
0.732561 0.256650 0.530461 O2-
0.685156 0.732189 0.540197 O2-
0.314844 0.267811 0.545435 O2-
0.661778 0.702403 0.569165 O2-
0.338222 0.297597 0.516466 O2-
0.266931 0.962384 0.524426 O2-
0.733069 0.037616 0.561205 O2-
0.882911 0.151409 0.591013 O2-
0.519912 0.258241 0.580250 O2-
0.480088 0.741759 0.605382 O2-
0.993870 0.605720 0.613747 O2-
0.006130 0.394280 0.671884 O2-
0.117089 0.848591 0.694618 O2-
0.267439 0.743350 0.655170 O2-
0.732561 0.256650 0.630461 O2-
0.685156 0.732189 0.640197 O2-
0.314844 0.267811 0.645435 O2-
0.661778 0.702403 0.669165 O2-
0.338222 0.297597 0.616466 O2-
0.266931 0.962384 0.624426 O2-
0.733069 0.037616 0.661205 O2-
0.882911 0.151409 0.691013 O2-
0.519912 0.258241 0.680250 O2-
