Li21 N7
1.0
3.161590 0.000000 -5.476035
-0.000000 3.888635 -3.650690
0.000000 0.000000 73.013798
Li N
21 7
Selective dynamics
direct
0.000000 0.500000 0.012500 T T T Li+
0.333333 0.000000 0.037500 T T T Li+
0.666667 0.000000 0.037500 T T T Li+
0.000000 0.500000 0.062500 T T T Li+
0.333333 0.000000 0.087500 F F F Li+
0.666667 0.000000 0.087500 F F F Li+
0.000000 0.500000 0.112500 F F F Li+
0.333333 0.000000 0.137500 F F F Li+
0.666667 0.000000 0.137500 F F F Li+
0.000000 0.500000 0.162500 F F F Li+
0.333333 0.000000 0.187500 F F F Li+
0.666667 0.000000 0.187500 F F F Li+
0.000000 0.500000 0.212500 F F F Li+
0.333333 0.000000 0.237500 F F F Li+
0.666667 0.000000 0.237500 F F F Li+
0.000000 0.500000 0.262500 F F F Li+
0.333333 0.000000 0.287500 T T T Li+
0.666667 0.000000 0.287500 T T T Li+
0.000000 0.500000 0.312500 T T T Li+
0.333333 0.000000 0.337500 T T T Li+
0.666667 0.000000 0.337500 T T T Li+
0.000000 0.000000 0.037500 T T T N3-
0.000000 0.000000 0.087500 F F F N3-
0.000000 0.000000 0.137500 F F F N3-
0.000000 0.000000 0.187500 F F F N3-
0.000000 0.000000 0.237500 F F F N3-
0.000000 0.000000 0.287500 T T T N3-
0.000000 0.000000 0.337500 T T T N3-
