Li84 P196
1.0
7.628682 0.000000 0.000000
0.000000 10.597250 0.000000
0.000000 0.000000 98.478750
Li P
84 196
Selective dynamics
direct
0.149468 0.183950 0.048382 F F F Li
0.649468 0.816050 0.059952 F F F Li
0.850532 0.316050 0.098382 F F F Li
0.350532 0.683950 0.009952 T T T Li
0.431051 0.985205 0.076572 F F F Li
0.931051 0.014795 0.031762 T T T Li
0.568949 0.514795 0.026572 F F F Li
0.068949 0.485205 0.081762 F F F Li
0.597762 0.307876 0.049030 F F F Li
0.097762 0.692124 0.059304 F F F Li
0.402238 0.192124 0.099030 F F F Li
0.902238 0.807876 0.009304 T T T Li
0.149468 0.183950 0.148382 F F F Li
0.649468 0.816050 0.159952 F F F Li
0.850532 0.316050 0.198382 F F F Li
0.350532 0.683950 0.109952 F F F Li
0.431051 0.985205 0.176572 F F F Li
0.931051 0.014795 0.131762 F F F Li
0.568949 0.514795 0.126572 F F F Li
0.068949 0.485205 0.181762 F F F Li
0.597762 0.307876 0.149030 F F F Li
0.097762 0.692124 0.159304 F F F Li
0.402238 0.192124 0.199030 F F F Li
0.902238 0.807876 0.109304 F F F Li
0.149468 0.183950 0.248382 F F F Li
0.649468 0.816050 0.259952 F F F Li
0.850532 0.316050 0.298382 F F F Li
0.350532 0.683950 0.209952 F F F Li
0.431051 0.985205 0.276572 F F F Li
0.931051 0.014795 0.231762 F F F Li
0.568949 0.514795 0.226572 F F F Li
0.068949 0.485205 0.281762 F F F Li
0.597762 0.307876 0.249030 F F F Li
0.097762 0.692124 0.259304 F F F Li
0.402238 0.192124 0.299030 F F F Li
0.902238 0.807876 0.209304 F F F Li
0.149468 0.183950 0.348382 F F F Li
0.649468 0.816050 0.359952 F F F Li
0.850532 0.316050 0.398382 F F F Li
0.350532 0.683950 0.309952 F F F Li
0.431051 0.985205 0.376572 F F F Li
0.931051 0.014795 0.331762 F F F Li
0.568949 0.514795 0.326572 F F F Li
0.068949 0.485205 0.381762 F F F Li
0.597762 0.307876 0.349030 F F F Li
0.097762 0.692124 0.359304 F F F Li
0.402238 0.192124 0.399030 F F F Li
0.902238 0.807876 0.309304 F F F Li
0.149468 0.183950 0.448382 F F F Li
0.649468 0.816050 0.459952 F F F Li
0.850532 0.316050 0.498382 F F F Li
0.350532 0.683950 0.409952 F F F Li
0.431051 0.985205 0.476572 F F F Li
0.931051 0.014795 0.431762 F F F Li
0.568949 0.514795 0.426572 F F F Li
0.068949 0.485205 0.481762 F F F Li
0.597762 0.307876 0.449030 F F F Li
0.097762 0.692124 0.459304 F F F Li
0.402238 0.192124 0.499030 F F F Li
0.902238 0.807876 0.409304 F F F Li
0.149468 0.183950 0.548382 F F F Li
0.649468 0.816050 0.559952 F F F Li
0.850532 0.316050 0.598382 F F F Li
0.350532 0.683950 0.509952 F F F Li
0.431051 0.985205 0.576572 F F F Li
0.931051 0.014795 0.531762 F F F Li
0.568949 0.514795 0.526572 F F F Li
0.068949 0.485205 0.581762 F F F Li
0.597762 0.307876 0.549030 F F F Li
0.097762 0.692124 0.559304 F F F Li
0.402238 0.192124 0.599030 F F F Li
0.902238 0.807876 0.509304 F F F Li
0.149468 0.183950 0.648382 F F F Li
0.649468 0.816050 0.659952 F F F Li
0.850532 0.316050 0.698382 F F F Li
0.350532 0.683950 0.609952 F F F Li
0.431051 0.985205 0.676572 T T T Li
0.931051 0.014795 0.631762 F F F Li
0.568949 0.514795 0.626572 F F F Li
0.068949 0.485205 0.681762 F F F Li
0.597762 0.307876 0.649030 F F F Li
0.097762 0.692124 0.659304 F F F Li
0.402238 0.192124 0.699030 T T T Li
0.902238 0.807876 0.609304 F F F Li
0.719232 0.681152 0.091618 F F F P
0.219232 0.318848 0.016716 T T T P
0.280768 0.818848 0.041618 F F F P
0.780768 0.181152 0.066716 F F F P
0.362354 0.612598 0.074315 F F F P
0.862354 0.387402 0.034019 T T T P
0.637646 0.887402 0.024315 F F F P
0.137646 0.112598 0.084019 F F F P
0.466203 0.434868 0.084814 F F F P
0.966203 0.565132 0.023520 F F F P
0.533797 0.065132 0.034814 F F F P
0.033797 0.934868 0.073520 F F F P
0.593947 0.505712 0.065683 F F F P
0.093947 0.494288 0.042651 F F F P
0.406053 0.994288 0.015683 T T T P
0.906053 0.005712 0.092651 F F F P
0.683735 0.118710 0.086464 F F F P
0.183735 0.881290 0.021870 T T T P
0.316265 0.381290 0.036464 F F F P
0.816265 0.618710 0.071870 F F F P
0.871275 0.005383 0.057364 F F F P
0.371275 0.994617 0.050970 F F F P
0.128725 0.494617 0.007364 T T T P
0.628725 0.505383 0.000970 F F F P
0.033507 0.265808 0.072117 F F F P
0.533507 0.734192 0.036217 F F F P
0.966493 0.234192 0.022117 T T T P
0.466493 0.765808 0.086217 F F F P
0.719232 0.681152 0.191618 F F F P
0.219232 0.318848 0.116716 F F F P
0.280768 0.818848 0.141618 F F F P
0.780768 0.181152 0.166716 F F F P
0.362354 0.612598 0.174315 F F F P
0.862354 0.387402 0.134019 F F F P
0.637646 0.887402 0.124315 F F F P
0.137646 0.112598 0.184019 F F F P
0.466203 0.434868 0.184814 F F F P
0.966203 0.565132 0.123520 F F F P
0.533797 0.065132 0.134814 F F F P
0.033797 0.934868 0.173520 F F F P
0.593947 0.505712 0.165683 F F F P
0.093947 0.494288 0.142651 F F F P
0.406053 0.994288 0.115683 F F F P
0.906053 0.005712 0.192651 F F F P
0.683735 0.118710 0.186464 F F F P
0.183735 0.881290 0.121870 F F F P
0.316265 0.381290 0.136464 F F F P
0.816265 0.618710 0.171870 F F F P
0.871275 0.005383 0.157364 F F F P
0.371275 0.994617 0.150970 F F F P
0.128725 0.494617 0.107364 F F F P
0.628725 0.505383 0.100970 F F F P
0.033507 0.265808 0.172117 F F F P
0.533507 0.734192 0.136217 F F F P
0.966493 0.234192 0.122117 F F F P
0.466493 0.765808 0.186217 F F F P
0.719232 0.681152 0.291618 F F F P
0.219232 0.318848 0.216716 F F F P
0.280768 0.818848 0.241618 F F F P
0.780768 0.181152 0.266716 F F F P
0.362354 0.612598 0.274315 F F F P
0.862354 0.387402 0.234019 F F F P
0.637646 0.887402 0.224315 F F F P
0.137646 0.112598 0.284019 F F F P
0.466203 0.434868 0.284814 F F F P
0.966203 0.565132 0.223520 F F F P
0.533797 0.065132 0.234814 F F F P
0.033797 0.934868 0.273520 F F F P
0.593947 0.505712 0.265683 F F F P
0.093947 0.494288 0.242651 F F F P
0.406053 0.994288 0.215683 F F F P
0.906053 0.005712 0.292651 F F F P
0.683735 0.118710 0.286464 F F F P
0.183735 0.881290 0.221870 F F F P
0.316265 0.381290 0.236464 F F F P
0.816265 0.618710 0.271870 F F F P
0.871275 0.005383 0.257364 F F F P
0.371275 0.994617 0.250970 F F F P
0.128725 0.494617 0.207364 F F F P
0.628725 0.505383 0.200970 F F F P
0.033507 0.265808 0.272117 F F F P
0.533507 0.734192 0.236217 F F F P
0.966493 0.234192 0.222117 F F F P
0.466493 0.765808 0.286217 F F F P
0.719232 0.681152 0.391618 F F F P
0.219232 0.318848 0.316716 F F F P
0.280768 0.818848 0.341618 F F F P
0.780768 0.181152 0.366716 F F F P
0.362354 0.612598 0.374315 F F F P
0.862354 0.387402 0.334019 F F F P
0.637646 0.887402 0.324315 F F F P
0.137646 0.112598 0.384019 F F F P
0.466203 0.434868 0.384814 F F F P
0.966203 0.565132 0.323520 F F F P
0.533797 0.065132 0.334814 F F F P
0.033797 0.934868 0.373520 F F F P
0.593947 0.505712 0.365683 F F F P
0.093947 0.494288 0.342651 F F F P
0.406053 0.994288 0.315683 F F F P
0.906053 0.005712 0.392651 F F F P
0.683735 0.118710 0.386464 F F F P
0.183735 0.881290 0.321870 F F F P
0.316265 0.381290 0.336464 F F F P
0.816265 0.618710 0.371870 F F F P
0.871275 0.005383 0.357364 F F F P
0.371275 0.994617 0.350970 F F F P
0.128725 0.494617 0.307364 F F F P
0.628725 0.505383 0.300970 F F F P
0.033507 0.265808 0.372117 F F F P
0.533507 0.734192 0.336217 F F F P
0.966493 0.234192 0.322117 F F F P
0.466493 0.765808 0.386217 F F F P
0.719232 0.681152 0.491618 F F F P
0.219232 0.318848 0.416716 F F F P
0.280768 0.818848 0.441618 F F F P
0.780768 0.181152 0.466716 F F F P
0.362354 0.612598 0.474315 F F F P
0.862354 0.387402 0.434019 F F F P
0.637646 0.887402 0.424315 F F F P
0.137646 0.112598 0.484019 F F F P
0.466203 0.434868 0.484814 F F F P
0.966203 0.565132 0.423520 F F F P
0.533797 0.065132 0.434814 F F F P
0.033797 0.934868 0.473520 F F F P
0.593947 0.505712 0.465683 F F F P
0.093947 0.494288 0.442651 F F F P
0.406053 0.994288 0.415683 F F F P
0.906053 0.005712 0.492651 F F F P
0.683735 0.118710 0.486464 F F F P
0.183735 0.881290 0.421870 F F F P
0.316265 0.381290 0.436464 F F F P
0.816265 0.618710 0.471870 F F F P
0.871275 0.005383 0.457364 F F F P
0.371275 0.994617 0.450970 F F F P
0.128725 0.494617 0.407364 F F F P
0.628725 0.505383 0.400970 F F F P
0.033507 0.265808 0.472117 F F F P
0.533507 0.734192 0.436217 F F F P
0.966493 0.234192 0.422117 F F F P
0.466493 0.765808 0.486217 F F F P
0.719232 0.681152 0.591618 F F F P
0.219232 0.318848 0.516716 F F F P
0.280768 0.818848 0.541618 F F F P
0.780768 0.181152 0.566716 F F F P
0.362354 0.612598 0.574315 F F F P
0.862354 0.387402 0.534019 F F F P
0.637646 0.887402 0.524315 F F F P
0.137646 0.112598 0.584019 F F F P
0.466203 0.434868 0.584814 F F F P
0.966203 0.565132 0.523520 F F F P
0.533797 0.065132 0.534814 F F F P
0.033797 0.934868 0.573520 F F F P
0.593947 0.505712 0.565683 F F F P
0.093947 0.494288 0.542651 F F F P
0.406053 0.994288 0.515683 F F F P
0.906053 0.005712 0.592651 F F F P
0.683735 0.118710 0.586464 F F F P
0.183735 0.881290 0.521870 F F F P
0.316265 0.381290 0.536464 F F F P
0.816265 0.618710 0.571870 F F F P
0.871275 0.005383 0.557364 F F F P
0.371275 0.994617 0.550970 F F F P
0.128725 0.494617 0.507364 F F F P
0.628725 0.505383 0.500970 F F F P
0.033507 0.265808 0.572117 F F F P
0.533507 0.734192 0.536217 F F F P
0.966493 0.234192 0.522117 F F F P
0.466493 0.765808 0.586217 F F F P
0.719232 0.681152 0.691618 T T T P
0.219232 0.318848 0.616716 F F F P
0.280768 0.818848 0.641618 F F F P
0.780768 0.181152 0.666716 F F F P
0.362354 0.612598 0.674315 T T T P
0.862354 0.387402 0.634019 F F F P
0.637646 0.887402 0.624315 F F F P
0.137646 0.112598 0.684019 F F F P
0.466203 0.434868 0.684814 F F F P
0.966203 0.565132 0.623520 F F F P
0.533797 0.065132 0.634814 F F F P
0.033797 0.934868 0.673520 F F F P
0.593947 0.505712 0.665683 T T T P
0.093947 0.494288 0.642651 F F F P
0.406053 0.994288 0.615683 F F F P
0.906053 0.005712 0.692651 T T T P
0.683735 0.118710 0.686464 T T T P
0.183735 0.881290 0.621870 F F F P
0.316265 0.381290 0.636464 F F F P
0.816265 0.618710 0.671870 T T T P
0.871275 0.005383 0.657364 F F F P
0.371275 0.994617 0.650970 F F F P
0.128725 0.494617 0.607364 F F F P
0.628725 0.505383 0.600970 F F F P
0.033507 0.265808 0.672117 F F F P
0.533507 0.734192 0.636217 F F F P
0.966493 0.234192 0.622117 F F F P
0.466493 0.765808 0.686217 T T T P
