Li5 P2 N1 O6                            
   1.00000000000000     
    -0.0667186471608797   -0.0741074412197331    5.2314287208629908
     6.0340578548829855   -0.1370507936833607   -0.0849849059078404
    -0.1201103848270558    5.3921646199124700   -0.0822500055564588
   Li   P    N    O 
     5     2     1     6
Direct
  0.4779264178664340  0.0220662044661897  0.8955328846908325
  0.0906477941859978  0.4918042247881061  0.1648299721807251
  0.4779227334400769  0.8427017714226753  0.3731664484230911
  0.0053078741827891  0.7492848111597197  0.6682904668536997
 -0.0049501719405456  0.2382115438747204  0.6777547140101290
  0.4747315677076218  0.4890406701109273  0.7361623744488650
 -0.0074725678191152 -0.0085653423416068  0.1711853686793109
  0.1984477778192313  0.5039960065212642  0.8149709644050535
  0.0538933719434115  0.2140709042376484  0.3179257120720286
  0.6260060265572301  0.6861249398422532  0.6366776625442008
  0.1198073099586432  0.7991912778651769  0.3166647731899498
  0.6309583666771146  0.2796949469961440  0.7426260492151638
  0.1032265350794513 -0.0018390977985560  0.9049931976918033
  0.7008579643416870 -0.0586558611446646  0.1492774115951490
 
  0.00000000E+00  0.00000000E+00  0.00000000E+00
  0.00000000E+00  0.00000000E+00  0.00000000E+00
  0.00000000E+00  0.00000000E+00  0.00000000E+00
  0.00000000E+00  0.00000000E+00  0.00000000E+00
  0.00000000E+00  0.00000000E+00  0.00000000E+00
  0.00000000E+00  0.00000000E+00  0.00000000E+00
  0.00000000E+00  0.00000000E+00  0.00000000E+00
  0.00000000E+00  0.00000000E+00  0.00000000E+00
  0.00000000E+00  0.00000000E+00  0.00000000E+00
  0.00000000E+00  0.00000000E+00  0.00000000E+00
  0.00000000E+00  0.00000000E+00  0.00000000E+00
  0.00000000E+00  0.00000000E+00  0.00000000E+00
  0.00000000E+00  0.00000000E+00  0.00000000E+00
  0.00000000E+00  0.00000000E+00  0.00000000E+00
