Li140 P140 O420
1.0
5.521558 0.000000 0.000000
0.000000 16.540545 2.677750
0.000000 0.000000 119.816820
Li P O
140 140 420
direct
0.494607 0.818220 0.003493 Li+
0.505393 0.318220 0.059048 Li+
0.484419 0.934004 0.017033 Li+
0.515581 0.434004 0.072589 Li+
0.505784 0.049457 0.030413 Li+
0.494216 0.549457 0.085969 Li+
0.507224 0.164548 0.043699 Li+
0.492776 0.664548 0.099254 Li+
0.992783 0.241566 0.051519 Li+
0.007217 0.741566 0.107075 Li+
0.521194 0.318286 0.003731 Li+
0.478806 0.818286 0.059287 Li+
0.476313 0.433730 0.017186 Li+
0.523687 0.933730 0.072742 Li+
0.533250 0.550453 0.030429 Li+
0.466750 0.050453 0.085985 Li+
0.477737 0.667016 0.043737 Li+
0.522263 0.167016 0.099293 Li+
0.960889 0.743634 0.051741 Li+
0.039111 0.243634 0.107296 Li+
0.494607 0.818220 0.114604 Li+
0.505393 0.318220 0.170159 Li+
0.484419 0.934004 0.128144 Li+
0.515581 0.434004 0.183700 Li+
0.505784 0.049457 0.141524 Li+
0.494216 0.549457 0.197080 Li+
0.507224 0.164548 0.154810 Li+
0.492776 0.664548 0.210365 Li+
0.992783 0.241566 0.162630 Li+
0.007217 0.741566 0.218186 Li+
0.521194 0.318286 0.114843 Li+
0.478806 0.818286 0.170398 Li+
0.476313 0.433730 0.128297 Li+
0.523687 0.933730 0.183853 Li+
0.533250 0.550453 0.141540 Li+
0.466750 0.050453 0.197096 Li+
0.477737 0.667016 0.154848 Li+
0.522263 0.167016 0.210404 Li+
0.960889 0.743634 0.162852 Li+
0.039111 0.243634 0.218408 Li+
0.494607 0.818220 0.225715 Li+
0.505393 0.318220 0.281270 Li+
0.484419 0.934004 0.239255 Li+
0.515581 0.434004 0.294811 Li+
0.505784 0.049457 0.252635 Li+
0.494216 0.549457 0.308191 Li+
0.507224 0.164548 0.265921 Li+
0.492776 0.664548 0.321476 Li+
0.992783 0.241566 0.273741 Li+
0.007217 0.741566 0.329297 Li+
0.521194 0.318286 0.225954 Li+
0.478806 0.818286 0.281509 Li+
0.476313 0.433730 0.239409 Li+
0.523687 0.933730 0.294964 Li+
0.533250 0.550453 0.252651 Li+
0.466750 0.050453 0.308207 Li+
0.477737 0.667016 0.265959 Li+
0.522263 0.167016 0.321515 Li+
0.960889 0.743634 0.273963 Li+
0.039111 0.243634 0.329519 Li+
0.494607 0.818220 0.336826 Li+
0.505393 0.318220 0.392381 Li+
0.484419 0.934004 0.350366 Li+
0.515581 0.434004 0.405922 Li+
0.505784 0.049457 0.363746 Li+
0.494216 0.549457 0.419302 Li+
0.507224 0.164548 0.377032 Li+
0.492776 0.664548 0.432587 Li+
0.992783 0.241566 0.384852 Li+
0.007217 0.741566 0.440408 Li+
0.521194 0.318286 0.337065 Li+
0.478806 0.818286 0.392620 Li+
0.476313 0.433730 0.350520 Li+
0.523687 0.933730 0.406075 Li+
0.533250 0.550453 0.363762 Li+
0.466750 0.050453 0.419318 Li+
0.477737 0.667016 0.377071 Li+
0.522263 0.167016 0.432626 Li+
0.960889 0.743634 0.385074 Li+
0.039111 0.243634 0.440630 Li+
0.494607 0.818220 0.447937 Li+
0.505393 0.318220 0.503493 Li+
0.484419 0.934004 0.461477 Li+
0.515581 0.434004 0.517033 Li+
0.505784 0.049457 0.474857 Li+
0.494216 0.549457 0.530413 Li+
0.507224 0.164548 0.488143 Li+
0.492776 0.664548 0.543698 Li+
0.992783 0.241566 0.495964 Li+
0.007217 0.741566 0.551519 Li+
0.521194 0.318286 0.448176 Li+
0.478806 0.818286 0.503731 Li+
0.476313 0.433730 0.461631 Li+
0.523687 0.933730 0.517186 Li+
0.533250 0.550453 0.474873 Li+
0.466750 0.050453 0.530429 Li+
0.477737 0.667016 0.488182 Li+
0.522263 0.167016 0.543737 Li+
0.960889 0.743634 0.496185 Li+
0.039111 0.243634 0.551741 Li+
0.494607 0.818220 0.559048 Li+
0.505393 0.318220 0.614604 Li+
0.484419 0.934004 0.572589 Li+
0.515581 0.434004 0.628144 Li+
0.505784 0.049457 0.585969 Li+
0.494216 0.549457 0.641524 Li+
0.507224 0.164548 0.599254 Li+
0.492776 0.664548 0.654810 Li+
0.992783 0.241566 0.607075 Li+
0.007217 0.741566 0.662630 Li+
0.521194 0.318286 0.559287 Li+
0.478806 0.818286 0.614843 Li+
0.476313 0.433730 0.572742 Li+
0.523687 0.933730 0.628297 Li+
0.533250 0.550453 0.585985 Li+
0.466750 0.050453 0.641540 Li+
0.477737 0.667016 0.599293 Li+
0.522263 0.167016 0.654848 Li+
0.960889 0.743634 0.607297 Li+
0.039111 0.243634 0.662852 Li+
0.494607 0.818220 0.670159 Li+
0.505393 0.318220 0.725715 Li+
0.484419 0.934004 0.683700 Li+
0.515581 0.434004 0.739255 Li+
0.505784 0.049457 0.697080 Li+
0.494216 0.549457 0.752635 Li+
0.507224 0.164548 0.710365 Li+
0.492776 0.664548 0.765921 Li+
0.992783 0.241566 0.718186 Li+
0.007217 0.741566 0.773741 Li+
0.521194 0.318286 0.670398 Li+
0.478806 0.818286 0.725954 Li+
0.476313 0.433730 0.683853 Li+
0.523687 0.933730 0.739409 Li+
0.533250 0.550453 0.697096 Li+
0.466750 0.050453 0.752651 Li+
0.477737 0.667016 0.710404 Li+
0.522263 0.167016 0.765959 Li+
0.960889 0.743634 0.718408 Li+
0.039111 0.243634 0.773963 Li+
0.185377 0.000413 0.108327 P5+
0.814623 0.500413 0.052771 P5+
0.843317 0.093280 0.009829 P5+
0.156683 0.593280 0.065385 P5+
0.188444 0.197061 0.020023 P5+
0.811556 0.697061 0.075579 P5+
0.828977 0.308311 0.028825 P5+
0.171023 0.808311 0.084381 P5+
0.159739 0.408249 0.039942 P5+
0.840261 0.908249 0.095498 P5+
0.843930 0.574567 0.007405 P5+
0.156070 0.074567 0.062961 P5+
0.174322 0.674438 0.018572 P5+
0.825678 0.174438 0.074127 P5+
0.812278 0.786455 0.027333 P5+
0.187722 0.286455 0.082889 P5+
0.151901 0.889856 0.037601 P5+
0.848099 0.389856 0.093157 P5+
0.809867 0.982845 0.050190 P5+
0.190133 0.482845 0.105745 P5+
0.185377 0.000413 0.219438 P5+
0.814623 0.500413 0.163882 P5+
0.843317 0.093280 0.120940 P5+
0.156683 0.593280 0.176496 P5+
0.188444 0.197061 0.131134 P5+
0.811556 0.697061 0.186690 P5+
0.828977 0.308311 0.139936 P5+
0.171023 0.808311 0.195492 P5+
0.159739 0.408249 0.151054 P5+
0.840261 0.908249 0.206609 P5+
0.843930 0.574567 0.118516 P5+
0.156070 0.074567 0.174072 P5+
0.174322 0.674438 0.129683 P5+
0.825678 0.174438 0.185238 P5+
0.812278 0.786455 0.138444 P5+
0.187722 0.286455 0.194000 P5+
0.151901 0.889856 0.148712 P5+
0.848099 0.389856 0.204268 P5+
0.809867 0.982845 0.161301 P5+
0.190133 0.482845 0.216856 P5+
0.185377 0.000413 0.330549 P5+
0.814623 0.500413 0.274993 P5+
0.843317 0.093280 0.232052 P5+
0.156683 0.593280 0.287607 P5+
0.188444 0.197061 0.242245 P5+
0.811556 0.697061 0.297801 P5+
0.828977 0.308311 0.251047 P5+
0.171023 0.808311 0.306603 P5+
0.159739 0.408249 0.262165 P5+
0.840261 0.908249 0.317720 P5+
0.843930 0.574567 0.229627 P5+
0.156070 0.074567 0.285183 P5+
0.174322 0.674438 0.240794 P5+
0.825678 0.174438 0.296349 P5+
0.812278 0.786455 0.249555 P5+
0.187722 0.286455 0.305111 P5+
0.151901 0.889856 0.259823 P5+
0.848099 0.389856 0.315379 P5+
0.809867 0.982845 0.272412 P5+
0.190133 0.482845 0.327967 P5+
0.185377 0.000413 0.441660 P5+
0.814623 0.500413 0.386104 P5+
0.843317 0.093280 0.343163 P5+
0.156683 0.593280 0.398718 P5+
0.188444 0.197061 0.353356 P5+
0.811556 0.697061 0.408912 P5+
0.828977 0.308311 0.362158 P5+
0.171023 0.808311 0.417714 P5+
0.159739 0.408249 0.373276 P5+
0.840261 0.908249 0.428831 P5+
0.843930 0.574567 0.340738 P5+
0.156070 0.074567 0.396294 P5+
0.174322 0.674438 0.351905 P5+
0.825678 0.174438 0.407461 P5+
0.812278 0.786455 0.360667 P5+
0.187722 0.286455 0.416222 P5+
0.151901 0.889856 0.370934 P5+
0.848099 0.389856 0.426490 P5+
0.809867 0.982845 0.383523 P5+
0.190133 0.482845 0.439078 P5+
0.185377 0.000413 0.552771 P5+
0.814623 0.500413 0.497215 P5+
0.843317 0.093280 0.454274 P5+
0.156683 0.593280 0.509829 P5+
0.188444 0.197061 0.464467 P5+
0.811556 0.697061 0.520023 P5+
0.828977 0.308311 0.473270 P5+
0.171023 0.808311 0.528825 P5+
0.159739 0.408249 0.484387 P5+
0.840261 0.908249 0.539942 P5+
0.843930 0.574567 0.451849 P5+
0.156070 0.074567 0.507405 P5+
0.174322 0.674438 0.463016 P5+
0.825678 0.174438 0.518572 P5+
0.812278 0.786455 0.471778 P5+
0.187722 0.286455 0.527333 P5+
0.151901 0.889856 0.482045 P5+
0.848099 0.389856 0.537601 P5+
0.809867 0.982845 0.494634 P5+
0.190133 0.482845 0.550190 P5+
0.185377 0.000413 0.663882 P5+
0.814623 0.500413 0.608327 P5+
0.843317 0.093280 0.565385 P5+
0.156683 0.593280 0.620941 P5+
0.188444 0.197061 0.575579 P5+
0.811556 0.697061 0.631134 P5+
0.828977 0.308311 0.584381 P5+
0.171023 0.808311 0.639936 P5+
0.159739 0.408249 0.595498 P5+
0.840261 0.908249 0.651054 P5+
0.843930 0.574567 0.562960 P5+
0.156070 0.074567 0.618516 P5+
0.174322 0.674438 0.574127 P5+
0.825678 0.174438 0.629683 P5+
0.812278 0.786455 0.582889 P5+
0.187722 0.286455 0.638444 P5+
0.151901 0.889856 0.593157 P5+
0.848099 0.389856 0.648712 P5+
0.809867 0.982845 0.605745 P5+
0.190133 0.482845 0.661301 P5+
0.185377 0.000413 0.774993 P5+
0.814623 0.500413 0.719438 P5+
0.843317 0.093280 0.676496 P5+
0.156683 0.593280 0.732052 P5+
0.188444 0.197061 0.686690 P5+
0.811556 0.697061 0.742245 P5+
0.828977 0.308311 0.695492 P5+
0.171023 0.808311 0.751047 P5+
0.159739 0.408249 0.706609 P5+
0.840261 0.908249 0.762165 P5+
0.843930 0.574567 0.674072 P5+
0.156070 0.074567 0.729627 P5+
0.174322 0.674438 0.685238 P5+
0.825678 0.174438 0.740794 P5+
0.812278 0.786455 0.694000 P5+
0.187722 0.286455 0.749555 P5+
0.151901 0.889856 0.704268 P5+
0.848099 0.389856 0.759823 P5+
0.809867 0.982845 0.716856 P5+
0.190133 0.482845 0.772412 P5+
0.069000 0.035413 0.007856 O2-
0.931000 0.535413 0.063411 O2-
0.951087 0.140628 0.019520 O2-
0.048913 0.640628 0.075076 O2-
0.080018 0.275856 0.024325 O2-
0.919982 0.775856 0.079881 O2-
0.926681 0.392259 0.032309 O2-
0.073319 0.892259 0.087864 O2-
0.942022 0.978148 0.101981 O2-
0.057978 0.478148 0.046426 O2-
0.076781 0.590622 0.015050 O2-
0.923219 0.090622 0.070605 O2-
0.921841 0.709404 0.022611 O2-
0.078159 0.209404 0.078167 O2-
0.049265 0.843555 0.027708 O2-
0.950735 0.343555 0.083264 O2-
0.918787 0.943480 0.039787 O2-
0.081213 0.443480 0.095343 O2-
0.944691 0.504327 0.000908 O2-
0.055309 0.004327 0.056464 O2-
0.322795 0.926111 0.002316 O2-
0.677205 0.426111 0.057872 O2-
0.313918 0.066074 0.100552 O2-
0.686082 0.566074 0.044996 O2-
0.643576 0.041349 0.015490 O2-
0.356424 0.541349 0.071045 O2-
0.795305 0.153257 0.110437 O2-
0.204695 0.653257 0.054881 O2-
0.351974 0.154647 0.029016 O2-
0.648026 0.654647 0.084571 O2-
0.281781 0.224590 0.008236 O2-
0.718219 0.724590 0.063792 O2-
0.751546 0.252705 0.039344 O2-
0.248454 0.752705 0.094900 O2-
0.656290 0.330648 0.019223 O2-
0.343710 0.830648 0.074778 O2-
0.215121 0.332841 0.048208 O2-
0.784879 0.832841 0.103764 O2-
0.355777 0.446708 0.032281 O2-
0.644223 0.946708 0.087837 O2-
0.649890 0.536665 0.015231 O2-
0.350110 0.036665 0.070786 O2-
0.785996 0.649394 0.110203 O2-
0.214004 0.149394 0.054647 O2-
0.340793 0.651785 0.028417 O2-
0.659207 0.151785 0.083972 O2-
0.258044 0.728542 0.008031 O2-
0.741956 0.228542 0.063586 O2-
0.725734 0.758375 0.039226 O2-
0.274266 0.258375 0.094782 O2-
0.642950 0.828801 0.018579 O2-
0.357050 0.328801 0.074135 O2-
0.205272 0.829973 0.048060 O2-
0.794728 0.329973 0.103615 O2-
0.347295 0.944360 0.032086 O2-
0.652705 0.444360 0.087642 O2-
0.677470 0.919559 0.058195 O2-
0.322530 0.419559 0.002639 O2-
0.678914 0.057634 0.044799 O2-
0.321086 0.557634 0.100354 O2-
0.069000 0.035413 0.118967 O2-
0.931000 0.535413 0.174523 O2-
0.951087 0.140628 0.130631 O2-
0.048913 0.640628 0.186187 O2-
0.080018 0.275856 0.135436 O2-
0.919982 0.775856 0.190992 O2-
0.926681 0.392259 0.143420 O2-
0.073319 0.892259 0.198975 O2-
0.942022 0.978148 0.213092 O2-
0.057978 0.478148 0.157537 O2-
0.076781 0.590622 0.126161 O2-
0.923219 0.090622 0.181716 O2-
0.921841 0.709404 0.133722 O2-
0.078159 0.209404 0.189278 O2-
0.049265 0.843555 0.138819 O2-
0.950735 0.343555 0.194375 O2-
0.918787 0.943480 0.150898 O2-
0.081213 0.443480 0.206454 O2-
0.944691 0.504327 0.112019 O2-
0.055309 0.004327 0.167575 O2-
0.322795 0.926111 0.113427 O2-
0.677205 0.426111 0.168983 O2-
0.313918 0.066074 0.211663 O2-
0.686082 0.566074 0.156107 O2-
0.643576 0.041349 0.126601 O2-
0.356424 0.541349 0.182156 O2-
0.795305 0.153257 0.221548 O2-
0.204695 0.653257 0.165992 O2-
0.351974 0.154647 0.140127 O2-
0.648026 0.654647 0.195682 O2-
0.281781 0.224590 0.119347 O2-
0.718219 0.724590 0.174903 O2-
0.751546 0.252705 0.150455 O2-
0.248454 0.752705 0.206011 O2-
0.656290 0.330648 0.130334 O2-
0.343710 0.830648 0.185889 O2-
0.215121 0.332841 0.159319 O2-
0.784879 0.832841 0.214875 O2-
0.355777 0.446708 0.143392 O2-
0.644223 0.946708 0.198948 O2-
0.649890 0.536665 0.126342 O2-
0.350110 0.036665 0.181897 O2-
0.785996 0.649394 0.221314 O2-
0.214004 0.149394 0.165758 O2-
0.340793 0.651785 0.139528 O2-
0.659207 0.151785 0.195084 O2-
0.258044 0.728542 0.119142 O2-
0.741956 0.228542 0.174698 O2-
0.725734 0.758375 0.150337 O2-
0.274266 0.258375 0.205893 O2-
0.642950 0.828801 0.129690 O2-
0.357050 0.328801 0.185246 O2-
0.205272 0.829973 0.159171 O2-
0.794728 0.329973 0.214726 O2-
0.347295 0.944360 0.143197 O2-
0.652705 0.444360 0.198753 O2-
0.677470 0.919559 0.169306 O2-
0.322530 0.419559 0.113750 O2-
0.678914 0.057634 0.155910 O2-
0.321086 0.557634 0.211465 O2-
0.069000 0.035413 0.230078 O2-
0.931000 0.535413 0.285634 O2-
0.951087 0.140628 0.241742 O2-
0.048913 0.640628 0.297298 O2-
0.080018 0.275856 0.246547 O2-
0.919982 0.775856 0.302103 O2-
0.926681 0.392259 0.254531 O2-
0.073319 0.892259 0.310086 O2-
0.942022 0.978148 0.324203 O2-
0.057978 0.478148 0.268648 O2-
0.076781 0.590622 0.237272 O2-
0.923219 0.090622 0.292827 O2-
0.921841 0.709404 0.244834 O2-
0.078159 0.209404 0.300389 O2-
0.049265 0.843555 0.249931 O2-
0.950735 0.343555 0.305486 O2-
0.918787 0.943480 0.262009 O2-
0.081213 0.443480 0.317565 O2-
0.944691 0.504327 0.223131 O2-
0.055309 0.004327 0.278686 O2-
0.322795 0.926111 0.224539 O2-
0.677205 0.426111 0.280094 O2-
0.313918 0.066074 0.322774 O2-
0.686082 0.566074 0.267218 O2-
0.643576 0.041349 0.237712 O2-
0.356424 0.541349 0.293268 O2-
0.795305 0.153257 0.332659 O2-
0.204695 0.653257 0.277103 O2-
0.351974 0.154647 0.251238 O2-
0.648026 0.654647 0.306794 O2-
0.281781 0.224590 0.230458 O2-
0.718219 0.724590 0.286014 O2-
0.751546 0.252705 0.261566 O2-
0.248454 0.752705 0.317122 O2-
0.656290 0.330648 0.241445 O2-
0.343710 0.830648 0.297000 O2-
0.215121 0.332841 0.270430 O2-
0.784879 0.832841 0.325986 O2-
0.355777 0.446708 0.254503 O2-
0.644223 0.946708 0.310059 O2-
0.649890 0.536665 0.237453 O2-
0.350110 0.036665 0.293008 O2-
0.785996 0.649394 0.332425 O2-
0.214004 0.149394 0.276869 O2-
0.340793 0.651785 0.250639 O2-
0.659207 0.151785 0.306195 O2-
0.258044 0.728542 0.230253 O2-
0.741956 0.228542 0.285809 O2-
0.725734 0.758375 0.261448 O2-
0.274266 0.258375 0.317004 O2-
0.642950 0.828801 0.240801 O2-
0.357050 0.328801 0.296357 O2-
0.205272 0.829973 0.270282 O2-
0.794728 0.329973 0.325838 O2-
0.347295 0.944360 0.254308 O2-
0.652705 0.444360 0.309864 O2-
0.677470 0.919559 0.280417 O2-
0.322530 0.419559 0.224861 O2-
0.678914 0.057634 0.267021 O2-
0.321086 0.557634 0.322576 O2-
0.069000 0.035413 0.341189 O2-
0.931000 0.535413 0.396745 O2-
0.951087 0.140628 0.352854 O2-
0.048913 0.640628 0.408409 O2-
0.080018 0.275856 0.357658 O2-
0.919982 0.775856 0.413214 O2-
0.926681 0.392259 0.365642 O2-
0.073319 0.892259 0.421197 O2-
0.942022 0.978148 0.435315 O2-
0.057978 0.478148 0.379759 O2-
0.076781 0.590622 0.348383 O2-
0.923219 0.090622 0.403938 O2-
0.921841 0.709404 0.355945 O2-
0.078159 0.209404 0.411500 O2-
0.049265 0.843555 0.361042 O2-
0.950735 0.343555 0.416597 O2-
0.918787 0.943480 0.373120 O2-
0.081213 0.443480 0.428676 O2-
0.944691 0.504327 0.334242 O2-
0.055309 0.004327 0.389797 O2-
0.322795 0.926111 0.335650 O2-
0.677205 0.426111 0.391205 O2-
0.313918 0.066074 0.433885 O2-
0.686082 0.566074 0.378330 O2-
0.643576 0.041349 0.348823 O2-
0.356424 0.541349 0.404379 O2-
0.795305 0.153257 0.443770 O2-
0.204695 0.653257 0.388214 O2-
0.351974 0.154647 0.362349 O2-
0.648026 0.654647 0.417905 O2-
0.281781 0.224590 0.341569 O2-
0.718219 0.724590 0.397125 O2-
0.751546 0.252705 0.372677 O2-
0.248454 0.752705 0.428233 O2-
0.656290 0.330648 0.352556 O2-
0.343710 0.830648 0.408112 O2-
0.215121 0.332841 0.381542 O2-
0.784879 0.832841 0.437097 O2-
0.355777 0.446708 0.365614 O2-
0.644223 0.946708 0.421170 O2-
0.649890 0.536665 0.348564 O2-
0.350110 0.036665 0.404119 O2-
0.785996 0.649394 0.443536 O2-
0.214004 0.149394 0.387981 O2-
0.340793 0.651785 0.361750 O2-
0.659207 0.151785 0.417306 O2-
0.258044 0.728542 0.341364 O2-
0.741956 0.228542 0.396920 O2-
0.725734 0.758375 0.372560 O2-
0.274266 0.258375 0.428115 O2-
0.642950 0.828801 0.351912 O2-
0.357050 0.328801 0.407468 O2-
0.205272 0.829973 0.381393 O2-
0.794728 0.329973 0.436949 O2-
0.347295 0.944360 0.365419 O2-
0.652705 0.444360 0.420975 O2-
0.677470 0.919559 0.391528 O2-
0.322530 0.419559 0.335973 O2-
0.678914 0.057634 0.378132 O2-
0.321086 0.557634 0.433688 O2-
0.069000 0.035413 0.452300 O2-
0.931000 0.535413 0.507856 O2-
0.951087 0.140628 0.463965 O2-
0.048913 0.640628 0.519520 O2-
0.080018 0.275856 0.468770 O2-
0.919982 0.775856 0.524325 O2-
0.926681 0.392259 0.476753 O2-
0.073319 0.892259 0.532308 O2-
0.942022 0.978148 0.546426 O2-
0.057978 0.478148 0.490870 O2-
0.076781 0.590622 0.459494 O2-
0.923219 0.090622 0.515049 O2-
0.921841 0.709404 0.467056 O2-
0.078159 0.209404 0.522611 O2-
0.049265 0.843555 0.472153 O2-
0.950735 0.343555 0.527708 O2-
0.918787 0.943480 0.484231 O2-
0.081213 0.443480 0.539787 O2-
0.944691 0.504327 0.445353 O2-
0.055309 0.004327 0.500908 O2-
0.322795 0.926111 0.446761 O2-
0.677205 0.426111 0.502316 O2-
0.313918 0.066074 0.544996 O2-
0.686082 0.566074 0.489441 O2-
0.643576 0.041349 0.459934 O2-
0.356424 0.541349 0.515490 O2-
0.795305 0.153257 0.554881 O2-
0.204695 0.653257 0.499326 O2-
0.351974 0.154647 0.473460 O2-
0.648026 0.654647 0.529016 O2-
0.281781 0.224590 0.452680 O2-
0.718219 0.724590 0.508236 O2-
0.751546 0.252705 0.483788 O2-
0.248454 0.752705 0.539344 O2-
0.656290 0.330648 0.463667 O2-
0.343710 0.830648 0.519223 O2-
0.215121 0.332841 0.492653 O2-
0.784879 0.832841 0.548208 O2-
0.355777 0.446708 0.476725 O2-
0.644223 0.946708 0.532281 O2-
0.649890 0.536665 0.459675 O2-
0.350110 0.036665 0.515231 O2-
0.785996 0.649394 0.554647 O2-
0.214004 0.149394 0.499092 O2-
0.340793 0.651785 0.472861 O2-
0.659207 0.151785 0.528417 O2-
0.258044 0.728542 0.452475 O2-
0.741956 0.228542 0.508031 O2-
0.725734 0.758375 0.483671 O2-
0.274266 0.258375 0.539226 O2-
0.642950 0.828801 0.463023 O2-
0.357050 0.328801 0.518579 O2-
0.205272 0.829973 0.492504 O2-
0.794728 0.329973 0.548060 O2-
0.347295 0.944360 0.476531 O2-
0.652705 0.444360 0.532086 O2-
0.677470 0.919559 0.502639 O2-
0.322530 0.419559 0.447084 O2-
0.678914 0.057634 0.489243 O2-
0.321086 0.557634 0.544799 O2-
0.069000 0.035413 0.563412 O2-
0.931000 0.535413 0.618967 O2-
0.951087 0.140628 0.575076 O2-
0.048913 0.640628 0.630631 O2-
0.080018 0.275856 0.579881 O2-
0.919982 0.775856 0.635436 O2-
0.926681 0.392259 0.587864 O2-
0.073319 0.892259 0.643420 O2-
0.942022 0.978148 0.657537 O2-
0.057978 0.478148 0.601981 O2-
0.076781 0.590622 0.570605 O2-
0.923219 0.090622 0.626161 O2-
0.921841 0.709404 0.578167 O2-
0.078159 0.209404 0.633722 O2-
0.049265 0.843555 0.583264 O2-
0.950735 0.343555 0.638819 O2-
0.918787 0.943480 0.595343 O2-
0.081213 0.443480 0.650898 O2-
0.944691 0.504327 0.556464 O2-
0.055309 0.004327 0.612020 O2-
0.322795 0.926111 0.557872 O2-
0.677205 0.426111 0.613428 O2-
0.313918 0.066074 0.656107 O2-
0.686082 0.566074 0.600552 O2-
0.643576 0.041349 0.571045 O2-
0.356424 0.541349 0.626601 O2-
0.795305 0.153257 0.665992 O2-
0.204695 0.653257 0.610437 O2-
0.351974 0.154647 0.584571 O2-
0.648026 0.654647 0.640127 O2-
0.281781 0.224590 0.563792 O2-
0.718219 0.724590 0.619347 O2-
0.751546 0.252705 0.594900 O2-
0.248454 0.752705 0.650455 O2-
0.656290 0.330648 0.574778 O2-
0.343710 0.830648 0.630334 O2-
0.215121 0.332841 0.603764 O2-
0.784879 0.832841 0.659319 O2-
0.355777 0.446708 0.587837 O2-
0.644223 0.946708 0.643392 O2-
0.649890 0.536665 0.570786 O2-
0.350110 0.036665 0.626342 O2-
0.785996 0.649394 0.665758 O2-
0.214004 0.149394 0.610203 O2-
0.340793 0.651785 0.583973 O2-
0.659207 0.151785 0.639528 O2-
0.258044 0.728542 0.563586 O2-
0.741956 0.228542 0.619142 O2-
0.725734 0.758375 0.594782 O2-
0.274266 0.258375 0.650337 O2-
0.642950 0.828801 0.574134 O2-
0.357050 0.328801 0.629690 O2-
0.205272 0.829973 0.603615 O2-
0.794728 0.329973 0.659171 O2-
0.347295 0.944360 0.587642 O2-
0.652705 0.444360 0.643197 O2-
0.677470 0.919559 0.613750 O2-
0.322530 0.419559 0.558195 O2-
0.678914 0.057634 0.600354 O2-
0.321086 0.557634 0.655910 O2-
0.069000 0.035413 0.674523 O2-
0.931000 0.535413 0.730078 O2-
0.951087 0.140628 0.686187 O2-
0.048913 0.640628 0.741742 O2-
0.080018 0.275856 0.690992 O2-
0.919982 0.775856 0.746547 O2-
0.926681 0.392259 0.698975 O2-
0.073319 0.892259 0.754531 O2-
0.942022 0.978148 0.768648 O2-
0.057978 0.478148 0.713092 O2-
0.076781 0.590622 0.681716 O2-
0.923219 0.090622 0.737272 O2-
0.921841 0.709404 0.689278 O2-
0.078159 0.209404 0.744833 O2-
0.049265 0.843555 0.694375 O2-
0.950735 0.343555 0.749931 O2-
0.918787 0.943480 0.706454 O2-
0.081213 0.443480 0.762009 O2-
0.944691 0.504327 0.667575 O2-
0.055309 0.004327 0.723131 O2-
0.322795 0.926111 0.668983 O2-
0.677205 0.426111 0.724539 O2-
0.313918 0.066074 0.767219 O2-
0.686082 0.566074 0.711663 O2-
0.643576 0.041349 0.682156 O2-
0.356424 0.541349 0.737712 O2-
0.795305 0.153257 0.777103 O2-
0.204695 0.653257 0.721548 O2-
0.351974 0.154647 0.695682 O2-
0.648026 0.654647 0.751238 O2-
0.281781 0.224590 0.674903 O2-
0.718219 0.724590 0.730458 O2-
0.751546 0.252705 0.706011 O2-
0.248454 0.752705 0.761566 O2-
0.656290 0.330648 0.685889 O2-
0.343710 0.830648 0.741445 O2-
0.215121 0.332841 0.714875 O2-
0.784879 0.832841 0.770431 O2-
0.355777 0.446708 0.698948 O2-
0.644223 0.946708 0.754503 O2-
0.649890 0.536665 0.681897 O2-
0.350110 0.036665 0.737453 O2-
0.785996 0.649394 0.776869 O2-
0.214004 0.149394 0.721314 O2-
0.340793 0.651785 0.695084 O2-
0.659207 0.151785 0.750639 O2-
0.258044 0.728542 0.674697 O2-
0.741956 0.228542 0.730253 O2-
0.725734 0.758375 0.705893 O2-
0.274266 0.258375 0.761448 O2-
0.642950 0.828801 0.685246 O2-
0.357050 0.328801 0.740801 O2-
0.205272 0.829973 0.714726 O2-
0.794728 0.329973 0.770282 O2-
0.347295 0.944360 0.698753 O2-
0.652705 0.444360 0.754308 O2-
0.677470 0.919559 0.724861 O2-
0.322530 0.419559 0.669306 O2-
0.678914 0.057634 0.711465 O2-
0.321086 0.557634 0.767021 O2-
