Li73 P24 N1 O95                         
   1.00000000000000     
    14.7353419655413376    0.0040470468894034   -0.0061282457358367
     0.0029164318252109   10.5551194625493228    0.0040788207697591
    -0.0051271992259030    0.0047478292787866   12.3322184182474448
   Li   P    N    O 
    73    24     1    95
Direct
  0.1673400262995702  0.4126804768263965 -0.0036408004768523
  0.1679331910147324  0.4247360930580572  0.5022332379579467
  0.1711663841717563  0.9312923411618554 -0.0003398394426392
  0.1688824959731082  0.9237671924898511  0.5007364395975865
  0.5032711348321757  0.4201324718344326 -0.0034173720852059
  0.5015877444524771  0.4219242596963451  0.5015053038115584
  0.5011872117548961  0.9253826682361210 -0.0027643741103590
  0.5030752057966520  0.9247296864702788  0.5005152613134601
  0.8357243432813719  0.4214428782728309 -0.0011234466319496
  0.8358209195444287  0.4218289148069685  0.5003060780285447
  0.8388142502972226  0.9222658947168223 -0.0006352658856583
  0.8366240050755518  0.9232384933366851  0.5003499802322676
  0.0030300557703689  0.0772140604845249  0.2496274122918929
  0.0040362461718955  0.0774683796463971  0.7504732848311401
  0.0006054530655650  0.5776308469724951  0.2501159442388603
  0.0028071333038990  0.5783025149915975  0.7494584034550242
  0.3370308972437881  0.0732125841249308  0.2444239803124146
  0.3367981027646696  0.0777462207074456  0.7555136460353664
  0.3893926987351886  0.6092752504428711  0.2596503493327651
  0.3346347571477776  0.5753459092713653  0.7489511224408270
  0.6700712069280036  0.0767215068759750  0.2498190492615382
  0.6709457918383431  0.0775532809774055  0.7495359645580187
  0.6685679827565033  0.5796847724972699  0.2495221110678288
  0.6699068048314702  0.5778300591722036  0.7495662774558005
  0.1679304535289576  0.1596304955139982  0.1255025800094411
  0.1694817298916801  0.1636349501615409  0.6268692778704738
  0.1637791222165397  0.6690093113575427  0.1262574646248715
  0.1689792559861598  0.6648478084358278  0.6255004140942233
  0.5062617714350647  0.1585279142540153  0.1240052888532307
  0.5021265109913262  0.1631656519676530  0.6268368046818428
  0.5084608455024412  0.6685226281191988  0.1181058532636524
  0.5020613469101688  0.6633844141481857  0.6284498699328106
  0.8364293138929778  0.1625088258775398  0.1262254302139150
  0.8361637533340799  0.1636070624466425  0.6263755454882577
  0.8354252102624204  0.6632242520377898  0.1254045859294020
  0.8369402609710418  0.6639215524910221  0.6262234438659917
 -0.0012073249573926  0.3346650054496255  0.1224554419783168
  0.0021723243652432  0.3366699950277598  0.6238474055068364
  0.0027467656341702  0.8378415631874314  0.1237855993426053
  0.0027685116194157  0.8372030480764441  0.6234501770522998
  0.3382991447634622  0.3066242659687506  0.1142378634608151
  0.3357460417008602  0.3370890297681982  0.6242919273917025
  0.3346134277498704  0.8416287090314034  0.1199137130244908
  0.3353628429844237  0.8383360236004630  0.6240915212467921
  0.6699470715606427  0.3363332359214507  0.1226943504078018
  0.6690368251590950  0.3366087490420823  0.6241312728163280
  0.6711343208239958  0.8382100305822248  0.1224514912340611
  0.6699919517314656  0.8374275132568514  0.6233706362230798
 -0.0006155824901860  0.3347724830142370  0.3779755550785358
  0.0023593994313250  0.3359638556091848  0.8751800184092055
  0.0023856107822364  0.8368398127872109  0.3766590547636222
  0.0039449134297477  0.8376314004402220  0.8764199526301444
  0.3331466654278037  0.3379847778599814  0.3762461798446241
  0.3352189599762727  0.3258047684286362  0.8754202397575678
  0.3344305074010429  0.8404178670567787  0.3786526310975974
  0.3354687582093202  0.8410539395073086  0.8749749798178310
  0.6679404687211569  0.3370913405785821  0.3758148096806180
  0.6704019092213453  0.3355678560567121  0.8750727331741034
  0.6709928273881349  0.8384243996830928  0.3767930576461954
  0.6707265923033142  0.8376490759727230  0.8756327598918869
  0.1682362435741518  0.1616699854564408  0.3753479697150650
  0.1694035057536303  0.1607728598155350  0.8762019913761953
  0.1688199126650119  0.6650224576637029  0.3742109544894088
  0.1684277365356863  0.6634676484055012  0.8738706752781121
  0.5008409688883998  0.1627405391639620  0.3729078409438969
  0.5042011370178104  0.1608043747552659  0.8737870928195107
  0.5103451291902390  0.6700664343766389  0.3842142297447029
  0.5045214143263443  0.6642649151408976  0.8701741877103529
  0.8352544033255188  0.1629801039976544  0.3734974879795951
  0.8380173626890788  0.1629888213490335  0.8731709693195985
  0.8347684243917646  0.6636912575218454  0.3738841796047144
  0.8367728755108389  0.6635098404536761  0.8727604028026827
  0.2899258295212556  0.4970548014971255  0.1604784523347824
  0.1613591460839151  0.4111594732430803  0.2548078453662330
  0.1662651017483388  0.4133751728860515  0.7489360429315127
  0.1666420241537708  0.9117980258161578  0.2521161952864808
  0.1668818948830181  0.9115153719889955  0.7485220665541094
  0.4963885537239155  0.4140940320031648  0.2472577497694772
  0.5005203398476044  0.4116374495282721  0.7500345808887577
  0.5018912427582795  0.9109819805295778  0.2502702653076063
  0.5017907638935825  0.9118169345379432  0.7483180292573709
  0.8311646761404899  0.4130651217875663  0.2499447253525611
  0.8336616234990728  0.4128821269554473  0.7494858497190970
  0.8337381059504312  0.9117835932685058  0.2503048032710080
  0.8344564332692874  0.9121837818331094  0.7492860467501624
 -0.0005029954111155  0.0880895149866711  0.0000734610898543
 -0.0004745425674064  0.0881069854581658  0.5001019609083880
 -0.0005796524432567  0.5867342887443279 -0.0000643866419787
 -0.0008396058552309  0.5876692619310878  0.4994636375783209
  0.3320963690684307  0.0837078464403586 -0.0010429877670803
  0.3334127786502728  0.0897217861719141  0.5000719542779527
  0.3352013487209970  0.5873390141125254 -0.0041768747279221
  0.3346180407537134  0.5893646942959205  0.5021550699700720
  0.6697746475634455  0.0870207422365893 -0.0007735154390363
  0.6667376265468841  0.0891352722846288  0.4995195266131437
  0.6671013542911383  0.5868667431827042 -0.0017020437066930
  0.6673705557569888  0.5866966094184844  0.5013057889194503
  0.2269623340809848  0.0961327527899993  0.0018183701728013
  0.0344000559903604  0.1568989870947957  0.3960457087423324
  0.0330226718957810  0.1574187084185332  0.8957742777763800
  0.0344893439380535  0.6560502706732391  0.3954077585766975
  0.0353063860246688  0.6559964311821500  0.8967460950910849
  0.3678572546390002  0.1587267889205366  0.3955105534125626
  0.3769715494048018  0.1533309993406262  0.8962965951624984
  0.3741627699318521  0.6628843321157512  0.4025486086696992
  0.3696859240284011  0.6557702794369076  0.8936836000640708
  0.7013750173032829  0.1581225109708995  0.3952303210219172
  0.7049851919526843  0.1569223015140268  0.8958498454276038
  0.6996463091800762  0.6561912892513789  0.3961129435509455
  0.7031211462211676  0.6566863524954922  0.8955710403064495
  0.2002027098869408  0.0515483586090557  0.2538580687727764
  0.2004107735161237  0.0512605715612264  0.7475366021052712
  0.1935415793762555  0.5526973247785560  0.2513059487680600
  0.1995032250766840  0.5538806573311288  0.7494425638676333
  0.5344957137220044  0.0513804612183994  0.2509254185710073
  0.5365552303953556  0.0512720743066105  0.7480046459578327
  0.5245043479148456  0.5580830739280784  0.2500784355143099
  0.5343546107178274  0.5518380350093413  0.7496573115907968
  0.8673084114415649  0.0518475567786160  0.2504286879623868
  0.8680159528603868  0.0522685474687947  0.7492114242686435
  0.8650480218018985  0.5530761232614039  0.2499902985471527
  0.8675170943260238  0.5528959074435293  0.7494000231116822
  0.0567094974878505  0.4041376550854669  0.2499808566496130
  0.0605175843945426  0.4102693048499139  0.7490810406683081
  0.0607770382278350  0.9086832964720749  0.2508785299898786
  0.0609691078616233  0.9087370307815585  0.7492176903641528
  0.3894833215823281  0.4136637878826638  0.2435948812355425
  0.3947907893524695  0.4088240033028949  0.7511650351764122
  0.3962454396556517  0.9028779174459715  0.2507338083330958
  0.3962293474059350  0.9090992870999353  0.7481096385224935
  0.7252299539352692  0.4111232749956343  0.2499618768330805
  0.7279416040574530  0.4102643497619052  0.7493452586579348
  0.7280097657063815  0.9089345983727722  0.2498593999356453
  0.7287194709338073  0.9093326006397047  0.7493208209167732
  0.2277665708915832  0.0916297640178788  0.5006206191598997
  0.2293814984250899  0.5883884040192171  0.0033970533529478
  0.2291854879518146  0.5930101346739410  0.4986726814484569
  0.5645172359508622  0.0885170525396438 -0.0015956865313353
  0.5610077165991703  0.0925574238688310  0.4995214813835159
  0.5612169927800155  0.5889810799908324 -0.0035311686672586
  0.5616609470916556  0.5882285590097963  0.5040384300317104
  0.8934517926031067  0.0907763655715654  0.0002184133127364
  0.8937635576475549  0.0914478109637354  0.5000363528465661
  0.8937654880675040  0.5893953510697170 -0.0005175407648955
  0.8934525893631602  0.5906846960455978  0.4994210418759891
  0.2053474432928515  0.3484818414559510  0.1516978333690891
  0.2016079797213075  0.3453833871114929  0.6446785312809842
  0.2022364458669544  0.8410006579103464  0.1496205673714624
  0.2014292575153796  0.8428286594870696  0.6438430518370131
  0.5345034554292256  0.3476008904157161  0.1449169520012681
  0.5351670912886517  0.3429613970344532  0.6457821541475757
  0.5380982721737723  0.8429692895316465  0.1465144272653866
  0.5366248859028343  0.8422392306132805  0.6442648876318294
  0.8659983250463241  0.3440230326631864  0.1461166674911365
  0.8687845581893366  0.3435550200486112  0.6458409538623892
  0.8690098184245264  0.8421494242733537  0.1469259201455992
  0.8692344150159474  0.8432681283799910  0.6452214605704849
  0.0329575302924679  0.1576091353927849  0.1045973628298068
  0.0350817312587427  0.1574054017969269  0.6035464200971214
  0.0337325329231454  0.6559332145708148  0.1041451725806441
  0.0348484848000937  0.6567801779145197  0.6028961390756128
  0.3800992063121093  0.1446739205383963  0.1042068509937107
  0.3689437606004595  0.1589867846014452  0.6034953650803555
  0.3701890775006192  0.6522542101408976  0.1031800551134936
  0.3682749920069618  0.6554720612583281  0.6077240642200347
  0.7030938032825700  0.1567455824192782  0.1038834572610698
  0.7024713890700791  0.1580937867696605  0.6030301320130944
  0.7002155579066965  0.6559797717152058  0.1032016682165445
  0.7038881684803907  0.6566174427160322  0.6036494676570984
  0.0334320176712152  0.4465839872201920  0.0004237869861114
  0.0325886490524067  0.4473787946204916  0.4996564368870944
  0.0321125835560370  0.9475379446906321  0.0003698360939172
  0.0330668178779269  0.9479916038984161  0.5000400987451058
  0.3658885292185914  0.4455743318186847  0.0013311570408000
  0.3676482656172216  0.4490099370666868  0.4990738660334062
  0.3705180709355591  0.9414590262168409 -0.0033818800956936
  0.3679531101021196  0.9498373878678998  0.5000073252999854
  0.7007203335342008  0.4469038395127687 -0.0008941696890943
  0.7009055221029367  0.4466726795505812  0.4998913732203657
  0.7044290260012890  0.9473445227062943 -0.0004581151378086
  0.7007445978398730  0.9491216286487465  0.4996462508279638
  0.1974635461295692  0.3443018778560502  0.3584572375629182
  0.2020157773039559  0.3442420371105153  0.8518640529989457
  0.2012629156729465  0.8427740680045546  0.3566712250825196
  0.2022256419164504  0.8399563943177336  0.8509164171258670
  0.5303932485956286  0.3464320479790426  0.3514836723430124
  0.5371324986257763  0.3427590699254258  0.8531665555990720
  0.5383087288607973  0.8436425596615722  0.3546266154470119
  0.5376130252336290  0.8420237675021996  0.8516633304863109
  0.8663163650293313  0.3435589276138653  0.3535805667502576
  0.8688053080681313  0.3438769655656553  0.8533409267228506
  0.8682837617181784  0.8427414467270936  0.3545855896210512
  0.8698797281078672  0.8425630277704066  0.8527517166485193
 
  0.00000000E+00  0.00000000E+00  0.00000000E+00
  0.00000000E+00  0.00000000E+00  0.00000000E+00
  0.00000000E+00  0.00000000E+00  0.00000000E+00
  0.00000000E+00  0.00000000E+00  0.00000000E+00
  0.00000000E+00  0.00000000E+00  0.00000000E+00
  0.00000000E+00  0.00000000E+00  0.00000000E+00
  0.00000000E+00  0.00000000E+00  0.00000000E+00
  0.00000000E+00  0.00000000E+00  0.00000000E+00
  0.00000000E+00  0.00000000E+00  0.00000000E+00
  0.00000000E+00  0.00000000E+00  0.00000000E+00
  0.00000000E+00  0.00000000E+00  0.00000000E+00
  0.00000000E+00  0.00000000E+00  0.00000000E+00
  0.00000000E+00  0.00000000E+00  0.00000000E+00
  0.00000000E+00  0.00000000E+00  0.00000000E+00
  0.00000000E+00  0.00000000E+00  0.00000000E+00
  0.00000000E+00  0.00000000E+00  0.00000000E+00
  0.00000000E+00  0.00000000E+00  0.00000000E+00
  0.00000000E+00  0.00000000E+00  0.00000000E+00
  0.00000000E+00  0.00000000E+00  0.00000000E+00
  0.00000000E+00  0.00000000E+00  0.00000000E+00
  0.00000000E+00  0.00000000E+00  0.00000000E+00
  0.00000000E+00  0.00000000E+00  0.00000000E+00
  0.00000000E+00  0.00000000E+00  0.00000000E+00
  0.00000000E+00  0.00000000E+00  0.00000000E+00
  0.00000000E+00  0.00000000E+00  0.00000000E+00
  0.00000000E+00  0.00000000E+00  0.00000000E+00
  0.00000000E+00  0.00000000E+00  0.00000000E+00
  0.00000000E+00  0.00000000E+00  0.00000000E+00
  0.00000000E+00  0.00000000E+00  0.00000000E+00
  0.00000000E+00  0.00000000E+00  0.00000000E+00
  0.00000000E+00  0.00000000E+00  0.00000000E+00
  0.00000000E+00  0.00000000E+00  0.00000000E+00
  0.00000000E+00  0.00000000E+00  0.00000000E+00
  0.00000000E+00  0.00000000E+00  0.00000000E+00
  0.00000000E+00  0.00000000E+00  0.00000000E+00
  0.00000000E+00  0.00000000E+00  0.00000000E+00
  0.00000000E+00  0.00000000E+00  0.00000000E+00
  0.00000000E+00  0.00000000E+00  0.00000000E+00
  0.00000000E+00  0.00000000E+00  0.00000000E+00
  0.00000000E+00  0.00000000E+00  0.00000000E+00
  0.00000000E+00  0.00000000E+00  0.00000000E+00
  0.00000000E+00  0.00000000E+00  0.00000000E+00
  0.00000000E+00  0.00000000E+00  0.00000000E+00
  0.00000000E+00  0.00000000E+00  0.00000000E+00
  0.00000000E+00  0.00000000E+00  0.00000000E+00
  0.00000000E+00  0.00000000E+00  0.00000000E+00
  0.00000000E+00  0.00000000E+00  0.00000000E+00
  0.00000000E+00  0.00000000E+00  0.00000000E+00
  0.00000000E+00  0.00000000E+00  0.00000000E+00
  0.00000000E+00  0.00000000E+00  0.00000000E+00
  0.00000000E+00  0.00000000E+00  0.00000000E+00
  0.00000000E+00  0.00000000E+00  0.00000000E+00
  0.00000000E+00  0.00000000E+00  0.00000000E+00
  0.00000000E+00  0.00000000E+00  0.00000000E+00
  0.00000000E+00  0.00000000E+00  0.00000000E+00
  0.00000000E+00  0.00000000E+00  0.00000000E+00
  0.00000000E+00  0.00000000E+00  0.00000000E+00
  0.00000000E+00  0.00000000E+00  0.00000000E+00
  0.00000000E+00  0.00000000E+00  0.00000000E+00
  0.00000000E+00  0.00000000E+00  0.00000000E+00
  0.00000000E+00  0.00000000E+00  0.00000000E+00
  0.00000000E+00  0.00000000E+00  0.00000000E+00
  0.00000000E+00  0.00000000E+00  0.00000000E+00
  0.00000000E+00  0.00000000E+00  0.00000000E+00
  0.00000000E+00  0.00000000E+00  0.00000000E+00
  0.00000000E+00  0.00000000E+00  0.00000000E+00
  0.00000000E+00  0.00000000E+00  0.00000000E+00
  0.00000000E+00  0.00000000E+00  0.00000000E+00
  0.00000000E+00  0.00000000E+00  0.00000000E+00
  0.00000000E+00  0.00000000E+00  0.00000000E+00
  0.00000000E+00  0.00000000E+00  0.00000000E+00
  0.00000000E+00  0.00000000E+00  0.00000000E+00
  0.00000000E+00  0.00000000E+00  0.00000000E+00
  0.00000000E+00  0.00000000E+00  0.00000000E+00
  0.00000000E+00  0.00000000E+00  0.00000000E+00
  0.00000000E+00  0.00000000E+00  0.00000000E+00
  0.00000000E+00  0.00000000E+00  0.00000000E+00
  0.00000000E+00  0.00000000E+00  0.00000000E+00
  0.00000000E+00  0.00000000E+00  0.00000000E+00
  0.00000000E+00  0.00000000E+00  0.00000000E+00
  0.00000000E+00  0.00000000E+00  0.00000000E+00
  0.00000000E+00  0.00000000E+00  0.00000000E+00
  0.00000000E+00  0.00000000E+00  0.00000000E+00
  0.00000000E+00  0.00000000E+00  0.00000000E+00
  0.00000000E+00  0.00000000E+00  0.00000000E+00
  0.00000000E+00  0.00000000E+00  0.00000000E+00
  0.00000000E+00  0.00000000E+00  0.00000000E+00
  0.00000000E+00  0.00000000E+00  0.00000000E+00
  0.00000000E+00  0.00000000E+00  0.00000000E+00
  0.00000000E+00  0.00000000E+00  0.00000000E+00
  0.00000000E+00  0.00000000E+00  0.00000000E+00
  0.00000000E+00  0.00000000E+00  0.00000000E+00
  0.00000000E+00  0.00000000E+00  0.00000000E+00
  0.00000000E+00  0.00000000E+00  0.00000000E+00
  0.00000000E+00  0.00000000E+00  0.00000000E+00
  0.00000000E+00  0.00000000E+00  0.00000000E+00
  0.00000000E+00  0.00000000E+00  0.00000000E+00
  0.00000000E+00  0.00000000E+00  0.00000000E+00
  0.00000000E+00  0.00000000E+00  0.00000000E+00
  0.00000000E+00  0.00000000E+00  0.00000000E+00
  0.00000000E+00  0.00000000E+00  0.00000000E+00
  0.00000000E+00  0.00000000E+00  0.00000000E+00
  0.00000000E+00  0.00000000E+00  0.00000000E+00
  0.00000000E+00  0.00000000E+00  0.00000000E+00
  0.00000000E+00  0.00000000E+00  0.00000000E+00
  0.00000000E+00  0.00000000E+00  0.00000000E+00
  0.00000000E+00  0.00000000E+00  0.00000000E+00
  0.00000000E+00  0.00000000E+00  0.00000000E+00
  0.00000000E+00  0.00000000E+00  0.00000000E+00
  0.00000000E+00  0.00000000E+00  0.00000000E+00
  0.00000000E+00  0.00000000E+00  0.00000000E+00
  0.00000000E+00  0.00000000E+00  0.00000000E+00
  0.00000000E+00  0.00000000E+00  0.00000000E+00
  0.00000000E+00  0.00000000E+00  0.00000000E+00
  0.00000000E+00  0.00000000E+00  0.00000000E+00
  0.00000000E+00  0.00000000E+00  0.00000000E+00
  0.00000000E+00  0.00000000E+00  0.00000000E+00
  0.00000000E+00  0.00000000E+00  0.00000000E+00
  0.00000000E+00  0.00000000E+00  0.00000000E+00
  0.00000000E+00  0.00000000E+00  0.00000000E+00
  0.00000000E+00  0.00000000E+00  0.00000000E+00
  0.00000000E+00  0.00000000E+00  0.00000000E+00
  0.00000000E+00  0.00000000E+00  0.00000000E+00
  0.00000000E+00  0.00000000E+00  0.00000000E+00
  0.00000000E+00  0.00000000E+00  0.00000000E+00
  0.00000000E+00  0.00000000E+00  0.00000000E+00
  0.00000000E+00  0.00000000E+00  0.00000000E+00
  0.00000000E+00  0.00000000E+00  0.00000000E+00
  0.00000000E+00  0.00000000E+00  0.00000000E+00
  0.00000000E+00  0.00000000E+00  0.00000000E+00
  0.00000000E+00  0.00000000E+00  0.00000000E+00
  0.00000000E+00  0.00000000E+00  0.00000000E+00
  0.00000000E+00  0.00000000E+00  0.00000000E+00
  0.00000000E+00  0.00000000E+00  0.00000000E+00
  0.00000000E+00  0.00000000E+00  0.00000000E+00
  0.00000000E+00  0.00000000E+00  0.00000000E+00
  0.00000000E+00  0.00000000E+00  0.00000000E+00
  0.00000000E+00  0.00000000E+00  0.00000000E+00
  0.00000000E+00  0.00000000E+00  0.00000000E+00
  0.00000000E+00  0.00000000E+00  0.00000000E+00
  0.00000000E+00  0.00000000E+00  0.00000000E+00
  0.00000000E+00  0.00000000E+00  0.00000000E+00
  0.00000000E+00  0.00000000E+00  0.00000000E+00
  0.00000000E+00  0.00000000E+00  0.00000000E+00
  0.00000000E+00  0.00000000E+00  0.00000000E+00
  0.00000000E+00  0.00000000E+00  0.00000000E+00
  0.00000000E+00  0.00000000E+00  0.00000000E+00
  0.00000000E+00  0.00000000E+00  0.00000000E+00
  0.00000000E+00  0.00000000E+00  0.00000000E+00
  0.00000000E+00  0.00000000E+00  0.00000000E+00
  0.00000000E+00  0.00000000E+00  0.00000000E+00
  0.00000000E+00  0.00000000E+00  0.00000000E+00
  0.00000000E+00  0.00000000E+00  0.00000000E+00
  0.00000000E+00  0.00000000E+00  0.00000000E+00
  0.00000000E+00  0.00000000E+00  0.00000000E+00
  0.00000000E+00  0.00000000E+00  0.00000000E+00
  0.00000000E+00  0.00000000E+00  0.00000000E+00
  0.00000000E+00  0.00000000E+00  0.00000000E+00
  0.00000000E+00  0.00000000E+00  0.00000000E+00
  0.00000000E+00  0.00000000E+00  0.00000000E+00
  0.00000000E+00  0.00000000E+00  0.00000000E+00
  0.00000000E+00  0.00000000E+00  0.00000000E+00
  0.00000000E+00  0.00000000E+00  0.00000000E+00
  0.00000000E+00  0.00000000E+00  0.00000000E+00
  0.00000000E+00  0.00000000E+00  0.00000000E+00
  0.00000000E+00  0.00000000E+00  0.00000000E+00
  0.00000000E+00  0.00000000E+00  0.00000000E+00
  0.00000000E+00  0.00000000E+00  0.00000000E+00
  0.00000000E+00  0.00000000E+00  0.00000000E+00
  0.00000000E+00  0.00000000E+00  0.00000000E+00
  0.00000000E+00  0.00000000E+00  0.00000000E+00
  0.00000000E+00  0.00000000E+00  0.00000000E+00
  0.00000000E+00  0.00000000E+00  0.00000000E+00
  0.00000000E+00  0.00000000E+00  0.00000000E+00
  0.00000000E+00  0.00000000E+00  0.00000000E+00
  0.00000000E+00  0.00000000E+00  0.00000000E+00
  0.00000000E+00  0.00000000E+00  0.00000000E+00
  0.00000000E+00  0.00000000E+00  0.00000000E+00
  0.00000000E+00  0.00000000E+00  0.00000000E+00
  0.00000000E+00  0.00000000E+00  0.00000000E+00
  0.00000000E+00  0.00000000E+00  0.00000000E+00
  0.00000000E+00  0.00000000E+00  0.00000000E+00
  0.00000000E+00  0.00000000E+00  0.00000000E+00
  0.00000000E+00  0.00000000E+00  0.00000000E+00
  0.00000000E+00  0.00000000E+00  0.00000000E+00
  0.00000000E+00  0.00000000E+00  0.00000000E+00
  0.00000000E+00  0.00000000E+00  0.00000000E+00
  0.00000000E+00  0.00000000E+00  0.00000000E+00
  0.00000000E+00  0.00000000E+00  0.00000000E+00
  0.00000000E+00  0.00000000E+00  0.00000000E+00
  0.00000000E+00  0.00000000E+00  0.00000000E+00
  0.00000000E+00  0.00000000E+00  0.00000000E+00
  0.00000000E+00  0.00000000E+00  0.00000000E+00
