Li5 P2 N1 O6                            
   1.00000000000000     
    -0.3819567085138681    0.4320017832664818    5.2525057619041151
     5.8815652844262356    0.4314893091753954   -0.4491850981298734
     0.3757116766513375    5.1474424052329582    0.4139623815779130
   Li   P    N    O 
     5     2     1     6
Direct
  0.7275292194686924  0.0578765794720779  0.8527270252518739
  0.3882809489453029  0.7235044094012172  0.2767144203166649
  0.0323934760406459  0.6866233066532625  0.8817398119300368
  0.0035714948962760  0.4147111571693616  0.4631391364402584
  0.4577095852852081  0.2194484243263584  0.3533507525815259
  0.5284003998577629  0.5279957480851396  0.7699321677997619
  0.8856490180982852  0.9020274017688241  0.3869703755278593
  0.7465379891883864  0.7664568139064541  0.6853599617453168
  0.0771657792554826  0.1075890659874732  0.4355875268002396
  0.0335734407581921  0.7394335246686107  0.2280149010018150
  0.6406234488697194  0.3242656781604632  0.6550548733500708
  0.4711903036524052  0.4813569129323664  0.0747645256995789
  0.2780639556314560  0.5617569246178148  0.6535321394680481
  0.6755679400522160  0.9869540528505698  0.2311403820869573
 
  0.00000000E+00  0.00000000E+00  0.00000000E+00
  0.00000000E+00  0.00000000E+00  0.00000000E+00
  0.00000000E+00  0.00000000E+00  0.00000000E+00
  0.00000000E+00  0.00000000E+00  0.00000000E+00
  0.00000000E+00  0.00000000E+00  0.00000000E+00
  0.00000000E+00  0.00000000E+00  0.00000000E+00
  0.00000000E+00  0.00000000E+00  0.00000000E+00
  0.00000000E+00  0.00000000E+00  0.00000000E+00
  0.00000000E+00  0.00000000E+00  0.00000000E+00
  0.00000000E+00  0.00000000E+00  0.00000000E+00
  0.00000000E+00  0.00000000E+00  0.00000000E+00
  0.00000000E+00  0.00000000E+00  0.00000000E+00
  0.00000000E+00  0.00000000E+00  0.00000000E+00
  0.00000000E+00  0.00000000E+00  0.00000000E+00
