Li61 P7 N32                             
   1.00000000000000     
     0.0260022909133758    9.5820025957087083   -0.0008416757414240
    -0.0531809541698832    0.0000371076984816    9.5754057524396501
     9.6147614896022162    0.0266846837947505   -0.0530264460320176
   Li   P    N 
    61     7    32
Direct
  0.5021348727102463  0.0003400568156623  0.5021582898650153
  0.0101070300396021  0.4957007058944371 -0.0098639017506431
  0.5077503754908153 -0.0082733260464338  0.0007563950411580
  0.0092167511963071 -0.0040015056991095  0.4938775993152981
  0.5098382159935835  0.4941557708116101 -0.0042868127431558
 -0.0160326544788567  0.4926463759569531  0.4841432462872248
  0.7735215488443983  0.0353617354437526  0.5383900339218054
  0.2545393223357147 -0.0108254147413094  0.4991613107650844
  0.6003685163317588  0.4241076548511881  0.5650979584124353
  0.2157841634070943  0.4863693224981331  0.4994173971116876
  0.2691479792163084 -0.0026164725780584 -0.0005101475674540
  0.7553268018242567  0.0145697894771560  0.0467662397321229
  0.4248739629501914  0.5731831981435717  0.5732216916528262
  0.5249183121192684  0.2385796839647937 -0.0187279655804531
  0.5082678952450335  0.7468857289140790  0.0071646797776314
  0.0154897106479572  0.4977475203097568  0.2371123419004278
  0.0235346118940621  0.4921136673343034  0.7395401019583232
  0.2164619195454655  0.2375448449293122  0.2240319854344847
  0.2074356267267302  0.7715424006631593  0.7516174352902129
  0.2415402391576979  0.2724846125745872  0.7169987931189152
  0.2693782182255369  0.7436115976616284  0.2601396569221217
  0.6997516966106253  0.2875075275039066  0.2050100329890140
  0.6865590140102457  0.8190030983036303  0.6591110603454977
  0.7433657482605334  0.2338980042722120  0.7275014253101710
  0.7600741942694766  0.8128693021174868  0.4262249569678288
  0.9669886969279280  0.2507544785579948  0.2422034038994782
  0.9517210365672824  0.7322129647408079  0.7462708950925309
  0.2677536999309613  0.2336316330623975  0.4812378810089932
  0.2513381460179126  0.7360156445135004  0.4932873628300434
  0.7765068738151435  0.3047234637480077  0.4459699861778462
  0.7972785070719929  0.6192646603352220  0.5570897907974716
  0.7702505258418300  0.5134896368588627  0.2627781883958188
  0.7867023983028451  0.4643854619825258  0.7414204497935282
  0.2678368831707061  0.5090743101867390  0.2464349127640133
  0.2708271889266774  0.4968208499630285  0.7489703501186894
  0.5019362035645883  0.7489086516206565  0.2538423113470177
  0.4766153254785749  0.2301778298039947  0.7182454235235801
  0.2377090483102905 -0.0128838778438071  0.2464990607755828
  0.2397130460859871  0.0193522893584542  0.7506359486357961
  0.2778224099497558  0.2380429568607675  0.9661851730647288
  0.2608818592768063  0.7571167953914132  0.0086172814580171
  0.7480351838967326  0.0022724886552851  0.8028629084745394
  0.7424832246289017  0.0554541501635327  0.2949633453567490
  0.7721828150817991  0.7726948089325031  0.9732460625039344
  0.7903556043196931  0.2517178674295664 -0.0234156307185219
  0.0019791703732891  0.2325239921681707  0.7601932114770408
  0.0232019116636622  0.7488921814379574  0.2274384427571487
  0.4691516919801509  0.2561798893685375  0.2265416271870767
  0.4602698586465107  0.7338026483175650  0.7607331213319137
  0.0284315945134889  0.2568092692687230  0.0009609294869219
  0.0155488735323612  0.7315470078072213 -0.0125959314363309
  0.5234082835534726  0.2245422908041608  0.4662618659296990
  0.4925105557867525  0.7741484128309186  0.4967677479421969
  0.5142207579932128  0.5025746374473109  0.2196730523792823
  0.5066989899716854  0.4765425218712958  0.7671703330920174
 -0.0055064893045805 -0.0027349586136234  0.2572557019388195
 -0.0030818354673008 -0.0148340542604907  0.7344676214325914
  0.4244862700423599  0.4230842377470393  0.4141753945184303
  0.5966627288347043  0.5836352979866526  0.4200582524456986
  0.7729883198745605  0.7679577933528706  0.2025344140367797
  0.6699268322452876  0.6546724273604467  0.8149183645503416
  0.0091626268827247 -0.0062328823021890 -0.0024879503145740
  0.7646162089667988  0.5009974776480283 -0.0025811627977618
  0.2568363366232672  0.4964677786367165 -0.0036400038958158
  0.0018301806174745  0.7516313332681644  0.4861820194711998
  0.0061781466402688  0.2413170571677178  0.5014896049691491
  0.4964809327559598  0.0004881090877521  0.2454535512918625
  0.4962300968646067 -0.0136697633301351  0.7558105312912563
  0.6134044471509629  0.6242164500655841  0.6264983760112225
  0.6160288298639364  0.3833228377552749  0.3599967934388316
  0.9089129783331589  0.8875164382350630  0.0953501950190052
  0.9039342884122956  0.0973983085313695  0.9009467515522124
  0.1098246563507111  0.8956383352224155  0.8904357037347136
  0.1078932359179496  0.0960841101929703  0.1024434609539456
  0.3878421407508568  0.6221607002966461  0.3777877309036016
  0.3855967323264276  0.3756397077719264  0.6107985400254254
  0.0977840288344195  0.3425194082300638  0.3893166641643511
  0.0879958719566269  0.6463972964232988  0.5972546215440283
  0.1108982206394575  0.1422400900516093  0.6009061186708075
  0.1125002905556426  0.8499238070667149  0.3921944349830962
  0.8980577799008757  0.1415283726843400  0.4034594665605679
  0.8891502621248417  0.8508243215677396  0.5841376282880694
  0.8631980558709105  0.3999205518683835  0.1016344409267462
  0.8644868607349773  0.5972930202005003  0.8869359332485173
  0.1547183674825017  0.5989089572569705  0.1000007560449208
  0.1584512019032701  0.3948931625552676  0.8872705281581194
  0.3993246062447570  0.8911255343379425  0.1451865065911641
  0.4030271851466261  0.0973196161099557  0.8563618901651069
  0.3889633939613928  0.0981401960704738  0.3480113550341703
  0.3866291438486416  0.8962156973791736  0.6503132016929014
  0.3562025236126605  0.3893420010658206  0.0949460641746183
  0.3603906694966925  0.6028624552971140  0.8990841437859566
  0.6130290582793378  0.0797142049438892  0.6613198385008100
  0.6057735625865147  0.9051173729576761  0.3452730798358886
  0.6632736102708012  0.6134451784389717  0.0880191222065863
  0.6651136225362487  0.3919693773766302  0.8956865884834443
  0.9040872607296512  0.3420731827373104  0.6109951362546815
  0.9003448427325250  0.6566216993969910  0.3745036349992653
  0.5973920317546574  0.1069726873450749  0.1465888958209260
  0.5952454463584941  0.8736812717981663  0.8518227493639366
 
  0.00000000E+00  0.00000000E+00  0.00000000E+00
  0.00000000E+00  0.00000000E+00  0.00000000E+00
  0.00000000E+00  0.00000000E+00  0.00000000E+00
  0.00000000E+00  0.00000000E+00  0.00000000E+00
  0.00000000E+00  0.00000000E+00  0.00000000E+00
  0.00000000E+00  0.00000000E+00  0.00000000E+00
  0.00000000E+00  0.00000000E+00  0.00000000E+00
  0.00000000E+00  0.00000000E+00  0.00000000E+00
  0.00000000E+00  0.00000000E+00  0.00000000E+00
  0.00000000E+00  0.00000000E+00  0.00000000E+00
  0.00000000E+00  0.00000000E+00  0.00000000E+00
  0.00000000E+00  0.00000000E+00  0.00000000E+00
  0.00000000E+00  0.00000000E+00  0.00000000E+00
  0.00000000E+00  0.00000000E+00  0.00000000E+00
  0.00000000E+00  0.00000000E+00  0.00000000E+00
  0.00000000E+00  0.00000000E+00  0.00000000E+00
  0.00000000E+00  0.00000000E+00  0.00000000E+00
  0.00000000E+00  0.00000000E+00  0.00000000E+00
  0.00000000E+00  0.00000000E+00  0.00000000E+00
  0.00000000E+00  0.00000000E+00  0.00000000E+00
  0.00000000E+00  0.00000000E+00  0.00000000E+00
  0.00000000E+00  0.00000000E+00  0.00000000E+00
  0.00000000E+00  0.00000000E+00  0.00000000E+00
  0.00000000E+00  0.00000000E+00  0.00000000E+00
  0.00000000E+00  0.00000000E+00  0.00000000E+00
  0.00000000E+00  0.00000000E+00  0.00000000E+00
  0.00000000E+00  0.00000000E+00  0.00000000E+00
  0.00000000E+00  0.00000000E+00  0.00000000E+00
  0.00000000E+00  0.00000000E+00  0.00000000E+00
  0.00000000E+00  0.00000000E+00  0.00000000E+00
  0.00000000E+00  0.00000000E+00  0.00000000E+00
  0.00000000E+00  0.00000000E+00  0.00000000E+00
  0.00000000E+00  0.00000000E+00  0.00000000E+00
  0.00000000E+00  0.00000000E+00  0.00000000E+00
  0.00000000E+00  0.00000000E+00  0.00000000E+00
  0.00000000E+00  0.00000000E+00  0.00000000E+00
  0.00000000E+00  0.00000000E+00  0.00000000E+00
  0.00000000E+00  0.00000000E+00  0.00000000E+00
  0.00000000E+00  0.00000000E+00  0.00000000E+00
  0.00000000E+00  0.00000000E+00  0.00000000E+00
  0.00000000E+00  0.00000000E+00  0.00000000E+00
  0.00000000E+00  0.00000000E+00  0.00000000E+00
  0.00000000E+00  0.00000000E+00  0.00000000E+00
  0.00000000E+00  0.00000000E+00  0.00000000E+00
  0.00000000E+00  0.00000000E+00  0.00000000E+00
  0.00000000E+00  0.00000000E+00  0.00000000E+00
  0.00000000E+00  0.00000000E+00  0.00000000E+00
  0.00000000E+00  0.00000000E+00  0.00000000E+00
  0.00000000E+00  0.00000000E+00  0.00000000E+00
  0.00000000E+00  0.00000000E+00  0.00000000E+00
  0.00000000E+00  0.00000000E+00  0.00000000E+00
  0.00000000E+00  0.00000000E+00  0.00000000E+00
  0.00000000E+00  0.00000000E+00  0.00000000E+00
  0.00000000E+00  0.00000000E+00  0.00000000E+00
  0.00000000E+00  0.00000000E+00  0.00000000E+00
  0.00000000E+00  0.00000000E+00  0.00000000E+00
  0.00000000E+00  0.00000000E+00  0.00000000E+00
  0.00000000E+00  0.00000000E+00  0.00000000E+00
  0.00000000E+00  0.00000000E+00  0.00000000E+00
  0.00000000E+00  0.00000000E+00  0.00000000E+00
  0.00000000E+00  0.00000000E+00  0.00000000E+00
  0.00000000E+00  0.00000000E+00  0.00000000E+00
  0.00000000E+00  0.00000000E+00  0.00000000E+00
  0.00000000E+00  0.00000000E+00  0.00000000E+00
  0.00000000E+00  0.00000000E+00  0.00000000E+00
  0.00000000E+00  0.00000000E+00  0.00000000E+00
  0.00000000E+00  0.00000000E+00  0.00000000E+00
  0.00000000E+00  0.00000000E+00  0.00000000E+00
  0.00000000E+00  0.00000000E+00  0.00000000E+00
  0.00000000E+00  0.00000000E+00  0.00000000E+00
  0.00000000E+00  0.00000000E+00  0.00000000E+00
  0.00000000E+00  0.00000000E+00  0.00000000E+00
  0.00000000E+00  0.00000000E+00  0.00000000E+00
  0.00000000E+00  0.00000000E+00  0.00000000E+00
  0.00000000E+00  0.00000000E+00  0.00000000E+00
  0.00000000E+00  0.00000000E+00  0.00000000E+00
  0.00000000E+00  0.00000000E+00  0.00000000E+00
  0.00000000E+00  0.00000000E+00  0.00000000E+00
  0.00000000E+00  0.00000000E+00  0.00000000E+00
  0.00000000E+00  0.00000000E+00  0.00000000E+00
  0.00000000E+00  0.00000000E+00  0.00000000E+00
  0.00000000E+00  0.00000000E+00  0.00000000E+00
  0.00000000E+00  0.00000000E+00  0.00000000E+00
  0.00000000E+00  0.00000000E+00  0.00000000E+00
  0.00000000E+00  0.00000000E+00  0.00000000E+00
  0.00000000E+00  0.00000000E+00  0.00000000E+00
  0.00000000E+00  0.00000000E+00  0.00000000E+00
  0.00000000E+00  0.00000000E+00  0.00000000E+00
  0.00000000E+00  0.00000000E+00  0.00000000E+00
  0.00000000E+00  0.00000000E+00  0.00000000E+00
  0.00000000E+00  0.00000000E+00  0.00000000E+00
  0.00000000E+00  0.00000000E+00  0.00000000E+00
  0.00000000E+00  0.00000000E+00  0.00000000E+00
  0.00000000E+00  0.00000000E+00  0.00000000E+00
  0.00000000E+00  0.00000000E+00  0.00000000E+00
  0.00000000E+00  0.00000000E+00  0.00000000E+00
  0.00000000E+00  0.00000000E+00  0.00000000E+00
  0.00000000E+00  0.00000000E+00  0.00000000E+00
  0.00000000E+00  0.00000000E+00  0.00000000E+00
  0.00000000E+00  0.00000000E+00  0.00000000E+00
