Li392 P56 N224
1.0
9.402378 0.000000 0.000000
0.000000 9.402378 -9.402378
0.000000 0.000000 103.426158
Li P N
392 56 224
direct
0.500000 0.500000 0.001666 Li+
0.000000 0.000000 0.001666 Li+
0.500000 0.000000 0.047121 Li+
0.000000 0.500000 0.001666 Li+
0.500000 0.000000 0.001666 Li+
0.000000 0.500000 0.047121 Li+
0.500000 0.000000 0.024393 Li+
0.250000 0.500000 0.001666 Li+
0.750000 0.500000 0.001666 Li+
0.000000 0.750000 0.069848 Li+
0.000000 0.250000 0.024393 Li+
0.500000 0.000000 0.069848 Li+
0.774626 0.774626 0.006144 Li+
0.725374 0.274626 0.047121 Li+
0.274626 0.725374 0.088098 Li+
0.725374 0.725374 0.047121 Li+
0.774626 0.225374 0.088098 Li+
0.225374 0.225374 0.047121 Li+
0.225374 0.774626 0.047121 Li+
0.274626 0.274626 0.006144 Li+
0.024836 0.762917 0.002537 Li+
0.737083 0.524836 0.072409 Li+
0.262917 0.475164 0.067893 Li+
0.246664 0.737083 0.066416 Li+
0.753336 0.737083 0.070931 Li+
0.475164 0.753336 0.048598 Li+
0.475164 0.246664 0.045643 Li+
0.762917 0.746664 0.026348 Li+
0.746664 0.024836 0.027825 Li+
0.746664 0.975164 0.066416 Li+
0.237083 0.253336 0.072409 Li+
0.253336 0.024836 0.070931 Li+
0.762917 0.253336 0.067893 Li+
0.237083 0.746664 0.021832 Li+
0.253336 0.975164 0.023310 Li+
0.975164 0.237083 0.045643 Li+
0.975164 0.762917 0.048598 Li+
0.024836 0.237083 0.000795 Li+
0.524836 0.753336 0.000795 Li+
0.524836 0.246664 0.002537 Li+
0.753336 0.262917 0.023310 Li+
0.246664 0.262917 0.027825 Li+
0.737083 0.475164 0.021832 Li+
0.262917 0.524836 0.026348 Li+
0.000000 0.000000 0.023085 Li+
0.500000 0.500000 0.071156 Li+
0.235613 0.500000 0.047121 Li+
0.764387 0.500000 0.047121 Li+
0.500000 0.764387 0.071156 Li+
0.500000 0.235613 0.023085 Li+
0.000000 0.735613 0.023085 Li+
0.735613 0.000000 0.047121 Li+
0.000000 0.264387 0.071156 Li+
0.264387 0.000000 0.047121 Li+
0.000000 0.000000 0.071156 Li+
0.500000 0.500000 0.023085 Li+
0.500000 0.500000 0.092575 Li+
0.000000 0.000000 0.092575 Li+
0.500000 0.000000 0.138030 Li+
0.000000 0.500000 0.092575 Li+
0.500000 0.000000 0.092575 Li+
0.000000 0.500000 0.138030 Li+
0.500000 0.000000 0.115302 Li+
0.250000 0.500000 0.092575 Li+
0.750000 0.500000 0.092575 Li+
0.000000 0.750000 0.160757 Li+
0.000000 0.250000 0.115302 Li+
0.500000 0.000000 0.160757 Li+
0.774626 0.774626 0.097053 Li+
0.725374 0.274626 0.138030 Li+
0.274626 0.725374 0.179007 Li+
0.725374 0.725374 0.138030 Li+
0.774626 0.225374 0.179007 Li+
0.225374 0.225374 0.138030 Li+
0.225374 0.774626 0.138030 Li+
0.274626 0.274626 0.097053 Li+
0.024836 0.762917 0.093446 Li+
0.737083 0.524836 0.163318 Li+
0.262917 0.475164 0.158802 Li+
0.246664 0.737083 0.157325 Li+
0.753336 0.737083 0.161841 Li+
0.475164 0.753336 0.139507 Li+
0.475164 0.246664 0.136552 Li+
0.762917 0.746664 0.117257 Li+
0.746664 0.024836 0.118735 Li+
0.746664 0.975164 0.157325 Li+
0.237083 0.253336 0.163318 Li+
0.253336 0.024836 0.161841 Li+
0.762917 0.253336 0.158802 Li+
0.237083 0.746664 0.112741 Li+
0.253336 0.975164 0.114219 Li+
0.975164 0.237083 0.136552 Li+
0.975164 0.762917 0.139507 Li+
0.024836 0.237083 0.091704 Li+
0.524836 0.753336 0.091704 Li+
0.524836 0.246664 0.093446 Li+
0.753336 0.262917 0.114219 Li+
0.246664 0.262917 0.118735 Li+
0.737083 0.475164 0.112741 Li+
0.262917 0.524836 0.117257 Li+
0.000000 0.000000 0.113995 Li+
0.500000 0.500000 0.162065 Li+
0.235613 0.500000 0.138030 Li+
0.764387 0.500000 0.138030 Li+
0.500000 0.764387 0.162065 Li+
0.500000 0.235613 0.113995 Li+
0.000000 0.735613 0.113995 Li+
0.735613 0.000000 0.138030 Li+
0.000000 0.264387 0.162065 Li+
0.264387 0.000000 0.138030 Li+
0.000000 0.000000 0.162065 Li+
0.500000 0.500000 0.113995 Li+
0.500000 0.500000 0.183484 Li+
0.000000 0.000000 0.183484 Li+
0.500000 0.000000 0.228939 Li+
0.000000 0.500000 0.183484 Li+
0.500000 0.000000 0.183484 Li+
0.000000 0.500000 0.228939 Li+
0.500000 0.000000 0.206212 Li+
0.250000 0.500000 0.183484 Li+
0.750000 0.500000 0.183484 Li+
0.000000 0.750000 0.251666 Li+
0.000000 0.250000 0.206212 Li+
0.500000 0.000000 0.251666 Li+
0.774626 0.774626 0.187962 Li+
0.725374 0.274626 0.228939 Li+
0.274626 0.725374 0.269916 Li+
0.725374 0.725374 0.228939 Li+
0.774626 0.225374 0.269916 Li+
0.225374 0.225374 0.228939 Li+
0.225374 0.774626 0.228939 Li+
0.274626 0.274626 0.187962 Li+
0.024836 0.762917 0.184355 Li+
0.737083 0.524836 0.254227 Li+
0.262917 0.475164 0.249712 Li+
0.246664 0.737083 0.248234 Li+
0.753336 0.737083 0.252750 Li+
0.475164 0.753336 0.230416 Li+
0.475164 0.246664 0.227461 Li+
0.762917 0.746664 0.208166 Li+
0.746664 0.024836 0.209644 Li+
0.746664 0.975164 0.248234 Li+
0.237083 0.253336 0.254227 Li+
0.253336 0.024836 0.252750 Li+
0.762917 0.253336 0.249712 Li+
0.237083 0.746664 0.203650 Li+
0.253336 0.975164 0.205128 Li+
0.975164 0.237083 0.227461 Li+
0.975164 0.762917 0.230416 Li+
0.024836 0.237083 0.182613 Li+
0.524836 0.753336 0.182613 Li+
0.524836 0.246664 0.184355 Li+
0.753336 0.262917 0.205128 Li+
0.246664 0.262917 0.209644 Li+
0.737083 0.475164 0.203650 Li+
0.262917 0.524836 0.208166 Li+
0.000000 0.000000 0.204904 Li+
0.500000 0.500000 0.252974 Li+
0.235613 0.500000 0.228939 Li+
0.764387 0.500000 0.228939 Li+
0.500000 0.764387 0.252974 Li+
0.500000 0.235613 0.204904 Li+
0.000000 0.735613 0.204904 Li+
0.735613 0.000000 0.228939 Li+
0.000000 0.264387 0.252974 Li+
0.264387 0.000000 0.228939 Li+
0.000000 0.000000 0.252974 Li+
0.500000 0.500000 0.204904 Li+
0.500000 0.500000 0.274393 Li+
0.000000 0.000000 0.274393 Li+
0.500000 0.000000 0.319848 Li+
0.000000 0.500000 0.274393 Li+
0.500000 0.000000 0.274393 Li+
0.000000 0.500000 0.319848 Li+
0.500000 0.000000 0.297121 Li+
0.250000 0.500000 0.274393 Li+
0.750000 0.500000 0.274393 Li+
0.000000 0.750000 0.342575 Li+
0.000000 0.250000 0.297121 Li+
0.500000 0.000000 0.342575 Li+
0.774626 0.774626 0.278871 Li+
0.725374 0.274626 0.319848 Li+
0.274626 0.725374 0.360825 Li+
0.725374 0.725374 0.319848 Li+
0.774626 0.225374 0.360825 Li+
0.225374 0.225374 0.319848 Li+
0.225374 0.774626 0.319848 Li+
0.274626 0.274626 0.278871 Li+
0.024836 0.762917 0.275264 Li+
0.737083 0.524836 0.345136 Li+
0.262917 0.475164 0.340621 Li+
0.246664 0.737083 0.339143 Li+
0.753336 0.737083 0.343659 Li+
0.475164 0.753336 0.321325 Li+
0.475164 0.246664 0.318370 Li+
0.762917 0.746664 0.299075 Li+
0.746664 0.024836 0.300553 Li+
0.746664 0.975164 0.339143 Li+
0.237083 0.253336 0.345136 Li+
0.253336 0.024836 0.343659 Li+
0.762917 0.253336 0.340621 Li+
0.237083 0.746664 0.294560 Li+
0.253336 0.975164 0.296037 Li+
0.975164 0.237083 0.318370 Li+
0.975164 0.762917 0.321325 Li+
0.024836 0.237083 0.273522 Li+
0.524836 0.753336 0.273522 Li+
0.524836 0.246664 0.275264 Li+
0.753336 0.262917 0.296037 Li+
0.246664 0.262917 0.300553 Li+
0.737083 0.475164 0.294560 Li+
0.262917 0.524836 0.299075 Li+
0.000000 0.000000 0.295813 Li+
0.500000 0.500000 0.343883 Li+
0.235613 0.500000 0.319848 Li+
0.764387 0.500000 0.319848 Li+
0.500000 0.764387 0.343883 Li+
0.500000 0.235613 0.295813 Li+
0.000000 0.735613 0.295813 Li+
0.735613 0.000000 0.319848 Li+
0.000000 0.264387 0.343883 Li+
0.264387 0.000000 0.319848 Li+
0.000000 0.000000 0.343883 Li+
0.500000 0.500000 0.295813 Li+
0.500000 0.500000 0.365302 Li+
0.000000 0.000000 0.365302 Li+
0.500000 0.000000 0.410757 Li+
0.000000 0.500000 0.365302 Li+
0.500000 0.000000 0.365302 Li+
0.000000 0.500000 0.410757 Li+
0.500000 0.000000 0.388030 Li+
0.250000 0.500000 0.365302 Li+
0.750000 0.500000 0.365302 Li+
0.000000 0.750000 0.433484 Li+
0.000000 0.250000 0.388030 Li+
0.500000 0.000000 0.433484 Li+
0.774626 0.774626 0.369780 Li+
0.725374 0.274626 0.410757 Li+
0.274626 0.725374 0.451734 Li+
0.725374 0.725374 0.410757 Li+
0.774626 0.225374 0.451734 Li+
0.225374 0.225374 0.410757 Li+
0.225374 0.774626 0.410757 Li+
0.274626 0.274626 0.369780 Li+
0.024836 0.762917 0.366173 Li+
0.737083 0.524836 0.436045 Li+
0.262917 0.475164 0.431530 Li+
0.246664 0.737083 0.430052 Li+
0.753336 0.737083 0.434568 Li+
0.475164 0.753336 0.412235 Li+
0.475164 0.246664 0.409279 Li+
0.762917 0.746664 0.389984 Li+
0.746664 0.024836 0.391462 Li+
0.746664 0.975164 0.430052 Li+
0.237083 0.253336 0.436045 Li+
0.253336 0.024836 0.434568 Li+
0.762917 0.253336 0.431530 Li+
0.237083 0.746664 0.385469 Li+
0.253336 0.975164 0.386946 Li+
0.975164 0.237083 0.409279 Li+
0.975164 0.762917 0.412235 Li+
0.024836 0.237083 0.364431 Li+
0.524836 0.753336 0.364431 Li+
0.524836 0.246664 0.366173 Li+
0.753336 0.262917 0.386946 Li+
0.246664 0.262917 0.391462 Li+
0.737083 0.475164 0.385469 Li+
0.262917 0.524836 0.389984 Li+
0.000000 0.000000 0.386722 Li+
0.500000 0.500000 0.434792 Li+
0.235613 0.500000 0.410757 Li+
0.764387 0.500000 0.410757 Li+
0.500000 0.764387 0.434792 Li+
0.500000 0.235613 0.386722 Li+
0.000000 0.735613 0.386722 Li+
0.735613 0.000000 0.410757 Li+
0.000000 0.264387 0.434792 Li+
0.264387 0.000000 0.410757 Li+
0.000000 0.000000 0.434792 Li+
0.500000 0.500000 0.386722 Li+
0.500000 0.500000 0.456212 Li+
0.000000 0.000000 0.456212 Li+
0.500000 0.000000 0.501666 Li+
0.000000 0.500000 0.456212 Li+
0.500000 0.000000 0.456212 Li+
0.000000 0.500000 0.501666 Li+
0.500000 0.000000 0.478939 Li+
0.250000 0.500000 0.456212 Li+
0.750000 0.500000 0.456212 Li+
0.000000 0.750000 0.524393 Li+
0.000000 0.250000 0.478939 Li+
0.500000 0.000000 0.524393 Li+
0.774626 0.774626 0.460689 Li+
0.725374 0.274626 0.501666 Li+
0.274626 0.725374 0.542643 Li+
0.725374 0.725374 0.501666 Li+
0.774626 0.225374 0.542643 Li+
0.225374 0.225374 0.501666 Li+
0.225374 0.774626 0.501666 Li+
0.274626 0.274626 0.460689 Li+
0.024836 0.762917 0.457083 Li+
0.737083 0.524836 0.526954 Li+
0.262917 0.475164 0.522439 Li+
0.246664 0.737083 0.520961 Li+
0.753336 0.737083 0.525477 Li+
0.475164 0.753336 0.503144 Li+
0.475164 0.246664 0.500189 Li+
0.762917 0.746664 0.480893 Li+
0.746664 0.024836 0.482371 Li+
0.746664 0.975164 0.520961 Li+
0.237083 0.253336 0.526954 Li+
0.253336 0.024836 0.525477 Li+
0.762917 0.253336 0.522439 Li+
0.237083 0.746664 0.476378 Li+
0.253336 0.975164 0.477855 Li+
0.975164 0.237083 0.500189 Li+
0.975164 0.762917 0.503144 Li+
0.024836 0.237083 0.455341 Li+
0.524836 0.753336 0.455341 Li+
0.524836 0.246664 0.457083 Li+
0.753336 0.262917 0.477855 Li+
0.246664 0.262917 0.482371 Li+
0.737083 0.475164 0.476378 Li+
0.262917 0.524836 0.480893 Li+
0.000000 0.000000 0.477631 Li+
0.500000 0.500000 0.525701 Li+
0.235613 0.500000 0.501666 Li+
0.764387 0.500000 0.501666 Li+
0.500000 0.764387 0.525701 Li+
0.500000 0.235613 0.477631 Li+
0.000000 0.735613 0.477631 Li+
0.735613 0.000000 0.501666 Li+
0.000000 0.264387 0.525701 Li+
0.264387 0.000000 0.501666 Li+
0.000000 0.000000 0.525701 Li+
0.500000 0.500000 0.477631 Li+
0.500000 0.500000 0.547121 Li+
0.000000 0.000000 0.547121 Li+
0.500000 0.000000 0.592575 Li+
0.000000 0.500000 0.547121 Li+
0.500000 0.000000 0.547121 Li+
0.000000 0.500000 0.592575 Li+
0.500000 0.000000 0.569848 Li+
0.250000 0.500000 0.547121 Li+
0.750000 0.500000 0.547121 Li+
0.000000 0.750000 0.615302 Li+
0.000000 0.250000 0.569848 Li+
0.500000 0.000000 0.615302 Li+
0.774626 0.774626 0.551598 Li+
0.725374 0.274626 0.592575 Li+
0.274626 0.725374 0.633552 Li+
0.725374 0.725374 0.592575 Li+
0.774626 0.225374 0.633552 Li+
0.225374 0.225374 0.592575 Li+
0.225374 0.774626 0.592575 Li+
0.274626 0.274626 0.551598 Li+
0.024836 0.762917 0.547992 Li+
0.737083 0.524836 0.617864 Li+
0.262917 0.475164 0.613348 Li+
0.246664 0.737083 0.611870 Li+
0.753336 0.737083 0.616386 Li+
0.475164 0.753336 0.594053 Li+
0.475164 0.246664 0.591098 Li+
0.762917 0.746664 0.571802 Li+
0.746664 0.024836 0.573280 Li+
0.746664 0.975164 0.611870 Li+
0.237083 0.253336 0.617864 Li+
0.253336 0.024836 0.616386 Li+
0.762917 0.253336 0.613348 Li+
0.237083 0.746664 0.567287 Li+
0.253336 0.975164 0.568764 Li+
0.975164 0.237083 0.591098 Li+
0.975164 0.762917 0.594053 Li+
0.024836 0.237083 0.546250 Li+
0.524836 0.753336 0.546250 Li+
0.524836 0.246664 0.547992 Li+
0.753336 0.262917 0.568764 Li+
0.246664 0.262917 0.573280 Li+
0.737083 0.475164 0.567287 Li+
0.262917 0.524836 0.571802 Li+
0.000000 0.000000 0.568540 Li+
0.500000 0.500000 0.616610 Li+
0.235613 0.500000 0.592575 Li+
0.764387 0.500000 0.592575 Li+
0.500000 0.764387 0.616610 Li+
0.500000 0.235613 0.568540 Li+
0.000000 0.735613 0.568540 Li+
0.735613 0.000000 0.592575 Li+
0.000000 0.264387 0.616610 Li+
0.264387 0.000000 0.592575 Li+
0.000000 0.000000 0.616610 Li+
0.500000 0.500000 0.568540 Li+
0.500000 0.500000 0.047121 P4+
0.000000 0.000000 0.047121 P4+
0.250000 0.000000 0.001666 P4+
0.000000 0.500000 0.024393 P4+
0.000000 0.500000 0.069848 P4+
0.500000 0.750000 0.024393 P4+
0.500000 0.250000 0.069848 P4+
0.750000 0.000000 0.001666 P4+
0.500000 0.500000 0.138030 P4+
0.000000 0.000000 0.138030 P4+
0.250000 0.000000 0.092575 P4+
0.000000 0.500000 0.115302 P4+
0.000000 0.500000 0.160757 P4+
0.500000 0.750000 0.115302 P4+
0.500000 0.250000 0.160757 P4+
0.750000 0.000000 0.092575 P4+
0.500000 0.500000 0.228939 P4+
0.000000 0.000000 0.228939 P4+
0.250000 0.000000 0.183484 P4+
0.000000 0.500000 0.206212 P4+
0.000000 0.500000 0.251666 P4+
0.500000 0.750000 0.206212 P4+
0.500000 0.250000 0.251666 P4+
0.750000 0.000000 0.183484 P4+
0.500000 0.500000 0.319848 P4+
0.000000 0.000000 0.319848 P4+
0.250000 0.000000 0.274393 P4+
0.000000 0.500000 0.297121 P4+
0.000000 0.500000 0.342575 P4+
0.500000 0.750000 0.297121 P4+
0.500000 0.250000 0.342575 P4+
0.750000 0.000000 0.274393 P4+
0.500000 0.500000 0.410757 P4+
0.000000 0.000000 0.410757 P4+
0.250000 0.000000 0.365302 P4+
0.000000 0.500000 0.388030 P4+
0.000000 0.500000 0.433484 P4+
0.500000 0.750000 0.388030 P4+
0.500000 0.250000 0.433484 P4+
0.750000 0.000000 0.365302 P4+
0.500000 0.500000 0.501666 P4+
0.000000 0.000000 0.501666 P4+
0.250000 0.000000 0.456212 P4+
0.000000 0.500000 0.478939 P4+
0.000000 0.500000 0.524393 P4+
0.500000 0.750000 0.478939 P4+
0.500000 0.250000 0.524393 P4+
0.750000 0.000000 0.456212 P4+
0.500000 0.500000 0.592575 P4+
0.000000 0.000000 0.592575 P4+
0.250000 0.000000 0.547121 P4+
0.000000 0.500000 0.569848 P4+
0.000000 0.500000 0.615302 P4+
0.500000 0.750000 0.569848 P4+
0.500000 0.250000 0.615302 P4+
0.750000 0.000000 0.547121 P4+
0.396539 0.396539 0.028310 N2-
0.103461 0.896539 0.047121 N2-
0.103461 0.103461 0.047121 N2-
0.896539 0.103461 0.065932 N2-
0.603461 0.603461 0.047121 N2-
0.396539 0.603461 0.065932 N2-
0.603461 0.396539 0.047121 N2-
0.896539 0.896539 0.028310 N2-
0.396539 0.396539 0.119219 N2-
0.103461 0.896539 0.138030 N2-
0.103461 0.103461 0.138030 N2-
0.896539 0.103461 0.156841 N2-
0.603461 0.603461 0.138030 N2-
0.396539 0.603461 0.156841 N2-
0.603461 0.396539 0.138030 N2-
0.896539 0.896539 0.119219 N2-
0.396539 0.396539 0.210128 N2-
0.103461 0.896539 0.228939 N2-
0.103461 0.103461 0.228939 N2-
0.896539 0.103461 0.247750 N2-
0.603461 0.603461 0.228939 N2-
0.396539 0.603461 0.247750 N2-
0.603461 0.396539 0.228939 N2-
0.896539 0.896539 0.210128 N2-
0.396539 0.396539 0.301037 N2-
0.103461 0.896539 0.319848 N2-
0.103461 0.103461 0.319848 N2-
0.896539 0.103461 0.338659 N2-
0.603461 0.603461 0.319848 N2-
0.396539 0.603461 0.338659 N2-
0.603461 0.396539 0.319848 N2-
0.896539 0.896539 0.301037 N2-
0.396539 0.396539 0.391946 N2-
0.103461 0.896539 0.410757 N2-
0.103461 0.103461 0.410757 N2-
0.896539 0.103461 0.429568 N2-
0.603461 0.603461 0.410757 N2-
0.396539 0.603461 0.429568 N2-
0.603461 0.396539 0.410757 N2-
0.896539 0.896539 0.391946 N2-
0.396539 0.396539 0.482855 N2-
0.103461 0.896539 0.501666 N2-
0.103461 0.103461 0.501666 N2-
0.896539 0.103461 0.520477 N2-
0.603461 0.603461 0.501666 N2-
0.396539 0.603461 0.520477 N2-
0.603461 0.396539 0.501666 N2-
0.896539 0.896539 0.482855 N2-
0.396539 0.396539 0.573764 N2-
0.103461 0.896539 0.592575 N2-
0.103461 0.103461 0.592575 N2-
0.896539 0.103461 0.611386 N2-
0.603461 0.603461 0.592575 N2-
0.396539 0.603461 0.611386 N2-
0.603461 0.396539 0.592575 N2-
0.896539 0.896539 0.573764 N2-
0.900579 0.612615 0.070928 N3-
0.887385 0.400579 0.069967 N3-
0.112615 0.599421 0.088044 N3-
0.149269 0.887385 0.000467 N3-
0.850731 0.887385 0.073299 N3-
0.599421 0.850731 0.043788 N3-
0.599421 0.149269 0.050453 N3-
0.612615 0.649269 0.006198 N3-
0.649269 0.900579 0.002866 N3-
0.649269 0.099421 0.000467 N3-
0.387385 0.350731 0.069967 N3-
0.350731 0.900579 0.073299 N3-
0.612615 0.350731 0.088044 N3-
0.387385 0.649269 0.024274 N3-
0.350731 0.099421 0.020942 N3-
0.099421 0.387385 0.050453 N3-
0.099421 0.612615 0.043788 N3-
0.900579 0.387385 0.023313 N3-
0.400579 0.850731 0.023313 N3-
0.400579 0.149269 0.070928 N3-
0.850731 0.112615 0.020942 N3-
0.149269 0.112615 0.002866 N3-
0.887385 0.599421 0.024274 N3-
0.112615 0.400579 0.006198 N3-
0.900579 0.612615 0.161837 N3-
0.887385 0.400579 0.160876 N3-
0.112615 0.599421 0.178953 N3-
0.149269 0.887385 0.091376 N3-
0.850731 0.887385 0.164208 N3-
0.599421 0.850731 0.134698 N3-
0.599421 0.149269 0.141362 N3-
0.612615 0.649269 0.097107 N3-
0.649269 0.900579 0.093775 N3-
0.649269 0.099421 0.091376 N3-
0.387385 0.350731 0.160876 N3-
0.350731 0.900579 0.164208 N3-
0.612615 0.350731 0.178953 N3-
0.387385 0.649269 0.115183 N3-
0.350731 0.099421 0.111851 N3-
0.099421 0.387385 0.141362 N3-
0.099421 0.612615 0.134698 N3-
0.900579 0.387385 0.114222 N3-
0.400579 0.850731 0.114222 N3-
0.400579 0.149269 0.161837 N3-
0.850731 0.112615 0.111851 N3-
0.149269 0.112615 0.093775 N3-
0.887385 0.599421 0.115183 N3-
0.112615 0.400579 0.097107 N3-
0.900579 0.612615 0.252746 N3-
0.887385 0.400579 0.251785 N3-
0.112615 0.599421 0.269862 N3-
0.149269 0.887385 0.182285 N3-
0.850731 0.887385 0.255117 N3-
0.599421 0.850731 0.225607 N3-
0.599421 0.149269 0.232271 N3-
0.612615 0.649269 0.188016 N3-
0.649269 0.900579 0.184684 N3-
0.649269 0.099421 0.182285 N3-
0.387385 0.350731 0.251785 N3-
0.350731 0.900579 0.255117 N3-
0.612615 0.350731 0.269862 N3-
0.387385 0.649269 0.206092 N3-
0.350731 0.099421 0.202760 N3-
0.099421 0.387385 0.232271 N3-
0.099421 0.612615 0.225607 N3-
0.900579 0.387385 0.205131 N3-
0.400579 0.850731 0.205131 N3-
0.400579 0.149269 0.252746 N3-
0.850731 0.112615 0.202760 N3-
0.149269 0.112615 0.184684 N3-
0.887385 0.599421 0.206092 N3-
0.112615 0.400579 0.188016 N3-
0.900579 0.612615 0.343656 N3-
0.887385 0.400579 0.342694 N3-
0.112615 0.599421 0.360771 N3-
0.149269 0.887385 0.273194 N3-
0.850731 0.887385 0.346026 N3-
0.599421 0.850731 0.316516 N3-
0.599421 0.149269 0.323180 N3-
0.612615 0.649269 0.278925 N3-
0.649269 0.900579 0.275593 N3-
0.649269 0.099421 0.273194 N3-
0.387385 0.350731 0.342694 N3-
0.350731 0.900579 0.346026 N3-
0.612615 0.350731 0.360771 N3-
0.387385 0.649269 0.297002 N3-
0.350731 0.099421 0.293669 N3-
0.099421 0.387385 0.323180 N3-
0.099421 0.612615 0.316516 N3-
0.900579 0.387385 0.296040 N3-
0.400579 0.850731 0.296040 N3-
0.400579 0.149269 0.343656 N3-
0.850731 0.112615 0.293669 N3-
0.149269 0.112615 0.275593 N3-
0.887385 0.599421 0.297002 N3-
0.112615 0.400579 0.278925 N3-
0.900579 0.612615 0.434565 N3-
0.887385 0.400579 0.433603 N3-
0.112615 0.599421 0.451680 N3-
0.149269 0.887385 0.364103 N3-
0.850731 0.887385 0.436936 N3-
0.599421 0.850731 0.407425 N3-
0.599421 0.149269 0.414089 N3-
0.612615 0.649269 0.369834 N3-
0.649269 0.900579 0.366502 N3-
0.649269 0.099421 0.364103 N3-
0.387385 0.350731 0.433603 N3-
0.350731 0.900579 0.436936 N3-
0.612615 0.350731 0.451680 N3-
0.387385 0.649269 0.387911 N3-
0.350731 0.099421 0.384578 N3-
0.099421 0.387385 0.414089 N3-
0.099421 0.612615 0.407425 N3-
0.900579 0.387385 0.386949 N3-
0.400579 0.850731 0.386949 N3-
0.400579 0.149269 0.434565 N3-
0.850731 0.112615 0.384578 N3-
0.149269 0.112615 0.366502 N3-
0.887385 0.599421 0.387911 N3-
0.112615 0.400579 0.369834 N3-
0.900579 0.612615 0.525474 N3-
0.887385 0.400579 0.524512 N3-
0.112615 0.599421 0.542589 N3-
0.149269 0.887385 0.455012 N3-
0.850731 0.887385 0.527845 N3-
0.599421 0.850731 0.498334 N3-
0.599421 0.149269 0.504998 N3-
0.612615 0.649269 0.460743 N3-
0.649269 0.900579 0.457411 N3-
0.649269 0.099421 0.455012 N3-
0.387385 0.350731 0.524512 N3-
0.350731 0.900579 0.527845 N3-
0.612615 0.350731 0.542589 N3-
0.387385 0.649269 0.478820 N3-
0.350731 0.099421 0.475488 N3-
0.099421 0.387385 0.504998 N3-
0.099421 0.612615 0.498334 N3-
0.900579 0.387385 0.477858 N3-
0.400579 0.850731 0.477858 N3-
0.400579 0.149269 0.525474 N3-
0.850731 0.112615 0.475488 N3-
0.149269 0.112615 0.457411 N3-
0.887385 0.599421 0.478820 N3-
0.112615 0.400579 0.460743 N3-
0.900579 0.612615 0.616383 N3-
0.887385 0.400579 0.615422 N3-
0.112615 0.599421 0.633498 N3-
0.149269 0.887385 0.545921 N3-
0.850731 0.887385 0.618754 N3-
0.599421 0.850731 0.589243 N3-
0.599421 0.149269 0.595907 N3-
0.612615 0.649269 0.551652 N3-
0.649269 0.900579 0.548320 N3-
0.649269 0.099421 0.545921 N3-
0.387385 0.350731 0.615422 N3-
0.350731 0.900579 0.618754 N3-
0.612615 0.350731 0.633498 N3-
0.387385 0.649269 0.569729 N3-
0.350731 0.099421 0.566397 N3-
0.099421 0.387385 0.595907 N3-
0.099421 0.612615 0.589243 N3-
0.900579 0.387385 0.568768 N3-
0.400579 0.850731 0.568768 N3-
0.400579 0.149269 0.616383 N3-
0.850731 0.112615 0.566397 N3-
0.149269 0.112615 0.548320 N3-
0.887385 0.599421 0.569729 N3-
0.112615 0.400579 0.551652 N3-
