Li14 N42
1.0
3.354050 0.000000 0.000000
-0.000000 5.428812 6.676184
0.000000 0.000000 69.840158
Li N
14 42
direct
0.000000 0.000000 0.053571 Li+
0.500000 0.500000 0.017857 Li+
0.000000 0.000000 0.125000 Li+
0.500000 0.500000 0.089286 Li+
0.000000 0.000000 0.196429 Li+
0.500000 0.500000 0.160714 Li+
0.000000 0.000000 0.267857 Li+
0.500000 0.500000 0.232143 Li+
0.000000 0.000000 0.339286 Li+
0.500000 0.500000 0.303571 Li+
0.000000 0.000000 0.410714 Li+
0.500000 0.500000 0.375000 Li+
0.000000 0.000000 0.482143 Li+
0.500000 0.500000 0.446429 Li+
0.000000 0.605811 0.028635 N3-
0.000000 0.394189 0.007079 N3-
0.000000 0.500000 0.053571 N3-
0.500000 0.105811 0.064350 N3-
0.500000 0.894189 0.042793 N3-
0.500000 0.000000 0.017857 N3-
0.000000 0.605811 0.100064 N3-
0.000000 0.394189 0.078507 N3-
0.000000 0.500000 0.125000 N3-
0.500000 0.105811 0.135778 N3-
0.500000 0.894189 0.114222 N3-
0.500000 0.000000 0.089286 N3-
0.000000 0.605811 0.171493 N3-
0.000000 0.394189 0.149936 N3-
0.000000 0.500000 0.196429 N3-
0.500000 0.105811 0.207207 N3-
0.500000 0.894189 0.185650 N3-
0.500000 0.000000 0.160714 N3-
0.000000 0.605811 0.242921 N3-
0.000000 0.394189 0.221365 N3-
0.000000 0.500000 0.267857 N3-
0.500000 0.105811 0.278635 N3-
0.500000 0.894189 0.257079 N3-
0.500000 0.000000 0.232143 N3-
0.000000 0.605811 0.314350 N3-
0.000000 0.394189 0.292793 N3-
0.000000 0.500000 0.339286 N3-
0.500000 0.105811 0.350064 N3-
0.500000 0.894189 0.328507 N3-
0.500000 0.000000 0.303571 N3-
0.000000 0.605811 0.385778 N3-
0.000000 0.394189 0.364222 N3-
0.000000 0.500000 0.410714 N3-
0.500000 0.105811 0.421493 N3-
0.500000 0.894189 0.399936 N3-
0.500000 0.000000 0.375000 N3-
0.000000 0.605811 0.457207 N3-
0.000000 0.394189 0.435650 N3-
0.000000 0.500000 0.482143 N3-
0.500000 0.105811 0.492921 N3-
0.500000 0.894189 0.471365 N3-
0.500000 0.000000 0.446429 N3-
