Li7 P2 N1 O7                            
   1.00000000000000     
     5.1314014735160205   -0.0266066375826621   -0.0469763118942714
    -0.0285598642664393    5.2943805161293778   -0.0171765275343212
    -0.0582652137612949   -0.0199162985225441    6.1949118239788676
   Li   P    N    O 
     7     2     1     7
Direct
 -0.0742497429320974  0.6815593295530580  0.2505718741884959
  0.0102540001311586  0.6717903328104915  0.7590567253525679
  0.5052078766241541  0.3254312651617701  0.7529768111693422
  0.5267404881067532  0.8697564515605890 -0.0201466962416129
  0.0120936817409719  0.1575553967688242  0.5021705239791326
  0.5178609599430986  0.3009766475734091  0.2510100876216464
  0.2689797555478705  0.6500084039782725  0.1920233866571222
  0.4977921759464732  0.8254626844105066  0.5115200687111150
  0.0090112332693540  0.1650821017694375  0.0010234123062948
  0.1067965419828972  0.8838033699648526  0.0128460554594615
  0.1033708290420411  0.3143054292338373  0.7931486169513965
  0.6018223639498573  0.1046766399462120  0.5027335189137706
  0.1942540506003651  0.8125043829983302  0.4921406190969990
  0.6987762426120875  0.1921815858146658  0.0019044533184237
  0.5918818534342493  0.6843107855171785  0.3004486723064372
  0.1063320698433891  0.3345259515130460  0.2080674760662776
  0.6067756201574079  0.6876292414255213  0.7073243941431313
 
  0.00000000E+00  0.00000000E+00  0.00000000E+00
  0.00000000E+00  0.00000000E+00  0.00000000E+00
  0.00000000E+00  0.00000000E+00  0.00000000E+00
  0.00000000E+00  0.00000000E+00  0.00000000E+00
  0.00000000E+00  0.00000000E+00  0.00000000E+00
  0.00000000E+00  0.00000000E+00  0.00000000E+00
  0.00000000E+00  0.00000000E+00  0.00000000E+00
  0.00000000E+00  0.00000000E+00  0.00000000E+00
  0.00000000E+00  0.00000000E+00  0.00000000E+00
  0.00000000E+00  0.00000000E+00  0.00000000E+00
  0.00000000E+00  0.00000000E+00  0.00000000E+00
  0.00000000E+00  0.00000000E+00  0.00000000E+00
  0.00000000E+00  0.00000000E+00  0.00000000E+00
  0.00000000E+00  0.00000000E+00  0.00000000E+00
  0.00000000E+00  0.00000000E+00  0.00000000E+00
  0.00000000E+00  0.00000000E+00  0.00000000E+00
  0.00000000E+00  0.00000000E+00  0.00000000E+00
