Li140 P140 O420
1.0
11.197969 0.000000 -7.200064
0.000000 5.521558 0.000000
0.000000 0.000000 176.981687
Li P O
140 140 420
direct
0.873522 0.494607 0.083100 Li+
0.873522 0.505393 0.027544 Li+
0.111170 0.484419 0.095965 Li+
0.111170 0.515581 0.040409 Li+
0.347043 0.505784 0.108793 Li+
0.347043 0.494216 0.053237 Li+
0.581703 0.507224 0.010470 Li+
0.581703 0.492776 0.066025 Li+
0.729106 0.992783 0.019027 Li+
0.729106 0.007217 0.074583 Li+
0.375737 0.521194 0.027552 Li+
0.375737 0.478806 0.083107 Li+
0.612275 0.476313 0.040379 Li+
0.612275 0.523687 0.095934 Li+
0.848182 0.533250 0.053348 Li+
0.848182 0.466750 0.108904 Li+
0.084520 0.477737 0.066300 Li+
0.084520 0.522263 0.010744 Li+
0.233171 0.960889 0.074813 Li+
0.233171 0.039111 0.019257 Li+
0.873522 0.494607 0.194211 Li+
0.873522 0.505393 0.138655 Li+
0.111170 0.484419 0.207076 Li+
0.111170 0.515581 0.151520 Li+
0.347043 0.505784 0.219904 Li+
0.347043 0.494216 0.164348 Li+
0.581703 0.507224 0.121581 Li+
0.581703 0.492776 0.177136 Li+
0.729106 0.992783 0.130138 Li+
0.729106 0.007217 0.185694 Li+
0.375737 0.521194 0.138663 Li+
0.375737 0.478806 0.194218 Li+
0.612275 0.476313 0.151490 Li+
0.612275 0.523687 0.207045 Li+
0.848182 0.533250 0.164459 Li+
0.848182 0.466750 0.220015 Li+
0.084520 0.477737 0.177411 Li+
0.084520 0.522263 0.121855 Li+
0.233171 0.960889 0.185924 Li+
0.233171 0.039111 0.130368 Li+
0.873522 0.494607 0.305322 Li+
0.873522 0.505393 0.249767 Li+
0.111170 0.484419 0.318187 Li+
0.111170 0.515581 0.262632 Li+
0.347043 0.505784 0.331015 Li+
0.347043 0.494216 0.275460 Li+
0.581703 0.507224 0.232692 Li+
0.581703 0.492776 0.288247 Li+
0.729106 0.992783 0.241250 Li+
0.729106 0.007217 0.296805 Li+
0.375737 0.521194 0.249774 Li+
0.375737 0.478806 0.305329 Li+
0.612275 0.476313 0.262601 Li+
0.612275 0.523687 0.318157 Li+
0.848182 0.533250 0.275570 Li+
0.848182 0.466750 0.331126 Li+
0.084520 0.477737 0.288522 Li+
0.084520 0.522263 0.232966 Li+
0.233171 0.960889 0.297035 Li+
0.233171 0.039111 0.241479 Li+
0.873522 0.494607 0.416433 Li+
0.873522 0.505393 0.360878 Li+
0.111170 0.484419 0.429298 Li+
0.111170 0.515581 0.373743 Li+
0.347043 0.505784 0.442126 Li+
0.347043 0.494216 0.386571 Li+
0.581703 0.507224 0.343803 Li+
0.581703 0.492776 0.399359 Li+
0.729106 0.992783 0.352361 Li+
0.729106 0.007217 0.407916 Li+
0.375737 0.521194 0.360885 Li+
0.375737 0.478806 0.416441 Li+
0.612275 0.476313 0.373712 Li+
0.612275 0.523687 0.429268 Li+
0.848182 0.533250 0.386681 Li+
0.848182 0.466750 0.442237 Li+
0.084520 0.477737 0.399633 Li+
0.084520 0.522263 0.344077 Li+
0.233171 0.960889 0.408146 Li+
0.233171 0.039111 0.352590 Li+
0.873522 0.494607 0.527544 Li+
0.873522 0.505393 0.471989 Li+
0.111170 0.484419 0.540409 Li+
0.111170 0.515581 0.484854 Li+
0.347043 0.505784 0.553237 Li+
0.347043 0.494216 0.497682 Li+
0.581703 0.507224 0.454914 Li+
0.581703 0.492776 0.510470 Li+
0.729106 0.992783 0.463472 Li+
0.729106 0.007217 0.519027 Li+
0.375737 0.521194 0.471996 Li+
0.375737 0.478806 0.527552 Li+
0.612275 0.476313 0.484823 Li+
0.612275 0.523687 0.540379 Li+
0.848182 0.533250 0.497792 Li+
0.848182 0.466750 0.553348 Li+
0.084520 0.477737 0.510744 Li+
0.084520 0.522263 0.455188 Li+
0.233171 0.960889 0.519257 Li+
0.233171 0.039111 0.463701 Li+
0.873522 0.494607 0.638656 Li+
0.873522 0.505393 0.583100 Li+
0.111170 0.484419 0.651520 Li+
0.111170 0.515581 0.595965 Li+
0.347043 0.505784 0.664349 Li+
0.347043 0.494216 0.608793 Li+
0.581703 0.507224 0.566025 Li+
0.581703 0.492776 0.621581 Li+
0.729106 0.992783 0.574583 Li+
0.729106 0.007217 0.630138 Li+
0.375737 0.521194 0.583107 Li+
0.375737 0.478806 0.638663 Li+
0.612275 0.476313 0.595934 Li+
0.612275 0.523687 0.651490 Li+
0.848182 0.533250 0.608904 Li+
0.848182 0.466750 0.664459 Li+
0.084520 0.477737 0.621855 Li+
0.084520 0.522263 0.566300 Li+
0.233171 0.960889 0.630368 Li+
0.233171 0.039111 0.574813 Li+
0.873522 0.494607 0.749767 Li+
0.873522 0.505393 0.694211 Li+
0.111170 0.484419 0.762631 Li+
0.111170 0.515581 0.707076 Li+
0.347043 0.505784 0.775460 Li+
0.347043 0.494216 0.719904 Li+
0.581703 0.507224 0.677136 Li+
0.581703 0.492776 0.732692 Li+
0.729106 0.992783 0.685694 Li+
0.729106 0.007217 0.741250 Li+
0.375737 0.521194 0.694218 Li+
0.375737 0.478806 0.749774 Li+
0.612275 0.476313 0.707045 Li+
0.612275 0.523687 0.762601 Li+
0.848182 0.533250 0.720015 Li+
0.848182 0.466750 0.775570 Li+
0.084520 0.477737 0.732966 Li+
0.084520 0.522263 0.677411 Li+
0.233171 0.960889 0.741479 Li+
0.233171 0.039111 0.685924 Li+
0.999221 0.185377 0.103344 P5+
0.999221 0.814623 0.047788 P5+
0.205613 0.843317 0.002551 P5+
0.205613 0.156683 0.058107 P5+
0.401137 0.188444 0.014082 P5+
0.401137 0.811556 0.069638 P5+
0.591605 0.828977 0.026443 P5+
0.591605 0.171023 0.081999 P5+
0.791599 0.159739 0.037548 P5+
0.791599 0.840261 0.093103 P5+
0.665080 0.843930 0.056027 P5+
0.665080 0.156070 0.000472 P5+
0.865452 0.174322 0.067124 P5+
0.865452 0.825678 0.011569 P5+
0.056323 0.812278 0.079571 P5+
0.056323 0.187722 0.024015 P5+
0.252134 0.151901 0.091060 P5+
0.252134 0.848099 0.035504 P5+
0.458420 0.809867 0.101392 P5+
0.458420 0.190133 0.045836 P5+
0.999221 0.185377 0.214455 P5+
0.999221 0.814623 0.158899 P5+
0.205613 0.843317 0.113662 P5+
0.205613 0.156683 0.169218 P5+
0.401137 0.188444 0.125193 P5+
0.401137 0.811556 0.180749 P5+
0.591605 0.828977 0.137554 P5+
0.591605 0.171023 0.193110 P5+
0.791599 0.159739 0.148659 P5+
0.791599 0.840261 0.204214 P5+
0.665080 0.843930 0.167138 P5+
0.665080 0.156070 0.111583 P5+
0.865452 0.174322 0.178235 P5+
0.865452 0.825678 0.122680 P5+
0.056323 0.812278 0.190682 P5+
0.056323 0.187722 0.135126 P5+
0.252134 0.151901 0.202171 P5+
0.252134 0.848099 0.146615 P5+
0.458420 0.809867 0.212503 P5+
0.458420 0.190133 0.156947 P5+
0.999221 0.185377 0.325566 P5+
0.999221 0.814623 0.270010 P5+
0.205613 0.843317 0.224773 P5+
0.205613 0.156683 0.280329 P5+
0.401137 0.188444 0.236304 P5+
0.401137 0.811556 0.291860 P5+
0.591605 0.828977 0.248666 P5+
0.591605 0.171023 0.304221 P5+
0.791599 0.159739 0.259770 P5+
0.791599 0.840261 0.315325 P5+
0.665080 0.843930 0.278250 P5+
0.665080 0.156070 0.222694 P5+
0.865452 0.174322 0.289346 P5+
0.865452 0.825678 0.233791 P5+
0.056323 0.812278 0.301793 P5+
0.056323 0.187722 0.246237 P5+
0.252134 0.151901 0.313282 P5+
0.252134 0.848099 0.257726 P5+
0.458420 0.809867 0.323614 P5+
0.458420 0.190133 0.268058 P5+
0.999221 0.185377 0.436677 P5+
0.999221 0.814623 0.381121 P5+
0.205613 0.843317 0.335884 P5+
0.205613 0.156683 0.391440 P5+
0.401137 0.188444 0.347416 P5+
0.401137 0.811556 0.402971 P5+
0.591605 0.828977 0.359777 P5+
0.591605 0.171023 0.415332 P5+
0.791599 0.159739 0.370881 P5+
0.791599 0.840261 0.426436 P5+
0.665080 0.843930 0.389361 P5+
0.665080 0.156070 0.333805 P5+
0.865452 0.174322 0.400458 P5+
0.865452 0.825678 0.344902 P5+
0.056323 0.812278 0.412904 P5+
0.056323 0.187722 0.357348 P5+
0.252134 0.151901 0.424393 P5+
0.252134 0.848099 0.368837 P5+
0.458420 0.809867 0.434725 P5+
0.458420 0.190133 0.379169 P5+
0.999221 0.185377 0.547788 P5+
0.999221 0.814623 0.492232 P5+
0.205613 0.843317 0.446995 P5+
0.205613 0.156683 0.502551 P5+
0.401137 0.188444 0.458527 P5+
0.401137 0.811556 0.514082 P5+
0.591605 0.828977 0.470888 P5+
0.591605 0.171023 0.526443 P5+
0.791599 0.159739 0.481992 P5+
0.791599 0.840261 0.537548 P5+
0.665080 0.843930 0.500472 P5+
0.665080 0.156070 0.444916 P5+
0.865452 0.174322 0.511569 P5+
0.865452 0.825678 0.456013 P5+
0.056323 0.812278 0.524015 P5+
0.056323 0.187722 0.468459 P5+
0.252134 0.151901 0.535504 P5+
0.252134 0.848099 0.479948 P5+
0.458420 0.809867 0.545836 P5+
0.458420 0.190133 0.490280 P5+
0.999221 0.185377 0.658899 P5+
0.999221 0.814623 0.603344 P5+
0.205613 0.843317 0.558107 P5+
0.205613 0.156683 0.613662 P5+
0.401137 0.188444 0.569638 P5+
0.401137 0.811556 0.625193 P5+
0.591605 0.828977 0.581999 P5+
0.591605 0.171023 0.637555 P5+
0.791599 0.159739 0.593103 P5+
0.791599 0.840261 0.648659 P5+
0.665080 0.843930 0.611583 P5+
0.665080 0.156070 0.556027 P5+
0.865452 0.174322 0.622680 P5+
0.865452 0.825678 0.567124 P5+
0.056323 0.812278 0.635126 P5+
0.056323 0.187722 0.579570 P5+
0.252134 0.151901 0.646615 P5+
0.252134 0.848099 0.591060 P5+
0.458420 0.809867 0.656947 P5+
0.458420 0.190133 0.601392 P5+
0.999221 0.185377 0.770010 P5+
0.999221 0.814623 0.714455 P5+
0.205613 0.843317 0.669218 P5+
0.205613 0.156683 0.724773 P5+
0.401137 0.188444 0.680749 P5+
0.401137 0.811556 0.736304 P5+
0.591605 0.828977 0.693110 P5+
0.591605 0.171023 0.748666 P5+
0.791599 0.159739 0.704214 P5+
0.791599 0.840261 0.759770 P5+
0.665080 0.843930 0.722694 P5+
0.665080 0.156070 0.667138 P5+
0.865452 0.174322 0.733791 P5+
0.865452 0.825678 0.678235 P5+
0.056323 0.812278 0.746237 P5+
0.056323 0.187722 0.690682 P5+
0.252134 0.151901 0.757726 P5+
0.252134 0.848099 0.702171 P5+
0.458420 0.809867 0.768058 P5+
0.458420 0.190133 0.712503 P5+
0.129985 0.069000 0.107233 O2-
0.129985 0.931000 0.051677 O2-
0.340179 0.951087 0.007812 O2-
0.340179 0.048913 0.063368 O2-
0.518650 0.080018 0.022837 O2-
0.518650 0.919982 0.078393 O2-
0.706904 0.926681 0.035771 O2-
0.706904 0.073319 0.091327 O2-
0.919848 0.942022 0.100870 O2-
0.919848 0.057978 0.045314 O2-
0.749936 0.076781 0.057811 O2-
0.749936 0.923219 0.002256 O2-
0.936774 0.921841 0.071009 O2-
0.936774 0.078159 0.015454 O2-
0.116799 0.049265 0.085915 O2-
0.116799 0.950735 0.030359 O2-
0.325432 0.918787 0.097018 O2-
0.325432 0.081213 0.041462 O2-
0.536371 0.944691 0.048223 O2-
0.536371 0.055309 0.103778 O2-
0.970827 0.322795 0.095088 O2-
0.970827 0.677205 0.039532 O2-
0.994909 0.313918 0.110639 O2-
0.994909 0.686082 0.055084 O2-
0.204625 0.643576 0.107892 O2-
0.204625 0.356424 0.052336 O2-
0.171056 0.795305 0.009215 O2-
0.171056 0.204695 0.064771 O2-
0.439658 0.351974 0.009370 O2-
0.439658 0.648026 0.064925 O2-
0.322583 0.281781 0.017141 O2-
0.322583 0.718219 0.072697 O2-
0.630670 0.751546 0.020265 O2-
0.630670 0.248454 0.075820 O2-
0.527520 0.656290 0.028925 O2-
0.527520 0.343710 0.084481 O2-
0.790584 0.215121 0.029169 O2-
0.790584 0.784879 0.084724 O2-
0.761105 0.355777 0.041821 O2-
0.761105 0.644223 0.097376 O2-
0.697609 0.649890 0.051816 O2-
0.697609 0.350110 0.107372 O2-
0.665087 0.785996 0.064341 O2-
0.665087 0.214004 0.008786 O2-
0.931406 0.340793 0.064607 O2-
0.931406 0.659207 0.009052 O2-
0.824688 0.258044 0.073136 O2-
0.824688 0.741956 0.017580 O2-
0.135280 0.725734 0.076451 O2-
0.135280 0.274266 0.020895 O2-
0.019880 0.642950 0.084276 O2-
0.019880 0.357050 0.028720 O2-
0.286380 0.205272 0.084406 O2-
0.286380 0.794728 0.028850 O2-
0.257004 0.347295 0.097115 O2-
0.257004 0.652705 0.041560 O2-
0.467181 0.677470 0.094360 O2-
0.467181 0.322530 0.038804 O2-
0.484690 0.678914 0.109702 O2-
0.484690 0.321086 0.054146 O2-
0.129985 0.069000 0.218344 O2-
0.129985 0.931000 0.162788 O2-
0.340179 0.951087 0.118923 O2-
0.340179 0.048913 0.174479 O2-
0.518650 0.080018 0.133948 O2-
0.518650 0.919982 0.189504 O2-
0.706904 0.926681 0.146882 O2-
0.706904 0.073319 0.202438 O2-
0.919848 0.942022 0.211981 O2-
0.919848 0.057978 0.156425 O2-
0.749936 0.076781 0.168922 O2-
0.749936 0.923219 0.113367 O2-
0.936774 0.921841 0.182120 O2-
0.936774 0.078159 0.126565 O2-
0.116799 0.049265 0.197026 O2-
0.116799 0.950735 0.141470 O2-
0.325432 0.918787 0.208129 O2-
0.325432 0.081213 0.152573 O2-
0.536371 0.944691 0.159334 O2-
0.536371 0.055309 0.214890 O2-
0.970827 0.322795 0.206199 O2-
0.970827 0.677205 0.150643 O2-
0.994909 0.313918 0.221750 O2-
0.994909 0.686082 0.166195 O2-
0.204625 0.643576 0.219003 O2-
0.204625 0.356424 0.163448 O2-
0.171056 0.795305 0.120326 O2-
0.171056 0.204695 0.175882 O2-
0.439658 0.351974 0.120481 O2-
0.439658 0.648026 0.176036 O2-
0.322583 0.281781 0.128252 O2-
0.322583 0.718219 0.183808 O2-
0.630670 0.751546 0.131376 O2-
0.630670 0.248454 0.186932 O2-
0.527520 0.656290 0.140036 O2-
0.527520 0.343710 0.195592 O2-
0.790584 0.215121 0.140280 O2-
0.790584 0.784879 0.195836 O2-
0.761105 0.355777 0.152932 O2-
0.761105 0.644223 0.208487 O2-
0.697609 0.649890 0.162927 O2-
0.697609 0.350110 0.218483 O2-
0.665087 0.785996 0.175453 O2-
0.665087 0.214004 0.119897 O2-
0.931406 0.340793 0.175718 O2-
0.931406 0.659207 0.120163 O2-
0.824688 0.258044 0.184247 O2-
0.824688 0.741956 0.128691 O2-
0.135280 0.725734 0.187562 O2-
0.135280 0.274266 0.132006 O2-
0.019880 0.642950 0.195387 O2-
0.019880 0.357050 0.139831 O2-
0.286380 0.205272 0.195517 O2-
0.286380 0.794728 0.139961 O2-
0.257004 0.347295 0.208227 O2-
0.257004 0.652705 0.152671 O2-
0.467181 0.677470 0.205471 O2-
0.467181 0.322530 0.149915 O2-
0.484690 0.678914 0.220813 O2-
0.484690 0.321086 0.165257 O2-
0.129985 0.069000 0.329455 O2-
0.129985 0.931000 0.273899 O2-
0.340179 0.951087 0.230034 O2-
0.340179 0.048913 0.285590 O2-
0.518650 0.080018 0.245059 O2-
0.518650 0.919982 0.300615 O2-
0.706904 0.926681 0.257993 O2-
0.706904 0.073319 0.313549 O2-
0.919848 0.942022 0.323092 O2-
0.919848 0.057978 0.267536 O2-
0.749936 0.076781 0.280033 O2-
0.749936 0.923219 0.224478 O2-
0.936774 0.921841 0.293231 O2-
0.936774 0.078159 0.237676 O2-
0.116799 0.049265 0.308137 O2-
0.116799 0.950735 0.252582 O2-
0.325432 0.918787 0.319240 O2-
0.325432 0.081213 0.263684 O2-
0.536371 0.944691 0.270445 O2-
0.536371 0.055309 0.326001 O2-
0.970827 0.322795 0.317310 O2-
0.970827 0.677205 0.261755 O2-
0.994909 0.313918 0.332861 O2-
0.994909 0.686082 0.277306 O2-
0.204625 0.643576 0.330114 O2-
0.204625 0.356424 0.274559 O2-
0.171056 0.795305 0.231437 O2-
0.171056 0.204695 0.286993 O2-
0.439658 0.351974 0.231592 O2-
0.439658 0.648026 0.287147 O2-
0.322583 0.281781 0.239363 O2-
0.322583 0.718219 0.294919 O2-
0.630670 0.751546 0.242487 O2-
0.630670 0.248454 0.298043 O2-
0.527520 0.656290 0.251147 O2-
0.527520 0.343710 0.306703 O2-
0.790584 0.215121 0.251391 O2-
0.790584 0.784879 0.306947 O2-
0.761105 0.355777 0.264043 O2-
0.761105 0.644223 0.319599 O2-
0.697609 0.649890 0.274038 O2-
0.697609 0.350110 0.329594 O2-
0.665087 0.785996 0.286564 O2-
0.665087 0.214004 0.231008 O2-
0.931406 0.340793 0.286829 O2-
0.931406 0.659207 0.231274 O2-
0.824688 0.258044 0.295358 O2-
0.824688 0.741956 0.239802 O2-
0.135280 0.725734 0.298673 O2-
0.135280 0.274266 0.243117 O2-
0.019880 0.642950 0.306498 O2-
0.019880 0.357050 0.250942 O2-
0.286380 0.205272 0.306628 O2-
0.286380 0.794728 0.251072 O2-
0.257004 0.347295 0.319338 O2-
0.257004 0.652705 0.263782 O2-
0.467181 0.677470 0.316582 O2-
0.467181 0.322530 0.261026 O2-
0.484690 0.678914 0.331924 O2-
0.484690 0.321086 0.276368 O2-
0.129985 0.069000 0.440566 O2-
0.129985 0.931000 0.385010 O2-
0.340179 0.951087 0.341145 O2-
0.340179 0.048913 0.396701 O2-
0.518650 0.080018 0.356171 O2-
0.518650 0.919982 0.411726 O2-
0.706904 0.926681 0.369104 O2-
0.706904 0.073319 0.424660 O2-
0.919848 0.942022 0.434203 O2-
0.919848 0.057978 0.378647 O2-
0.749936 0.076781 0.391145 O2-
0.749936 0.923219 0.335589 O2-
0.936774 0.921841 0.404343 O2-
0.936774 0.078159 0.348787 O2-
0.116799 0.049265 0.419248 O2-
0.116799 0.950735 0.363693 O2-
0.325432 0.918787 0.430351 O2-
0.325432 0.081213 0.374795 O2-
0.536371 0.944691 0.381556 O2-
0.536371 0.055309 0.437112 O2-
0.970827 0.322795 0.428421 O2-
0.970827 0.677205 0.372866 O2-
0.994909 0.313918 0.443973 O2-
0.994909 0.686082 0.388417 O2-
0.204625 0.643576 0.441225 O2-
0.204625 0.356424 0.385670 O2-
0.171056 0.795305 0.342548 O2-
0.171056 0.204695 0.398104 O2-
0.439658 0.351974 0.342703 O2-
0.439658 0.648026 0.398258 O2-
0.322583 0.281781 0.350474 O2-
0.322583 0.718219 0.406030 O2-
0.630670 0.751546 0.353598 O2-
0.630670 0.248454 0.409154 O2-
0.527520 0.656290 0.362259 O2-
0.527520 0.343710 0.417814 O2-
0.790584 0.215121 0.362502 O2-
0.790584 0.784879 0.418058 O2-
0.761105 0.355777 0.375154 O2-
0.761105 0.644223 0.430710 O2-
0.697609 0.649890 0.385149 O2-
0.697609 0.350110 0.440705 O2-
0.665087 0.785996 0.397675 O2-
0.665087 0.214004 0.342119 O2-
0.931406 0.340793 0.397940 O2-
0.931406 0.659207 0.342385 O2-
0.824688 0.258044 0.406469 O2-
0.824688 0.741956 0.350913 O2-
0.135280 0.725734 0.409784 O2-
0.135280 0.274266 0.354228 O2-
0.019880 0.642950 0.417609 O2-
0.019880 0.357050 0.362053 O2-
0.286380 0.205272 0.417739 O2-
0.286380 0.794728 0.362184 O2-
0.257004 0.347295 0.430449 O2-
0.257004 0.652705 0.374893 O2-
0.467181 0.677470 0.427693 O2-
0.467181 0.322530 0.372138 O2-
0.484690 0.678914 0.443035 O2-
0.484690 0.321086 0.387479 O2-
0.129985 0.069000 0.551677 O2-
0.129985 0.931000 0.496121 O2-
0.340179 0.951087 0.452256 O2-
0.340179 0.048913 0.507812 O2-
0.518650 0.080018 0.467282 O2-
0.518650 0.919982 0.522837 O2-
0.706904 0.926681 0.480215 O2-
0.706904 0.073319 0.535771 O2-
0.919848 0.942022 0.545314 O2-
0.919848 0.057978 0.489759 O2-
0.749936 0.076781 0.502256 O2-
0.749936 0.923219 0.446700 O2-
0.936774 0.921841 0.515454 O2-
0.936774 0.078159 0.459898 O2-
0.116799 0.049265 0.530359 O2-
0.116799 0.950735 0.474804 O2-
0.325432 0.918787 0.541462 O2-
0.325432 0.081213 0.485907 O2-
0.536371 0.944691 0.492667 O2-
0.536371 0.055309 0.548223 O2-
0.970827 0.322795 0.539532 O2-
0.970827 0.677205 0.483977 O2-
0.994909 0.313918 0.555084 O2-
0.994909 0.686082 0.499528 O2-
0.204625 0.643576 0.552337 O2-
0.204625 0.356424 0.496781 O2-
0.171056 0.795305 0.453660 O2-
0.171056 0.204695 0.509215 O2-
0.439658 0.351974 0.453814 O2-
0.439658 0.648026 0.509370 O2-
0.322583 0.281781 0.461585 O2-
0.322583 0.718219 0.517141 O2-
0.630670 0.751546 0.464709 O2-
0.630670 0.248454 0.520265 O2-
0.527520 0.656290 0.473370 O2-
0.527520 0.343710 0.528925 O2-
0.790584 0.215121 0.473613 O2-
0.790584 0.784879 0.529169 O2-
0.761105 0.355777 0.486265 O2-
0.761105 0.644223 0.541821 O2-
0.697609 0.649890 0.496260 O2-
0.697609 0.350110 0.551816 O2-
0.665087 0.785996 0.508786 O2-
0.665087 0.214004 0.453230 O2-
0.931406 0.340793 0.509052 O2-
0.931406 0.659207 0.453496 O2-
0.824688 0.258044 0.517580 O2-
0.824688 0.741956 0.462025 O2-
0.135280 0.725734 0.520895 O2-
0.135280 0.274266 0.465339 O2-
0.019880 0.642950 0.528720 O2-
0.019880 0.357050 0.473164 O2-
0.286380 0.205272 0.528850 O2-
0.286380 0.794728 0.473295 O2-
0.257004 0.347295 0.541560 O2-
0.257004 0.652705 0.486004 O2-
0.467181 0.677470 0.538804 O2-
0.467181 0.322530 0.483249 O2-
0.484690 0.678914 0.554146 O2-
0.484690 0.321086 0.498590 O2-
0.129985 0.069000 0.662788 O2-
0.129985 0.931000 0.607233 O2-
0.340179 0.951087 0.563368 O2-
0.340179 0.048913 0.618923 O2-
0.518650 0.080018 0.578393 O2-
0.518650 0.919982 0.633948 O2-
0.706904 0.926681 0.591326 O2-
0.706904 0.073319 0.646882 O2-
0.919848 0.942022 0.656425 O2-
0.919848 0.057978 0.600870 O2-
0.749936 0.076781 0.613367 O2-
0.749936 0.923219 0.557811 O2-
0.936774 0.921841 0.626565 O2-
0.936774 0.078159 0.571009 O2-
0.116799 0.049265 0.641471 O2-
0.116799 0.950735 0.585915 O2-
0.325432 0.918787 0.652573 O2-
0.325432 0.081213 0.597018 O2-
0.536371 0.944691 0.603778 O2-
0.536371 0.055309 0.659334 O2-
0.970827 0.322795 0.650643 O2-
0.970827 0.677205 0.595088 O2-
0.994909 0.313918 0.666195 O2-
0.994909 0.686082 0.610639 O2-
0.204625 0.643576 0.663448 O2-
0.204625 0.356424 0.607892 O2-
0.171056 0.795305 0.564771 O2-
0.171056 0.204695 0.620326 O2-
0.439658 0.351974 0.564925 O2-
0.439658 0.648026 0.620481 O2-
0.322583 0.281781 0.572697 O2-
0.322583 0.718219 0.628252 O2-
0.630670 0.751546 0.575821 O2-
0.630670 0.248454 0.631376 O2-
0.527520 0.656290 0.584481 O2-
0.527520 0.343710 0.640036 O2-
0.790584 0.215121 0.584724 O2-
0.790584 0.784879 0.640280 O2-
0.761105 0.355777 0.597376 O2-
0.761105 0.644223 0.652932 O2-
0.697609 0.649890 0.607372 O2-
0.697609 0.350110 0.662927 O2-
0.665087 0.785996 0.619897 O2-
0.665087 0.214004 0.564342 O2-
0.931406 0.340793 0.620163 O2-
0.931406 0.659207 0.564607 O2-
0.824688 0.258044 0.628691 O2-
0.824688 0.741956 0.573136 O2-
0.135280 0.725734 0.632006 O2-
0.135280 0.274266 0.576450 O2-
0.019880 0.642950 0.639831 O2-
0.019880 0.357050 0.584276 O2-
0.286380 0.205272 0.639961 O2-
0.286380 0.794728 0.584406 O2-
0.257004 0.347295 0.652671 O2-
0.257004 0.652705 0.597116 O2-
0.467181 0.677470 0.649915 O2-
0.467181 0.322530 0.594360 O2-
0.484690 0.678914 0.665257 O2-
0.484690 0.321086 0.609702 O2-
0.129985 0.069000 0.773899 O2-
0.129985 0.931000 0.718344 O2-
0.340179 0.951087 0.674479 O2-
0.340179 0.048913 0.730034 O2-
0.518650 0.080018 0.689504 O2-
0.518650 0.919982 0.745059 O2-
0.706904 0.926681 0.702438 O2-
0.706904 0.073319 0.757993 O2-
0.919848 0.942022 0.767536 O2-
0.919848 0.057978 0.711981 O2-
0.749936 0.076781 0.724478 O2-
0.749936 0.923219 0.668922 O2-
0.936774 0.921841 0.737676 O2-
0.936774 0.078159 0.682120 O2-
0.116799 0.049265 0.752582 O2-
0.116799 0.950735 0.697026 O2-
0.325432 0.918787 0.763684 O2-
0.325432 0.081213 0.708129 O2-
0.536371 0.944691 0.714890 O2-
0.536371 0.055309 0.770445 O2-
0.970827 0.322795 0.761754 O2-
0.970827 0.677205 0.706199 O2-
0.994909 0.313918 0.777306 O2-
0.994909 0.686082 0.721750 O2-
0.204625 0.643576 0.774559 O2-
0.204625 0.356424 0.719003 O2-
0.171056 0.795305 0.675882 O2-
0.171056 0.204695 0.731437 O2-
0.439658 0.351974 0.676036 O2-
0.439658 0.648026 0.731592 O2-
0.322583 0.281781 0.683808 O2-
0.322583 0.718219 0.739363 O2-
0.630670 0.751546 0.686932 O2-
0.630670 0.248454 0.742487 O2-
0.527520 0.656290 0.695592 O2-
0.527520 0.343710 0.751147 O2-
0.790584 0.215121 0.695836 O2-
0.790584 0.784879 0.751391 O2-
0.761105 0.355777 0.708487 O2-
0.761105 0.644223 0.764043 O2-
0.697609 0.649890 0.718483 O2-
0.697609 0.350110 0.774038 O2-
0.665087 0.785996 0.731008 O2-
0.665087 0.214004 0.675453 O2-
0.931406 0.340793 0.731274 O2-
0.931406 0.659207 0.675718 O2-
0.824688 0.258044 0.739802 O2-
0.824688 0.741956 0.684247 O2-
0.135280 0.725734 0.743117 O2-
0.135280 0.274266 0.687562 O2-
0.019880 0.642950 0.750942 O2-
0.019880 0.357050 0.695387 O2-
0.286380 0.205272 0.751073 O2-
0.286380 0.794728 0.695517 O2-
0.257004 0.347295 0.763782 O2-
0.257004 0.652705 0.708227 O2-
0.467181 0.677470 0.761026 O2-
0.467181 0.322530 0.705471 O2-
0.484690 0.678914 0.776368 O2-
0.484690 0.321086 0.720813 O2-
