Li8 P8                                  
   1.00000000000000     
     5.4674240000000003    0.0000000000000000    0.0000000000000000
     0.0000000000000000    5.5938720000000002    0.0000000000000000
     0.0000000000000000    4.8369850000000003    9.0377799999999997
   Li   P 
     8     8
Direct
  0.6117530000000002  0.2170079999999999  0.6706999999999965
  0.1117530000000002  0.7829920000000001  0.8293000000000035
  0.3882469999999998  0.7829920000000001  0.3293000000000035
  0.8882469999999998  0.2170079999999999  0.1706999999999965
  0.3416840000000008  0.2257680000000022  0.9702139999999986
  0.8416840000000008  0.7742319999999978  0.5297860000000014
  0.6583159999999992  0.7742319999999978  0.0297860000000014
  0.1583159999999992  0.2257680000000022  0.4702139999999986
  0.1050960000000032  0.3166450000000012  0.7070840000000018
  0.6050960000000032  0.6833549999999988  0.7929159999999982
  0.8949039999999968  0.6833549999999988  0.2929159999999982
  0.3949039999999968  0.3166450000000012  0.2070840000000018
  0.8439729999999983  0.3031819999999996  0.8882580000000004
  0.3439729999999983  0.6968180000000004  0.6117419999999996
  0.1560270000000017  0.6968180000000004  0.1117419999999996
  0.6560270000000017  0.3031819999999996  0.3882580000000004
 
  0.00000000E+00  0.00000000E+00  0.00000000E+00
  0.00000000E+00  0.00000000E+00  0.00000000E+00
  0.00000000E+00  0.00000000E+00  0.00000000E+00
  0.00000000E+00  0.00000000E+00  0.00000000E+00
  0.00000000E+00  0.00000000E+00  0.00000000E+00
  0.00000000E+00  0.00000000E+00  0.00000000E+00
  0.00000000E+00  0.00000000E+00  0.00000000E+00
  0.00000000E+00  0.00000000E+00  0.00000000E+00
  0.00000000E+00  0.00000000E+00  0.00000000E+00
  0.00000000E+00  0.00000000E+00  0.00000000E+00
  0.00000000E+00  0.00000000E+00  0.00000000E+00
  0.00000000E+00  0.00000000E+00  0.00000000E+00
  0.00000000E+00  0.00000000E+00  0.00000000E+00
  0.00000000E+00  0.00000000E+00  0.00000000E+00
  0.00000000E+00  0.00000000E+00  0.00000000E+00
  0.00000000E+00  0.00000000E+00  0.00000000E+00
