Li61 P7 N32                             
   1.00000000000000     
     0.0052450804974174    9.4870120113311014    0.0018502201176581
    -0.0188290525802448    0.0017106044513327    9.5433288111283439
     9.5261252788066102    0.0053596702910426   -0.0186504686644983
   Li   P    N 
    61     7    32
Direct
  0.4954858811564054 -0.0003332535373207  0.4988819025788162
  0.0066823181586574  0.4949490880779497  0.0017371891802301
  0.4969089233717940 -0.0063224346052571 -0.0002860888976664
 -0.0000114000639716 -0.0017195602666736  0.4983619243997420
  0.4907732708829557  0.5016894872924846  0.0018408585007457
  0.0039210273302355  0.4990470318069760  0.5010494026296853
  0.7465993695032624 -0.0129738915645025  0.4982335634231983
  0.2475421535400886 -0.0040713654007646  0.4980127250307215
  0.7667529060404852  0.4953629385190118  0.4879957518173570
  0.2369138366631380  0.4976170147660035  0.4973001494672579
  0.2605101339954472 -0.0016856650850747 -0.0021339211453495
  0.7325143885233822 -0.0063684641186220 -0.0000131872283502
  0.8246367997852165  0.5839110185078393  0.0727980502339323
  0.5042967561835150  0.2395415226984212 -0.0117408534787872
  0.5033281878594337  0.7523479777413645  0.0129209311517963
 -0.0061664450816375  0.4852962072343928  0.2558200991279161
  0.0173063115529194  0.5111033797171866  0.7545365725362689
  0.2350118567764809  0.2170839487569002  0.2130533977875472
  0.2268957700421291  0.7854069650400732  0.7755457966248065
  0.2418248136172301  0.2936060101449708  0.7091021508032852
  0.2626808488877446  0.7183597166881300  0.2779380043809780
  0.7561455717025201  0.2934562230682382  0.2999405862177199
  0.7326293736916656  0.7336828420225971  0.7061516243313278
  0.7241853681985997  0.1965445664945796  0.8094670843234117
  0.7414339372457702  0.7956164253066175  0.2024550254902240
  0.9863696324606395  0.2438839033822023  0.2416414203998901
  0.9773260197400974  0.7483566241064790  0.7517643076369085
  0.2626632327418578  0.2396929879502045  0.4676100059833342
  0.2634588545457140  0.7516355196796572  0.5227744626955341
  0.7533627259638859  0.2137211572020475  0.5428313068042574
  0.7442707835637264  0.7534535586937913  0.4561948924320111
  0.7377469607163598  0.5426004274440763  0.2726385958200717
  0.7970561454104624  0.5052716667411526  0.7149044660037147
  0.2362986976510384  0.4657225051500458  0.2567132498407756
  0.2427176802268892  0.5406254648129593  0.7367481743182287
  0.5132889344363271  0.7431560543481096  0.2533251251176338
  0.4856686817981534  0.2446716368102144  0.7509140058461606
  0.2351842027187429  0.9719629812099256  0.2521718906111727
  0.2368313360217465  0.0298925633200183  0.7437027075127396
  0.2617527327263472  0.2397069043892741  0.9615443270772951
  0.2599612250915648  0.7595178182398883  0.0299643990699949
  0.7619333767409980  0.9713028417004164  0.7418464912220817
  0.7554433748756288  0.0372230249091165  0.2642054577364962
  0.7628956584850919  0.7741931148365729  0.9558489076490488
  0.7704585144306911  0.2076826696009750  0.0596423895045838
 -0.0031028837469239  0.2446420172220341  0.7594399323053960
  0.0124445847616497  0.7426498774496821  0.2337990081114485
  0.4839679979754697  0.2624814792579947  0.2422632450043946
  0.4749507047634643  0.7341423655443499  0.7587850813764005
  0.0114721483095359  0.2578504303854603  0.0105815274179883
  0.0116872773691963  0.7364732741701988 -0.0170190545750177
  0.5006133249423118  0.2352979200902589  0.4871717301656092
  0.5031918495222595  0.7615808562669514  0.5066420699166234
  0.4871434116607002  0.5139083250167965  0.2379290415904205
  0.4736584617127030  0.4892115036403509  0.7691473065924892
 -0.0038104111088718 -0.0078796120434009  0.2598222180985152
 -0.0008294237702696 -0.0009233758543114  0.7365041428790815
  0.6330677815274384  0.3778255093598308  0.6635910320040944
  0.8207576408409606  0.3996737181549904  0.9168275251705238
  0.6696350976830199  0.4149691038706647  0.0841861458573693
  0.6697865011423686  0.5737670221720237  0.9013464295517345
  0.4955649897084750  0.5012258292697831  0.4963838645323786
 -0.0003398169244667 -0.0023195464348197 -0.0017950001614937
  0.2497178517825792  0.4999781873617145 -0.0017533503306643
  0.0018903253744694  0.7475100981405964  0.4957380528015364
  0.0017516085015925  0.2494393677670460  0.4989436567867739
  0.4965325491387906  0.0003008957228193  0.2486967635078558
  0.4969567252482101 -0.0075320216675753  0.7495309997379279
  0.6048712341924164  0.5938732969453976  0.6039792885853053
  0.5995867470994688  0.4000620506082049  0.3937466917121078
  0.8956823783406029  0.8933917396752598  0.0971779541298286
  0.8928734165720477  0.1015043748194356  0.8988356061273023
  0.1031941333074355  0.9018599852694584  0.8914750732593405
  0.1029681467078835  0.0956908210504384  0.1040587054750659
  0.3926498372714556  0.6069931769111527  0.4026198949360261
  0.3964460720753531  0.3928976225533271  0.5975076786451111
  0.1025546137759269  0.3472181242700796  0.3915084763196274
  0.1030703138712366  0.6509158398342103  0.6070648003915858
  0.1091104069870020  0.1503340789668288  0.6014423642480106
  0.1111846693647972  0.8477284538196910  0.3964566346804552
  0.8905629208677631  0.1456599085844039  0.4038973203200280
  0.8870566209297507  0.8492018089341080  0.5905974830500398
  0.8653720074083047  0.3787324654773717  0.1281512067808371
  0.8694245404446180  0.6138653333891372  0.8688131520344197
  0.1508389783994674  0.5979419217390904  0.1107528918817869
  0.1531286296061386  0.4020805778871610  0.8829984727453769
  0.3968666451816156  0.8901522144425192  0.1508255909299968
  0.3972145419758429  0.0970803781925898  0.8532179725919397
  0.3867151480623227  0.1012396461895799  0.3481133253198772
  0.3874033660218028  0.8952416777760045  0.6480194804149484
  0.3477637222489017  0.3863949342534735  0.0967408412000470
  0.3487903735494226  0.6132241444707752  0.9001389862281848
  0.6070920598559768  0.0952317962412859  0.6493753206957844
  0.6090167201113614  0.9051306215394743  0.3511930117176560
  0.6311647911060356  0.6270661254167345  0.1150315397045711
  0.6232830129244696  0.3702807777711736  0.8707844213407118
  0.8982150524010830  0.3527245436664607  0.6047162135166522
  0.9043863987258959  0.6427310257449841  0.3891658432314282
  0.5972829484688154  0.1061999936448902  0.1461304734296900
  0.6008555258206941  0.8849351612192109  0.8463645934461224
 
  0.00000000E+00  0.00000000E+00  0.00000000E+00
  0.00000000E+00  0.00000000E+00  0.00000000E+00
  0.00000000E+00  0.00000000E+00  0.00000000E+00
  0.00000000E+00  0.00000000E+00  0.00000000E+00
  0.00000000E+00  0.00000000E+00  0.00000000E+00
  0.00000000E+00  0.00000000E+00  0.00000000E+00
  0.00000000E+00  0.00000000E+00  0.00000000E+00
  0.00000000E+00  0.00000000E+00  0.00000000E+00
  0.00000000E+00  0.00000000E+00  0.00000000E+00
  0.00000000E+00  0.00000000E+00  0.00000000E+00
  0.00000000E+00  0.00000000E+00  0.00000000E+00
  0.00000000E+00  0.00000000E+00  0.00000000E+00
  0.00000000E+00  0.00000000E+00  0.00000000E+00
  0.00000000E+00  0.00000000E+00  0.00000000E+00
  0.00000000E+00  0.00000000E+00  0.00000000E+00
  0.00000000E+00  0.00000000E+00  0.00000000E+00
  0.00000000E+00  0.00000000E+00  0.00000000E+00
  0.00000000E+00  0.00000000E+00  0.00000000E+00
  0.00000000E+00  0.00000000E+00  0.00000000E+00
  0.00000000E+00  0.00000000E+00  0.00000000E+00
  0.00000000E+00  0.00000000E+00  0.00000000E+00
  0.00000000E+00  0.00000000E+00  0.00000000E+00
  0.00000000E+00  0.00000000E+00  0.00000000E+00
  0.00000000E+00  0.00000000E+00  0.00000000E+00
  0.00000000E+00  0.00000000E+00  0.00000000E+00
  0.00000000E+00  0.00000000E+00  0.00000000E+00
  0.00000000E+00  0.00000000E+00  0.00000000E+00
  0.00000000E+00  0.00000000E+00  0.00000000E+00
  0.00000000E+00  0.00000000E+00  0.00000000E+00
  0.00000000E+00  0.00000000E+00  0.00000000E+00
  0.00000000E+00  0.00000000E+00  0.00000000E+00
  0.00000000E+00  0.00000000E+00  0.00000000E+00
  0.00000000E+00  0.00000000E+00  0.00000000E+00
  0.00000000E+00  0.00000000E+00  0.00000000E+00
  0.00000000E+00  0.00000000E+00  0.00000000E+00
  0.00000000E+00  0.00000000E+00  0.00000000E+00
  0.00000000E+00  0.00000000E+00  0.00000000E+00
  0.00000000E+00  0.00000000E+00  0.00000000E+00
  0.00000000E+00  0.00000000E+00  0.00000000E+00
  0.00000000E+00  0.00000000E+00  0.00000000E+00
  0.00000000E+00  0.00000000E+00  0.00000000E+00
  0.00000000E+00  0.00000000E+00  0.00000000E+00
  0.00000000E+00  0.00000000E+00  0.00000000E+00
  0.00000000E+00  0.00000000E+00  0.00000000E+00
  0.00000000E+00  0.00000000E+00  0.00000000E+00
  0.00000000E+00  0.00000000E+00  0.00000000E+00
  0.00000000E+00  0.00000000E+00  0.00000000E+00
  0.00000000E+00  0.00000000E+00  0.00000000E+00
  0.00000000E+00  0.00000000E+00  0.00000000E+00
  0.00000000E+00  0.00000000E+00  0.00000000E+00
  0.00000000E+00  0.00000000E+00  0.00000000E+00
  0.00000000E+00  0.00000000E+00  0.00000000E+00
  0.00000000E+00  0.00000000E+00  0.00000000E+00
  0.00000000E+00  0.00000000E+00  0.00000000E+00
  0.00000000E+00  0.00000000E+00  0.00000000E+00
  0.00000000E+00  0.00000000E+00  0.00000000E+00
  0.00000000E+00  0.00000000E+00  0.00000000E+00
  0.00000000E+00  0.00000000E+00  0.00000000E+00
  0.00000000E+00  0.00000000E+00  0.00000000E+00
  0.00000000E+00  0.00000000E+00  0.00000000E+00
  0.00000000E+00  0.00000000E+00  0.00000000E+00
  0.00000000E+00  0.00000000E+00  0.00000000E+00
  0.00000000E+00  0.00000000E+00  0.00000000E+00
  0.00000000E+00  0.00000000E+00  0.00000000E+00
  0.00000000E+00  0.00000000E+00  0.00000000E+00
  0.00000000E+00  0.00000000E+00  0.00000000E+00
  0.00000000E+00  0.00000000E+00  0.00000000E+00
  0.00000000E+00  0.00000000E+00  0.00000000E+00
  0.00000000E+00  0.00000000E+00  0.00000000E+00
  0.00000000E+00  0.00000000E+00  0.00000000E+00
  0.00000000E+00  0.00000000E+00  0.00000000E+00
  0.00000000E+00  0.00000000E+00  0.00000000E+00
  0.00000000E+00  0.00000000E+00  0.00000000E+00
  0.00000000E+00  0.00000000E+00  0.00000000E+00
  0.00000000E+00  0.00000000E+00  0.00000000E+00
  0.00000000E+00  0.00000000E+00  0.00000000E+00
  0.00000000E+00  0.00000000E+00  0.00000000E+00
  0.00000000E+00  0.00000000E+00  0.00000000E+00
  0.00000000E+00  0.00000000E+00  0.00000000E+00
  0.00000000E+00  0.00000000E+00  0.00000000E+00
  0.00000000E+00  0.00000000E+00  0.00000000E+00
  0.00000000E+00  0.00000000E+00  0.00000000E+00
  0.00000000E+00  0.00000000E+00  0.00000000E+00
  0.00000000E+00  0.00000000E+00  0.00000000E+00
  0.00000000E+00  0.00000000E+00  0.00000000E+00
  0.00000000E+00  0.00000000E+00  0.00000000E+00
  0.00000000E+00  0.00000000E+00  0.00000000E+00
  0.00000000E+00  0.00000000E+00  0.00000000E+00
  0.00000000E+00  0.00000000E+00  0.00000000E+00
  0.00000000E+00  0.00000000E+00  0.00000000E+00
  0.00000000E+00  0.00000000E+00  0.00000000E+00
  0.00000000E+00  0.00000000E+00  0.00000000E+00
  0.00000000E+00  0.00000000E+00  0.00000000E+00
  0.00000000E+00  0.00000000E+00  0.00000000E+00
  0.00000000E+00  0.00000000E+00  0.00000000E+00
  0.00000000E+00  0.00000000E+00  0.00000000E+00
  0.00000000E+00  0.00000000E+00  0.00000000E+00
  0.00000000E+00  0.00000000E+00  0.00000000E+00
  0.00000000E+00  0.00000000E+00  0.00000000E+00
  0.00000000E+00  0.00000000E+00  0.00000000E+00
