Li5 P2 N1 O6                            
   1.00000000000000     
    -0.0006055891287983    0.0321847082509819    5.0355496479321165
     6.4865676135839943    0.1868503427063238    0.0024217580054493
     0.1640882471754044    5.3321143893284733    0.0358116185256316
   Li   P    N    O 
     5     2     1     6
Direct
  0.4808299252196794  0.0673003579004283  0.9053651770213653
 -0.0008242754411462  0.4858078234481519  0.1588851526325612
  0.4819241958570957  0.7386954037579815  0.2758028162780461
  0.0709797528573582  0.7660615727968682  0.6800173030758784
  0.0073260869124373  0.2415605432192409  0.6771069785886780
  0.5064363125535231  0.4930136206581692  0.8119266936181169
 -0.0076018872255368 -0.0176749214691026  0.1783420635103684
  0.0553444008104084  0.1937931233644421  0.3145610598844580
  0.1051384567477517  0.7801392385564276  0.3200948924339312
  0.6212935970923268  0.2941015485079941  0.7118578237459859
  0.6257600968168139  0.5446315001673360  0.0648088019518396
  0.1134405997164892 -0.0133615583595340  0.9022725844186853
  0.1961889836421003  0.4980719730286538  0.8149970872023157
  0.6861907544407226 -0.0321512255770587  0.1710365656377746
 
  0.00000000E+00  0.00000000E+00  0.00000000E+00
  0.00000000E+00  0.00000000E+00  0.00000000E+00
  0.00000000E+00  0.00000000E+00  0.00000000E+00
  0.00000000E+00  0.00000000E+00  0.00000000E+00
  0.00000000E+00  0.00000000E+00  0.00000000E+00
  0.00000000E+00  0.00000000E+00  0.00000000E+00
  0.00000000E+00  0.00000000E+00  0.00000000E+00
  0.00000000E+00  0.00000000E+00  0.00000000E+00
  0.00000000E+00  0.00000000E+00  0.00000000E+00
  0.00000000E+00  0.00000000E+00  0.00000000E+00
  0.00000000E+00  0.00000000E+00  0.00000000E+00
  0.00000000E+00  0.00000000E+00  0.00000000E+00
  0.00000000E+00  0.00000000E+00  0.00000000E+00
  0.00000000E+00  0.00000000E+00  0.00000000E+00
