Li3 N1
1.0
1.840957 -3.188631 0.000000
1.840957 3.188631 0.000000
0.000000 -0.000000 3.920418
Li N
3 1
direct
0.000000 -0.000000 0.500000 Li
0.333333 0.666667 0.000000 Li
0.666667 0.333333 -0.000000 Li
0.000000 -0.000000 -0.000000 N
