Li6 P2
1.0
2.119440 -3.670977 0.000000
2.119440 3.670977 -0.000000
0.000000 0.000000 7.577594
Li P
6 2
direct
-0.000000 0.000000 0.250000 Li
0.000000 -0.000000 0.750000 Li
0.333333 0.666667 0.584104 Li
0.666667 0.333333 0.084104 Li
0.666667 0.333333 0.415896 Li
0.333333 0.666667 0.915896 Li
0.333333 0.666667 0.250000 P
0.666667 0.333333 0.750000 P
