Li42 P14 O56
1.0
6.176136 0.000000 0.000000
0.000000 5.296402 -4.922448
0.000000 0.000000 63.991824
Li P O
42 14 56
direct
0.000000 0.155480 0.073512 Li+
0.500000 0.844520 0.011130 Li+
0.252873 0.673566 0.036523 Li+
0.247127 0.326434 0.048282 Li+
0.752873 0.326434 0.048282 Li+
0.747127 0.673566 0.036523 Li+
0.000000 0.155480 0.150435 Li+
0.500000 0.844520 0.088053 Li+
0.252873 0.673566 0.113446 Li+
0.247127 0.326434 0.125205 Li+
0.752873 0.326434 0.125205 Li+
0.747127 0.673566 0.113446 Li+
0.000000 0.155480 0.227358 Li+
0.500000 0.844520 0.164976 Li+
0.252873 0.673566 0.190369 Li+
0.247127 0.326434 0.202128 Li+
0.752873 0.326434 0.202128 Li+
0.747127 0.673566 0.190369 Li+
0.000000 0.155480 0.304281 Li+
0.500000 0.844520 0.241900 Li+
0.252873 0.673566 0.267292 Li+
0.247127 0.326434 0.279051 Li+
0.752873 0.326434 0.279051 Li+
0.747127 0.673566 0.267292 Li+
0.000000 0.155480 0.381204 Li+
0.500000 0.844520 0.318823 Li+
0.252873 0.673566 0.344215 Li+
0.247127 0.326434 0.355974 Li+
0.752873 0.326434 0.355974 Li+
0.747127 0.673566 0.344215 Li+
0.000000 0.155480 0.458127 Li+
0.500000 0.844520 0.395746 Li+
0.252873 0.673566 0.421138 Li+
0.247127 0.326434 0.432897 Li+
0.752873 0.326434 0.432897 Li+
0.747127 0.673566 0.421138 Li+
0.000000 0.155480 0.535050 Li+
0.500000 0.844520 0.472669 Li+
0.252873 0.673566 0.498061 Li+
0.247127 0.326434 0.509820 Li+
0.752873 0.326434 0.509820 Li+
0.747127 0.673566 0.498061 Li+
0.500000 0.175739 0.075685 P5+
0.000000 0.824261 0.010187 P5+
0.500000 0.175739 0.152608 P5+
0.000000 0.824261 0.087110 P5+
0.500000 0.175739 0.229532 P5+
0.000000 0.824261 0.164033 P5+
0.500000 0.175739 0.306455 P5+
0.000000 0.824261 0.240956 P5+
0.500000 0.175739 0.383378 P5+
0.000000 0.824261 0.317879 P5+
0.500000 0.175739 0.460301 P5+
0.000000 0.824261 0.394802 P5+
0.500000 0.175739 0.537224 P5+
0.000000 0.824261 0.471726 P5+
0.792862 0.686491 0.068390 O2-
0.500000 0.896492 0.046458 O2-
0.500000 0.181604 0.023539 O2-
0.000000 0.818396 0.034061 O2-
0.292862 0.313509 0.001238 O2-
0.207138 0.686491 0.068390 O2-
0.000000 0.103508 0.023921 O2-
0.707138 0.313509 0.001238 O2-
0.792862 0.686491 0.145313 O2-
0.500000 0.896492 0.123381 O2-
0.500000 0.181604 0.100462 O2-
0.000000 0.818396 0.110984 O2-
0.292862 0.313509 0.078161 O2-
0.207138 0.686491 0.145313 O2-
0.000000 0.103508 0.100844 O2-
0.707138 0.313509 0.078161 O2-
0.792862 0.686491 0.222236 O2-
0.500000 0.896492 0.200304 O2-
0.500000 0.181604 0.177385 O2-
0.000000 0.818396 0.187907 O2-
0.292862 0.313509 0.155084 O2-
0.207138 0.686491 0.222236 O2-
0.000000 0.103508 0.177767 O2-
0.707138 0.313509 0.155084 O2-
0.792862 0.686491 0.299159 O2-
0.500000 0.896492 0.277227 O2-
0.500000 0.181604 0.254308 O2-
0.000000 0.818396 0.264830 O2-
0.292862 0.313509 0.232007 O2-
0.207138 0.686491 0.299159 O2-
0.000000 0.103508 0.254690 O2-
0.707138 0.313509 0.232007 O2-
0.792862 0.686491 0.376082 O2-
0.500000 0.896492 0.354151 O2-
0.500000 0.181604 0.331231 O2-
0.000000 0.818396 0.341754 O2-
0.292862 0.313509 0.308930 O2-
0.207138 0.686491 0.376082 O2-
0.000000 0.103508 0.331613 O2-
0.707138 0.313509 0.308930 O2-
0.792862 0.686491 0.453006 O2-
0.500000 0.896492 0.431074 O2-
0.500000 0.181604 0.408154 O2-
0.000000 0.818396 0.418677 O2-
0.292862 0.313509 0.385853 O2-
0.207138 0.686491 0.453006 O2-
0.000000 0.103508 0.408536 O2-
0.707138 0.313509 0.385853 O2-
0.792862 0.686491 0.529929 O2-
0.500000 0.896492 0.507997 O2-
0.500000 0.181604 0.485077 O2-
0.000000 0.818396 0.495600 O2-
0.292862 0.313509 0.462776 O2-
0.207138 0.686491 0.529929 O2-
0.000000 0.103508 0.485459 O2-
0.707138 0.313509 0.462776 O2-
