Li71 P24 N1 O94                         
   1.00000000000000     
    14.6927638014109725    0.0037051578957368   -0.0111667462438490
     0.0026816450157820   10.5596747675780200   -0.0085404195532576
    -0.0093578460520622   -0.0099452387086348   12.3612953956143166
   Li   P    N    O 
    71    24     1    94
Direct
  0.1691096906546108  0.4249209040532563 -0.0050524390317737
  0.1680726891915193  0.4227690485779158  0.5025220742769211
  0.1711421650930932  0.9222099060594350  0.0007162512322870
  0.1703262380626495  0.9198518942677150  0.4995616562947435
  0.5039765755833105  0.4222560067958654 -0.0022988582669018
  0.5029846208254913  0.4216270526562860  0.5014448707439555
  0.5035050752750079  0.9229417899089872 -0.0005531306273611
  0.5039984687624768  0.9229177271881501  0.5005622959097864
  0.8339776755904835  0.4231774515078984 -0.0015484570628937
  0.8363770724565848  0.4226982601726218  0.5009487279226955
  0.8370350943277080  0.9249159434609862  0.0005994008376357
  0.8364340645428469  0.9231469612992449  0.4999300616532275
  0.0015214209880438  0.0725705019069605  0.7499705668964579
 -0.0115460862931755  0.6333819919169806  0.2504045750825042
  0.0025904280563239  0.5790531555435893  0.7497852706541623
  0.3339957721709562  0.0750844398976534  0.2513312789169517
  0.3363856263833699  0.0772930055023294  0.7497845347582218
  0.3467493719773576  0.5892575337720093  0.2494165770665274
  0.3367696934926948  0.5781977812582759  0.7493979712686175
  0.6770348811885841  0.0736650701627445  0.2505885262459867
  0.6701643986556447  0.0769042383594556  0.7500779587874825
  0.6688580699453819  0.5787483978619082  0.2503817799657876
  0.6693788847087663  0.5780487608485148  0.7499627095733272
  0.1664226833601092  0.1558932689065242  0.1297294368108516
  0.1684247593418991  0.1613273378255345  0.6263343659406380
  0.1689386856582756  0.6675415450824930  0.1208070998977081
  0.1697564834263159  0.6632852174625974  0.6262116893407084
  0.5043661854078827  0.1606591634220045  0.1273361953516638
  0.5029253241436878  0.1630045881394338  0.6264759549025315
  0.5041037766119396  0.6641228709705823  0.1245230422754001
  0.5029749629911924  0.6633848734254855  0.6269012165155973
  0.8388866178422089  0.1607404547945439  0.1285064839990558
  0.8362155729037248  0.1627113304809826  0.6276401642334370
  0.8327455462560510  0.6655020393963610  0.1239007380081298
  0.8356964688439209  0.6636054528699643  0.6268544117499313
 -0.0062552269422547  0.3272574911010583  0.1045804815425668
  0.0027233784852449  0.3344917382890482  0.6269565539547193
  0.0009773993109472  0.8509153348186161  0.1230935531669203
  0.0026358273903924  0.8364209707123869  0.6242153997096965
  0.3456632532748636  0.3342114259171263  0.1162336637908250
  0.3353989895526105  0.3360387089383717  0.6240831315846347
  0.3383441192944817  0.8380742218999341  0.1226119707641000
  0.3368016800069014  0.8366663701556378  0.6237937061816559
  0.6693611284612796  0.3365069999531968  0.1248307095218268
  0.6696689913687052  0.3360189897618768  0.6242703961171240
  0.6678839736378658  0.8351649608922008  0.1219163270239768
  0.6696556246430014  0.8367496096226028  0.6233943876501669
  0.0028059125345225  0.3279188032828862  0.3909189756869020
  0.0029245283817033  0.3351469959462998  0.8725791561826455
  0.0012809340228260  0.8500887412666416  0.3770871003421813
  0.0031124185830985  0.8370706218337722  0.8767636860598144
  0.3385785877877819  0.3323344834412095  0.3827399782505575
  0.3359174380430593  0.3365850741186953  0.8746731032253543
  0.3386021468407284  0.8373878804591181  0.3773720140781575
  0.3367727413820503  0.8372885508684615  0.8759115944344895
  0.6694770487910152  0.3360127159109544  0.3760130497350442
  0.6693362574921267  0.3358315083377637  0.8754236094264080
  0.6679301107638589  0.8349998153076539  0.3779468323888890
  0.6696375778634317  0.8367563281053234  0.8769287766228560
  0.1637972782011189  0.1534406015072348  0.3724150638168933
  0.1686453478850148  0.1620241687811316  0.8726678145464750
  0.1692239084577800  0.6646835390777461  0.3756877020759185
  0.1699376372198639  0.6640297689504669  0.8729027480825966
  0.5036368439454192  0.1611509877669529  0.3733029387524301
  0.5029676171646278  0.1632049768781515  0.8734276083584874
  0.5039670075315347  0.6638527560093055  0.3757084727351671
  0.5030038380826940  0.6638735783282426  0.8726967808213086
  0.8413864477352935  0.1608774610455165  0.3725779919210790
  0.8366282581678818  0.1633202856978545  0.8735479829783789
  0.8326400611138945  0.6654527309303746  0.3760784098132027
  0.8358822901830457  0.6637964145043066  0.8735509356448169
  0.1987386882819821  0.4120571719858154  0.2517440705170442
  0.1668119522234066  0.4129281367146210  0.7499782877453034
  0.1686581106875889  0.9045503178663062  0.2496808418450943
  0.1677660551756071  0.9104558456658689  0.7502371548479024
  0.4976794471458603  0.4125079354604342  0.2501109714150248
  0.5003671348046829  0.4122370883865198  0.7496959798218708
  0.5014017231750680  0.9119796722616303  0.2500231785518115
  0.5008967588489712  0.9123261584349329  0.7500465442974246
  0.8358025618337859  0.4151774732571749  0.2501796724221648
  0.8333412034039430  0.4131602464016924  0.7501956726011846
  0.8294350406120499  0.9105273109640544  0.2499645906636973
  0.8327695598655808  0.9112066891724989  0.7505837506911539
  0.0022890297132066  0.0904744936835910 -0.0055714060135572
  0.0004977769831402  0.0876780303999674  0.5064043317067040
 -0.0007265081569718  0.5885717714878833  0.0006510658235171
 -0.0009762975576363  0.5883618289300667  0.5001916273366297
  0.3340317888611032  0.0876508983181436 -0.0002546166015006
  0.3340019458191486  0.0860156579908938  0.5008599877357479
  0.3347160229505720  0.5883748503135690 -0.0016220898534895
  0.3343050237490164  0.5876333821242742  0.5007096185028018
  0.6672767781001095  0.0884971842620856 -0.0002853592731229
  0.6675110784358388  0.0883796862889189  0.5006494030617669
  0.6661772610727521  0.5866071173771862 -0.0005829326166502
  0.6664858650884927  0.5863016319206218  0.5008247522467014
  0.1923353231046662  0.3391399380064489  0.3575963575969248
  0.0379059770656335  0.1617009718519458  0.4094621172198498
  0.0334744435027502  0.1540023846559777  0.8862311334392948
  0.0348972818182387  0.6560977431562450  0.3961633665747953
  0.0354378874402695  0.6563507070243455  0.8973406469250330
  0.3696655745975599  0.1546258083045740  0.3971633240059388
  0.3691346051157030  0.1578124248058433  0.8966730669074824
  0.3705139298327705  0.6561719547991247  0.3973830195039796
  0.3696275012697511  0.6573242957510452  0.8950191682092909
  0.7031176707623497  0.1581918020000136  0.3979907107342950
  0.7023558332425496  0.1567364419102152  0.8957531723886388
  0.7007274303736697  0.6551145288398368  0.3968766104198714
  0.7021987230511237  0.6558601311181509  0.8966409024822931
  0.1996751557730502  0.0458891567062219  0.2498747153055030
  0.2013669900721366  0.0505228396068528  0.7501995721039629
  0.2040665138656265  0.5571228585654202  0.2440963938352414
  0.2012614310166777  0.5526888009876952  0.7499011292869615
  0.5364923793040002  0.0513172081658913  0.2502765214882713
  0.5344650831703841  0.0524489563688883  0.7501007973580104
  0.5305704429234802  0.5529603051133658  0.2500155292882225
  0.5340732524511037  0.5523666404777826  0.7499701652762450
  0.8513179842474128  0.0527503839553911  0.2501611472155922
  0.8653341853913947  0.0514942194287443  0.7508072656862030
  0.8680735630129683  0.5563032053641106  0.2496562780202484
  0.8671421857306771  0.5532528539020101  0.7502003288496260
  0.0608197755690447  0.4121755397659514  0.7502759701555112
  0.0646950424341129  0.8875719839875935  0.2500088346269965
  0.0618598538062719  0.9055111014929079  0.7504571293237863
  0.3907647491361179  0.4098155383078683  0.2500241085123076
  0.3943725291332821  0.4094765088487736  0.7495899541718005
  0.3953938776027203  0.9098089572509027  0.2500052426428950
  0.3949400937639818  0.9094795727078115  0.7500577071878594
  0.7298230955587042  0.4105327413345405  0.2510448938209884
  0.7273625181798271  0.4102963648109561  0.7502671031590865
  0.7235958058756532  0.8956092779060962  0.2500346386904639
  0.7267755266326976  0.9071536533718055  0.7504744839249933
  0.2282200382902450  0.0907295577550616  0.0001076417964873
  0.2282995277984662  0.0867100702484744  0.5008287054772017
  0.2287130957330445  0.5908929529079117 -0.0014526349318505
  0.2283750184921099  0.5910873995418523  0.5000815692234504
  0.5611713046624823  0.0910686194542897 -0.0004586959405496
  0.5613850102975115  0.0912598012051846  0.5002945451871450
  0.5602659726769197  0.5900530310688519 -0.0013224607496096
  0.5605254294846487  0.5891419002299247  0.5011373188423950
  0.8960168336649673  0.0926764867162944 -0.0007072965872861
  0.8941752984648283  0.0892011559821783  0.5032217973330529
  0.8933850997769959  0.5905590529309095  0.0000540836956772
  0.8930773524981709  0.5921885810340970  0.4999731997206783
  0.2031871866065313  0.3488274957706872  0.1397757886423181
  0.2014659630070839  0.3427532519276307  0.6468632300178843
  0.2072402071430829  0.8400712032049227  0.1447124231771363
  0.2034134277585342  0.8413219825648683  0.6467765669160913
  0.5324909790588129  0.3436996305705128  0.1462544595607046
  0.5357495429411611  0.3430454976577205  0.6462555249533568
  0.5353918660958508  0.8425590243660821  0.1458224732696433
  0.5361875508187216  0.8429295137312234  0.6465396699130036
  0.8707026014827526  0.3466968869950623  0.1460279393518707
  0.8685533464932215  0.3439339536302927  0.6467050868925369
  0.8679970516042108  0.8431986476782879  0.1463402759357625
  0.8683864080573305  0.8422336027118318  0.6470793480746531
  0.0418242404659159  0.1672496958969288  0.0896577220969186
  0.0330468842222437  0.1530793210800899  0.6136314357326982
  0.0344248129356708  0.6580185182040994  0.1042894973590667
  0.0353117090256524  0.6571422579219975  0.6033459477621327
  0.3697752887783968  0.1557655917238236  0.1039907545233352
  0.3689456124352926  0.1568040918456319  0.6041349875418593
  0.3707697148092267  0.6570665799536871  0.1018650496574049
  0.3695828636647165  0.6568310392545907  0.6042487396817732
  0.7024142513297928  0.1583999863651618  0.1028880661016926
  0.7022816556677212  0.1564562398248844  0.6051525958195931
  0.7007052001396388  0.6550436176595127  0.1036534435093578
  0.7021210458018865  0.6560077207163233  0.6039325523378299
  0.0337384175072111  0.4483116340853571  0.0017993208531458
  0.0318935729727480  0.4479247102189259  0.5010928983812807
  0.0357036263205866  0.9500062788458642 -0.0025697641014348
  0.0345941520553715  0.9473122094471557  0.5041930085012384
  0.3685111966556734  0.4481267456301284 -0.0021799827632307
  0.3679029623867988  0.4473809437674043  0.5012045833240094
  0.3684225895130011  0.9478973355575951 -0.0010772508613421
  0.3694769954641562  0.9466609882056405  0.5013913328542194
  0.6994372087156999  0.4462322025071414 -0.0000932181537030
  0.7004730750182461  0.4462973424401749  0.5003014837560632
  0.7009628174304581  0.9482209109769408  0.0001835876171810
  0.7007085940008428  0.9478283686234218  0.5001057544336905
  0.2016423983359119  0.3436758971815713  0.8537492562732520
  0.2076207488283909  0.8390041340139146  0.3538177018437989
  0.2034720445066971  0.8420526812186135  0.8540866522868452
  0.5332145786058732  0.3436097377070249  0.3532777031275315
  0.5356916460588305  0.3431255980138395  0.8532302129898606
  0.5355635091411963  0.8422195798866335  0.3538556202566170
  0.5361462804029669  0.8432776598879477  0.8537388755964892
  0.8738127548679744  0.3468411327309077  0.3525594935880571
  0.8686891729731603  0.3445153629244164  0.8540174917978129
  0.8683194097741604  0.8426643742418493  0.3530069118715412
  0.8686113042493202  0.8427422550631641  0.8543347617056732
 
  0.00000000E+00  0.00000000E+00  0.00000000E+00
  0.00000000E+00  0.00000000E+00  0.00000000E+00
  0.00000000E+00  0.00000000E+00  0.00000000E+00
  0.00000000E+00  0.00000000E+00  0.00000000E+00
  0.00000000E+00  0.00000000E+00  0.00000000E+00
  0.00000000E+00  0.00000000E+00  0.00000000E+00
  0.00000000E+00  0.00000000E+00  0.00000000E+00
  0.00000000E+00  0.00000000E+00  0.00000000E+00
  0.00000000E+00  0.00000000E+00  0.00000000E+00
  0.00000000E+00  0.00000000E+00  0.00000000E+00
  0.00000000E+00  0.00000000E+00  0.00000000E+00
  0.00000000E+00  0.00000000E+00  0.00000000E+00
  0.00000000E+00  0.00000000E+00  0.00000000E+00
  0.00000000E+00  0.00000000E+00  0.00000000E+00
  0.00000000E+00  0.00000000E+00  0.00000000E+00
  0.00000000E+00  0.00000000E+00  0.00000000E+00
  0.00000000E+00  0.00000000E+00  0.00000000E+00
  0.00000000E+00  0.00000000E+00  0.00000000E+00
  0.00000000E+00  0.00000000E+00  0.00000000E+00
  0.00000000E+00  0.00000000E+00  0.00000000E+00
  0.00000000E+00  0.00000000E+00  0.00000000E+00
  0.00000000E+00  0.00000000E+00  0.00000000E+00
  0.00000000E+00  0.00000000E+00  0.00000000E+00
  0.00000000E+00  0.00000000E+00  0.00000000E+00
  0.00000000E+00  0.00000000E+00  0.00000000E+00
  0.00000000E+00  0.00000000E+00  0.00000000E+00
  0.00000000E+00  0.00000000E+00  0.00000000E+00
  0.00000000E+00  0.00000000E+00  0.00000000E+00
  0.00000000E+00  0.00000000E+00  0.00000000E+00
  0.00000000E+00  0.00000000E+00  0.00000000E+00
  0.00000000E+00  0.00000000E+00  0.00000000E+00
  0.00000000E+00  0.00000000E+00  0.00000000E+00
  0.00000000E+00  0.00000000E+00  0.00000000E+00
  0.00000000E+00  0.00000000E+00  0.00000000E+00
  0.00000000E+00  0.00000000E+00  0.00000000E+00
  0.00000000E+00  0.00000000E+00  0.00000000E+00
  0.00000000E+00  0.00000000E+00  0.00000000E+00
  0.00000000E+00  0.00000000E+00  0.00000000E+00
  0.00000000E+00  0.00000000E+00  0.00000000E+00
  0.00000000E+00  0.00000000E+00  0.00000000E+00
  0.00000000E+00  0.00000000E+00  0.00000000E+00
  0.00000000E+00  0.00000000E+00  0.00000000E+00
  0.00000000E+00  0.00000000E+00  0.00000000E+00
  0.00000000E+00  0.00000000E+00  0.00000000E+00
  0.00000000E+00  0.00000000E+00  0.00000000E+00
  0.00000000E+00  0.00000000E+00  0.00000000E+00
  0.00000000E+00  0.00000000E+00  0.00000000E+00
  0.00000000E+00  0.00000000E+00  0.00000000E+00
  0.00000000E+00  0.00000000E+00  0.00000000E+00
  0.00000000E+00  0.00000000E+00  0.00000000E+00
  0.00000000E+00  0.00000000E+00  0.00000000E+00
  0.00000000E+00  0.00000000E+00  0.00000000E+00
  0.00000000E+00  0.00000000E+00  0.00000000E+00
  0.00000000E+00  0.00000000E+00  0.00000000E+00
  0.00000000E+00  0.00000000E+00  0.00000000E+00
  0.00000000E+00  0.00000000E+00  0.00000000E+00
  0.00000000E+00  0.00000000E+00  0.00000000E+00
  0.00000000E+00  0.00000000E+00  0.00000000E+00
  0.00000000E+00  0.00000000E+00  0.00000000E+00
  0.00000000E+00  0.00000000E+00  0.00000000E+00
  0.00000000E+00  0.00000000E+00  0.00000000E+00
  0.00000000E+00  0.00000000E+00  0.00000000E+00
  0.00000000E+00  0.00000000E+00  0.00000000E+00
  0.00000000E+00  0.00000000E+00  0.00000000E+00
  0.00000000E+00  0.00000000E+00  0.00000000E+00
  0.00000000E+00  0.00000000E+00  0.00000000E+00
  0.00000000E+00  0.00000000E+00  0.00000000E+00
  0.00000000E+00  0.00000000E+00  0.00000000E+00
  0.00000000E+00  0.00000000E+00  0.00000000E+00
  0.00000000E+00  0.00000000E+00  0.00000000E+00
  0.00000000E+00  0.00000000E+00  0.00000000E+00
  0.00000000E+00  0.00000000E+00  0.00000000E+00
  0.00000000E+00  0.00000000E+00  0.00000000E+00
  0.00000000E+00  0.00000000E+00  0.00000000E+00
  0.00000000E+00  0.00000000E+00  0.00000000E+00
  0.00000000E+00  0.00000000E+00  0.00000000E+00
  0.00000000E+00  0.00000000E+00  0.00000000E+00
  0.00000000E+00  0.00000000E+00  0.00000000E+00
  0.00000000E+00  0.00000000E+00  0.00000000E+00
  0.00000000E+00  0.00000000E+00  0.00000000E+00
  0.00000000E+00  0.00000000E+00  0.00000000E+00
  0.00000000E+00  0.00000000E+00  0.00000000E+00
  0.00000000E+00  0.00000000E+00  0.00000000E+00
  0.00000000E+00  0.00000000E+00  0.00000000E+00
  0.00000000E+00  0.00000000E+00  0.00000000E+00
  0.00000000E+00  0.00000000E+00  0.00000000E+00
  0.00000000E+00  0.00000000E+00  0.00000000E+00
  0.00000000E+00  0.00000000E+00  0.00000000E+00
  0.00000000E+00  0.00000000E+00  0.00000000E+00
  0.00000000E+00  0.00000000E+00  0.00000000E+00
  0.00000000E+00  0.00000000E+00  0.00000000E+00
  0.00000000E+00  0.00000000E+00  0.00000000E+00
  0.00000000E+00  0.00000000E+00  0.00000000E+00
  0.00000000E+00  0.00000000E+00  0.00000000E+00
  0.00000000E+00  0.00000000E+00  0.00000000E+00
  0.00000000E+00  0.00000000E+00  0.00000000E+00
  0.00000000E+00  0.00000000E+00  0.00000000E+00
  0.00000000E+00  0.00000000E+00  0.00000000E+00
  0.00000000E+00  0.00000000E+00  0.00000000E+00
  0.00000000E+00  0.00000000E+00  0.00000000E+00
  0.00000000E+00  0.00000000E+00  0.00000000E+00
  0.00000000E+00  0.00000000E+00  0.00000000E+00
  0.00000000E+00  0.00000000E+00  0.00000000E+00
  0.00000000E+00  0.00000000E+00  0.00000000E+00
  0.00000000E+00  0.00000000E+00  0.00000000E+00
  0.00000000E+00  0.00000000E+00  0.00000000E+00
  0.00000000E+00  0.00000000E+00  0.00000000E+00
  0.00000000E+00  0.00000000E+00  0.00000000E+00
  0.00000000E+00  0.00000000E+00  0.00000000E+00
  0.00000000E+00  0.00000000E+00  0.00000000E+00
  0.00000000E+00  0.00000000E+00  0.00000000E+00
  0.00000000E+00  0.00000000E+00  0.00000000E+00
  0.00000000E+00  0.00000000E+00  0.00000000E+00
  0.00000000E+00  0.00000000E+00  0.00000000E+00
  0.00000000E+00  0.00000000E+00  0.00000000E+00
  0.00000000E+00  0.00000000E+00  0.00000000E+00
  0.00000000E+00  0.00000000E+00  0.00000000E+00
  0.00000000E+00  0.00000000E+00  0.00000000E+00
  0.00000000E+00  0.00000000E+00  0.00000000E+00
  0.00000000E+00  0.00000000E+00  0.00000000E+00
  0.00000000E+00  0.00000000E+00  0.00000000E+00
  0.00000000E+00  0.00000000E+00  0.00000000E+00
  0.00000000E+00  0.00000000E+00  0.00000000E+00
  0.00000000E+00  0.00000000E+00  0.00000000E+00
  0.00000000E+00  0.00000000E+00  0.00000000E+00
  0.00000000E+00  0.00000000E+00  0.00000000E+00
  0.00000000E+00  0.00000000E+00  0.00000000E+00
  0.00000000E+00  0.00000000E+00  0.00000000E+00
  0.00000000E+00  0.00000000E+00  0.00000000E+00
  0.00000000E+00  0.00000000E+00  0.00000000E+00
  0.00000000E+00  0.00000000E+00  0.00000000E+00
  0.00000000E+00  0.00000000E+00  0.00000000E+00
  0.00000000E+00  0.00000000E+00  0.00000000E+00
  0.00000000E+00  0.00000000E+00  0.00000000E+00
  0.00000000E+00  0.00000000E+00  0.00000000E+00
  0.00000000E+00  0.00000000E+00  0.00000000E+00
  0.00000000E+00  0.00000000E+00  0.00000000E+00
  0.00000000E+00  0.00000000E+00  0.00000000E+00
  0.00000000E+00  0.00000000E+00  0.00000000E+00
  0.00000000E+00  0.00000000E+00  0.00000000E+00
  0.00000000E+00  0.00000000E+00  0.00000000E+00
  0.00000000E+00  0.00000000E+00  0.00000000E+00
  0.00000000E+00  0.00000000E+00  0.00000000E+00
  0.00000000E+00  0.00000000E+00  0.00000000E+00
  0.00000000E+00  0.00000000E+00  0.00000000E+00
  0.00000000E+00  0.00000000E+00  0.00000000E+00
  0.00000000E+00  0.00000000E+00  0.00000000E+00
  0.00000000E+00  0.00000000E+00  0.00000000E+00
  0.00000000E+00  0.00000000E+00  0.00000000E+00
  0.00000000E+00  0.00000000E+00  0.00000000E+00
  0.00000000E+00  0.00000000E+00  0.00000000E+00
  0.00000000E+00  0.00000000E+00  0.00000000E+00
  0.00000000E+00  0.00000000E+00  0.00000000E+00
  0.00000000E+00  0.00000000E+00  0.00000000E+00
  0.00000000E+00  0.00000000E+00  0.00000000E+00
  0.00000000E+00  0.00000000E+00  0.00000000E+00
  0.00000000E+00  0.00000000E+00  0.00000000E+00
  0.00000000E+00  0.00000000E+00  0.00000000E+00
  0.00000000E+00  0.00000000E+00  0.00000000E+00
  0.00000000E+00  0.00000000E+00  0.00000000E+00
  0.00000000E+00  0.00000000E+00  0.00000000E+00
  0.00000000E+00  0.00000000E+00  0.00000000E+00
  0.00000000E+00  0.00000000E+00  0.00000000E+00
  0.00000000E+00  0.00000000E+00  0.00000000E+00
  0.00000000E+00  0.00000000E+00  0.00000000E+00
  0.00000000E+00  0.00000000E+00  0.00000000E+00
  0.00000000E+00  0.00000000E+00  0.00000000E+00
  0.00000000E+00  0.00000000E+00  0.00000000E+00
  0.00000000E+00  0.00000000E+00  0.00000000E+00
  0.00000000E+00  0.00000000E+00  0.00000000E+00
  0.00000000E+00  0.00000000E+00  0.00000000E+00
  0.00000000E+00  0.00000000E+00  0.00000000E+00
  0.00000000E+00  0.00000000E+00  0.00000000E+00
  0.00000000E+00  0.00000000E+00  0.00000000E+00
  0.00000000E+00  0.00000000E+00  0.00000000E+00
  0.00000000E+00  0.00000000E+00  0.00000000E+00
  0.00000000E+00  0.00000000E+00  0.00000000E+00
  0.00000000E+00  0.00000000E+00  0.00000000E+00
  0.00000000E+00  0.00000000E+00  0.00000000E+00
  0.00000000E+00  0.00000000E+00  0.00000000E+00
  0.00000000E+00  0.00000000E+00  0.00000000E+00
  0.00000000E+00  0.00000000E+00  0.00000000E+00
  0.00000000E+00  0.00000000E+00  0.00000000E+00
  0.00000000E+00  0.00000000E+00  0.00000000E+00
  0.00000000E+00  0.00000000E+00  0.00000000E+00
  0.00000000E+00  0.00000000E+00  0.00000000E+00
  0.00000000E+00  0.00000000E+00  0.00000000E+00
  0.00000000E+00  0.00000000E+00  0.00000000E+00
  0.00000000E+00  0.00000000E+00  0.00000000E+00
  0.00000000E+00  0.00000000E+00  0.00000000E+00
