Li24 P12 N12 O24
1.0
5.461026 0.000000 0.000000
0.000000 4.748969 0.000000
0.000000 0.000000 54.935208
Li P N O
24 12 12 24
Selective dynamics
direct
0.340535 0.498444 0.014055 T T T Li+
0.340535 0.498444 0.069279 T T T Li+
0.659465 0.998444 0.069279 T T T Li+
0.659465 0.998444 0.014055 T T T Li+
0.840536 0.498444 0.097388 F F F Li+
0.840536 0.498444 0.152612 F F F Li+
0.159465 0.998444 0.152612 F F F Li+
0.159465 0.998444 0.097388 F F F Li+
0.340535 0.498444 0.180721 F F F Li+
0.340535 0.498444 0.235945 F F F Li+
0.659465 0.998444 0.235945 F F F Li+
0.659465 0.998444 0.180721 F F F Li+
0.840536 0.498444 0.264055 F F F Li+
0.840536 0.498444 0.319279 F F F Li+
0.159465 0.998444 0.319279 F F F Li+
0.159465 0.998444 0.264055 F F F Li+
0.340535 0.498444 0.347388 F F F Li+
0.340535 0.498444 0.402612 F F F Li+
0.659465 0.998444 0.402612 F F F Li+
0.659465 0.998444 0.347388 F F F Li+
0.840536 0.498444 0.430721 T T T Li+
0.840536 0.498444 0.485945 T T T Li+
0.159465 0.998444 0.485945 T T T Li+
0.159465 0.998444 0.430721 T T T Li+
0.346250 0.501489 0.125000 F F F P5+
0.653750 0.001489 0.125000 F F F P5+
0.846250 0.501489 0.041667 T T T P5+
0.153750 0.001489 0.041667 T T T P5+
0.346250 0.501489 0.291667 F F F P5+
0.653750 0.001489 0.291667 F F F P5+
0.846250 0.501489 0.208333 F F F P5+
0.153750 0.001489 0.208333 F F F P5+
0.346250 0.501489 0.458333 T T T P5+
0.653750 0.001489 0.458333 T T T P5+
0.846250 0.501489 0.375000 F F F P5+
0.153750 0.001489 0.375000 F F F P5+
0.613000 0.658824 0.125000 F F F N3-
0.387000 0.158824 0.125000 F F F N3-
0.113000 0.658824 0.041667 T T T N3-
0.887000 0.158824 0.041667 T T T N3-
0.613000 0.658824 0.291667 F F F N3-
0.387000 0.158824 0.291667 F F F N3-
0.113000 0.658824 0.208333 F F F N3-
0.887000 0.158824 0.208333 F F F N3-
0.613000 0.658824 0.458333 T T T N3-
0.387000 0.158824 0.458333 T T T N3-
0.113000 0.658824 0.375000 F F F N3-
0.887000 0.158824 0.375000 F F F N3-
0.194550 0.580899 0.101825 F F F O2-
0.194550 0.580899 0.148175 F F F O2-
0.805450 0.080899 0.148175 F F F O2-
0.805450 0.080899 0.101825 F F F O2-
0.694550 0.580899 0.018492 T T T O2-
0.694550 0.580899 0.064841 T T T O2-
0.305450 0.080899 0.064841 T T T O2-
0.305450 0.080899 0.018492 T T T O2-
0.194550 0.580899 0.268492 F F F O2-
0.194550 0.580899 0.314841 F F F O2-
0.805450 0.080899 0.314841 F F F O2-
0.805450 0.080899 0.268492 F F F O2-
0.694550 0.580899 0.185159 F F F O2-
0.694550 0.580899 0.231508 F F F O2-
0.305450 0.080899 0.231508 F F F O2-
0.305450 0.080899 0.185159 F F F O2-
0.194550 0.580899 0.435159 T T T O2-
0.194550 0.580899 0.481508 T T T O2-
0.805450 0.080899 0.481508 T T T O2-
0.805450 0.080899 0.435159 T T T O2-
0.694550 0.580899 0.351825 F F F O2-
0.694550 0.580899 0.398174 F F F O2-
0.305450 0.080899 0.398174 F F F O2-
0.305450 0.080899 0.351825 F F F O2-
