Li61 P7 N32                             
   1.00000000000000     
    -0.0000687398194469    9.5859385000148745    0.0000277153003101
    -0.0200914110881452    0.0000284190220708    9.5958002102141098
     9.5747950048176005   -0.0000686353871792   -0.0200477601089622
   Li   P    N 
    61     7    32
Direct
  0.4949703432130050  0.0000796262680592  0.4999852117039337
 -0.0077203333548404  0.4999924747874897  0.0000229046242626
  0.4891426578627286  0.0000093770773555 -0.0000090992661353
 -0.0005493349280367 -0.0000081278401427  0.5000065290258114
  0.4861903782821599  0.5000029942823800 -0.0000585683946560
 -0.0142595970021714  0.5000004931189783  0.4999906441205019
  0.7456693222633890 -0.0000584771277496  0.5000188715646212
  0.2481478211633648 -0.0000028621235159  0.4999805491522509
  0.7589111783759941  0.4998845118211288  0.5000820423388787
  0.2107967277076042  0.4999906569921521  0.5000281723650668
  0.2533623717195916  0.0000108938710449 -0.0000061338538436
  0.7285011562394903 -0.0000163590910110  0.0000414072713707
  0.5485037887088039  0.5002056195006496  0.4997729128490261
  0.4891813402508543  0.2497730173387030  0.0148874767073931
  0.4891638184703139  0.7502284133414905 -0.0148281919434920
  0.0022626635576993  0.4740193896497533  0.2521661569487523
  0.0022811054261000  0.5260218003115493  0.7478644391256246
  0.2600095942861730  0.2370701541100866  0.2150208720599152
  0.2600323951120839  0.7629295420752876  0.7849738774910218
  0.2907824122092171  0.2329027882804475  0.7064023461343978
  0.2907645194090094  0.7670643219364381  0.2935676446085135
  0.7811267705884795  0.2972618225935945  0.2801446437865587
  0.7811309671408027  0.7027353529786614  0.7198363530500231
  0.7602515930079341  0.1857656336243353  0.7563156666354185
  0.7602374341195248  0.8142805864789139  0.2437089740158091
  0.0168803546450640  0.2073162202357113  0.2656690963838261
  0.0168958868654030  0.7927145353612389  0.7342962180535709
  0.2470425184387476  0.2425915055241222  0.4809328328772014
  0.2470481261622537  0.7574015160589566  0.5190691839487340
  0.7364516554263035  0.2551607845771081  0.5095849485043643
  0.7364597387324374  0.7447231853466978  0.4903959101353223
  0.7321814759834224  0.5178290792930055  0.2662791153134740
  0.7321756895080265  0.4821887071595403  0.7337944135900565
  0.2574323397817598  0.5227656491049019  0.2462905761745030
  0.2574194967010795  0.4772263467967092  0.7537245518118675
  0.5175707500888641  0.7358817016038535  0.2339298612334699
  0.5175850329448245  0.2640753672923450  0.7661789682205333
  0.2298646805674411  0.9916703616559596  0.2479760647430741
  0.2298654853429339  0.0083245592944427  0.7520023784047114
  0.2544987549143718  0.2444078436494820  0.9593941927461956
  0.2544665871463275  0.7556178451947475  0.0405951559722395
  0.7437408663815551  0.9456708274321972  0.7321555158918259
  0.7437160968263321  0.0543774047558234  0.2679217934039094
  0.7316736931698280  0.7629943011219847  0.9616379122943604
  0.7316937938884531  0.2369903098830052  0.0383366477128282
  0.0563871831748709  0.2727280709606270  0.7543506277393253
  0.0563586937453780  0.7273126261302274  0.2456193717241382
  0.5292602669039780  0.2401687664353132  0.2733032458514342
  0.5292610438842061  0.7597872447148606  0.7267520533787326
  0.0072246699637103  0.2563463279388839  0.0238357486814039
  0.0072382501065872  0.7436213544712524 -0.0238649676836709
  0.5062143962522334  0.2450971125416455  0.5245443976422405
  0.5061254456038804  0.7551016669423836  0.4755592806484213
  0.5057441235460882  0.4990596039919401  0.2397165898988854
  0.5057952502543167  0.5008643900232085  0.7601255419870969
 -0.0107364722336109 -0.0305349434139451  0.2578828021461654
 -0.0107319641445936  0.0305806029663578  0.7421318542520088
  0.3999121037732584  0.4097604905708309  0.4118165051984855
  0.3999349608123796  0.5901836667958705  0.5882269983817490
  0.8713172041440082  0.3461068731842689  0.8607881504368002
  0.8712605744111191  0.6539471431118772  0.1391798885320579
 -0.0073133503491786 -0.0000144687698953  0.0000059887525892
  0.7388462394054536  0.4999909032692549  0.0000145813534124
  0.2342782124870435  0.5000122624502374  0.0000035786843808
 -0.0062556653307795  0.7538152214320905  0.4895984305073724
 -0.0062601352479824  0.2461693261290698  0.5103842401058933
  0.4919266799150395 -0.0017200849501829  0.2449204284745281
  0.4919422949451618  0.0017073854315507  0.7550657311556729
  0.6265175036646181  0.6250885954557563  0.6229910933712123
  0.6265143416402497  0.3748755031852857  0.3770168199909671
  0.8916275960377994  0.8862275284486291  0.0911246791371354
  0.8916019890444720  0.1137404683108367  0.9088883655365894
  0.0960252447818452  0.9081438888265663  0.8887247673244121
  0.0960160189995335  0.0918529530366943  0.1112790311389006
  0.3773671168362250  0.6150298245607156  0.3847200837549240
  0.3772748298070930  0.3849693661919821  0.6152768312524792
  0.0863452254713009  0.3470319521889151  0.3990495057830425
  0.0863578029682242  0.6529603413385249  0.6009470475926947
  0.1070197571600758  0.1448187394199971  0.6025882986757078
  0.1070312775243506  0.8551644135507919  0.3974095326581629
  0.8863124700178295  0.1461007739943003  0.4093821288587892
  0.8863021072370951  0.8538681720101057  0.5906017573247119
  0.8454028911950257  0.4086784017160456  0.1078699944211933
  0.8454074418933299  0.5912939412784509  0.8921455647988350
  0.1314713975741865  0.6005088254122185  0.1045189630649207
  0.1314552889732009  0.3994924364984708  0.8954959825466662
  0.3907486985365040  0.8895607029718477  0.1477094582976394
  0.3907493211919953  0.1104233623376280  0.8522820514020509
  0.3844528613289095  0.0997224867341203  0.3457853005311358
  0.3844902228404556  0.9002805999038044  0.6541690515416497
  0.3355664333551283  0.3926176540323212  0.0961275355505678
  0.3355383245514887  0.6074002047683508  0.9038597398928485
  0.6044187732209940  0.0947359007589000  0.6544281885849285
  0.6043988943756100  0.9052960238543531  0.3455978532701912
  0.6452398985356717  0.6142375818666632  0.0957330925381782
  0.6452479826879940  0.3857393090713215  0.9042548566552308
  0.8985885757180166  0.3441138870486750  0.6258915882979131
  0.8986003842880202  0.6558750863583889  0.3740894710497106
  0.5904896777778063  0.1023836390140998  0.1412134446388862
  0.5904855273976723  0.8976041978996007  0.8587858131315091
 
  0.00000000E+00  0.00000000E+00  0.00000000E+00
  0.00000000E+00  0.00000000E+00  0.00000000E+00
  0.00000000E+00  0.00000000E+00  0.00000000E+00
  0.00000000E+00  0.00000000E+00  0.00000000E+00
  0.00000000E+00  0.00000000E+00  0.00000000E+00
  0.00000000E+00  0.00000000E+00  0.00000000E+00
  0.00000000E+00  0.00000000E+00  0.00000000E+00
  0.00000000E+00  0.00000000E+00  0.00000000E+00
  0.00000000E+00  0.00000000E+00  0.00000000E+00
  0.00000000E+00  0.00000000E+00  0.00000000E+00
  0.00000000E+00  0.00000000E+00  0.00000000E+00
  0.00000000E+00  0.00000000E+00  0.00000000E+00
  0.00000000E+00  0.00000000E+00  0.00000000E+00
  0.00000000E+00  0.00000000E+00  0.00000000E+00
  0.00000000E+00  0.00000000E+00  0.00000000E+00
  0.00000000E+00  0.00000000E+00  0.00000000E+00
  0.00000000E+00  0.00000000E+00  0.00000000E+00
  0.00000000E+00  0.00000000E+00  0.00000000E+00
  0.00000000E+00  0.00000000E+00  0.00000000E+00
  0.00000000E+00  0.00000000E+00  0.00000000E+00
  0.00000000E+00  0.00000000E+00  0.00000000E+00
  0.00000000E+00  0.00000000E+00  0.00000000E+00
  0.00000000E+00  0.00000000E+00  0.00000000E+00
  0.00000000E+00  0.00000000E+00  0.00000000E+00
  0.00000000E+00  0.00000000E+00  0.00000000E+00
  0.00000000E+00  0.00000000E+00  0.00000000E+00
  0.00000000E+00  0.00000000E+00  0.00000000E+00
  0.00000000E+00  0.00000000E+00  0.00000000E+00
  0.00000000E+00  0.00000000E+00  0.00000000E+00
  0.00000000E+00  0.00000000E+00  0.00000000E+00
  0.00000000E+00  0.00000000E+00  0.00000000E+00
  0.00000000E+00  0.00000000E+00  0.00000000E+00
  0.00000000E+00  0.00000000E+00  0.00000000E+00
  0.00000000E+00  0.00000000E+00  0.00000000E+00
  0.00000000E+00  0.00000000E+00  0.00000000E+00
  0.00000000E+00  0.00000000E+00  0.00000000E+00
  0.00000000E+00  0.00000000E+00  0.00000000E+00
  0.00000000E+00  0.00000000E+00  0.00000000E+00
  0.00000000E+00  0.00000000E+00  0.00000000E+00
  0.00000000E+00  0.00000000E+00  0.00000000E+00
  0.00000000E+00  0.00000000E+00  0.00000000E+00
  0.00000000E+00  0.00000000E+00  0.00000000E+00
  0.00000000E+00  0.00000000E+00  0.00000000E+00
  0.00000000E+00  0.00000000E+00  0.00000000E+00
  0.00000000E+00  0.00000000E+00  0.00000000E+00
  0.00000000E+00  0.00000000E+00  0.00000000E+00
  0.00000000E+00  0.00000000E+00  0.00000000E+00
  0.00000000E+00  0.00000000E+00  0.00000000E+00
  0.00000000E+00  0.00000000E+00  0.00000000E+00
  0.00000000E+00  0.00000000E+00  0.00000000E+00
  0.00000000E+00  0.00000000E+00  0.00000000E+00
  0.00000000E+00  0.00000000E+00  0.00000000E+00
  0.00000000E+00  0.00000000E+00  0.00000000E+00
  0.00000000E+00  0.00000000E+00  0.00000000E+00
  0.00000000E+00  0.00000000E+00  0.00000000E+00
  0.00000000E+00  0.00000000E+00  0.00000000E+00
  0.00000000E+00  0.00000000E+00  0.00000000E+00
  0.00000000E+00  0.00000000E+00  0.00000000E+00
  0.00000000E+00  0.00000000E+00  0.00000000E+00
  0.00000000E+00  0.00000000E+00  0.00000000E+00
  0.00000000E+00  0.00000000E+00  0.00000000E+00
  0.00000000E+00  0.00000000E+00  0.00000000E+00
  0.00000000E+00  0.00000000E+00  0.00000000E+00
  0.00000000E+00  0.00000000E+00  0.00000000E+00
  0.00000000E+00  0.00000000E+00  0.00000000E+00
  0.00000000E+00  0.00000000E+00  0.00000000E+00
  0.00000000E+00  0.00000000E+00  0.00000000E+00
  0.00000000E+00  0.00000000E+00  0.00000000E+00
  0.00000000E+00  0.00000000E+00  0.00000000E+00
  0.00000000E+00  0.00000000E+00  0.00000000E+00
  0.00000000E+00  0.00000000E+00  0.00000000E+00
  0.00000000E+00  0.00000000E+00  0.00000000E+00
  0.00000000E+00  0.00000000E+00  0.00000000E+00
  0.00000000E+00  0.00000000E+00  0.00000000E+00
  0.00000000E+00  0.00000000E+00  0.00000000E+00
  0.00000000E+00  0.00000000E+00  0.00000000E+00
  0.00000000E+00  0.00000000E+00  0.00000000E+00
  0.00000000E+00  0.00000000E+00  0.00000000E+00
  0.00000000E+00  0.00000000E+00  0.00000000E+00
  0.00000000E+00  0.00000000E+00  0.00000000E+00
  0.00000000E+00  0.00000000E+00  0.00000000E+00
  0.00000000E+00  0.00000000E+00  0.00000000E+00
  0.00000000E+00  0.00000000E+00  0.00000000E+00
  0.00000000E+00  0.00000000E+00  0.00000000E+00
  0.00000000E+00  0.00000000E+00  0.00000000E+00
  0.00000000E+00  0.00000000E+00  0.00000000E+00
  0.00000000E+00  0.00000000E+00  0.00000000E+00
  0.00000000E+00  0.00000000E+00  0.00000000E+00
  0.00000000E+00  0.00000000E+00  0.00000000E+00
  0.00000000E+00  0.00000000E+00  0.00000000E+00
  0.00000000E+00  0.00000000E+00  0.00000000E+00
  0.00000000E+00  0.00000000E+00  0.00000000E+00
  0.00000000E+00  0.00000000E+00  0.00000000E+00
  0.00000000E+00  0.00000000E+00  0.00000000E+00
  0.00000000E+00  0.00000000E+00  0.00000000E+00
  0.00000000E+00  0.00000000E+00  0.00000000E+00
  0.00000000E+00  0.00000000E+00  0.00000000E+00
  0.00000000E+00  0.00000000E+00  0.00000000E+00
  0.00000000E+00  0.00000000E+00  0.00000000E+00
  0.00000000E+00  0.00000000E+00  0.00000000E+00
