Li5 P2 N1 O6                            
   1.00000000000000     
    -0.8225515584480844   -1.0849991818087024    4.7213771735219483
     6.9723108728887624   -0.2652738820209738   -0.8084095094047403
    -0.3029881634727338    4.6438216172307198   -1.0658371767681267
   Li   P    N    O 
     5     2     1     6
Direct
  0.4697151708429220  0.0721499797153976  0.8583779838047999
  0.5690769638831064  0.7842180656779230  0.3960674024168970
  0.0221499351261736  0.6377231854987290  0.5585358257667129
  0.9108885167383282  0.2064713728438666  0.5890146180909429
  0.1957473839566439  0.3607311332907677  0.1758288868202858
  0.6039923593603105  0.5084472836137813  0.8674499682089767
  0.0029215805298645  0.9229785741333737  0.1227456069244876
  0.8226093816497974  0.7207212864674674  0.8360221555884569
  0.7665497874477174 -0.0100270688277706  0.2145413130032963
  0.2513149025280342  0.8827341765638925  0.4280663283529893
  0.7455317980630167  0.3383253439415236  0.8415085864364923
  0.5909970628244262  0.5373743934073250  0.1874238039490805
  0.1561110714331856  0.0934573198827029  0.9914336809219745
  0.2555860856165063  0.4446949537910191  0.5958998397146172
 
  0.00000000E+00  0.00000000E+00  0.00000000E+00
  0.00000000E+00  0.00000000E+00  0.00000000E+00
  0.00000000E+00  0.00000000E+00  0.00000000E+00
  0.00000000E+00  0.00000000E+00  0.00000000E+00
  0.00000000E+00  0.00000000E+00  0.00000000E+00
  0.00000000E+00  0.00000000E+00  0.00000000E+00
  0.00000000E+00  0.00000000E+00  0.00000000E+00
  0.00000000E+00  0.00000000E+00  0.00000000E+00
  0.00000000E+00  0.00000000E+00  0.00000000E+00
  0.00000000E+00  0.00000000E+00  0.00000000E+00
  0.00000000E+00  0.00000000E+00  0.00000000E+00
  0.00000000E+00  0.00000000E+00  0.00000000E+00
  0.00000000E+00  0.00000000E+00  0.00000000E+00
  0.00000000E+00  0.00000000E+00  0.00000000E+00
