P6 N10
1.0
2.967383 4.119892 0.000103
-2.967383 4.119892 0.000103
0.000000 4.033348 8.382734
P N
6 10
direct
0.481984 0.518016 0.250000 P
0.662264 0.069692 0.555264 P
0.069692 0.662264 0.055264 P
0.337736 0.930308 0.444736 P
0.930308 0.337736 0.944736 P
0.518016 0.481984 0.750000 P
0.500738 0.789140 0.599758 N
0.229006 0.507807 0.191702 N
0.499262 0.210860 0.400242 N
0.210860 0.499262 0.900242 N
0.492193 0.770994 0.308298 N
0.770994 0.492193 0.808298 N
-0.000000 -0.000000 0.500000 N
0.789140 0.500738 0.099758 N
0.507807 0.229006 0.691702 N
-0.000000 -0.000000 -0.000000 N
