Li56 P28 N28 O56
1.0
9.155868 0.000000 0.000000
-0.000000 5.461026 4.748969
0.000000 0.000000 56.987628
Li P N O
56 28 28 56
Selective dynamics
direct
0.665671 0.340535 0.073030 F F F Li
0.334329 0.340535 0.073030 F F F Li
0.334329 0.659465 0.004786 T T T Li
0.665671 0.659465 0.004786 T T T Li
0.165671 0.840536 0.031364 T T T Li
0.834329 0.840536 0.031364 T T T Li
0.834329 0.159465 0.046453 T T T Li
0.165671 0.159465 0.046453 T T T Li
0.665671 0.340535 0.156364 F F F Li
0.334329 0.340535 0.156364 F F F Li
0.334329 0.659465 0.088120 F F F Li
0.665671 0.659465 0.088120 F F F Li
0.165671 0.840536 0.114697 F F F Li
0.834329 0.840536 0.114697 F F F Li
0.834329 0.159465 0.129786 F F F Li
0.165671 0.159465 0.129786 F F F Li
0.665671 0.340535 0.239697 F F F Li
0.334329 0.340535 0.239697 F F F Li
0.334329 0.659465 0.171453 F F F Li
0.665671 0.659465 0.171453 F F F Li
0.165671 0.840536 0.198030 F F F Li
0.834329 0.840536 0.198030 F F F Li
0.834329 0.159465 0.213120 F F F Li
0.165671 0.159465 0.213120 F F F Li
0.665671 0.340535 0.323030 F F F Li
0.334329 0.340535 0.323030 F F F Li
0.334329 0.659465 0.254786 F F F Li
0.665671 0.659465 0.254786 F F F Li
0.165671 0.840536 0.281364 F F F Li
0.834329 0.840536 0.281364 F F F Li
0.834329 0.159465 0.296453 F F F Li
0.165671 0.159465 0.296453 F F F Li
0.665671 0.340535 0.406364 F F F Li
0.334329 0.340535 0.406364 F F F Li
0.334329 0.659465 0.338120 F F F Li
0.665671 0.659465 0.338120 F F F Li
0.165671 0.840536 0.364697 F F F Li
0.834329 0.840536 0.364697 F F F Li
0.834329 0.159465 0.379786 F F F Li
0.165671 0.159465 0.379786 F F F Li
0.665671 0.340535 0.489697 F F F Li
0.334329 0.340535 0.489697 F F F Li
0.334329 0.659465 0.421453 F F F Li
0.665671 0.659465 0.421453 F F F Li
0.165671 0.840536 0.448030 F F F Li
0.834329 0.840536 0.448030 F F F Li
0.834329 0.159465 0.463120 F F F Li
0.165671 0.159465 0.463120 F F F Li
0.665671 0.340535 0.573030 T T T Li
0.334329 0.340535 0.573030 T T T Li
0.334329 0.659465 0.504786 F F F Li
0.665671 0.659465 0.504786 F F F Li
0.165671 0.840536 0.531364 T T T Li
0.834329 0.840536 0.531364 T T T Li
0.834329 0.159465 0.546453 T T T Li
0.165671 0.159465 0.546453 T T T Li
0.000000 0.346250 0.072300 F F F P
0.000000 0.653750 0.005009 T T T P
0.500000 0.846250 0.030634 T T T P
0.500000 0.153750 0.046675 T T T P
0.000000 0.346250 0.155634 F F F P
0.000000 0.653750 0.088342 F F F P
0.500000 0.846250 0.113967 F F F P
0.500000 0.153750 0.130009 F F F P
0.000000 0.346250 0.238967 F F F P
0.000000 0.653750 0.171675 F F F P
0.500000 0.846250 0.197300 F F F P
0.500000 0.153750 0.213342 F F F P
0.000000 0.346250 0.322300 F F F P
0.000000 0.653750 0.255009 F F F P
0.500000 0.846250 0.280634 F F F P
0.500000 0.153750 0.296675 F F F P
0.000000 0.346250 0.405634 F F F P
0.000000 0.653750 0.338342 F F F P
0.500000 0.846250 0.363967 F F F P
0.500000 0.153750 0.380009 F F F P
0.000000 0.346250 0.488967 F F F P
0.000000 0.653750 0.421675 F F F P
0.500000 0.846250 0.447300 F F F P
0.500000 0.153750 0.463342 F F F P
0.000000 0.346250 0.572300 T T T P
0.000000 0.653750 0.505009 F F F P
0.500000 0.846250 0.530634 T T T P
0.500000 0.153750 0.546675 F F F P
0.000000 0.613000 0.036960 T T T N
0.000000 0.387000 0.014127 T T T N
0.500000 0.113000 0.078627 F F F N
0.500000 0.887000 0.055793 T T T N
0.000000 0.613000 0.120293 F F F N
0.000000 0.387000 0.097460 F F F N
0.500000 0.113000 0.161960 F F F N
0.500000 0.887000 0.139127 F F F N
0.000000 0.613000 0.203627 F F F N
0.000000 0.387000 0.180793 F F F N
0.500000 0.113000 0.245293 F F F N
0.500000 0.887000 0.222460 F F F N
0.000000 0.613000 0.286960 F F F N
0.000000 0.387000 0.264127 F F F N
0.500000 0.113000 0.328627 F F F N
0.500000 0.887000 0.305793 F F F N
0.000000 0.613000 0.370293 F F F N
0.000000 0.387000 0.347460 F F F N
0.500000 0.113000 0.411960 F F F N
0.500000 0.887000 0.389127 F F F N
0.000000 0.613000 0.453627 F F F N
0.000000 0.387000 0.430793 F F F N
0.500000 0.113000 0.495293 F F F N
0.500000 0.887000 0.472460 F F F N
0.000000 0.613000 0.536960 T T T N
0.000000 0.387000 0.514127 F F F N
0.500000 0.113000 0.578627 T T T N
0.500000 0.887000 0.555793 T T T N
0.139047 0.194550 0.078325 F F F O
0.860953 0.194550 0.078325 F F F O
0.860953 0.805450 0.069083 F F F O
0.139047 0.805450 0.069083 F F F O
0.639047 0.694550 0.036658 T T T O
0.360953 0.694550 0.036658 T T T O
0.360953 0.305450 0.027416 T T T O
0.639047 0.305450 0.027416 T T T O
0.139047 0.194550 0.161658 F F F O
0.860953 0.194550 0.161658 F F F O
0.860953 0.805450 0.152416 F F F O
0.139047 0.805450 0.152416 F F F O
0.639047 0.694550 0.119991 F F F O
0.360953 0.694550 0.119991 F F F O
0.360953 0.305450 0.110750 F F F O
0.639047 0.305450 0.110750 F F F O
0.139047 0.194550 0.244991 F F F O
0.860953 0.194550 0.244991 F F F O
0.860953 0.805450 0.235750 F F F O
0.139047 0.805450 0.235750 F F F O
0.639047 0.694550 0.203325 F F F O
0.360953 0.694550 0.203325 F F F O
0.360953 0.305450 0.194083 F F F O
0.639047 0.305450 0.194083 F F F O
0.139047 0.194550 0.328325 F F F O
0.860953 0.194550 0.328325 F F F O
0.860953 0.805450 0.319083 F F F O
0.139047 0.805450 0.319083 F F F O
0.639047 0.694550 0.286658 F F F O
0.360953 0.694550 0.286658 F F F O
0.360953 0.305450 0.277416 F F F O
0.639047 0.305450 0.277416 F F F O
0.139047 0.194550 0.411658 F F F O
0.860953 0.194550 0.411658 F F F O
0.860953 0.805450 0.402416 F F F O
0.139047 0.805450 0.402416 F F F O
0.639047 0.694550 0.369991 F F F O
0.360953 0.694550 0.369991 F F F O
0.360953 0.305450 0.360750 F F F O
0.639047 0.305450 0.360750 F F F O
0.139047 0.194550 0.494991 F F F O
0.860953 0.194550 0.494991 F F F O
0.860953 0.805450 0.485750 F F F O
0.139047 0.805450 0.485750 F F F O
0.639047 0.694550 0.453325 F F F O
0.360953 0.694550 0.453325 F F F O
0.360953 0.305450 0.444083 F F F O
0.639047 0.305450 0.444083 F F F O
0.139047 0.194550 0.578325 T T T O
0.860953 0.194550 0.578325 T T T O
0.860953 0.805450 0.569083 F F F O
0.139047 0.805450 0.569083 F F F O
0.639047 0.694550 0.536658 T T T O
0.360953 0.694550 0.536658 T T T O
0.360953 0.305450 0.527416 F F F O
0.639047 0.305450 0.527416 F F F O
